<?xml version="1.0"?>
<VTKFile type="UnstructuredGrid" version="0.1" byte_order="LittleEndian">
<UnstructuredGrid>
<Piece NumberOfPoints="31301" NumberOfCells="10957">
<Points>
<DataArray type="Float64" NumberOfComponents="3" format="ascii">
-0.5 -0.5 0 -0.46638663260497448 -0.45096699443765093 0 -0.4752875195671884 -0.42645049165647703 0 -0.5 -0.5 0 -0.45748574564276068 -0.47548349721882471 0 -0.46638663260497448 -0.45096699443765093 0 -0.5 -0.5 0 -0.45748574564276068 -0.47548349721882471 0 -0.44858485868054743 -0.49999999999999872 0 -0.44638705120756123 -0.47907182558991779 0 -0.43858978110863878 -0.48419188083360631 0 -0.43655704025590358 -0.46793682688149568 0 -0.45748574564276068 -0.47548349721882471 0 -0.44638705120756123 -0.47907182558991779 0 -0.45071783034995572 -0.46774692301566229 0 -0.44638705120756123 -0.47907182558991779 0 -0.45071783034995572 -0.46774692301566229 0 -0.43655704025590358 -0.46793682688149568 0 -0.45748574564276068 -0.47548349721882471 0 -0.44858485868054743 -0.49999999999999872 0 -0.44638705120756123 -0.47907182558991779 0 -0.43858978110863878 -0.48419188083360631 0 -0.44858485868054743 -0.49999999999999872 0 -0.45748574564276068 -0.47548349721882471 0 -0.44638705120756123 -0.47907182558991779 0 -0.44858485868054743 -0.49999999999999872 0 -0.43858978110863878 -0.48419188083360631 0 -0.44858485868054743 -0.49999999999999872 0 -0.43061719251594133 -0.50000000000000444 0 -0.44868503478737248 -0.44598917038306501 0 -0.43583338767575092 -0.43369267196034877 0 -0.43574456427468933 -0.44650494779330818 0 -0.44868503478737248 -0.44598917038306501 0 -0.44004111594584422 -0.45624936009898848 0 -0.43574456427468933 -0.44650494779330818 0 -0.44868503478737248 -0.44598917038306501 0 -0.45071783034995572 -0.46774692301566229 0 -0.44868503478737248 -0.44598917038306501 0 -0.44004111594584422 -0.45624936009898848 0 -0.45071783034995572 -0.46774692301566229 0 -0.44004111594584422 -0.45624936009898848 0 -0.45071783034995572 -0.46774692301566229 0 -0.43655704025590358 -0.46793682688149568 0 -0.45748574564276068 -0.47548349721882471 0 -0.45071783034995572 -0.46774692301566229 0 -0.46638663260497448 -0.45096699443765093 0 -0.45748574564276068 -0.47548349721882471 0 -0.46638663260497448 -0.45096699443765093 0 -0.44868503478737248 -0.44598917038306501 0 -0.45071783034995572 -0.46774692301566229 0 -0.46638663260497448 -0.45096699443765093 0 -0.46638663260497448 -0.45096699443765093 0 -0.4752875195671884 -0.42645049165647703 0 -0.45982653659801898 -0.43643022365340017 0 -0.44868503478737248 -0.44598917038306501 0 -0.46638663260497448 -0.45096699443765093 0 -0.45982653659801898 -0.43643022365340017 0 -0.46638663260497448 -0.45096699443765093 0 -0.4752875195671884 -0.42645049165647703 0 -0.5 -0.5 0 -0.4752875195671884 -0.42645049165647703 0 -0.5 -0.37994680708575929 0 -0.5 -0.37994680708575929 0 -0.45675460445725402 -0.3901296854313363 0 -0.46454068268534932 -0.36624217470093601 0 -0.4752875195671884 -0.42645049165647703 0 -0.5 -0.37994680708575929 0 -0.45675460445725402 -0.3901296854313363 0 -0.45675460445725402 -0.3901296854313363 0 -0.4422018499973413 -0.37659727799144932 0 -0.46454068268534932 -0.36624217470093601 0 -0.45675460445725402 -0.3901296854313363 0 -0.45074697470592878 -0.40470458864898901 0 -0.44461944366220629 -0.40247366511787042 0 -0.45074697470592878 -0.40470458864898901 0 -0.44461944366220629 -0.40247366511787042 0 -0.44461944366220629 -0.40247366511787042 0 -0.4422018499973413 -0.37659727799144932 0 -0.45675460445725402 -0.3901296854313363 0 -0.44461944366220629 -0.40247366511787042 0 -0.4422018499973413 -0.37659727799144932 0 -0.4752875195671884 -0.42645049165647703 0 -0.45675460445725402 -0.3901296854313363 0 -0.45074697470592878 -0.40470458864898901 0 -0.4752875195671884 -0.42645049165647703 0 -0.45982653659801898 -0.43643022365340017 0 -0.44665223922478953 -0.42423141775046769 0 -0.4752875195671884 -0.42645049165647703 0 -0.45074697470592878 -0.40470458864898901 0 -0.44665223922478953 -0.42423141775046769 0 -0.44461944366220629 -0.40247366511787042 0 -0.44665223922478953 -0.42423141775046769 0 -0.45074697470592878 -0.40470458864898901 0 -0.44461944366220629 -0.40247366511787042 0 -0.44665223922478953 -0.42423141775046769 0 -0.44461944366220629 -0.40247366511787042 0 -0.44665223922478953 -0.42423141775046769 0 -0.43190992604339917 -0.41146058259026358 0 -0.44665223922478953 -0.42423141775046769 0 -0.43583338767575092 -0.43369267196034877 0 -0.43179441525183287 -0.42341725705951538 0 -0.44868503478737248 -0.44598917038306501 0 -0.44665223922478953 -0.42423141775046769 0 -0.44868503478737248 -0.44598917038306501 0 -0.44665223922478953 -0.42423141775046769 0 -0.43583338767575092 -0.43369267196034877 0 -0.44868503478737248 -0.44598917038306501 0 -0.45982653659801898 -0.43643022365340017 0 -0.44665223922478953 -0.42423141775046769 0 -0.43583338767575092 -0.43369267196034877 0 -0.42139824175997731 -0.43005810479360151 0 -0.42440061003392793 -0.44176447442364009 0 -0.43179441525183287 -0.42341725705951538 0 -0.42224515979673422 -0.4177634137272877 0 -0.42139824175997731 -0.43005810479360151 0 -0.43583338767575092 -0.43369267196034877 0 -0.43179441525183287 -0.42341725705951538 0 -0.42139824175997731 -0.43005810479360151 0 -0.44665223922478953 -0.42423141775046769 0 -0.43179441525183287 -0.42341725705951538 0 -0.43190992604339917 -0.41146058259026358 0 -0.43190992604339917 -0.41146058259026358 0 -0.42224515979673422 -0.4177634137272877 0 -0.41973040802004191 -0.40709713166068501 0 -0.43179441525183287 -0.42341725705951538 0 -0.43190992604339917 -0.41146058259026358 0 -0.42224515979673422 -0.4177634137272877 0 -0.42224515979673422 -0.4177634137272877 0 -0.41437056647242948 -0.41338818489405371 0 -0.41272245210148961 -0.42103391996631812 0 -0.41973040802004191 -0.40709713166068501 0 -0.41437056647242948 -0.41338818489405371 0 -0.41159354162164608 -0.40714795687614203 0 -0.42224515979673422 -0.4177634137272877 0 -0.41973040802004191 -0.40709713166068501 0 -0.41437056647242948 -0.41338818489405371 0 -0.41159354162164608 -0.40714795687614203 0 -0.40880770822346801 -0.41347540877526212 0 -0.405112952370972 -0.40517584771015519 0 -0.41437056647242948 -0.41338818489405371 0 -0.41159354162164608 -0.40714795687614203 0 -0.40880770822346801 -0.41347540877526212 0 -0.40880770822346801 -0.41347540877526212 0 -0.41272245210148961 -0.42103391996631812 0 -0.40023902855080279 -0.42063113442964117 0 -0.41437056647242948 -0.41338818489405371 0 -0.40880770822346801 -0.41347540877526212 0 -0.41272245210148961 -0.42103391996631812 0 -0.41272245210148961 -0.42103391996631812 0 -0.41126030545594622 -0.43202220800462199 0 -0.40023902855080279 -0.42063113442964117 0 -0.41126030545594622 -0.43202220800462199 0 -0.40023902855080279 -0.42063113442964117 0 -0.41036508320584852 -0.44708742295309578 0 -0.41126030545594622 -0.43202220800462199 0 -0.42139824175997731 -0.43005810479360151 0 -0.41681480434218471 -0.4398092100823302 0 -0.42139824175997731 -0.43005810479360151 0 -0.42440061003392793 -0.44176447442364009 0 -0.41681480434218471 -0.4398092100823302 0 -0.42224515979673422 -0.4177634137272877 0 -0.41272245210148961 -0.42103391996631812 0 -0.42139824175997731 -0.43005810479360151 0 -0.41272245210148961 -0.42103391996631812 0 -0.41126030545594622 -0.43202220800462199 0 -0.42139824175997731 -0.43005810479360151 0 -0.4422018499973413 -0.37659727799144932 0 -0.42446809264834062 -0.3753320770450318 0 -0.42234390670551109 -0.39436354389442929 0 -0.43190992604339917 -0.41146058259026358 0 -0.41973040802004191 -0.40709713166068501 0 -0.42234390670551109 -0.39436354389442929 0 -0.44461944366220629 -0.40247366511787042 0 -0.43190992604339917 -0.41146058259026358 0 -0.42234390670551109 -0.39436354389442929 0 -0.44461944366220629 -0.40247366511787042 0 -0.4422018499973413 -0.37659727799144932 0 -0.42234390670551109 -0.39436354389442929 0 -0.44461944366220629 -0.40247366511787042 0 -0.42234390670551109 -0.39436354389442929 0 -0.42234390670551109 -0.39436354389442929 0 -0.4115574467008829 -0.39869852860455468 0 -0.40006836974881582 -0.38625342267098922 0 -0.41973040802004191 -0.40709713166068501 0 -0.42234390670551109 -0.39436354389442929 0 -0.4115574467008829 -0.39869852860455468 0 -0.41973040802004191 -0.40709713166068501 0 -0.41159354162164608 -0.40714795687614203 0 -0.4115574467008829 -0.39869852860455468 0 -0.4115574467008829 -0.39869852860455468 0 -0.40230818894741388 -0.39568539256312141 0 -0.405112952370972 -0.40517584771015519 0 -0.41159354162164608 -0.40714795687614203 0 -0.4115574467008829 -0.39869852860455468 0 -0.405112952370972 -0.40517584771015519 0 -0.42234390670551109 -0.39436354389442929 0 -0.413932837228626 -0.38103170464959779 0 -0.40006836974881582 -0.38625342267098922 0 -0.413932837228626 -0.38103170464959779 0 -0.40006836974881582 -0.38625342267098922 0 -0.40885097981183632 -0.36817777498794202 0 -0.42446809264834062 -0.3753320770450318 0 -0.42234390670551109 -0.39436354389442929 0 -0.413932837228626 -0.38103170464959779 0 -0.42234390670551109 -0.39436354389442929 0 -0.40006836974881582 -0.38625342267098922 0 -0.40006836974881582 -0.38625342267098922 0 -0.38741328428810612 -0.38164593431374128 0 -0.38926558404644362 -0.35919355171370199 0 -0.40006836974881582 -0.38625342267098922 0 -0.39745516787158269 -0.39094336719246509 0 -0.39951298741224928 -0.39248028101319049 0 -0.40006836974881582 -0.38625342267098922 0 -0.3953415595839625 -0.38861439195611841 0 -0.39745516787158269 -0.39094336719246509 0 -0.40006836974881582 -0.38625342267098922 0 -0.3953415595839625 -0.38861439195611841 0 -0.38741328428810612 -0.38164593431374128 0 -0.3953415595839625 -0.38861439195611841 0 -0.39227608070761327 -0.39179550925761591 0 -0.38741328428810612 -0.38164593431374128 0 -0.40006836974881582 -0.38625342267098922 0 -0.38741328428810612 -0.38164593431374128 0 -0.3953415595839625 -0.38861439195611841 0 -0.39514368495759311 -0.39208274393630921 0 -0.39745516787158269 -0.39094336719246509 0 -0.38811298669521599 -0.40125369306302222 0 -0.39011297389575722 -0.39417484590618651 0 -0.40023902855080279 -0.42063113442964117 0 -0.39590273889158872 -0.39741544852794009 0 -0.39011297389575722 -0.39417484590618651 0 -0.40023902855080279 -0.42063113442964117 0 -0.39387514702316412 -0.39408878588584523 0 -0.39227608070761327 -0.39179550925761591 0 -0.39514368495759311 -0.39208274393630921 0 -0.3953415595839625 -0.38861439195611841 0 -0.39227608070761327 -0.39179550925761591 0 -0.39514368495759311 -0.39208274393630921 0 -0.39387514702316412 -0.39408878588584523 0 -0.39227608070761327 -0.39179550925761591 0 -0.39011297389575722 -0.39417484590618651 0 -0.39387514702316412 -0.39408878588584523 0 -0.39590273889158872 -0.39741544852794009 0 -0.39011297389575722 -0.39417484590618651 0 -0.39387514702316412 -0.39408878588584523 0 -0.39590273889158872 -0.39741544852794009 0 -0.39676518791298537 -0.39417369729393092 0 -0.39590273889158872 -0.39741544852794009 0 -0.39676518791298537 -0.39417369729393092 0 -0.3990293165271554 -0.39654883241867211 0 -0.39676518791298537 -0.39417369729393092 0 -0.39951298741224928 -0.39248028101319049 0 -0.3990293165271554 -0.39654883241867211 0 -0.39387514702316412 -0.39408878588584523 0 -0.39676518791298537 -0.39417369729393092 0 -0.39514368495759311 -0.39208274393630921 0 -0.39676518791298537 -0.39417369729393092 0 -0.39514368495759311 -0.39208274393630921 0 -0.39745516787158269 -0.39094336719246509 0 -0.39676518791298537 -0.39417369729393092 0 -0.39745516787158269 -0.39094336719246509 0 -0.39951298741224928 -0.39248028101319049 0 -0.40006836974881582 -0.38625342267098922 0 -0.39951298741224928 -0.39248028101319049 0 -0.40230818894741388 -0.39568539256312141 0 -0.4115574467008829 -0.39869852860455468 0 -0.40006836974881582 -0.38625342267098922 0 -0.40230818894741388 -0.39568539256312141 0 -0.39951298741224928 -0.39248028101319049 0 -0.40230818894741388 -0.39568539256312141 0 -0.3990293165271554 -0.39654883241867211 0 -0.39590273889158872 -0.39741544852794009 0 -0.3990293165271554 -0.39654883241867211 0 -0.40053108454976399 -0.40308205945402159 0 -0.40230818894741388 -0.39568539256312141 0 -0.3990293165271554 -0.39654883241867211 0 -0.40053108454976399 -0.40308205945402159 0 -0.40230818894741388 -0.39568539256312141 0 -0.405112952370972 -0.40517584771015519 0 -0.40053108454976399 -0.40308205945402159 0 -0.38811298669521599 -0.40125369306302222 0 -0.37984372746960182 -0.39670452309269538 0 -0.38720828053872081 -0.40674883440694187 0 -0.37984372746960182 -0.39670452309269538 0 -0.38720828053872081 -0.40674883440694187 0 -0.38133285336139833 -0.41154992220653008 0 -0.37984372746960182 -0.39670452309269538 0 -0.38133285336139833 -0.41154992220653008 0 -0.36847528268411139 -0.39778951826182318 0 -0.37984372746960182 -0.39670452309269538 0 -0.37945286301085601 -0.38931624771511159 0 -0.36847528268411139 -0.39778951826182318 0 -0.37984372746960182 -0.39670452309269538 0 -0.38455187086546888 -0.39429699780788863 0 -0.37945286301085601 -0.38931624771511159 0 -0.38455187086546888 -0.39429699780788863 0 -0.38912882189674891 -0.39113593671106878 0 -0.37945286301085601 -0.38931624771511159 0 -0.38811298669521599 -0.40125369306302222 0 -0.37984372746960182 -0.39670452309269538 0 -0.38455187086546888 -0.39429699780788863 0 -0.38811298669521599 -0.40125369306302222 0 -0.38455187086546888 -0.39429699780788863 0 -0.39011297389575722 -0.39417484590618651 0 -0.38455187086546888 -0.39429699780788863 0 -0.39011297389575722 -0.39417484590618651 0 -0.38912882189674891 -0.39113593671106878 0 -0.39227608070761327 -0.39179550925761591 0 -0.39011297389575722 -0.39417484590618651 0 -0.38912882189674891 -0.39113593671106878 0 -0.37945286301085601 -0.38931624771511159 0 -0.38741328428810612 -0.38164593431374128 0 -0.36730419086109922 -0.37432457610345171 0 -0.38741328428810612 -0.38164593431374128 0 -0.36730419086109922 -0.37432457610345171 0 -0.38912882189674891 -0.39113593671106878 0 -0.38741328428810612 -0.38164593431374128 0 -0.38912882189674891 -0.39113593671106878 0 -0.37945286301085601 -0.38931624771511159 0 -0.38741328428810612 -0.38164593431374128 0 -0.39227608070761327 -0.39179550925761591 0 -0.38912882189674891 -0.39113593671106878 0 -0.38741328428810612 -0.38164593431374128 0 -0.40023902855080279 -0.42063113442964117 0 -0.41036508320584852 -0.44708742295309578 0 -0.39912464431934819 -0.43015594745611341 0 -0.40023902855080279 -0.42063113442964117 0 -0.41036508320584852 -0.44708742295309578 0 -0.39912464431934819 -0.43015594745611341 0 -0.40023902855080279 -0.42063113442964117 0 -0.38879636464581152 -0.42483524215514717 0 -0.39912464431934819 -0.43015594745611341 0 -0.38879636464581152 -0.42483524215514717 0 -0.39004145574790072 -0.43455158422562162 0 -0.39912464431934819 -0.43015594745611341 0 -0.39004145574790072 -0.43455158422562162 0 -0.39285071382934478 -0.44329883840223488 0 -0.38811298669521599 -0.40125369306302222 0 -0.40023902855080279 -0.42063113442964117 0 -0.38720828053872081 -0.40674883440694187 0 -0.405112952370972 -0.40517584771015519 0 -0.40053108454976399 -0.40308205945402159 0 -0.40023902855080279 -0.42063113442964117 0 -0.39590273889158872 -0.39741544852794009 0 -0.40053108454976399 -0.40308205945402159 0 -0.40023902855080279 -0.42063113442964117 0 -0.39011297389575722 -0.39417484590618651 0 -0.40023902855080279 -0.42063113442964117 0 -0.40880770822346801 -0.41347540877526212 0 -0.405112952370972 -0.40517584771015519 0 -0.40023902855080279 -0.42063113442964117 0 -0.38133285336139833 -0.41154992220653008 0 -0.37849854396674221 -0.42203906389385337 0 -0.38879636464581152 -0.42483524215514717 0 -0.40023902855080279 -0.42063113442964117 0 -0.38720828053872081 -0.40674883440694187 0 -0.38133285336139833 -0.41154992220653008 0 -0.40023902855080279 -0.42063113442964117 0 -0.38133285336139833 -0.41154992220653008 0 -0.38879636464581152 -0.42483524215514717 0 -0.38133285336139833 -0.41154992220653008 0 -0.37849854396674221 -0.42203906389385337 0 -0.36748323434732472 -0.421319198237808 0 -0.37849854396674221 -0.42203906389385337 0 -0.38212453795478157 -0.43111669326824348 0 -0.37001532204696752 -0.43493727515579628 0 -0.37849854396674221 -0.42203906389385337 0 -0.38879636464581152 -0.42483524215514717 0 -0.38212453795478157 -0.43111669326824348 0 -0.39004145574790072 -0.43455158422562162 0 -0.38212453795478157 -0.43111669326824348 0 -0.38143463625248958 -0.4437269855840838 0 -0.38879636464581152 -0.42483524215514717 0 -0.39004145574790072 -0.43455158422562162 0 -0.38212453795478157 -0.43111669326824348 0 -0.38212453795478157 -0.43111669326824348 0 -0.38143463625248958 -0.4437269855840838 0 -0.37001532204696752 -0.43493727515579628 0 -0.38143463625248958 -0.4437269855840838 0 -0.39285071382934478 -0.44329883840223488 0 -0.39016672042024059 -0.45558794441608941 0 -0.39004145574790072 -0.43455158422562162 0 -0.38143463625248958 -0.4437269855840838 0 -0.39285071382934478 -0.44329883840223488 0 -0.39912464431934819 -0.43015594745611341 0 -0.39285071382934478 -0.44329883840223488 0 -0.40330582822536071 -0.45343729830407598 0 -0.39912464431934819 -0.43015594745611341 0 -0.40330582822536071 -0.45343729830407598 0 -0.41036508320584852 -0.44708742295309578 0 -0.39912464431934819 -0.43015594745611341 0 -0.40330582822536071 -0.45343729830407598 0 -0.39285071382934478 -0.44329883840223488 0 -0.40330582822536071 -0.45343729830407598 0 -0.39016672042024059 -0.45558794441608941 0 -0.40330582822536071 -0.45343729830407598 0 -0.396271956705188 -0.46654886686784508 0 -0.40748701213137328 -0.47671864915203849 0 -0.40330582822536071 -0.45343729830407598 0 -0.40748701213137328 -0.47671864915203849 0 -0.40330582822536071 -0.45343729830407598 0 -0.396271956705188 -0.46654886686784508 0 -0.39016672042024059 -0.45558794441608941 0 -0.396271956705188 -0.46654886686784508 0 -0.38618400323683699 -0.46847026812496378 0 -0.39016672042024059 -0.45558794441608941 0 -0.38618400323683699 -0.46847026812496378 0 -0.39016672042024059 -0.45558794441608941 0 -0.37583771151230311 -0.4601105666377408 0 -0.38143463625248958 -0.4437269855840838 0 -0.39016672042024059 -0.45558794441608941 0 -0.37583771151230311 -0.4601105666377408 0 -0.38618400323683699 -0.46847026812496378 0 -0.37583771151230311 -0.4601105666377408 0 -0.37190504839516181 -0.47853018028075012 0 -0.38618400323683699 -0.46847026812496378 0 -0.39100392827393432 -0.47998334147699051 0 -0.37190504839516181 -0.47853018028075012 0 -0.38168482993466157 -0.5 0 -0.39100392827393432 -0.47998334147699051 0 -0.37190504839516181 -0.47853018028075012 0 -0.38168482993466157 -0.5 0 -0.39796099159433868 -0.48917549765725732 0 -0.39100392827393432 -0.47998334147699051 0 -0.39796099159433868 -0.48917549765725732 0 -0.40748701213137328 -0.47671864915203849 0 -0.41166819603738602 -0.500000000000001 0 -0.38168482993466157 -0.5 0 -0.39796099159433868 -0.48917549765725732 0 -0.41166819603738602 -0.500000000000001 0 -0.396271956705188 -0.46654886686784508 0 -0.39100392827393432 -0.47998334147699051 0 -0.40748701213137328 -0.47671864915203849 0 -0.39796099159433868 -0.48917549765725732 0 -0.39100392827393432 -0.47998334147699051 0 -0.40748701213137328 -0.47671864915203849 0 -0.396271956705188 -0.46654886686784508 0 -0.38618400323683699 -0.46847026812496378 0 -0.39100392827393432 -0.47998334147699051 0 -0.40748701213137328 -0.47671864915203849 0 -0.42049113786089409 -0.47354371147655039 0 -0.41041226535586922 -0.46269677047144009 0 -0.40748701213137328 -0.47671864915203849 0 -0.42049113786089409 -0.47354371147655039 0 -0.41689773671913821 -0.48704467488227021 0 -0.40748701213137328 -0.47671864915203849 0 -0.41166819603738602 -0.500000000000001 0 -0.41689773671913821 -0.48704467488227021 0 -0.41166819603738602 -0.500000000000001 0 -0.41689773671913821 -0.48704467488227021 0 -0.43061719251594133 -0.50000000000000444 0 -0.40748701213137328 -0.47671864915203849 0 -0.41166819603738602 -0.500000000000001 0 -0.42049113786089409 -0.47354371147655039 0 -0.41689773671913821 -0.48704467488227021 0 -0.43061719251594133 -0.50000000000000444 0 -0.42049113786089409 -0.47354371147655039 0 -0.43061719251594133 -0.50000000000000444 0 -0.43858978110863878 -0.48419188083360631 0 -0.43061719251594133 -0.50000000000000444 0 -0.43022453006944961 -0.47562676305425278 0 -0.42049113786089409 -0.47354371147655039 0 -0.43061719251594133 -0.50000000000000444 0 -0.43022453006944961 -0.47562676305425278 0 -0.43858978110863878 -0.48419188083360631 0 -0.43022453006944961 -0.47562676305425278 0 -0.43655704025590358 -0.46793682688149568 0 -0.42049113786089409 -0.47354371147655039 0 -0.43022453006944961 -0.47562676305425278 0 -0.4246013645742584 -0.46135014547530939 0 -0.43022453006944961 -0.47562676305425278 0 -0.43655704025590358 -0.46793682688149568 0 -0.4246013645742584 -0.46135014547530939 0 -0.43655704025590358 -0.46793682688149568 0 -0.4246013645742584 -0.46135014547530939 0 -0.4297626729305507 -0.45482906210049839 0 -0.4246013645742584 -0.46135014547530939 0 -0.4297626729305507 -0.45482906210049839 0 -0.42020772312290372 -0.44907708638596361 0 -0.44004111594584422 -0.45624936009898848 0 -0.43655704025590358 -0.46793682688149568 0 -0.4297626729305507 -0.45482906210049839 0 -0.4297626729305507 -0.45482906210049839 0 -0.43574456427468933 -0.44650494779330818 0 -0.42440061003392793 -0.44176447442364009 0 -0.44004111594584422 -0.45624936009898848 0 -0.4297626729305507 -0.45482906210049839 0 -0.43574456427468933 -0.44650494779330818 0 -0.43583338767575092 -0.43369267196034877 0 -0.43574456427468933 -0.44650494779330818 0 -0.42440061003392793 -0.44176447442364009 0 -0.4297626729305507 -0.45482906210049839 0 -0.42440061003392793 -0.44176447442364009 0 -0.42020772312290372 -0.44907708638596361 0 -0.42020772312290372 -0.44907708638596361 0 -0.41681480434218471 -0.4398092100823302 0 -0.41036508320584852 -0.44708742295309578 0 -0.4246013645742584 -0.46135014547530939 0 -0.42020772312290372 -0.44907708638596361 0 -0.41036508320584852 -0.44708742295309578 0 -0.42440061003392793 -0.44176447442364009 0 -0.42020772312290372 -0.44907708638596361 0 -0.41681480434218471 -0.4398092100823302 0 -0.41126030545594622 -0.43202220800462199 0 -0.41681480434218471 -0.4398092100823302 0 -0.41036508320584852 -0.44708742295309578 0 -0.40330582822536071 -0.45343729830407598 0 -0.41036508320584852 -0.44708742295309578 0 -0.41041226535586922 -0.46269677047144009 0 -0.42049113786089409 -0.47354371147655039 0 -0.41036508320584852 -0.44708742295309578 0 -0.40330582822536071 -0.45343729830407598 0 -0.40748701213137328 -0.47671864915203849 0 -0.41041226535586922 -0.46269677047144009 0 -0.42049113786089409 -0.47354371147655039 0 -0.4246013645742584 -0.46135014547530939 0 -0.41036508320584852 -0.44708742295309578 0 -0.42049113786089409 -0.47354371147655039 0 -0.41036508320584852 -0.44708742295309578 0 -0.41041226535586922 -0.46269677047144009 0 -0.4422929472126545 -0.26199235859238229 0 -0.46139595381974607 -0.27843795491821199 0 -0.46449094791441381 -0.2433377566233508 0 -0.4422929472126545 -0.26199235859238229 0 -0.44279072992149809 -0.27921520833262858 0 -0.46139595381974607 -0.27843795491821199 0 -0.46139595381974607 -0.27843795491821199 0 -0.5 -0.28594455838845612 0 -0.46449094791441381 -0.2433377566233508 0 -0.46139595381974607 -0.27843795491821199 0 -0.5 -0.28594455838845612 0 -0.47350382472614522 -0.30263755408937992 0 -0.5 -0.28594455838845612 0 -0.5 -0.30910953872873159 0 -0.47350382472614522 -0.30263755408937992 0 -0.5 -0.30910953872873159 0 -0.47350382472614522 -0.30263755408937992 0 -0.47823899863872532 -0.32573295687776221 0 -0.47350382472614522 -0.30263755408937992 0 -0.44314255490423282 -0.29863206160437711 0 -0.45851941973427479 -0.3179682540187404 0 -0.46139595381974607 -0.27843795491821199 0 -0.47350382472614522 -0.30263755408937992 0 -0.44314255490423282 -0.29863206160437711 0 -0.44279072992149809 -0.27921520833262858 0 -0.46139595381974607 -0.27843795491821199 0 -0.44314255490423282 -0.29863206160437711 0 -0.5 -0.37994680708575929 0 -0.5 -0.30910953872873159 0 -0.47830756380624512 -0.34802009084889107 0 -0.43858570850901679 -0.32263737714525481 0 -0.45675197601755868 -0.34235637502679278 0 -0.45851941973427479 -0.3179682540187404 0 -0.44314255490423282 -0.29863206160437711 0 -0.43858570850901679 -0.32263737714525481 0 -0.45851941973427479 -0.3179682540187404 0 -0.43858570850901679 -0.32263737714525481 0 -0.45675197601755868 -0.34235637502679278 0 -0.43028742384402219 -0.34107554417053848 0 -0.45675197601755868 -0.34235637502679278 0 -0.45851941973427479 -0.3179682540187404 0 -0.47823899863872532 -0.32573295687776221 0 -0.45675197601755868 -0.34235637502679278 0 -0.47823899863872532 -0.32573295687776221 0 -0.5 -0.30910953872873159 0 -0.47823899863872532 -0.32573295687776221 0 -0.47830756380624512 -0.34802009084889107 0 -0.47350382472614522 -0.30263755408937992 0 -0.45851941973427479 -0.3179682540187404 0 -0.47823899863872532 -0.32573295687776221 0 -0.5 -0.30910953872873159 0 -0.47823899863872532 -0.32573295687776221 0 -0.45675197601755868 -0.34235637502679278 0 -0.47823899863872532 -0.32573295687776221 0 -0.47830756380624512 -0.34802009084889107 0 -0.5 -0.37994680708575929 0 -0.47830756380624512 -0.34802009084889107 0 -0.46454068268534932 -0.36624217470093601 0 -0.45675197601755868 -0.34235637502679278 0 -0.47830756380624512 -0.34802009084889107 0 -0.46454068268534932 -0.36624217470093601 0 -0.45675197601755868 -0.34235637502679278 0 -0.43526495339639198 -0.35897979317582351 0 -0.45675197601755868 -0.34235637502679278 0 -0.43526495339639198 -0.35897979317582351 0 -0.43028742384402219 -0.34107554417053848 0 -0.45675197601755868 -0.34235637502679278 0 -0.46454068268534932 -0.36624217470093601 0 -0.43526495339639198 -0.35897979317582351 0 -0.4422018499973413 -0.37659727799144932 0 -0.46454068268534932 -0.36624217470093601 0 -0.43526495339639198 -0.35897979317582351 0 -0.42446809264834062 -0.3753320770450318 0 -0.43526495339639198 -0.35897979317582351 0 -0.41947533589226221 -0.35641740222131091 0 -0.4422018499973413 -0.37659727799144932 0 -0.42446809264834062 -0.3753320770450318 0 -0.43526495339639198 -0.35897979317582351 0 -0.43526495339639198 -0.35897979317582351 0 -0.41947533589226221 -0.35641740222131091 0 -0.43028742384402219 -0.34107554417053848 0 -0.41947533589226221 -0.35641740222131091 0 -0.41190280306357269 -0.34154251577599037 0 -0.43028742384402219 -0.34107554417053848 0 -0.41947533589226221 -0.35641740222131091 0 -0.40556734195466698 -0.35379465302017299 0 -0.41190280306357269 -0.34154251577599037 0 -0.41947533589226221 -0.35641740222131091 0 -0.40885097981183632 -0.36817777498794202 0 -0.40556734195466698 -0.35379465302017299 0 -0.42446809264834062 -0.3753320770450318 0 -0.41947533589226221 -0.35641740222131091 0 -0.40885097981183632 -0.36817777498794202 0 -0.42446809264834062 -0.3753320770450318 0 -0.413932837228626 -0.38103170464959779 0 -0.40885097981183632 -0.36817777498794202 0 -0.40885097981183632 -0.36817777498794202 0 -0.38926558404644362 -0.35919355171370199 0 -0.40556734195466698 -0.35379465302017299 0 -0.40006836974881582 -0.38625342267098922 0 -0.38926558404644362 -0.35919355171370199 0 -0.40006836974881582 -0.38625342267098922 0 -0.40885097981183632 -0.36817777498794202 0 -0.38926558404644362 -0.35919355171370199 0 -0.38741328428810612 -0.38164593431374128 0 -0.38293804131609022 -0.3568898075350776 0 -0.36730419086109922 -0.37432457610345171 0 -0.38741328428810612 -0.38164593431374128 0 -0.38293804131609022 -0.3568898075350776 0 -0.38741328428810612 -0.38164593431374128 0 -0.38926558404644362 -0.35919355171370199 0 -0.38293804131609022 -0.3568898075350776 0 -0.38293804131609022 -0.3568898075350776 0 -0.37846279834407259 -0.33213368075641431 0 -0.38926558404644362 -0.35919355171370199 0 -0.38293804131609022 -0.3568898075350776 0 -0.37846279834407259 -0.33213368075641431 0 -0.38926558404644362 -0.35919355171370199 0 -0.37846279834407259 -0.33213368075641431 0 -0.38293804131609022 -0.3568898075350776 0 -0.37846279834407259 -0.33213368075641431 0 -0.36842733252389143 -0.35241572257452458 0 -0.38926558404644362 -0.35919355171370199 0 -0.40556734195466698 -0.35379465302017299 0 -0.39834200695922017 -0.34364202040191949 0 -0.38926558404644362 -0.35919355171370199 0 -0.39834200695922017 -0.34364202040191949 0 -0.38547772613569231 -0.33299101918542018 0 -0.40556734195466698 -0.35379465302017299 0 -0.39834200695922017 -0.34364202040191949 0 -0.41190280306357269 -0.34154251577599037 0 -0.39898615896098288 -0.33108630716194531 0 -0.39834200695922017 -0.34364202040191949 0 -0.41190280306357269 -0.34154251577599037 0 -0.39898615896098288 -0.33108630716194531 0 -0.39834200695922017 -0.34364202040191949 0 -0.38547772613569231 -0.33299101918542018 0 -0.38926558404644362 -0.35919355171370199 0 -0.38547772613569231 -0.33299101918542018 0 -0.37846279834407259 -0.33213368075641431 0 -0.39898615896098288 -0.33108630716194531 0 -0.38547772613569231 -0.33299101918542018 0 -0.38188451804572499 -0.32765464354844948 0 -0.38547772613569231 -0.33299101918542018 0 -0.38188451804572499 -0.32765464354844948 0 -0.37772705956075059 -0.33029073051343938 0 -0.38188451804572499 -0.32765464354844948 0 -0.38547772613569231 -0.33299101918542018 0 -0.37846279834407259 -0.33213368075641431 0 -0.38188451804572499 -0.32765464354844948 0 -0.37772705956075059 -0.33029073051343938 0 -0.37846279834407259 -0.33213368075641431 0 -0.38188451804572499 -0.32765464354844948 0 -0.37772705956075059 -0.33029073051343938 0 -0.37846279834407259 -0.33213368075641431 0 -0.38188451804572499 -0.32765464354844948 0 -0.40191403514781732 -0.31495468535554649 0 -0.38732607221503512 -0.31241184912977732 0 -0.37610017952058672 -0.31906415771831231 0 -0.38188451804572499 -0.32765464354844948 0 -0.38732607221503512 -0.31241184912977732 0 -0.37610017952058672 -0.31906415771831231 0 -0.38732607221503512 -0.31241184912977732 0 -0.37445765267039022 -0.30997803587084721 0 -0.37610017952058672 -0.31906415771831231 0 -0.37445765267039022 -0.30997803587084721 0 -0.37772705956075059 -0.33029073051343938 0 -0.37610017952058672 -0.31906415771831231 0 -0.38188451804572499 -0.32765464354844948 0 -0.37610017952058672 -0.31906415771831231 0 -0.38188451804572499 -0.32765464354844948 0 -0.37772705956075059 -0.33029073051343938 0 -0.37610017952058672 -0.31906415771831231 0 -0.38188451804572499 -0.32765464354844948 0 -0.40191403514781732 -0.31495468535554649 0 -0.39898615896098288 -0.33108630716194531 0 -0.38188451804572499 -0.32765464354844948 0 -0.40191403514781732 -0.31495468535554649 0 -0.40191403514781732 -0.31495468535554649 0 -0.41810808875290739 -0.32723971608403518 0 -0.42601367337217327 -0.31135364170199581 0 -0.39898615896098288 -0.33108630716194531 0 -0.40191403514781732 -0.31495468535554649 0 -0.41810808875290739 -0.32723971608403518 0 -0.41810808875290739 -0.32723971608403518 0 -0.41190280306357269 -0.34154251577599037 0 -0.43028742384402219 -0.34107554417053848 0 -0.39898615896098288 -0.33108630716194531 0 -0.41810808875290739 -0.32723971608403518 0 -0.41190280306357269 -0.34154251577599037 0 -0.43858570850901679 -0.32263737714525481 0 -0.41810808875290739 -0.32723971608403518 0 -0.43028742384402219 -0.34107554417053848 0 -0.43858570850901679 -0.32263737714525481 0 -0.41810808875290739 -0.32723971608403518 0 -0.42601367337217327 -0.31135364170199581 0 -0.44314255490423282 -0.29863206160437711 0 -0.43858570850901679 -0.32263737714525481 0 -0.42601367337217327 -0.31135364170199581 0 -0.44314255490423282 -0.29863206160437711 0 -0.42601367337217327 -0.31135364170199581 0 -0.41603236187712972 -0.29606164618540881 0 -0.44314255490423282 -0.29863206160437711 0 -0.41603236187712972 -0.29606164618540881 0 -0.42433146374935871 -0.27779845821554311 0 -0.44279072992149809 -0.27921520833262858 0 -0.44314255490423282 -0.29863206160437711 0 -0.42433146374935871 -0.27779845821554311 0 -0.41603236187712972 -0.29606164618540881 0 -0.40417604879057828 -0.27747006054772122 0 -0.42433146374935871 -0.27779845821554311 0 -0.40191403514781732 -0.31495468535554649 0 -0.42601367337217327 -0.31135364170199581 0 -0.41603236187712972 -0.29606164618540881 0 -0.40191403514781732 -0.31495468535554649 0 -0.41603236187712972 -0.29606164618540881 0 -0.38931685073048411 -0.29372404820928399 0 -0.40191403514781732 -0.31495468535554649 0 -0.38732607221503512 -0.31241184912977732 0 -0.38931685073048411 -0.29372404820928399 0 -0.38931685073048411 -0.29372404820928399 0 -0.37445765267039022 -0.30997803587084721 0 -0.38732607221503512 -0.31241184912977732 0 -0.38931685073048411 -0.29372404820928399 0 -0.37445765267039022 -0.30997803587084721 0 -0.38931685073048411 -0.29372404820928399 0 -0.36994931305706169 -0.28503882525665653 0 -0.37445765267039022 -0.30997803587084721 0 -0.38931685073048411 -0.29372404820928399 0 -0.38540291582848563 -0.2794928499521307 0 -0.36994931305706169 -0.28503882525665653 0 -0.41603236187712972 -0.29606164618540881 0 -0.38931685073048411 -0.29372404820928399 0 -0.40417604879057828 -0.27747006054772122 0 -0.38931685073048411 -0.29372404820928399 0 -0.40417604879057828 -0.27747006054772122 0 -0.38931685073048411 -0.29372404820928399 0 -0.40417604879057828 -0.27747006054772122 0 -0.38540291582848563 -0.2794928499521307 0 -0.40417604879057828 -0.27747006054772122 0 -0.39089406276588412 -0.26827292996143848 0 -0.38540291582848563 -0.2794928499521307 0 -0.40417604879057828 -0.27747006054772122 0 -0.39089406276588412 -0.26827292996143848 0 -0.39860507647727672 -0.25526751824771909 0 -0.39089406276588412 -0.26827292996143848 0 -0.38540291582848563 -0.2794928499521307 0 -0.37617707386967758 -0.26941457276943748 0 -0.38540291582848563 -0.2794928499521307 0 -0.37617707386967758 -0.26941457276943748 0 -0.36994931305706169 -0.28503882525665653 0 -0.3830880296455455 -0.25549359971904922 0 -0.37146974310017977 -0.25985006006412531 0 -0.37261567676119389 -0.24220522709947209 0 -0.37617707386967758 -0.26941457276943748 0 -0.3830880296455455 -0.25549359971904922 0 -0.37146974310017977 -0.25985006006412531 0 -0.39089406276588412 -0.26827292996143848 0 -0.37617707386967758 -0.26941457276943748 0 -0.3830880296455455 -0.25549359971904922 0 -0.39089406276588412 -0.26827292996143848 0 -0.3830880296455455 -0.25549359971904922 0 -0.39860507647727672 -0.25526751824771909 0 -0.40417604879057828 -0.27747006054772122 0 -0.39860507647727672 -0.25526751824771909 0 -0.41853086337149498 -0.25309053714782143 0 -0.40417604879057828 -0.27747006054772122 0 -0.41853086337149498 -0.25309053714782143 0 -0.42433146374935871 -0.27779845821554311 0 -0.4422929472126545 -0.26199235859238229 0 -0.44279072992149809 -0.27921520833262858 0 -0.42433146374935871 -0.27779845821554311 0 -0.4422929472126545 -0.26199235859238229 0 -0.41853086337149498 -0.25309053714782143 0 -0.42433146374935871 -0.27779845821554311 0 -0.4422929472126545 -0.26199235859238229 0 -0.41853086337149498 -0.25309053714782143 0 -0.43822346061495648 -0.23801048684192611 0 -0.31853112913857229 -0.26119389127741799 0 -0.32472736928580792 -0.2404601480234084 0 -0.31853112913857229 -0.26119389127741799 0 -0.3158589578121852 -0.24952041115528059 0 -0.32472736928580792 -0.2404601480234084 0 -0.32723301537407917 -0.2523527637654861 0 -0.31853112913857229 -0.26119389127741799 0 -0.32472736928580792 -0.2404601480234084 0 -0.32465554199097518 -0.26885852284762751 0 -0.33051866780724531 -0.26637671029319249 0 -0.32837742012887211 -0.25975823425007633 0 -0.31853112913857229 -0.26119389127741799 0 -0.32465554199097518 -0.26885852284762751 0 -0.32837742012887211 -0.25975823425007633 0 -0.32723301537407917 -0.2523527637654861 0 -0.31853112913857229 -0.26119389127741799 0 -0.32837742012887211 -0.25975823425007633 0 -0.31853112913857229 -0.26119389127741799 0 -0.30627292041572213 -0.25636185243388721 0 -0.3158589578121852 -0.24952041115528059 0 -0.31853112913857229 -0.26119389127741799 0 -0.32465554199097518 -0.26885852284762751 0 -0.31233488899133882 -0.28192763453142827 0 -0.31853112913857229 -0.26119389127741799 0 -0.31233488899133882 -0.28192763453142827 0 -0.30894509174210949 -0.26803533255602457 0 -0.31853112913857229 -0.26119389127741799 0 -0.31233488899133882 -0.28192763453142827 0 -0.32531780909554292 -0.28091581421661022 0 -0.32465554199097518 -0.26885852284762751 0 -0.31233488899133882 -0.28192763453142827 0 -0.32531780909554292 -0.28091581421661022 0 -0.32465554199097518 -0.26885852284762751 0 -0.33051866780724531 -0.26637671029319249 0 -0.3378956391244865 -0.27909836263308241 0 -0.33845369617186721 -0.26315429346053681 0 -0.35108546741670049 -0.28191409657659461 0 -0.32531780909554292 -0.28091581421661022 0 -0.33051866780724531 -0.26637671029319249 0 -0.33845369617186721 -0.26315429346053681 0 -0.32531780909554292 -0.28091581421661022 0 -0.33845369617186721 -0.26315429346053681 0 -0.32531780909554292 -0.28091581421661022 0 -0.3378956391244865 -0.27909836263308241 0 -0.33845369617186721 -0.26315429346053681 0 -0.33845369617186721 -0.26315429346053681 0 -0.34574933721119638 -0.25328958626596532 0 -0.33845369617186721 -0.26315429346053681 0 -0.34574933721119638 -0.25328958626596532 0 -0.34612792183420438 -0.25978579584363759 0 -0.33845369617186721 -0.26315429346053681 0 -0.3357888716489692 -0.2591966866911119 0 -0.33845369617186721 -0.26315429346053681 0 -0.3357888716489692 -0.2591966866911119 0 -0.33857751500883082 -0.25576448183358919 0 -0.33051866780724531 -0.26637671029319249 0 -0.33845369617186721 -0.26315429346053681 0 -0.3357888716489692 -0.2591966866911119 0 -0.33051866780724531 -0.26637671029319249 0 -0.3357888716489692 -0.2591966866911119 0 -0.32837742012887211 -0.25975823425007633 0 -0.32723301537407917 -0.2523527637654861 0 -0.33310626696609241 -0.25402647907691422 0 -0.3315076224095731 -0.24714144879994501 0 -0.32723301537407917 -0.2523527637654861 0 -0.32837742012887211 -0.25975823425007633 0 -0.33310626696609241 -0.25402647907691422 0 -0.3357888716489692 -0.2591966866911119 0 -0.33310626696609241 -0.25402647907691422 0 -0.33857751500883082 -0.25576448183358919 0 -0.3357888716489692 -0.2591966866911119 0 -0.32837742012887211 -0.25975823425007633 0 -0.33310626696609241 -0.25402647907691422 0 -0.33310626696609241 -0.25402647907691422 0 -0.33668400879166471 -0.25003653060852321 0 -0.3315076224095731 -0.24714144879994501 0 -0.33310626696609241 -0.25402647907691422 0 -0.33668400879166471 -0.25003653060852321 0 -0.33857751500883082 -0.25576448183358919 0 -0.33668400879166471 -0.25003653060852321 0 -0.33857751500883082 -0.25576448183358919 0 -0.34574933721119638 -0.25328958626596532 0 -0.33845369617186721 -0.26315429346053681 0 -0.33857751500883082 -0.25576448183358919 0 -0.34574933721119638 -0.25328958626596532 0 -0.34574933721119638 -0.25328958626596532 0 -0.34612792183420438 -0.25978579584363759 0 -0.35043400020212151 -0.25876591977431029 0 -0.34574933721119638 -0.25328958626596532 0 -0.35043400020212151 -0.25876591977431029 0 -0.35228165108508203 -0.25342443067102521 0 -0.33845369617186721 -0.26315429346053681 0 -0.34612792183420438 -0.25978579584363759 0 -0.34987465375163229 -0.2639333838737381 0 -0.34612792183420438 -0.25978579584363759 0 -0.35043400020212151 -0.25876591977431029 0 -0.34987465375163229 -0.2639333838737381 0 -0.35522874833779311 -0.26004770753802631 0 -0.35822344834074732 -0.25421052090076218 0 -0.36210558027941581 -0.26343215094350192 0 -0.34987465375163229 -0.2639333838737381 0 -0.35522874833779311 -0.26004770753802631 0 -0.35588413222873361 -0.26653042982573699 0 -0.35043400020212151 -0.25876591977431029 0 -0.34987465375163229 -0.2639333838737381 0 -0.35522874833779311 -0.26004770753802631 0 -0.35522874833779311 -0.26004770753802631 0 -0.36210558027941581 -0.26343215094350192 0 -0.35588413222873361 -0.26653042982573699 0 -0.35043400020212151 -0.25876591977431029 0 -0.35522874833779311 -0.26004770753802631 0 -0.35228165108508203 -0.25342443067102521 0 -0.35522874833779311 -0.26004770753802631 0 -0.35228165108508203 -0.25342443067102521 0 -0.35822344834074732 -0.25421052090076218 0 -0.35822344834074732 -0.25421052090076218 0 -0.36482927333241238 -0.25212951776171361 0 -0.36210558027941581 -0.26343215094350192 0 -0.36482927333241238 -0.25212951776171361 0 -0.37146974310017977 -0.25985006006412531 0 -0.37261567676119389 -0.24220522709947209 0 -0.36482927333241238 -0.25212951776171361 0 -0.36210558027941581 -0.26343215094350192 0 -0.37146974310017977 -0.25985006006412531 0 -0.36210558027941581 -0.26343215094350192 0 -0.37146974310017977 -0.25985006006412531 0 -0.36781625935653961 -0.26908191870935078 0 -0.37617707386967758 -0.26941457276943748 0 -0.36864495376161222 -0.27782337700390219 0 -0.36994931305706169 -0.28503882525665653 0 -0.37617707386967758 -0.26941457276943748 0 -0.36994931305706169 -0.28503882525665653 0 -0.37617707386967758 -0.26941457276943748 0 -0.36864495376161222 -0.27782337700390219 0 -0.36781625935653961 -0.26908191870935078 0 -0.37617707386967758 -0.26941457276943748 0 -0.37146974310017977 -0.25985006006412531 0 -0.36781625935653961 -0.26908191870935078 0 -0.36210558027941581 -0.26343215094350192 0 -0.36781625935653961 -0.26908191870935078 0 -0.3599842570309435 -0.27342000991141591 0 -0.36864495376161222 -0.27782337700390219 0 -0.36781625935653961 -0.26908191870935078 0 -0.3599842570309435 -0.27342000991141591 0 -0.36864495376161222 -0.27782337700390219 0 -0.3599842570309435 -0.27342000991141591 0 -0.36183464556697209 -0.28319777959060272 0 -0.33845369617186721 -0.26315429346053681 0 -0.35108546741670049 -0.28191409657659461 0 -0.33845369617186721 -0.26315429346053681 0 -0.35162998275209351 -0.27078397128424869 0 -0.35108546741670049 -0.28191409657659461 0 -0.3599842570309435 -0.27342000991141591 0 -0.35162998275209351 -0.27078397128424869 0 -0.35108546741670049 -0.28191409657659461 0 -0.3599842570309435 -0.27342000991141591 0 -0.35108546741670049 -0.28191409657659461 0 -0.36183464556697209 -0.28319777959060272 0 -0.3599842570309435 -0.27342000991141591 0 -0.35588413222873361 -0.26653042982573699 0 -0.35162998275209351 -0.27078397128424869 0 -0.36210558027941581 -0.26343215094350192 0 -0.3599842570309435 -0.27342000991141591 0 -0.35588413222873361 -0.26653042982573699 0 -0.34987465375163229 -0.2639333838737381 0 -0.35588413222873361 -0.26653042982573699 0 -0.35162998275209351 -0.27078397128424869 0 -0.33845369617186721 -0.26315429346053681 0 -0.34987465375163229 -0.2639333838737381 0 -0.35162998275209351 -0.27078397128424869 0 -0.35108546741670049 -0.28191409657659461 0 -0.36183464556697209 -0.28319777959060272 0 -0.36371723866153438 -0.30067389969265218 0 -0.35108546741670049 -0.28191409657659461 0 -0.35067606162742382 -0.29501044530671328 0 -0.36371723866153438 -0.30067389969265218 0 -0.35108546741670049 -0.28191409657659461 0 -0.36371723866153438 -0.30067389969265218 0 -0.35108546741670049 -0.28191409657659461 0 -0.35067606162742382 -0.29501044530671328 0 -0.33672558381383538 -0.29040924627858788 0 -0.36183464556697209 -0.28319777959060272 0 -0.36994931305706169 -0.28503882525665653 0 -0.36371723866153438 -0.30067389969265218 0 -0.36864495376161222 -0.27782337700390219 0 -0.36183464556697209 -0.28319777959060272 0 -0.36994931305706169 -0.28503882525665653 0 -0.36994931305706169 -0.28503882525665653 0 -0.36371723866153438 -0.30067389969265218 0 -0.36864495376161222 -0.27782337700390219 0 -0.36994931305706169 -0.28503882525665653 0 -0.36994931305706169 -0.28503882525665653 0 -0.37445765267039022 -0.30997803587084721 0 -0.36994931305706169 -0.28503882525665653 0 -0.37445765267039022 -0.30997803587084721 0 -0.36371723866153438 -0.30067389969265218 0 -0.37445765267039022 -0.30997803587084721 0 -0.36371723866153438 -0.30067389969265218 0 -0.37108895066847752 -0.31366294810858242 0 -0.36987163811543278 -0.31061370493116242 0 -0.36371723866153438 -0.30067389969265218 0 -0.37108895066847752 -0.31366294810858242 0 -0.36371723866153438 -0.30067389969265218 0 -0.37108895066847752 -0.31366294810858242 0 -0.36987163811543278 -0.31061370493116242 0 -0.37108895066847752 -0.31366294810858242 0 -0.37445765267039022 -0.30997803587084721 0 -0.37108895066847752 -0.31366294810858242 0 -0.35067606162742382 -0.29501044530671328 0 -0.36371723866153438 -0.30067389969265218 0 -0.3419268414160167 -0.30404310688203112 0 -0.36371723866153438 -0.30067389969265218 0 -0.3419268414160167 -0.30404310688203112 0 -0.35344919640397487 -0.32643444021574403 0 -0.33313701514714328 -0.30808027299174079 0 -0.3419268414160167 -0.30404310688203112 0 -0.33678708541475932 -0.31614773122966489 0 -0.33313701514714328 -0.30808027299174079 0 -0.32581517423005818 -0.31120498876712599 0 -0.33678708541475932 -0.31614773122966489 0 -0.33313701514714328 -0.30808027299174079 0 -0.32581517423005818 -0.31120498876712599 0 -0.32801895952773902 -0.3009252650881411 0 -0.3419268414160167 -0.30404310688203112 0 -0.33672558381383538 -0.29040924627858788 0 -0.32801895952773902 -0.3009252650881411 0 -0.33313701514714328 -0.30808027299174079 0 -0.3419268414160167 -0.30404310688203112 0 -0.32801895952773902 -0.3009252650881411 0 -0.35067606162742382 -0.29501044530671328 0 -0.3419268414160167 -0.30404310688203112 0 -0.33672558381383538 -0.29040924627858788 0 -0.3378956391244865 -0.27909836263308241 0 -0.35108546741670049 -0.28191409657659461 0 -0.33672558381383538 -0.29040924627858788 0 -0.32531780909554292 -0.28091581421661022 0 -0.3378956391244865 -0.27909836263308241 0 -0.33672558381383538 -0.29040924627858788 0 -0.32531780909554292 -0.28091581421661022 0 -0.33672558381383538 -0.29040924627858788 0 -0.32278643406680307 -0.29278189937870241 0 -0.33672558381383538 -0.29040924627858788 0 -0.32278643406680307 -0.29278189937870241 0 -0.32801895952773902 -0.3009252650881411 0 -0.32531780909554292 -0.28091581421661022 0 -0.31218192201921818 -0.29867733497268339 0 -0.32531780909554292 -0.28091581421661022 0 -0.31301504371894212 -0.28793291081601691 0 -0.31218192201921818 -0.29867733497268339 0 -0.32531780909554292 -0.28091581421661022 0 -0.32278643406680307 -0.29278189937870241 0 -0.31218192201921818 -0.29867733497268339 0 -0.32531780909554292 -0.28091581421661022 0 -0.31301504371894212 -0.28793291081601691 0 -0.31233488899133882 -0.28192763453142827 0 -0.32278643406680307 -0.29278189937870241 0 -0.31959253470172522 -0.29852895132181217 0 -0.31218192201921818 -0.29867733497268339 0 -0.31959253470172522 -0.29852895132181217 0 -0.3173098962731174 -0.30360868885686698 0 -0.31218192201921818 -0.29867733497268339 0 -0.3173098962731174 -0.30360868885686698 0 -0.30862291628133032 -0.31008179625925392 0 -0.31218192201921818 -0.29867733497268339 0 -0.3173098962731174 -0.30360868885686698 0 -0.32581517423005818 -0.31120498876712599 0 -0.31621794560821659 -0.31458126093000138 0 -0.3173098962731174 -0.30360868885686698 0 -0.32581517423005818 -0.31120498876712599 0 -0.32801895952773902 -0.3009252650881411 0 -0.32278643406680307 -0.29278189937870241 0 -0.31959253470172522 -0.29852895132181217 0 -0.32801895952773902 -0.3009252650881411 0 -0.31959253470172522 -0.29852895132181217 0 -0.3173098962731174 -0.30360868885686698 0 -0.32801895952773902 -0.3009252650881411 0 -0.3173098962731174 -0.30360868885686698 0 -0.31621794560821659 -0.31458126093000138 0 -0.30595381189009219 -0.32160230547870838 0 -0.32750024914519299 -0.32146374566264629 0 -0.31876858432125482 -0.32680160650868051 0 -0.32797824132466091 -0.33111176895654049 0 -0.32750024914519299 -0.32146374566264629 0 -0.31892443077425131 -0.31904278892450388 0 -0.31876858432125482 -0.32680160650868051 0 -0.32581517423005818 -0.31120498876712599 0 -0.32750024914519299 -0.32146374566264629 0 -0.31892443077425131 -0.31904278892450388 0 -0.32581517423005818 -0.31120498876712599 0 -0.31892443077425131 -0.31904278892450388 0 -0.31621794560821659 -0.31458126093000138 0 -0.31892443077425131 -0.31904278892450388 0 -0.31621794560821659 -0.31458126093000138 0 -0.31376055213619541 -0.32044547087900799 0 -0.31621794560821659 -0.31458126093000138 0 -0.31376055213619541 -0.32044547087900799 0 -0.31041271117248448 -0.32001787319218472 0 -0.31376055213619541 -0.32044547087900799 0 -0.31527182061290893 -0.32371045810180749 0 -0.31196724448654772 -0.3247613030566221 0 -0.31892443077425131 -0.31904278892450388 0 -0.31376055213619541 -0.32044547087900799 0 -0.31527182061290893 -0.32371045810180749 0 -0.31892443077425131 -0.31904278892450388 0 -0.31527182061290893 -0.32371045810180749 0 -0.31876858432125482 -0.32680160650868051 0 -0.31527182061290893 -0.32371045810180749 0 -0.31876858432125482 -0.32680160650868051 0 -0.31293829134629542 -0.32750112114022328 0 -0.31527182061290893 -0.32371045810180749 0 -0.31293829134629542 -0.32750112114022328 0 -0.31196724448654772 -0.3247613030566221 0 -0.31876858432125482 -0.32680160650868051 0 -0.31293829134629542 -0.32750112114022328 0 -0.31350630397067247 -0.33255425366815389 0 -0.31876858432125482 -0.32680160650868051 0 -0.31350630397067247 -0.33255425366815389 0 -0.31994377041455552 -0.33493024368420587 0 -0.31350630397067247 -0.33255425366815389 0 -0.31994377041455552 -0.33493024368420587 0 -0.31469219948583599 -0.33885057637206573 0 -0.31994377041455552 -0.33493024368420587 0 -0.31469219948583599 -0.33885057637206573 0 -0.31903303711794279 -0.34345648992926991 0 -0.31469219948583599 -0.33885057637206573 0 -0.31903303711794279 -0.34345648992926991 0 -0.3117831403081931 -0.34499217606536431 0 -0.31994377041455552 -0.33493024368420587 0 -0.31903303711794279 -0.34345648992926991 0 -0.3263920363871482 -0.33915781638978171 0 -0.31876858432125482 -0.32680160650868051 0 -0.31994377041455552 -0.33493024368420587 0 -0.32797824132466091 -0.33111176895654049 0 -0.31994377041455552 -0.33493024368420587 0 -0.3263920363871482 -0.33915781638978171 0 -0.32797824132466091 -0.33111176895654049 0 -0.32797824132466091 -0.33111176895654049 0 -0.33641442925410392 -0.33765043415606322 0 -0.33885037842571031 -0.32666676733786543 0 -0.33641442925410392 -0.33765043415606322 0 -0.33885037842571031 -0.32666676733786543 0 -0.35344919640397487 -0.32643444021574403 0 -0.3263920363871482 -0.33915781638978171 0 -0.33641442925410392 -0.33765043415606322 0 -0.32745043223466119 -0.34921271928881908 0 -0.3263920363871482 -0.33915781638978171 0 -0.32797824132466091 -0.33111176895654049 0 -0.33641442925410392 -0.33765043415606322 0 -0.33885037842571031 -0.32666676733786543 0 -0.33678708541475932 -0.31614773122966489 0 -0.35344919640397487 -0.32643444021574403 0 -0.32750024914519299 -0.32146374566264629 0 -0.32797824132466091 -0.33111176895654049 0 -0.33885037842571031 -0.32666676733786543 0 -0.32750024914519299 -0.32146374566264629 0 -0.33885037842571031 -0.32666676733786543 0 -0.33678708541475932 -0.31614773122966489 0 -0.32581517423005818 -0.31120498876712599 0 -0.32750024914519299 -0.32146374566264629 0 -0.33678708541475932 -0.31614773122966489 0 -0.36371723866153438 -0.30067389969265218 0 -0.35344919640397487 -0.32643444021574403 0 -0.35344919640397487 -0.32643444021574403 0 -0.37108895066847752 -0.31366294810858242 0 -0.35107795271500097 -0.33555232009998631 0 -0.3419268414160167 -0.30404310688203112 0 -0.33678708541475932 -0.31614773122966489 0 -0.35344919640397487 -0.32643444021574403 0 -0.37772705956075059 -0.33029073051343938 0 -0.37108895066847752 -0.31366294810858242 0 -0.37772705956075059 -0.33029073051343938 0 -0.37610017952058672 -0.31906415771831231 0 -0.37108895066847752 -0.31366294810858242 0 -0.36987163811543278 -0.31061370493116242 0 -0.36371723866153438 -0.30067389969265218 0 -0.35344919640397487 -0.32643444021574403 0 -0.36987163811543278 -0.31061370493116242 0 -0.35344919640397487 -0.32643444021574403 0 -0.37108895066847752 -0.31366294810858242 0 -0.37108895066847752 -0.31366294810858242 0 -0.35107795271500097 -0.33555232009998631 0 -0.37772705956075059 -0.33029073051343938 0 -0.37108895066847752 -0.31366294810858242 0 -0.35107795271500097 -0.33555232009998631 0 -0.37610017952058672 -0.31906415771831231 0 -0.37445765267039022 -0.30997803587084721 0 -0.37108895066847752 -0.31366294810858242 0 -0.37610017952058672 -0.31906415771831231 0 -0.37108895066847752 -0.31366294810858242 0 -0.37772705956075059 -0.33029073051343938 0 -0.37846279834407259 -0.33213368075641431 0 -0.36045410685358342 -0.34124285562613837 0 -0.37846279834407259 -0.33213368075641431 0 -0.36045410685358342 -0.34124285562613837 0 -0.36842733252389143 -0.35241572257452458 0 -0.37772705956075059 -0.33029073051343938 0 -0.36045410685358342 -0.34124285562613837 0 -0.35107795271500097 -0.33555232009998631 0 -0.37772705956075059 -0.33029073051343938 0 -0.36045410685358342 -0.34124285562613837 0 -0.33641442925410392 -0.33765043415606322 0 -0.35344919640397487 -0.32643444021574403 0 -0.34318115414641548 -0.35219498073883593 0 -0.36045410685358342 -0.34124285562613837 0 -0.35107795271500097 -0.33555232009998631 0 -0.34318115414641548 -0.35219498073883593 0 -0.35344919640397487 -0.32643444021574403 0 -0.34318115414641548 -0.35219498073883593 0 -0.35344919640397487 -0.32643444021574403 0 -0.35107795271500097 -0.33555232009998631 0 -0.34318115414641548 -0.35219498073883593 0 -0.36045410685358342 -0.34124285562613837 0 -0.34318115414641548 -0.35219498073883593 0 -0.36045410685358342 -0.34124285562613837 0 -0.35297752524461129 -0.35748769285154142 0 -0.34318115414641548 -0.35219498073883593 0 -0.35297752524461129 -0.35748769285154142 0 -0.34222640515868952 -0.35459026207589828 0 -0.34318115414641548 -0.35219498073883593 0 -0.36045410685358342 -0.34124285562613837 0 -0.35297752524461129 -0.35748769285154142 0 -0.36842733252389143 -0.35241572257452458 0 -0.35297752524461129 -0.35748769285154142 0 -0.36842733252389143 -0.35241572257452458 0 -0.36730419086109922 -0.37432457610345171 0 -0.38293804131609022 -0.3568898075350776 0 -0.36842733252389143 -0.35241572257452458 0 -0.36730419086109922 -0.37432457610345171 0 -0.35297752524461129 -0.35748769285154142 0 -0.36730419086109922 -0.37432457610345171 0 -0.34719509743409238 -0.36700321789316109 0 -0.36730419086109922 -0.37432457610345171 0 -0.34719509743409238 -0.36700321789316109 0 -0.35297752524461129 -0.35748769285154142 0 -0.34719509743409238 -0.36700321789316109 0 -0.34222640515868952 -0.35459026207589828 0 -0.34719509743409238 -0.36700321789316109 0 -0.34222640515868952 -0.35459026207589828 0 -0.32264304973165142 -0.36521741488437681 0 -0.34719509743409238 -0.36700321789316109 0 -0.32264304973165142 -0.36521741488437681 0 -0.33491528359534312 -0.37953536381560549 0 -0.33641442925410392 -0.33765043415606322 0 -0.34318115414641548 -0.35219498073883593 0 -0.32745043223466119 -0.34921271928881908 0 -0.34318115414641548 -0.35219498073883593 0 -0.32264304973165142 -0.36521741488437681 0 -0.34222640515868952 -0.35459026207589828 0 -0.34318115414641548 -0.35219498073883593 0 -0.32264304973165142 -0.36521741488437681 0 -0.34318115414641548 -0.35219498073883593 0 -0.32745043223466119 -0.34921271928881908 0 -0.32264304973165142 -0.36521741488437681 0 -0.34222640515868952 -0.35459026207589828 0 -0.34318115414641548 -0.35219498073883593 0 -0.32745043223466119 -0.34921271928881908 0 -0.31306978792759632 -0.35354170128379492 0 -0.32264304973165142 -0.36521741488437681 0 -0.31903303711794279 -0.34345648992926991 0 -0.3263920363871482 -0.33915781638978171 0 -0.32745043223466119 -0.34921271928881908 0 -0.31903303711794279 -0.34345648992926991 0 -0.31306978792759632 -0.35354170128379492 0 -0.3117831403081931 -0.34499217606536431 0 -0.31903303711794279 -0.34345648992926991 0 -0.32745043223466119 -0.34921271928881908 0 -0.31306978792759632 -0.35354170128379492 0 -0.31306978792759632 -0.35354170128379492 0 -0.32264304973165142 -0.36521741488437681 0 -0.30068586207167941 -0.36076550975177429 0 -0.32264304973165142 -0.36521741488437681 0 -0.30068586207167941 -0.36076550975177429 0 -0.30210494531688731 -0.37823984902991792 0 -0.30068586207167941 -0.36076550975177429 0 -0.28969130638331192 -0.36984495691052699 0 -0.30210494531688731 -0.37823984902991792 0 -0.32264304973165142 -0.36521741488437681 0 -0.30210494531688731 -0.37823984902991792 0 -0.31306978792759632 -0.35354170128379492 0 -0.30068586207167941 -0.36076550975177429 0 -0.3043753838312423 -0.34576310412497968 0 -0.31306978792759632 -0.35354170128379492 0 -0.3117831403081931 -0.34499217606536431 0 -0.3043753838312423 -0.34576310412497968 0 -0.30068586207167941 -0.36076550975177429 0 -0.3043753838312423 -0.34576310412497968 0 -0.29001756517198662 -0.34685314935806372 0 -0.30068586207167941 -0.36076550975177429 0 -0.29001756517198662 -0.34685314935806372 0 -0.28969130638331192 -0.36984495691052699 0 -0.29001756517198662 -0.34685314935806372 0 -0.2745373117416352 -0.35089566187627358 0 -0.28180351178332758 -0.33621502238809958 0 -0.29001756517198662 -0.34685314935806372 0 -0.28969130638331192 -0.36984495691052699 0 -0.274081318453883 -0.37210399323742022 0 -0.29001756517198662 -0.34685314935806372 0 -0.274081318453883 -0.37210399323742022 0 -0.274081318453883 -0.37210399323742022 0 -0.25765321167656191 -0.35082773929748912 0 -0.25267829693629529 -0.37721023905921808 0 -0.274081318453883 -0.37210399323742022 0 -0.25765321167656191 -0.35082773929748912 0 -0.2745373117416352 -0.35089566187627358 0 -0.29001756517198662 -0.34685314935806372 0 -0.274081318453883 -0.37210399323742022 0 -0.2745373117416352 -0.35089566187627358 0 -0.25765321167656191 -0.35082773929748912 0 -0.2745373117416352 -0.35089566187627358 0 -0.28180351178332758 -0.33621502238809958 0 -0.26125226075895552 -0.32951300830988711 0 -0.27531043627044172 -0.32611009453338308 0 -0.28180351178332758 -0.33621502238809958 0 -0.25765321167656191 -0.35082773929748912 0 -0.28180351178332758 -0.33621502238809958 0 -0.25765321167656191 -0.35082773929748912 0 -0.26125226075895552 -0.32951300830988711 0 -0.28180351178332758 -0.33621502238809958 0 -0.27531043627044172 -0.32611009453338308 0 -0.28401976835125609 -0.32350498540097561 0 -0.28180351178332758 -0.33621502238809958 0 -0.25765321167656191 -0.35082773929748912 0 -0.26125226075895552 -0.32951300830988711 0 -0.2382503854121765 -0.33608356444967119 0 -0.26125226075895552 -0.32951300830988711 0 -0.27638760335880141 -0.31452021985203438 0 -0.25628992497112491 -0.30501346688070519 0 -0.26125226075895552 -0.32951300830988711 0 -0.25628992497112491 -0.30501346688070519 0 -0.24753126157558589 -0.31963043698069538 0 -0.26125226075895552 -0.32951300830988711 0 -0.27531043627044172 -0.32611009453338308 0 -0.27638760335880141 -0.31452021985203438 0 -0.27531043627044172 -0.32611009453338308 0 -0.27638760335880141 -0.31452021985203438 0 -0.28401976835125609 -0.32350498540097561 0 -0.27638760335880141 -0.31452021985203438 0 -0.28935967376406629 -0.31723525339387171 0 -0.28401976835125609 -0.32350498540097561 0 -0.29203656014632717 -0.3229992844780824 0 -0.28180351178332758 -0.33621502238809958 0 -0.30595381189009219 -0.32160230547870838 0 -0.27638760335880141 -0.31452021985203438 0 -0.28935967376406629 -0.31723525339387171 0 -0.28822209348315547 -0.30884844805614309 0 -0.28935967376406629 -0.31723525339387171 0 -0.29203656014632717 -0.3229992844780824 0 -0.29904603494289361 -0.31643885572875657 0 -0.28935967376406629 -0.31723525339387171 0 -0.29904603494289361 -0.31643885572875657 0 -0.28822209348315547 -0.30884844805614309 0 -0.29203656014632717 -0.3229992844780824 0 -0.28401976835125609 -0.32350498540097561 0 -0.28180351178332758 -0.33621502238809958 0 -0.28935967376406629 -0.31723525339387171 0 -0.29203656014632717 -0.3229992844780824 0 -0.28401976835125609 -0.32350498540097561 0 -0.29001756517198662 -0.34685314935806372 0 -0.28180351178332758 -0.33621502238809958 0 -0.30595381189009219 -0.32160230547870838 0 -0.28180351178332758 -0.33621502238809958 0 -0.30595381189009219 -0.32160230547870838 0 -0.29001756517198662 -0.34685314935806372 0 -0.30280341835851471 -0.33392178058384597 0 -0.30595381189009219 -0.32160230547870838 0 -0.29001756517198662 -0.34685314935806372 0 -0.30595381189009219 -0.32160230547870838 0 -0.3043753838312423 -0.34576310412497968 0 -0.29001756517198662 -0.34685314935806372 0 -0.30280341835851471 -0.33392178058384597 0 -0.3043753838312423 -0.34576310412497968 0 -0.30280341835851471 -0.33392178058384597 0 -0.30919474561781662 -0.33831971851333459 0 -0.3117831403081931 -0.34499217606536431 0 -0.3043753838312423 -0.34576310412497968 0 -0.30919474561781662 -0.33831971851333459 0 -0.31350630397067247 -0.33255425366815389 0 -0.31469219948583599 -0.33885057637206573 0 -0.30919474561781662 -0.33831971851333459 0 -0.31469219948583599 -0.33885057637206573 0 -0.3117831403081931 -0.34499217606536431 0 -0.30919474561781662 -0.33831971851333459 0 -0.30280341835851471 -0.33392178058384597 0 -0.30594603558918892 -0.3291593442816404 0 -0.30589425936354647 -0.32641151188401768 0 -0.30280341835851471 -0.33392178058384597 0 -0.30594603558918892 -0.3291593442816404 0 -0.30813824300539749 -0.33080082886405771 0 -0.30594603558918892 -0.3291593442816404 0 -0.30813824300539749 -0.33080082886405771 0 -0.30589425936354647 -0.32641151188401768 0 -0.30280341835851471 -0.33392178058384597 0 -0.30919474561781662 -0.33831971851333459 0 -0.30813824300539749 -0.33080082886405771 0 -0.31350630397067247 -0.33255425366815389 0 -0.30919474561781662 -0.33831971851333459 0 -0.30813824300539749 -0.33080082886405771 0 -0.31293829134629542 -0.32750112114022328 0 -0.30813824300539749 -0.33080082886405771 0 -0.30946463746592517 -0.32680893776580378 0 -0.31293829134629542 -0.32750112114022328 0 -0.31350630397067247 -0.33255425366815389 0 -0.30813824300539749 -0.33080082886405771 0 -0.31293829134629542 -0.32750112114022328 0 -0.31196724448654772 -0.3247613030566221 0 -0.30946463746592517 -0.32680893776580378 0 -0.30280341835851471 -0.33392178058384597 0 -0.30589425936354647 -0.32641151188401768 0 -0.30595381189009219 -0.32160230547870838 0 -0.3173098962731174 -0.30360868885686698 0 -0.30595381189009219 -0.32160230547870838 0 -0.31196724448654772 -0.3247613030566221 0 -0.30946463746592517 -0.32680893776580378 0 -0.30843118893272869 -0.32492381323053021 0 -0.31196724448654772 -0.3247613030566221 0 -0.30843118893272869 -0.32492381323053021 0 -0.30931712961740399 -0.3231685083710425 0 -0.30813824300539749 -0.33080082886405771 0 -0.30946463746592517 -0.32680893776580378 0 -0.30589425936354647 -0.32641151188401768 0 -0.30843118893272869 -0.32492381323053021 0 -0.30589425936354647 -0.32641151188401768 0 -0.30769615957485419 -0.32347376348654078 0 -0.30946463746592517 -0.32680893776580378 0 -0.30843118893272869 -0.32492381323053021 0 -0.30589425936354647 -0.32641151188401768 0 -0.30589425936354647 -0.32641151188401768 0 -0.30595381189009219 -0.32160230547870838 0 -0.30769615957485419 -0.32347376348654078 0 -0.30595381189009219 -0.32160230547870838 0 -0.30775588261164027 -0.32135141476248852 0 -0.31041271117248448 -0.32001787319218472 0 -0.30769615957485419 -0.32347376348654078 0 -0.30775588261164027 -0.32135141476248852 0 -0.30931712961740399 -0.3231685083710425 0 -0.30843118893272869 -0.32492381323053021 0 -0.30769615957485419 -0.32347376348654078 0 -0.30931712961740399 -0.3231685083710425 0 -0.30595381189009219 -0.32160230547870838 0 -0.30769615957485419 -0.32347376348654078 0 -0.30775588261164027 -0.32135141476248852 0 -0.31376055213619541 -0.32044547087900799 0 -0.30931712961740399 -0.3231685083710425 0 -0.31041271117248448 -0.32001787319218472 0 -0.31376055213619541 -0.32044547087900799 0 -0.31196724448654772 -0.3247613030566221 0 -0.30931712961740399 -0.3231685083710425 0 -0.30775588261164027 -0.32135141476248852 0 -0.30931712961740399 -0.3231685083710425 0 -0.31041271117248448 -0.32001787319218472 0 -0.31621794560821659 -0.31458126093000138 0 -0.30595381189009219 -0.32160230547870838 0 -0.31041271117248448 -0.32001787319218472 0 -0.30595381189009219 -0.32160230547870838 0 -0.29904603494289361 -0.31643885572875657 0 -0.30862291628133032 -0.31008179625925392 0 -0.29203656014632717 -0.3229992844780824 0 -0.30595381189009219 -0.32160230547870838 0 -0.29904603494289361 -0.31643885572875657 0 -0.3173098962731174 -0.30360868885686698 0 -0.30595381189009219 -0.32160230547870838 0 -0.30862291628133032 -0.31008179625925392 0 -0.29904603494289361 -0.31643885572875657 0 -0.2980783697320965 -0.30194004475606251 0 -0.31218192201921818 -0.29867733497268339 0 -0.29904603494289361 -0.31643885572875657 0 -0.31218192201921818 -0.29867733497268339 0 -0.29904603494289361 -0.31643885572875657 0 -0.30862291628133032 -0.31008179625925392 0 -0.31218192201921818 -0.29867733497268339 0 -0.2980783697320965 -0.30194004475606251 0 -0.31218192201921818 -0.29867733497268339 0 -0.30222555476966839 -0.29021085954334558 0 -0.31301504371894212 -0.28793291081601691 0 -0.31218192201921818 -0.29867733497268339 0 -0.30222555476966839 -0.29021085954334558 0 -0.30222555476966839 -0.29021085954334558 0 -0.29086922051457581 -0.28450465029809391 0 -0.29864142842280478 -0.27265795198136522 0 -0.31233488899133882 -0.28192763453142827 0 -0.30222555476966839 -0.29021085954334558 0 -0.29864142842280478 -0.27265795198136522 0 -0.31301504371894212 -0.28793291081601691 0 -0.31233488899133882 -0.28192763453142827 0 -0.30222555476966839 -0.29021085954334558 0 -0.2980783697320965 -0.30194004475606251 0 -0.30222555476966839 -0.29021085954334558 0 -0.28858776766145711 -0.29496602140978351 0 -0.30222555476966839 -0.29021085954334558 0 -0.29086922051457581 -0.28450465029809391 0 -0.28858776766145711 -0.29496602140978351 0 -0.29086922051457581 -0.28450465029809391 0 -0.27944300050462773 -0.28896659060135488 0 -0.28251309286160098 -0.27574639934856909 0 -0.29086922051457581 -0.28450465029809391 0 -0.28858776766145711 -0.29496602140978351 0 -0.27944300050462773 -0.28896659060135488 0 -0.28858776766145711 -0.29496602140978351 0 -0.28822209348315547 -0.30884844805614309 0 -0.27379739860661878 -0.2990451911973403 0 -0.2980783697320965 -0.30194004475606251 0 -0.28858776766145711 -0.29496602140978351 0 -0.28822209348315547 -0.30884844805614309 0 -0.29904603494289361 -0.31643885572875657 0 -0.2980783697320965 -0.30194004475606251 0 -0.28822209348315547 -0.30884844805614309 0 -0.27638760335880141 -0.31452021985203438 0 -0.27379739860661878 -0.2990451911973403 0 -0.25628992497112491 -0.30501346688070519 0 -0.27638760335880141 -0.31452021985203438 0 -0.28822209348315547 -0.30884844805614309 0 -0.27379739860661878 -0.2990451911973403 0 -0.27379739860661878 -0.2990451911973403 0 -0.25628992497112491 -0.30501346688070519 0 -0.26667948678682851 -0.28545365065699979 0 -0.25628992497112491 -0.30501346688070519 0 -0.26667948678682851 -0.28545365065699979 0 -0.24663593115704921 -0.28625109768023738 0 -0.26667948678682851 -0.28545365065699979 0 -0.27944300050462773 -0.28896659060135488 0 -0.28251309286160098 -0.27574639934856909 0 -0.27379739860661878 -0.2990451911973403 0 -0.26667948678682851 -0.28545365065699979 0 -0.27944300050462773 -0.28896659060135488 0 -0.28858776766145711 -0.29496602140978351 0 -0.27379739860661878 -0.2990451911973403 0 -0.27944300050462773 -0.28896659060135488 0 -0.2697175437558243 -0.2705419377985594 0 -0.27768781240853779 -0.25792173907992338 0 -0.28251309286160098 -0.27574639934856909 0 -0.26667948678682851 -0.28545365065699979 0 -0.2697175437558243 -0.2705419377985594 0 -0.28251309286160098 -0.27574639934856909 0 -0.26667948678682851 -0.28545365065699979 0 -0.25662264465878432 -0.27115822271739082 0 -0.24663593115704921 -0.28625109768023738 0 -0.26667948678682851 -0.28545365065699979 0 -0.25662264465878432 -0.27115822271739082 0 -0.26667948678682851 -0.28545365065699979 0 -0.2697175437558243 -0.2705419377985594 0 -0.25662264465878432 -0.27115822271739082 0 -0.2697175437558243 -0.2705419377985594 0 -0.25662264465878432 -0.27115822271739082 0 -0.26362027925237758 -0.25928143193522751 0 -0.25662264465878432 -0.27115822271739082 0 -0.26362027925237758 -0.25928143193522751 0 -0.2465658025307402 -0.25686279477778151 0 -0.26362027925237758 -0.25928143193522751 0 -0.2465658025307402 -0.25686279477778151 0 -0.26677539150250512 -0.23834834267513871 0 -0.25662264465878432 -0.27115822271739082 0 -0.2465658025307402 -0.25686279477778151 0 -0.26362027925237758 -0.25928143193522751 0 -0.27768781240853779 -0.25792173907992338 0 -0.26677539150250512 -0.23834834267513871 0 -0.2697175437558243 -0.2705419377985594 0 -0.26362027925237758 -0.25928143193522751 0 -0.27768781240853779 -0.25792173907992338 0 -0.27768781240853779 -0.25792173907992338 0 -0.29190503483251101 -0.26000267559595203 0 -0.28251309286160098 -0.27574639934856909 0 -0.29190503483251101 -0.26000267559595203 0 -0.30627292041572213 -0.25636185243388721 0 -0.2903399019555718 -0.2392070477807737 0 -0.27768781240853779 -0.25792173907992338 0 -0.29190503483251101 -0.26000267559595203 0 -0.2903399019555718 -0.2392070477807737 0 -0.29190503483251101 -0.26000267559595203 0 -0.28251309286160098 -0.27574639934856909 0 -0.29864142842280478 -0.27265795198136522 0 -0.29086922051457581 -0.28450465029809391 0 -0.28251309286160098 -0.27574639934856909 0 -0.29864142842280478 -0.27265795198136522 0 -0.29864142842280478 -0.27265795198136522 0 -0.30894509174210949 -0.26803533255602457 0 -0.30627292041572213 -0.25636185243388721 0 -0.31233488899133882 -0.28192763453142827 0 -0.29864142842280478 -0.27265795198136522 0 -0.30894509174210949 -0.26803533255602457 0 -0.29864142842280478 -0.27265795198136522 0 -0.30627292041572213 -0.25636185243388721 0 -0.29190503483251101 -0.26000267559595203 0 -0.29864142842280478 -0.27265795198136522 0 -0.30627292041572213 -0.25636185243388721 0 -0.31853112913857229 -0.26119389127741799 0 -0.30894509174210949 -0.26803533255602457 0 -0.30627292041572213 -0.25636185243388721 0 -0.34247718151608791 -0.45567184783567 0 -0.31497301231111419 -0.45998124928556028 0 -0.33124115549892053 -0.47860566552828221 0 -0.34247718151608791 -0.45567184783567 0 -0.32614207977283438 -0.44471907968318652 0 -0.35343555273762889 -0.43934050437178412 0 -0.32614207977283438 -0.44471907968318652 0 -0.35343555273762889 -0.43934050437178412 0 -0.32614207977283438 -0.44471907968318652 0 -0.31497301231111419 -0.45998124928556028 0 -0.29884860680803987 -0.45009765499458892 0 -0.32614207977283438 -0.44471907968318652 0 -0.31357127361143933 -0.42846472623606691 0 -0.29884860680803987 -0.45009765499458892 0 -0.34247718151608791 -0.45567184783567 0 -0.32614207977283438 -0.44471907968318652 0 -0.31497301231111419 -0.45998124928556028 0 -0.31497301231111419 -0.45998124928556028 0 -0.33124115549892053 -0.47860566552828221 0 -0.30586502139809618 -0.47655612154643923 0 -0.32171809772921289 -0.5 0 -0.33124115549892053 -0.47860566552828221 0 -0.30586502139809618 -0.47655612154643923 0 -0.32171809772921289 -0.5 0 -0.33124115549892053 -0.47860566552828221 0 -0.35170146383193718 -0.5 0 -0.34247718151608791 -0.45567184783567 0 -0.33124115549892053 -0.47860566552828221 0 -0.35105715396288478 -0.47800626620983838 0 -0.33124115549892053 -0.47860566552828221 0 -0.35105715396288478 -0.47800626620983838 0 -0.35170146383193718 -0.5 0 -0.35105715396288478 -0.47800626620983838 0 -0.35170146383193718 -0.5 0 -0.37190504839516181 -0.47853018028075012 0 -0.38168482993466157 -0.5 0 -0.35170146383193718 -0.5 0 -0.37190504839516181 -0.47853018028075012 0 -0.35105715396288478 -0.47800626620983838 0 -0.37190504839516181 -0.47853018028075012 0 -0.36096930100297803 -0.46485424509663459 0 -0.37583771151230311 -0.4601105666377408 0 -0.37190504839516181 -0.47853018028075012 0 -0.36096930100297803 -0.46485424509663459 0 -0.37583771151230311 -0.4601105666377408 0 -0.36096930100297803 -0.46485424509663459 0 -0.36436655976611121 -0.44949377632392329 0 -0.34247718151608791 -0.45567184783567 0 -0.36096930100297803 -0.46485424509663459 0 -0.36436655976611121 -0.44949377632392329 0 -0.34247718151608791 -0.45567184783567 0 -0.35105715396288478 -0.47800626620983838 0 -0.36096930100297803 -0.46485424509663459 0 -0.34247718151608791 -0.45567184783567 0 -0.35343555273762889 -0.43934050437178412 0 -0.36436655976611121 -0.44949377632392329 0 -0.35343555273762889 -0.43934050437178412 0 -0.36436655976611121 -0.44949377632392329 0 -0.37001532204696752 -0.43493727515579628 0 -0.38143463625248958 -0.4437269855840838 0 -0.37583771151230311 -0.4601105666377408 0 -0.36436655976611121 -0.44949377632392329 0 -0.38143463625248958 -0.4437269855840838 0 -0.36436655976611121 -0.44949377632392329 0 -0.37001532204696752 -0.43493727515579628 0 -0.35343555273762889 -0.43934050437178412 0 -0.37001532204696752 -0.43493727515579628 0 -0.36748323434732472 -0.421319198237808 0 -0.37849854396674221 -0.42203906389385337 0 -0.37001532204696752 -0.43493727515579628 0 -0.36748323434732472 -0.421319198237808 0 -0.36748323434732472 -0.421319198237808 0 -0.34894348266427849 -0.40666647016039642 0 -0.36847528268411139 -0.39778951826182318 0 -0.38133285336139833 -0.41154992220653008 0 -0.36748323434732472 -0.421319198237808 0 -0.36847528268411139 -0.39778951826182318 0 -0.36748323434732472 -0.421319198237808 0 -0.34894348266427849 -0.40666647016039642 0 -0.34052725397938199 -0.42489196223693748 0 -0.35343555273762889 -0.43934050437178412 0 -0.36748323434732472 -0.421319198237808 0 -0.34052725397938199 -0.42489196223693748 0 -0.36748323434732472 -0.421319198237808 0 -0.34052725397938199 -0.42489196223693748 0 -0.36730419086109922 -0.37432457610345171 0 -0.36847528268411139 -0.39778951826182318 0 -0.35098140708062903 -0.38655272614998742 0 -0.37945286301085601 -0.38931624771511159 0 -0.36730419086109922 -0.37432457610345171 0 -0.36847528268411139 -0.39778951826182318 0 -0.34894348266427849 -0.40666647016039642 0 -0.35098140708062903 -0.38655272614998742 0 -0.33556095940503899 -0.39379596556885432 0 -0.34894348266427849 -0.40666647016039642 0 -0.36847528268411139 -0.39778951826182318 0 -0.35098140708062903 -0.38655272614998742 0 -0.36730419086109922 -0.37432457610345171 0 -0.34719509743409238 -0.36700321789316109 0 -0.35098140708062903 -0.38655272614998742 0 -0.34719509743409238 -0.36700321789316109 0 -0.35098140708062903 -0.38655272614998742 0 -0.33491528359534312 -0.37953536381560549 0 -0.33491528359534312 -0.37953536381560549 0 -0.33556095940503899 -0.39379596556885432 0 -0.31955665558391821 -0.38689578850972639 0 -0.35098140708062903 -0.38655272614998742 0 -0.33491528359534312 -0.37953536381560549 0 -0.33556095940503899 -0.39379596556885432 0 -0.34894348266427849 -0.40666647016039642 0 -0.33556095940503899 -0.39379596556885432 0 -0.32579130563396819 -0.41069524056642481 0 -0.31955665558391821 -0.38689578850972639 0 -0.32579130563396819 -0.41069524056642481 0 -0.30416231707024011 -0.40419147021891177 0 -0.33556095940503899 -0.39379596556885432 0 -0.31955665558391821 -0.38689578850972639 0 -0.32579130563396819 -0.41069524056642481 0 -0.32264304973165142 -0.36521741488437681 0 -0.33491528359534312 -0.37953536381560549 0 -0.31955665558391821 -0.38689578850972639 0 -0.32264304973165142 -0.36521741488437681 0 -0.31955665558391821 -0.38689578850972639 0 -0.30210494531688731 -0.37823984902991792 0 -0.32614207977283438 -0.44471907968318652 0 -0.35343555273762889 -0.43934050437178412 0 -0.34052725397938199 -0.42489196223693748 0 -0.34894348266427849 -0.40666647016039642 0 -0.34052725397938199 -0.42489196223693748 0 -0.32579130563396819 -0.41069524056642481 0 -0.34052725397938199 -0.42489196223693748 0 -0.32579130563396819 -0.41069524056642481 0 -0.31357127361143933 -0.42846472623606691 0 -0.32579130563396819 -0.41069524056642481 0 -0.31357127361143933 -0.42846472623606691 0 -0.30416231707024011 -0.40419147021891177 0 -0.32614207977283438 -0.44471907968318652 0 -0.34052725397938199 -0.42489196223693748 0 -0.31357127361143933 -0.42846472623606691 0 -0.34052725397938199 -0.42489196223693748 0 -0.31357127361143933 -0.42846472623606691 0 -0.31357127361143933 -0.42846472623606691 0 -0.29876681745235162 -0.42024311700176048 0 -0.28661529324349638 -0.43203749023519639 0 -0.31357127361143933 -0.42846472623606691 0 -0.28661529324349638 -0.43203749023519639 0 -0.29884860680803987 -0.45009765499458892 0 -0.31357127361143933 -0.42846472623606691 0 -0.28661529324349638 -0.43203749023519639 0 -0.31357127361143933 -0.42846472623606691 0 -0.29876681745235162 -0.42024311700176048 0 -0.30416231707024011 -0.40419147021891177 0 -0.29876681745235162 -0.42024311700176048 0 -0.30416231707024011 -0.40419147021891177 0 -0.2804488404924188 -0.4122955907469863 0 -0.29876681745235162 -0.42024311700176048 0 -0.28661529324349638 -0.43203749023519639 0 -0.2804488404924188 -0.4122955907469863 0 -0.31955665558391821 -0.38689578850972639 0 -0.30210494531688731 -0.37823984902991792 0 -0.30416231707024011 -0.40419147021891177 0 -0.30210494531688731 -0.37823984902991792 0 -0.30416231707024011 -0.40419147021891177 0 -0.28156684090212319 -0.39126228317545891 0 -0.30416231707024011 -0.40419147021891177 0 -0.28156684090212319 -0.39126228317545891 0 -0.2804488404924188 -0.4122955907469863 0 -0.30210494531688731 -0.37823984902991792 0 -0.28156684090212319 -0.39126228317545891 0 -0.28969130638331192 -0.36984495691052699 0 -0.274081318453883 -0.37210399323742022 0 -0.28156684090212319 -0.39126228317545891 0 -0.28969130638331192 -0.36984495691052699 0 -0.30210494531688731 -0.37823984902991792 0 -0.28156684090212319 -0.39126228317545891 0 -0.274081318453883 -0.37210399323742022 0 -0.28156684090212319 -0.39126228317545891 0 -0.26589265982301902 -0.39461427804334442 0 -0.28156684090212319 -0.39126228317545891 0 -0.26589265982301902 -0.39461427804334442 0 -0.2804488404924188 -0.4122955907469863 0 -0.26589265982301902 -0.39461427804334442 0 -0.25762040219633159 -0.41281349898793379 0 -0.2491354795475737 -0.39424758185502962 0 -0.274081318453883 -0.37210399323742022 0 -0.26589265982301902 -0.39461427804334442 0 -0.25267829693629529 -0.37721023905921808 0 -0.26589265982301902 -0.39461427804334442 0 -0.25267829693629529 -0.37721023905921808 0 -0.2491354795475737 -0.39424758185502962 0 -0.28661529324349638 -0.43203749023519639 0 -0.26859056092208278 -0.42767679706712358 0 -0.2804488404924188 -0.4122955907469863 0 -0.26589265982301902 -0.39461427804334442 0 -0.2804488404924188 -0.4122955907469863 0 -0.25762040219633159 -0.41281349898793379 0 -0.26859056092208278 -0.42767679706712358 0 -0.2804488404924188 -0.4122955907469863 0 -0.25762040219633159 -0.41281349898793379 0 -0.26859056092208278 -0.42767679706712358 0 -0.25762040219633159 -0.41281349898793379 0 -0.25286395948778351 -0.43736885668238312 0 -0.25286395948778351 -0.43736885668238312 0 -0.27155513384324548 -0.45547623030599133 0 -0.244261660878451 -0.46085480561739373 0 -0.26859056092208278 -0.42767679706712358 0 -0.25286395948778351 -0.43736885668238312 0 -0.27155513384324548 -0.45547623030599133 0 -0.27155513384324548 -0.45547623030599133 0 -0.244261660878451 -0.46085480561739373 0 -0.27155513384324548 -0.45547623030599133 0 -0.25334752532759142 -0.4788530086314452 0 -0.244261660878451 -0.46085480561739373 0 -0.28661529324349638 -0.43203749023519639 0 -0.26859056092208278 -0.42767679706712358 0 -0.27155513384324548 -0.45547623030599133 0 -0.27155513384324548 -0.45547623030599133 0 -0.29884860680803987 -0.45009765499458892 0 -0.28661529324349638 -0.43203749023519639 0 -0.27155513384324548 -0.45547623030599133 0 -0.29884860680803987 -0.45009765499458892 0 -0.29884860680803987 -0.45009765499458892 0 -0.30586502139809618 -0.47655612154643923 0 -0.28009861916084672 -0.47725446536498117 0 -0.27155513384324548 -0.45547623030599133 0 -0.29884860680803987 -0.45009765499458892 0 -0.28009861916084672 -0.47725446536498117 0 -0.31497301231111419 -0.45998124928556028 0 -0.29884860680803987 -0.45009765499458892 0 -0.30586502139809618 -0.47655612154643923 0 -0.32614207977283438 -0.44471907968318652 0 -0.29884860680803987 -0.45009765499458892 0 -0.32171809772921289 -0.5 0 -0.30586502139809618 -0.47655612154643923 0 -0.29173473162648861 -0.5 0 -0.30586502139809618 -0.47655612154643923 0 -0.29173473162648861 -0.5 0 -0.28009861916084672 -0.47725446536498117 0 -0.29173473162648861 -0.5 0 -0.28009861916084672 -0.47725446536498117 0 -0.26175136552376421 -0.5 0 -0.27155513384324548 -0.45547623030599133 0 -0.28009861916084672 -0.47725446536498117 0 -0.25334752532759142 -0.4788530086314452 0 -0.28009861916084672 -0.47725446536498117 0 -0.25334752532759142 -0.4788530086314452 0 -0.26175136552376421 -0.5 0 -0.25334752532759142 -0.4788530086314452 0 -0.23065037313820119 -0.4795325505003053 0 -0.2317679994210399 -0.5 0 -0.25334752532759142 -0.4788530086314452 0 -0.26175136552376421 -0.5 0 -0.2317679994210399 -0.5 0 -0.25334752532759142 -0.4788530086314452 0 -0.23065037313820119 -0.4795325505003053 0 -0.244261660878451 -0.46085480561739373 0 -0.23065037313820119 -0.4795325505003053 0 -0.244261660878451 -0.46085480561739373 0 -0.21696818791365649 -0.46623338092879602 0 -0.23065037313820119 -0.4795325505003053 0 -0.2190764290596611 -0.4769773643028799 0 -0.21696818791365649 -0.46623338092879602 0 -0.23065037313820119 -0.4795325505003053 0 -0.2190764290596611 -0.4769773643028799 0 -0.21710626493714161 -0.4872600543548043 0 -0.23065037313820119 -0.4795325505003053 0 -0.2317679994210399 -0.5 0 -0.21710626493714161 -0.4872600543548043 0 -0.25286395948778351 -0.43736885668238312 0 -0.244261660878451 -0.46085480561739373 0 -0.22806293189277529 -0.44131058174695398 0 -0.22806293189277529 -0.44131058174695398 0 -0.21696818791365649 -0.46623338092879602 0 -0.244261660878451 -0.46085480561739373 0 -0.21696818791365649 -0.46623338092879602 0 -0.244261660878451 -0.46085480561739373 0 -0.22806293189277529 -0.44131058174695398 0 -0.21696818791365649 -0.46623338092879602 0 -0.22806293189277529 -0.44131058174695398 0 -0.20448254800553831 -0.44749160947833722 0 -0.21696818791365649 -0.46623338092879602 0 -0.20448254800553831 -0.44749160947833722 0 -0.21696818791365649 -0.46623338092879602 0 -0.20389185994873329 -0.46714790813398421 0 -0.20448254800553831 -0.44749160947833722 0 -0.20389185994873329 -0.46714790813398421 0 -0.19237835994323829 -0.46354216221684569 0 -0.20448254800553831 -0.44749160947833722 0 -0.19237835994323829 -0.46354216221684569 0 -0.18023707737272759 -0.4479075242477199 0 -0.20448254800553831 -0.44749160947833722 0 -0.18023707737272759 -0.4479075242477199 0 -0.19196468754180041 -0.42564695993836249 0 -0.2317679994210399 -0.5 0 -0.21710626493714161 -0.4872600543548043 0 -0.20178463331831559 -0.50000000000000111 0 -0.21710626493714161 -0.4872600543548043 0 -0.2091218619725895 -0.48361318256245889 0 -0.20178463331831559 -0.50000000000000111 0 -0.2091218619725895 -0.48361318256245889 0 -0.20178463331831559 -0.50000000000000111 0 -0.2190764290596611 -0.4769773643028799 0 -0.21710626493714161 -0.4872600543548043 0 -0.2091218619725895 -0.48361318256245889 0 -0.2190764290596611 -0.4769773643028799 0 -0.21696818791365649 -0.46623338092879602 0 -0.2091218619725895 -0.48361318256245889 0 -0.21696818791365649 -0.46623338092879602 0 -0.20389185994873329 -0.46714790813398421 0 -0.2091218619725895 -0.48361318256245889 0 -0.21696818791365649 -0.46623338092879602 0 -0.2091218619725895 -0.48361318256245889 0 -0.20389185994873329 -0.46714790813398421 0 -0.2091218619725895 -0.48361318256245889 0 -0.19555431773154511 -0.47618179165445368 0 -0.2091218619725895 -0.48361318256245889 0 -0.19555431773154511 -0.47618179165445368 0 -0.18558405722948559 -0.48732948903253931 0 -0.20389185994873329 -0.46714790813398421 0 -0.19237835994323829 -0.46354216221684569 0 -0.19555431773154511 -0.47618179165445368 0 -0.19237835994323829 -0.46354216221684569 0 -0.19555431773154511 -0.47618179165445368 0 -0.18479349526489841 -0.47472934504029618 0 -0.19555431773154511 -0.47618179165445368 0 -0.18558405722948559 -0.48732948903253931 0 -0.18479349526489841 -0.47472934504029618 0 -0.20178463331831559 -0.50000000000000111 0 -0.18558405722948559 -0.48732948903253931 0 -0.17653181061334369 -0.4985803381824907 0 -0.2091218619725895 -0.48361318256245889 0 -0.18558405722948559 -0.48732948903253931 0 -0.2091218619725895 -0.48361318256245889 0 -0.20178463331831559 -0.50000000000000111 0 -0.18558405722948559 -0.48732948903253931 0 -0.20178463331831559 -0.50000000000000111 0 -0.17653181061334369 -0.4985803381824907 0 -0.17207973532722359 -0.5 0 -0.18558405722948559 -0.48732948903253931 0 -0.16204625248638141 -0.49104579550261829 0 -0.17189755945179799 -0.47654246417722712 0 -0.18558405722948559 -0.48732948903253931 0 -0.17653181061334369 -0.4985803381824907 0 -0.16204625248638141 -0.49104579550261829 0 -0.18558405722948559 -0.48732948903253931 0 -0.16204625248638141 -0.49104579550261829 0 -0.17653181061334369 -0.4985803381824907 0 -0.16204625248638141 -0.49104579550261829 0 -0.17207973532722359 -0.5 0 -0.16204625248638141 -0.49104579550261829 0 -0.14237483733613149 -0.5 0 -0.17653181061334369 -0.4985803381824907 0 -0.17207973532722359 -0.5 0 -0.16204625248638141 -0.49104579550261829 0 -0.16204625248638141 -0.49104579550261829 0 -0.15722912036137049 -0.47571968633209388 0 -0.17189755945179799 -0.47654246417722712 0 -0.15722912036137049 -0.47571968633209388 0 -0.17189755945179799 -0.47654246417722712 0 -0.16346408798408429 -0.46172177923853319 0 -0.17189755945179799 -0.47654246417722712 0 -0.18479349526489841 -0.47472934504029618 0 -0.17855411600334931 -0.46488865498412452 0 -0.18558405722948559 -0.48732948903253931 0 -0.17189755945179799 -0.47654246417722712 0 -0.18479349526489841 -0.47472934504029618 0 -0.19237835994323829 -0.46354216221684569 0 -0.18479349526489841 -0.47472934504029618 0 -0.17855411600334931 -0.46488865498412452 0 -0.19237835994323829 -0.46354216221684569 0 -0.17855411600334931 -0.46488865498412452 0 -0.18023707737272759 -0.4479075242477199 0 -0.17855411600334931 -0.46488865498412452 0 -0.18023707737272759 -0.4479075242477199 0 -0.16346408798408429 -0.46172177923853319 0 -0.18023707737272759 -0.4479075242477199 0 -0.16183609349488029 -0.44518281874335752 0 -0.16834133469072271 -0.43026452259726777 0 -0.18023707737272759 -0.4479075242477199 0 -0.16183609349488029 -0.44518281874335752 0 -0.16346408798408429 -0.46172177923853319 0 -0.17189755945179799 -0.47654246417722712 0 -0.17855411600334931 -0.46488865498412452 0 -0.16346408798408429 -0.46172177923853319 0 -0.16346408798408429 -0.46172177923853319 0 -0.1451699107658149 -0.46824288441858708 0 -0.14126684519844299 -0.4529954580980789 0 -0.16183609349488029 -0.44518281874335752 0 -0.16346408798408429 -0.46172177923853319 0 -0.14126684519844299 -0.4529954580980789 0 -0.15722912036137049 -0.47571968633209388 0 -0.16346408798408429 -0.46172177923853319 0 -0.1451699107658149 -0.46824288441858708 0 -0.16183609349488029 -0.44518281874335752 0 -0.14126684519844299 -0.4529954580980789 0 -0.14811161939969961 -0.43650603961756718 0 -0.14126684519844299 -0.4529954580980789 0 -0.12925744212726331 -0.43629998275471921 0 -0.1181183874658143 -0.45147491278412177 0 -0.14126684519844299 -0.4529954580980789 0 -0.12925744212726331 -0.43629998275471921 0 -0.14811161939969961 -0.43650603961756718 0 -0.1451699107658149 -0.46824288441858708 0 -0.14126684519844299 -0.4529954580980789 0 -0.1219109160279906 -0.47016973378194687 0 -0.14126684519844299 -0.4529954580980789 0 -0.1219109160279906 -0.47016973378194687 0 -0.1181183874658143 -0.45147491278412177 0 -0.14197858425718621 -0.48060776464228222 0 -0.1219109160279906 -0.47016973378194687 0 -0.1451699107658149 -0.46824288441858708 0 -0.14197858425718621 -0.48060776464228222 0 -0.1219109160279906 -0.47016973378194687 0 -0.12954218601469991 -0.48471465532121621 0 -0.14197858425718621 -0.48060776464228222 0 -0.1219109160279906 -0.47016973378194687 0 -0.1252016248406197 -0.48989954101064448 0 -0.12954218601469991 -0.48471465532121621 0 -0.13481432462882961 -0.49534535490479492 0 -0.1252016248406197 -0.48989954101064448 0 -0.13481432462882961 -0.49534535490479492 0 -0.11699517830683021 -0.49329984359857593 0 -0.13481432462882961 -0.49534535490479492 0 -0.14237483733613149 -0.5 0 -0.1126699393450394 -0.5 0 -0.12954218601469991 -0.48471465532121621 0 -0.13481432462882961 -0.49534535490479492 0 -0.14197858425718621 -0.48060776464228222 0 -0.16204625248638141 -0.49104579550261829 0 -0.14197858425718621 -0.48060776464228222 0 -0.16204625248638141 -0.49104579550261829 0 -0.13481432462882961 -0.49534535490479492 0 -0.14197858425718621 -0.48060776464228222 0 -0.16204625248638141 -0.49104579550261829 0 -0.13481432462882961 -0.49534535490479492 0 -0.16204625248638141 -0.49104579550261829 0 -0.13481432462882961 -0.49534535490479492 0 -0.14237483733613149 -0.5 0 -0.16204625248638141 -0.49104579550261829 0 -0.15722912036137049 -0.47571968633209388 0 -0.14197858425718621 -0.48060776464228222 0 -0.15722912036137049 -0.47571968633209388 0 -0.1451699107658149 -0.46824288441858708 0 -0.14197858425718621 -0.48060776464228222 0 -0.14973454762322691 -0.39794154183497099 0 -0.13405445746913611 -0.40502949172506519 0 -0.14779602751190801 -0.41135747734576389 0 -0.14973454762322691 -0.39794154183497099 0 -0.14779602751190801 -0.41135747734576389 0 -0.16105201124949889 -0.40927860693504731 0 -0.14973454762322691 -0.39794154183497099 0 -0.1612028534957396 -0.38161944141293341 0 -0.14331713641722341 -0.37278574873320769 0 -0.14973454762322691 -0.39794154183497099 0 -0.14331713641722341 -0.37278574873320769 0 -0.1279409644580716 -0.38975093746775302 0 -0.14331713641722341 -0.37278574873320769 0 -0.12954167267392819 -0.37092982091023941 0 -0.14973454762322691 -0.39794154183497099 0 -0.1279409644580716 -0.38975093746775302 0 -0.14331713641722341 -0.37278574873320769 0 -0.14973454762322691 -0.39794154183497099 0 -0.1279409644580716 -0.38975093746775302 0 -0.13405445746913611 -0.40502949172506519 0 -0.13405445746913611 -0.40502949172506519 0 -0.13908786717193969 -0.42141590695978481 0 -0.12126011619242399 -0.41923157065313771 0 -0.13405445746913611 -0.40502949172506519 0 -0.13908786717193969 -0.42141590695978481 0 -0.14779602751190801 -0.41135747734576389 0 -0.13908786717193969 -0.42141590695978481 0 -0.12925744212726331 -0.43629998275471921 0 -0.12126011619242399 -0.41923157065313771 0 -0.13908786717193969 -0.42141590695978481 0 -0.12925744212726331 -0.43629998275471921 0 -0.14811161939969961 -0.43650603961756718 0 -0.13908786717193969 -0.42141590695978481 0 -0.14811161939969961 -0.43650603961756718 0 -0.1550512540457383 -0.42312183927395142 0 -0.13908786717193969 -0.42141590695978481 0 -0.1550512540457383 -0.42312183927395142 0 -0.14779602751190801 -0.41135747734576389 0 -0.1550512540457383 -0.42312183927395142 0 -0.14779602751190801 -0.41135747734576389 0 -0.16105201124949889 -0.40927860693504731 0 -0.16105201124949889 -0.40927860693504731 0 -0.16834133469072271 -0.43026452259726777 0 -0.18117935291569909 -0.41260571966953058 0 -0.1550512540457383 -0.42312183927395142 0 -0.16105201124949889 -0.40927860693504731 0 -0.16834133469072271 -0.43026452259726777 0 -0.16183609349488029 -0.44518281874335752 0 -0.14811161939969961 -0.43650603961756718 0 -0.16834133469072271 -0.43026452259726777 0 -0.14811161939969961 -0.43650603961756718 0 -0.1550512540457383 -0.42312183927395142 0 -0.16834133469072271 -0.43026452259726777 0 -0.16834133469072271 -0.43026452259726777 0 -0.19196468754180041 -0.42564695993836249 0 -0.16834133469072271 -0.43026452259726777 0 -0.18117935291569909 -0.41260571966953058 0 -0.19196468754180041 -0.42564695993836249 0 -0.18023707737272759 -0.4479075242477199 0 -0.16834133469072271 -0.43026452259726777 0 -0.19196468754180041 -0.42564695993836249 0 -0.16105201124949889 -0.40927860693504731 0 -0.18117935291569909 -0.41260571966953058 0 -0.18520231135626461 -0.39466589002565772 0 -0.16105201124949889 -0.40927860693504731 0 -0.18520231135626461 -0.39466589002565772 0 -0.14973454762322691 -0.39794154183497099 0 -0.16355520128586179 -0.39546226427394698 0 -0.1612028534957396 -0.38161944141293341 0 -0.16105201124949889 -0.40927860693504731 0 -0.18520231135626461 -0.39466589002565772 0 -0.16355520128586179 -0.39546226427394698 0 -0.14973454762322691 -0.39794154183497099 0 -0.16105201124949889 -0.40927860693504731 0 -0.16355520128586179 -0.39546226427394698 0 -0.18520231135626461 -0.39466589002565772 0 -0.16355520128586179 -0.39546226427394698 0 -0.1612028534957396 -0.38161944141293341 0 -0.18520231135626461 -0.39466589002565772 0 -0.1612028534957396 -0.38161944141293341 0 -0.17818153256261629 -0.37114769566942979 0 -0.18520231135626461 -0.39466589002565772 0 -0.20935261146303041 -0.38005317311626818 0 -0.17818153256261629 -0.37114769566942979 0 -0.18520231135626461 -0.39466589002565772 0 -0.20935261146303041 -0.38005317311626818 0 -0.18117935291569909 -0.41260571966953058 0 -0.18520231135626461 -0.39466589002565772 0 -0.20308578845703959 -0.40402054469351312 0 -0.18520231135626461 -0.39466589002565772 0 -0.20308578845703959 -0.40402054469351312 0 -0.20935261146303041 -0.38005317311626818 0 -0.20308578845703959 -0.40402054469351312 0 -0.20935261146303041 -0.38005317311626818 0 -0.22570487674579209 -0.39950084532368602 0 -0.18117935291569909 -0.41260571966953058 0 -0.20308578845703959 -0.40402054469351312 0 -0.19196468754180041 -0.42564695993836249 0 -0.20308578845703959 -0.40402054469351312 0 -0.19196468754180041 -0.42564695993836249 0 -0.21558804039287821 -0.42102939727945721 0 -0.20308578845703959 -0.40402054469351312 0 -0.21558804039287821 -0.42102939727945721 0 -0.22570487674579209 -0.39950084532368602 0 -0.19196468754180041 -0.42564695993836249 0 -0.21558804039287821 -0.42102939727945721 0 -0.22806293189277529 -0.44131058174695398 0 -0.20448254800553831 -0.44749160947833722 0 -0.21558804039287821 -0.42102939727945721 0 -0.20448254800553831 -0.44749160947833722 0 -0.19196468754180041 -0.42564695993836249 0 -0.21558804039287821 -0.42102939727945721 0 -0.22806293189277529 -0.44131058174695398 0 -0.21558804039287821 -0.42102939727945721 0 -0.23921139324395649 -0.41641183462055409 0 -0.22806293189277529 -0.44131058174695398 0 -0.23921139324395649 -0.41641183462055409 0 -0.21558804039287821 -0.42102939727945721 0 -0.23921139324395649 -0.41641183462055409 0 -0.21558804039287821 -0.42102939727945721 0 -0.23921139324395649 -0.41641183462055409 0 -0.22570487674579209 -0.39950084532368602 0 -0.25762040219633159 -0.41281349898793379 0 -0.23921139324395649 -0.41641183462055409 0 -0.2491354795475737 -0.39424758185502962 0 -0.25762040219633159 -0.41281349898793379 0 -0.23921139324395649 -0.41641183462055409 0 -0.25286395948778351 -0.43736885668238312 0 -0.22806293189277529 -0.44131058174695398 0 -0.23921139324395649 -0.41641183462055409 0 -0.25762040219633159 -0.41281349898793379 0 -0.25286395948778351 -0.43736885668238312 0 -0.23921139324395649 -0.41641183462055409 0 -0.20935261146303041 -0.38005317311626818 0 -0.2340748352524975 -0.38329045911221621 0 -0.23350291156979611 -0.36544045620687871 0 -0.20935261146303041 -0.38005317311626818 0 -0.2340748352524975 -0.38329045911221621 0 -0.22570487674579209 -0.39950084532368602 0 -0.2340748352524975 -0.38329045911221621 0 -0.22570487674579209 -0.39950084532368602 0 -0.2491354795475737 -0.39424758185502962 0 -0.23921139324395649 -0.41641183462055409 0 -0.22570487674579209 -0.39950084532368602 0 -0.2491354795475737 -0.39424758185502962 0 -0.23921139324395649 -0.41641183462055409 0 -0.2491354795475737 -0.39424758185502962 0 -0.25267829693629529 -0.37721023905921808 0 -0.2340748352524975 -0.38329045911221621 0 -0.23350291156979611 -0.36544045620687871 0 -0.25267829693629529 -0.37721023905921808 0 -0.2340748352524975 -0.38329045911221621 0 -0.2491354795475737 -0.39424758185502962 0 -0.25765321167656191 -0.35082773929748912 0 -0.25267829693629529 -0.37721023905921808 0 -0.23350291156979611 -0.36544045620687871 0 -0.20935261146303041 -0.38005317311626818 0 -0.23350291156979611 -0.36544045620687871 0 -0.20935261146303041 -0.38005317311626818 0 -0.23350291156979611 -0.36544045620687871 0 -0.21861603636200541 -0.35159505139228281 0 -0.23350291156979611 -0.36544045620687871 0 -0.2382503854121765 -0.33608356444967119 0 -0.21861603636200541 -0.35159505139228281 0 -0.25765321167656191 -0.35082773929748912 0 -0.23350291156979611 -0.36544045620687871 0 -0.25765321167656191 -0.35082773929748912 0 -0.23350291156979611 -0.36544045620687871 0 -0.2382503854121765 -0.33608356444967119 0 -0.26125226075895552 -0.32951300830988711 0 -0.2382503854121765 -0.33608356444967119 0 -0.24753126157558589 -0.31963043698069538 0 -0.2382503854121765 -0.33608356444967119 0 -0.24753126157558589 -0.31963043698069538 0 -0.23433247516008671 -0.30791170828251818 0 -0.2156154942942631 -0.32899037074482212 0 -0.23433247516008671 -0.30791170828251818 0 -0.2382503854121765 -0.33608356444967119 0 -0.2156154942942631 -0.32899037074482212 0 -0.23433247516008671 -0.30791170828251818 0 -0.2382503854121765 -0.33608356444967119 0 -0.2156154942942631 -0.32899037074482212 0 -0.21861603636200541 -0.35159505139228281 0 -0.2156154942942631 -0.32899037074482212 0 -0.1968985134284397 -0.35006903320712601 0 -0.21861603636200541 -0.35159505139228281 0 -0.2156154942942631 -0.32899037074482212 0 -0.1968985134284397 -0.35006903320712601 0 -0.2156154942942631 -0.32899037074482212 0 -0.1981055924437323 -0.32990453222403338 0 -0.1968985134284397 -0.35006903320712601 0 -0.2156154942942631 -0.32899037074482212 0 -0.23433247516008671 -0.30791170828251818 0 -0.20090624704543869 -0.30558228282934541 0 -0.2156154942942631 -0.32899037074482212 0 -0.1981055924437323 -0.32990453222403338 0 -0.20090624704543869 -0.30558228282934541 0 -0.1981055924437323 -0.32990453222403338 0 -0.20090624704543869 -0.30558228282934541 0 -0.18444403941520501 -0.3222806730206893 0 -0.20090624704543869 -0.30558228282934541 0 -0.18444403941520501 -0.3222806730206893 0 -0.1981055924437323 -0.32990453222403338 0 -0.1968985134284397 -0.35006903320712601 0 -0.18492964114360191 -0.33780647905371691 0 -0.1981055924437323 -0.32990453222403338 0 -0.18492964114360191 -0.33780647905371691 0 -0.18444403941520501 -0.3222806730206893 0 -0.20935261146303041 -0.38005317311626818 0 -0.1968985134284397 -0.35006903320712601 0 -0.17818153256261629 -0.37114769566942979 0 -0.1968985134284397 -0.35006903320712601 0 -0.17818153256261629 -0.37114769566942979 0 -0.20935261146303041 -0.38005317311626818 0 -0.1968985134284397 -0.35006903320712601 0 -0.21861603636200541 -0.35159505139228281 0 -0.23190529603631399 -0.25240867011539941 0 -0.23506131662697829 -0.26740230914041402 0 -0.21760187781827181 -0.25419728823726118 0 -0.23506131662697829 -0.26740230914041402 0 -0.216153830016861 -0.27350470718570291 0 -0.21760187781827181 -0.25419728823726118 0 -0.25662264465878432 -0.27115822271739082 0 -0.2465658025307402 -0.25686279477778151 0 -0.23506131662697829 -0.26740230914041402 0 -0.23190529603631399 -0.25240867011539941 0 -0.2465658025307402 -0.25686279477778151 0 -0.23506131662697829 -0.26740230914041402 0 -0.2465658025307402 -0.25686279477778151 0 -0.23506131662697829 -0.26740230914041402 0 -0.25662264465878432 -0.27115822271739082 0 -0.23506131662697829 -0.26740230914041402 0 -0.24663593115704921 -0.28625109768023738 0 -0.23506131662697829 -0.26740230914041402 0 -0.23082973873849291 -0.28056722840339682 0 -0.24663593115704921 -0.28625109768023738 0 -0.23506131662697829 -0.26740230914041402 0 -0.23082973873849291 -0.28056722840339682 0 -0.216153830016861 -0.27350470718570291 0 -0.23082973873849291 -0.28056722840339682 0 -0.21736845467567251 -0.28888389263800163 0 -0.216153830016861 -0.27350470718570291 0 -0.23082973873849291 -0.28056722840339682 0 -0.23433247516008671 -0.30791170828251818 0 -0.21736845467567251 -0.28888389263800163 0 -0.23082973873849291 -0.28056722840339682 0 -0.24663593115704921 -0.28625109768023738 0 -0.23433247516008671 -0.30791170828251818 0 -0.25628992497112491 -0.30501346688070519 0 -0.24753126157558589 -0.31963043698069538 0 -0.23433247516008671 -0.30791170828251818 0 -0.25628992497112491 -0.30501346688070519 0 -0.24663593115704921 -0.28625109768023738 0 -0.23433247516008671 -0.30791170828251818 0 -0.23433247516008671 -0.30791170828251818 0 -0.20090624704543869 -0.30558228282934541 0 -0.21736845467567251 -0.28888389263800163 0 -0.20090624704543869 -0.30558228282934541 0 -0.21736845467567251 -0.28888389263800163 0 -0.20090624704543869 -0.30558228282934541 0 -0.19755363564619999 -0.28512796657089712 0 -0.17955006318582339 -0.30671932567548121 0 -0.20090624704543869 -0.30558228282934541 0 -0.17955006318582339 -0.30671932567548121 0 -0.18444403941520501 -0.3222806730206893 0 -0.19755363564619999 -0.28512796657089712 0 -0.21736845467567251 -0.28888389263800163 0 -0.216153830016861 -0.27350470718570291 0 -0.20090624704543869 -0.30558228282934541 0 -0.19755363564619999 -0.28512796657089712 0 -0.21736845467567251 -0.28888389263800163 0 -0.19755363564619999 -0.28512796657089712 0 -0.216153830016861 -0.27350470718570291 0 -0.1985079565955509 -0.2648495581242471 0 -0.19755363564619999 -0.28512796657089712 0 -0.1985079565955509 -0.2648495581242471 0 -0.18079740324809801 -0.27274507175844981 0 -0.1985079565955509 -0.2648495581242471 0 -0.18024488942319691 -0.25378078528003239 0 -0.19850728873847889 -0.24890370094164491 0 -0.216153830016861 -0.27350470718570291 0 -0.1985079565955509 -0.2648495581242471 0 -0.21760187781827181 -0.25419728823726118 0 -0.1985079565955509 -0.2648495581242471 0 -0.21760187781827181 -0.25419728823726118 0 -0.19850728873847889 -0.24890370094164491 0 -0.16180816582484039 -0.25059360564324651 0 -0.16569614310299199 -0.26432130050281738 0 -0.18024488942319691 -0.25378078528003239 0 -0.16180816582484039 -0.25059360564324651 0 -0.16569614310299199 -0.26432130050281738 0 -0.15116313881795321 -0.2777653555565992 0 -0.16180816582484039 -0.25059360564324651 0 -0.15116313881795321 -0.2777653555565992 0 -0.16180816582484039 -0.25059360564324651 0 -0.16569614310299199 -0.26432130050281738 0 -0.16569614310299199 -0.26432130050281738 0 -0.18024488942319691 -0.25378078528003239 0 -0.18079740324809801 -0.27274507175844981 0 -0.1985079565955509 -0.2648495581242471 0 -0.18024488942319691 -0.25378078528003239 0 -0.18079740324809801 -0.27274507175844981 0 -0.18079740324809801 -0.27274507175844981 0 -0.16657556048631561 -0.27983990278265392 0 -0.1765148292431406 -0.28887535544926352 0 -0.16569614310299199 -0.26432130050281738 0 -0.18079740324809801 -0.27274507175844981 0 -0.16657556048631561 -0.27983990278265392 0 -0.16569614310299199 -0.26432130050281738 0 -0.16657556048631561 -0.27983990278265392 0 -0.15116313881795321 -0.2777653555565992 0 -0.16657556048631561 -0.27983990278265392 0 -0.1765148292431406 -0.28887535544926352 0 -0.16139723649620011 -0.29832153139447432 0 -0.16657556048631561 -0.27983990278265392 0 -0.16139723649620011 -0.29832153139447432 0 -0.15116313881795321 -0.2777653555565992 0 -0.19755363564619999 -0.28512796657089712 0 -0.18079740324809801 -0.27274507175844981 0 -0.1765148292431406 -0.28887535544926352 0 -0.19755363564619999 -0.28512796657089712 0 -0.1765148292431406 -0.28887535544926352 0 -0.17955006318582339 -0.30671932567548121 0 -0.1765148292431406 -0.28887535544926352 0 -0.17955006318582339 -0.30671932567548121 0 -0.16139723649620011 -0.29832153139447432 0 -0.16139723649620011 -0.29832153139447432 0 -0.16987053149794831 -0.31705868920075109 0 -0.15578624879789679 -0.3197057145135434 0 -0.17955006318582339 -0.30671932567548121 0 -0.16139723649620011 -0.29832153139447432 0 -0.16987053149794831 -0.31705868920075109 0 -0.1405181118110625 -0.30493710546995029 0 -0.15116313881795321 -0.2777653555565992 0 -0.13370906969254409 -0.27336374496182919 0 -0.1405181118110625 -0.30493710546995029 0 -0.13370906969254409 -0.27336374496182919 0 -0.1220911833121683 -0.28711305115942409 0 -0.16139723649620011 -0.29832153139447432 0 -0.1405181118110625 -0.30493710546995029 0 -0.15578624879789679 -0.3197057145135434 0 -0.1405181118110625 -0.30493710546995029 0 -0.15578624879789679 -0.3197057145135434 0 -0.1405181118110625 -0.30493710546995029 0 -0.1311919661336382 -0.31124018649745983 0 -0.1220911833121683 -0.28711305115942409 0 -0.1405181118110625 -0.30493710546995029 0 -0.1220911833121683 -0.28711305115942409 0 -0.16139723649620011 -0.29832153139447432 0 -0.1405181118110625 -0.30493710546995029 0 -0.15116313881795321 -0.2777653555565992 0 -0.1405181118110625 -0.30493710546995029 0 -0.15116313881795321 -0.2777653555565992 0 -0.15116313881795321 -0.2777653555565992 0 -0.13370906969254409 -0.27336374496182919 0 -0.14552188088216611 -0.26004099895123972 0 -0.13370906969254409 -0.27336374496182919 0 -0.1206528625699053 -0.26465102107573729 0 -0.1220911833121683 -0.28711305115942409 0 -0.13370906969254409 -0.27336374496182919 0 -0.13363707598743549 -0.2532616675208415 0 -0.14552188088216611 -0.26004099895123972 0 -0.13370906969254409 -0.27336374496182919 0 -0.13363707598743549 -0.2532616675208415 0 -0.1206528625699053 -0.26465102107573729 0 -0.16180816582484039 -0.25059360564324651 0 -0.15116313881795321 -0.2777653555565992 0 -0.14552188088216611 -0.26004099895123972 0 -0.16180816582484039 -0.25059360564324651 0 -0.14552188088216611 -0.26004099895123972 0 -0.14729195408805709 -0.24522062107368231 0 -0.13363707598743549 -0.2532616675208415 0 -0.14552188088216611 -0.26004099895123972 0 -0.14729195408805709 -0.24522062107368231 0 -0.16675649676248619 -0.35608606118617819 0 -0.17894960313642311 -0.35081766646569679 0 -0.1679818317849712 -0.33897906321203308 0 -0.1679818317849712 -0.33897906321203308 0 -0.15151962415473741 -0.35567745340337698 0 -0.16675649676248619 -0.35608606118617819 0 -0.1679818317849712 -0.33897906321203308 0 -0.15151962415473741 -0.35567745340337698 0 -0.1679818317849712 -0.33897906321203308 0 -0.15960462708769479 -0.33792017872018287 0 -0.15151962415473741 -0.35567745340337698 0 -0.16675649676248619 -0.35608606118617819 0 -0.1597681963538615 -0.36737675030103462 0 -0.17818153256261629 -0.37114769566942979 0 -0.16675649676248619 -0.35608606118617819 0 -0.1597681963538615 -0.36737675030103462 0 -0.15151962415473741 -0.35567745340337698 0 -0.1612028534957396 -0.38161944141293341 0 -0.1597681963538615 -0.36737675030103462 0 -0.17818153256261629 -0.37114769566942979 0 -0.1968985134284397 -0.35006903320712601 0 -0.17894960313642311 -0.35081766646569679 0 -0.18492964114360191 -0.33780647905371691 0 -0.16675649676248619 -0.35608606118617819 0 -0.17818153256261629 -0.37114769566942979 0 -0.17894960313642311 -0.35081766646569679 0 -0.1968985134284397 -0.35006903320712601 0 -0.17818153256261629 -0.37114769566942979 0 -0.17894960313642311 -0.35081766646569679 0 -0.18444403941520501 -0.3222806730206893 0 -0.1679818317849712 -0.33897906321203308 0 -0.17105438578473889 -0.33447432355712842 0 -0.17894960313642311 -0.35081766646569679 0 -0.18492964114360191 -0.33780647905371691 0 -0.1679818317849712 -0.33897906321203308 0 -0.18444403941520501 -0.3222806730206893 0 -0.1679818317849712 -0.33897906321203308 0 -0.18492964114360191 -0.33780647905371691 0 -0.18444403941520501 -0.3222806730206893 0 -0.1679818317849712 -0.33897906321203308 0 -0.18444403941520501 -0.3222806730206893 0 -0.16987053149794831 -0.31705868920075109 0 -0.17105438578473889 -0.33447432355712842 0 -0.17955006318582339 -0.30671932567548121 0 -0.18444403941520501 -0.3222806730206893 0 -0.16987053149794831 -0.31705868920075109 0 -0.16987053149794831 -0.31705868920075109 0 -0.17105438578473889 -0.33447432355712842 0 -0.15578624879789679 -0.3197057145135434 0 -0.17105438578473889 -0.33447432355712842 0 -0.15578624879789679 -0.3197057145135434 0 -0.1679818317849712 -0.33897906321203308 0 -0.17105438578473889 -0.33447432355712842 0 -0.15960462708769479 -0.33792017872018287 0 -0.17105438578473889 -0.33447432355712842 0 -0.15960462708769479 -0.33792017872018287 0 -0.15591800347803411 -0.33073113561137019 0 -0.17105438578473889 -0.33447432355712842 0 -0.15591800347803411 -0.33073113561137019 0 -0.15578624879789679 -0.3197057145135434 0 -0.15960462708769479 -0.33792017872018287 0 -0.15040679186219669 -0.34145227619889901 0 -0.15591800347803411 -0.33073113561137019 0 -0.15040679186219669 -0.34145227619889901 0 -0.15591800347803411 -0.33073113561137019 0 -0.14674455792219071 -0.33330262209606842 0 -0.15591800347803411 -0.33073113561137019 0 -0.14674455792219071 -0.33330262209606842 0 -0.1450953244353114 -0.32475637176243233 0 -0.14674455792219071 -0.33330262209606842 0 -0.1435783332057908 -0.34098955750617738 0 -0.13918556168713 -0.3328934063491793 0 -0.14674455792219071 -0.33330262209606842 0 -0.1450953244353114 -0.32475637176243233 0 -0.13918556168713 -0.3328934063491793 0 -0.15040679186219669 -0.34145227619889901 0 -0.14674455792219071 -0.33330262209606842 0 -0.1435783332057908 -0.34098955750617738 0 -0.1405181118110625 -0.30493710546995029 0 -0.15578624879789679 -0.3197057145135434 0 -0.1450953244353114 -0.32475637176243233 0 -0.15591800347803411 -0.33073113561137019 0 -0.15578624879789679 -0.3197057145135434 0 -0.1450953244353114 -0.32475637176243233 0 -0.1405181118110625 -0.30493710546995029 0 -0.1450953244353114 -0.32475637176243233 0 -0.13338004563277989 -0.32315723294693138 0 -0.1405181118110625 -0.30493710546995029 0 -0.13338004563277989 -0.32315723294693138 0 -0.1405181118110625 -0.30493710546995029 0 -0.1311919661336382 -0.31124018649745983 0 -0.13338004563277989 -0.32315723294693138 0 -0.13338004563277989 -0.32315723294693138 0 -0.13048231400521609 -0.3224741625296807 0 -0.13918556168713 -0.3328934063491793 0 -0.1450953244353114 -0.32475637176243233 0 -0.13338004563277989 -0.32315723294693138 0 -0.13918556168713 -0.3328934063491793 0 -0.12805144640391769 -0.32546720385265038 0 -0.13048231400521609 -0.3224741625296807 0 -0.12906235360867871 -0.33057552674331669 0 -0.12530360792056811 -0.32590387168458479 0 -0.12805144640391769 -0.32546720385265038 0 -0.12906235360867871 -0.33057552674331669 0 -0.12530360792056811 -0.32590387168458479 0 -0.12805144640391769 -0.32546720385265038 0 -0.12735751008120799 -0.32291525445301961 0 -0.12735751008120799 -0.32291525445301961 0 -0.12528521203825899 -0.32053522452263628 0 -0.1292861191661836 -0.31747235504250682 0 -0.12530360792056811 -0.32590387168458479 0 -0.12735751008120799 -0.32291525445301961 0 -0.12528521203825899 -0.32053522452263628 0 -0.12805144640391769 -0.32546720385265038 0 -0.12735751008120799 -0.32291525445301961 0 -0.13048231400521609 -0.3224741625296807 0 -0.13338004563277989 -0.32315723294693138 0 -0.13048231400521609 -0.3224741625296807 0 -0.1292861191661836 -0.31747235504250682 0 -0.12735751008120799 -0.32291525445301961 0 -0.13048231400521609 -0.3224741625296807 0 -0.1292861191661836 -0.31747235504250682 0 -0.1311919661336382 -0.31124018649745983 0 -0.1292861191661836 -0.31747235504250682 0 -0.1218882644260182 -0.31628381945792899 0 -0.1311919661336382 -0.31124018649745983 0 -0.13338004563277989 -0.32315723294693138 0 -0.1292861191661836 -0.31747235504250682 0 -0.12528521203825899 -0.32053522452263628 0 -0.1292861191661836 -0.31747235504250682 0 -0.1218882644260182 -0.31628381945792899 0 -0.12906235360867871 -0.33057552674331669 0 -0.12723566247473331 -0.34448525978245309 0 -0.13689972521121971 -0.34762995563144422 0 -0.13048231400521609 -0.3224741625296807 0 -0.13689972521121971 -0.34762995563144422 0 -0.13048231400521609 -0.3224741625296807 0 -0.12906235360867871 -0.33057552674331669 0 -0.13689972521121971 -0.34762995563144422 0 -0.13048231400521609 -0.3224741625296807 0 -0.13918556168713 -0.3328934063491793 0 -0.13689972521121971 -0.34762995563144422 0 -0.1435783332057908 -0.34098955750617738 0 -0.13918556168713 -0.3328934063491793 0 -0.13689972521121971 -0.34762995563144422 0 -0.12530360792056811 -0.32590387168458479 0 -0.12906235360867871 -0.33057552674331669 0 -0.1238073112747016 -0.33185980778004409 0 -0.12906235360867871 -0.33057552674331669 0 -0.1236047499552851 -0.33712275366872357 0 -0.1238073112747016 -0.33185980778004409 0 -0.12906235360867871 -0.33057552674331669 0 -0.12723566247473331 -0.34448525978245309 0 -0.1236047499552851 -0.33712275366872357 0 -0.13493346461383579 -0.35637011501225802 0 -0.13689972521121971 -0.34762995563144422 0 -0.14331713641722341 -0.37278574873320769 0 -0.12723566247473331 -0.34448525978245309 0 -0.1265521542025258 -0.35408523076482451 0 -0.13689972521121971 -0.34762995563144422 0 -0.1265521542025258 -0.35408523076482451 0 -0.13493346461383579 -0.35637011501225802 0 -0.13689972521121971 -0.34762995563144422 0 -0.15960462708769479 -0.33792017872018287 0 -0.15040679186219669 -0.34145227619889901 0 -0.15151962415473741 -0.35567745340337698 0 -0.15040679186219669 -0.34145227619889901 0 -0.1435783332057908 -0.34098955750617738 0 -0.1451443221702336 -0.35170699829462099 0 -0.1435783332057908 -0.34098955750617738 0 -0.13689972521121971 -0.34762995563144422 0 -0.1451443221702336 -0.35170699829462099 0 -0.13689972521121971 -0.34762995563144422 0 -0.1451443221702336 -0.35170699829462099 0 -0.14331713641722341 -0.37278574873320769 0 -0.15040679186219669 -0.34145227619889901 0 -0.1451443221702336 -0.35170699829462099 0 -0.15151962415473741 -0.35567745340337698 0 -0.1597681963538615 -0.36737675030103462 0 -0.15151962415473741 -0.35567745340337698 0 -0.14331713641722341 -0.37278574873320769 0 -0.1612028534957396 -0.38161944141293341 0 -0.1597681963538615 -0.36737675030103462 0 -0.14331713641722341 -0.37278574873320769 0 -0.1451443221702336 -0.35170699829462099 0 -0.15151962415473741 -0.35567745340337698 0 -0.14331713641722341 -0.37278574873320769 0 -0.1265521542025258 -0.35408523076482451 0 -0.13493346461383579 -0.35637011501225802 0 -0.1142696659494902 -0.36923708224716861 0 -0.13493346461383579 -0.35637011501225802 0 -0.14331713641722341 -0.37278574873320769 0 -0.12954167267392819 -0.37092982091023941 0 -0.13493346461383579 -0.35637011501225802 0 -0.12954167267392819 -0.37092982091023941 0 -0.1142696659494902 -0.36923708224716861 0 -0.13689972521121971 -0.34762995563144422 0 -0.14331713641722341 -0.37278574873320769 0 -0.13493346461383579 -0.35637011501225802 0 -0.1142696659494902 -0.36923708224716861 0 -0.1142696659494902 -0.36923708224716861 0 -0.1108306068255583 -0.35668570239979419 0 -0.11942225276335031 -0.35270374115079872 0 -0.1142696659494902 -0.36923708224716861 0 -0.1108306068255583 -0.35668570239979419 0 -0.093744099962334404 -0.3605901655978293 0 -0.1142696659494902 -0.36923708224716861 0 -0.093744099962334404 -0.3605901655978293 0 -0.093605867285144306 -0.38210404948207882 0 -0.093882332639525348 -0.33907628171357979 0 -0.093744099962334404 -0.3605901655978293 0 -0.1014866852977343 -0.35271598439941437 0 -0.093882332639525348 -0.33907628171357979 0 -0.093744099962334404 -0.3605901655978293 0 -0.1014866852977343 -0.35271598439941437 0 -0.1108306068255583 -0.35668570239979419 0 -0.093744099962334404 -0.3605901655978293 0 -0.1014866852977343 -0.35271598439941437 0 -0.1019361461625108 -0.34316679415779061 0 -0.093882332639525348 -0.33907628171357979 0 -0.1014866852977343 -0.35271598439941437 0 -0.1087212301557281 -0.34525372337674742 0 -0.1108306068255583 -0.35668570239979419 0 -0.1014866852977343 -0.35271598439941437 0 -0.1087212301557281 -0.34525372337674742 0 -0.1019361461625108 -0.34316679415779061 0 -0.1087212301557281 -0.34525372337674742 0 -0.11449217648709729 -0.34940139185962998 0 -0.11784210507665489 -0.34287342091232631 0 -0.1265521542025258 -0.35408523076482451 0 -0.1142696659494902 -0.36923708224716861 0 -0.11942225276335031 -0.35270374115079872 0 -0.1087212301557281 -0.34525372337674742 0 -0.11449217648709729 -0.34940139185962998 0 -0.1108306068255583 -0.35668570239979419 0 -0.11449217648709729 -0.34940139185962998 0 -0.1108306068255583 -0.35668570239979419 0 -0.11942225276335031 -0.35270374115079872 0 -0.11449217648709729 -0.34940139185962998 0 -0.11942225276335031 -0.35270374115079872 0 -0.11784210507665489 -0.34287342091232631 0 -0.12723566247473331 -0.34448525978245309 0 -0.1265521542025258 -0.35408523076482451 0 -0.11942225276335031 -0.35270374115079872 0 -0.12723566247473331 -0.34448525978245309 0 -0.11942225276335031 -0.35270374115079872 0 -0.11784210507665489 -0.34287342091232631 0 -0.11784210507665489 -0.34287342091232631 0 -0.1236047499552851 -0.33712275366872357 0 -0.1168454862859193 -0.3343328813887893 0 -0.12723566247473331 -0.34448525978245309 0 -0.11784210507665489 -0.34287342091232631 0 -0.1236047499552851 -0.33712275366872357 0 -0.1236047499552851 -0.33712275366872357 0 -0.1238073112747016 -0.33185980778004409 0 -0.1168454862859193 -0.3343328813887893 0 -0.12530360792056811 -0.32590387168458479 0 -0.1238073112747016 -0.33185980778004409 0 -0.1214319270730902 -0.32750551362694308 0 -0.1168454862859193 -0.3343328813887893 0 -0.1163731425889139 -0.3290613664392798 0 -0.1214319270730902 -0.32750551362694308 0 -0.1238073112747016 -0.33185980778004409 0 -0.1168454862859193 -0.3343328813887893 0 -0.1214319270730902 -0.32750551362694308 0 -0.1168454862859193 -0.3343328813887893 0 -0.1163731425889139 -0.3290613664392798 0 -0.1111183445467501 -0.32842964184179629 0 -0.1111183445467501 -0.32842964184179629 0 -0.11062615177038709 -0.3358526717393383 0 -0.10679627015973329 -0.3303959434188084 0 -0.1168454862859193 -0.3343328813887893 0 -0.1111183445467501 -0.32842964184179629 0 -0.11062615177038709 -0.3358526717393383 0 -0.11784210507665489 -0.34287342091232631 0 -0.1168454862859193 -0.3343328813887893 0 -0.11062615177038709 -0.3358526717393383 0 -0.1087212301557281 -0.34525372337674742 0 -0.11784210507665489 -0.34287342091232631 0 -0.11062615177038709 -0.3358526717393383 0 -0.12528521203825899 -0.32053522452263628 0 -0.1218882644260182 -0.31628381945792899 0 -0.1207253094385301 -0.32256466164760372 0 -0.1218882644260182 -0.31628381945792899 0 -0.1207253094385301 -0.32256466164760372 0 -0.1144555671291249 -0.32175397254165528 0 -0.12530360792056811 -0.32590387168458479 0 -0.12528521203825899 -0.32053522452263628 0 -0.1207253094385301 -0.32256466164760372 0 -0.12530360792056811 -0.32590387168458479 0 -0.1207253094385301 -0.32256466164760372 0 -0.1214319270730902 -0.32750551362694308 0 -0.1163731425889139 -0.3290613664392798 0 -0.1207253094385301 -0.32256466164760372 0 -0.1214319270730902 -0.32750551362694308 0 -0.1163731425889139 -0.3290613664392798 0 -0.1111183445467501 -0.32842964184179629 0 -0.1144555671291249 -0.32175397254165528 0 -0.1163731425889139 -0.3290613664392798 0 -0.1207253094385301 -0.32256466164760372 0 -0.1144555671291249 -0.32175397254165528 0 -0.1111183445467501 -0.32842964184179629 0 -0.1144555671291249 -0.32175397254165528 0 -0.1069531871339168 -0.32397590891302752 0 -0.1218882644260182 -0.31628381945792899 0 -0.1144555671291249 -0.32175397254165528 0 -0.113597128035994 -0.31389801618099811 0 -0.1144555671291249 -0.32175397254165528 0 -0.113597128035994 -0.31389801618099811 0 -0.10658082563776861 -0.31668480324164711 0 -0.098571687424305762 -0.32363272768577228 0 -0.094020565316716292 -0.31756239782933038 0 -0.093882332639525348 -0.33907628171357979 0 -0.113597128035994 -0.31389801618099811 0 -0.10658082563776861 -0.31668480324164711 0 -0.1078068769430429 -0.30690765836828648 0 -0.10658082563776861 -0.31668480324164711 0 -0.1023596466990854 -0.32028155261965818 0 -0.10096656167564461 -0.31314309880783397 0 -0.1023596466990854 -0.32028155261965818 0 -0.1069531871339168 -0.32397590891302752 0 -0.10162933079055721 -0.32810030745845892 0 -0.1144555671291249 -0.32175397254165528 0 -0.10658082563776861 -0.31668480324164711 0 -0.1069531871339168 -0.32397590891302752 0 -0.10658082563776861 -0.31668480324164711 0 -0.1023596466990854 -0.32028155261965818 0 -0.1069531871339168 -0.32397590891302752 0 -0.1111183445467501 -0.32842964184179629 0 -0.1069531871339168 -0.32397590891302752 0 -0.10679627015973329 -0.3303959434188084 0 -0.1069531871339168 -0.32397590891302752 0 -0.10162933079055721 -0.32810030745845892 0 -0.10679627015973329 -0.3303959434188084 0 -0.1023596466990854 -0.32028155261965818 0 -0.10162933079055721 -0.32810030745845892 0 -0.098571687424305762 -0.32363272768577228 0 -0.1023596466990854 -0.32028155261965818 0 -0.098571687424305762 -0.32363272768577228 0 -0.10096656167564461 -0.31314309880783397 0 -0.098571687424305762 -0.32363272768577228 0 -0.094020565316716292 -0.31756239782933038 0 -0.10096656167564461 -0.31314309880783397 0 -0.094020565316716292 -0.31756239782933038 0 -0.093882332639525348 -0.33907628171357979 0 -0.1087212301557281 -0.34525372337674742 0 -0.1019361461625108 -0.34316679415779061 0 -0.1036543365570554 -0.33562118714142092 0 -0.1087212301557281 -0.34525372337674742 0 -0.11062615177038709 -0.3358526717393383 0 -0.1036543365570554 -0.33562118714142092 0 -0.11062615177038709 -0.3358526717393383 0 -0.10679627015973329 -0.3303959434188084 0 -0.1036543365570554 -0.33562118714142092 0 -0.10162933079055721 -0.32810030745845892 0 -0.10679627015973329 -0.3303959434188084 0 -0.1036543365570554 -0.33562118714142092 0 -0.10162933079055721 -0.32810030745845892 0 -0.098571687424305762 -0.32363272768577228 0 -0.093882332639525348 -0.33907628171357979 0 -0.10162933079055721 -0.32810030745845892 0 -0.1036543365570554 -0.33562118714142092 0 -0.093882332639525348 -0.33907628171357979 0 -0.1019361461625108 -0.34316679415779061 0 -0.1036543365570554 -0.33562118714142092 0 -0.093882332639525348 -0.33907628171357979 0 -0.079856395395410562 -0.32617929626531372 0 -0.074698955329004224 -0.33662737047545011 0 -0.085973026742836481 -0.34840464574108848 0 -0.093882332639525348 -0.33907628171357979 0 -0.091870102766315992 -0.3220327627770227 0 -0.085973026742836481 -0.34840464574108848 0 -0.091870102766315992 -0.3220327627770227 0 -0.085973026742836481 -0.34840464574108848 0 -0.091870102766315992 -0.3220327627770227 0 -0.079856395395410562 -0.32617929626531372 0 -0.085973026742836481 -0.34840464574108848 0 -0.094020565316716292 -0.31756239782933038 0 -0.093882332639525348 -0.33907628171357979 0 -0.091870102766315992 -0.3220327627770227 0 -0.091870102766315992 -0.3220327627770227 0 -0.08307580703749079 -0.31539485860826832 0 -0.084060435309079501 -0.3001955445982103 0 -0.091870102766315992 -0.3220327627770227 0 -0.079856395395410562 -0.32617929626531372 0 -0.08307580703749079 -0.31539485860826832 0 -0.079856395395410562 -0.32617929626531372 0 -0.08307580703749079 -0.31539485860826832 0 -0.07651629467915709 -0.31317183079252647 0 -0.079856395395410562 -0.32617929626531372 0 -0.07651629467915709 -0.31317183079252647 0 -0.064373563168819356 -0.32177456098011742 0 -0.064373563168819356 -0.32177456098011742 0 -0.074698955329004224 -0.33662737047545011 0 -0.059114751186226062 -0.34387230816650322 0 -0.079856395395410562 -0.32617929626531372 0 -0.064373563168819356 -0.32177456098011742 0 -0.074698955329004224 -0.33662737047545011 0 -0.074698955329004224 -0.33662737047545011 0 -0.073113759071782775 -0.34725044047981218 0 -0.059114751186226062 -0.34387230816650322 0 -0.074698955329004224 -0.33662737047545011 0 -0.059114751186226062 -0.34387230816650322 0 -0.073113759071782775 -0.34725044047981218 0 -0.070412260638746324 -0.35877033855193619 0 -0.059114751186226062 -0.34387230816650322 0 -0.073113759071782775 -0.34725044047981218 0 -0.070412260638746324 -0.35877033855193619 0 -0.085973026742836481 -0.34840464574108848 0 -0.074698955329004224 -0.33662737047545011 0 -0.073113759071782775 -0.34725044047981218 0 -0.085973026742836481 -0.34840464574108848 0 -0.070412260638746324 -0.35877033855193619 0 -0.08007595071935697 -0.37477652870515438 0 -0.064079591518304252 -0.38091008353044908 0 -0.070412260638746324 -0.35877033855193619 0 -0.053508973415171253 -0.36742802006072361 0 -0.064079591518304252 -0.38091008353044908 0 -0.093744099962334404 -0.3605901655978293 0 -0.08007595071935697 -0.37477652870515438 0 -0.093605867285144306 -0.38210404948207882 0 -0.070412260638746324 -0.35877033855193619 0 -0.08007595071935697 -0.37477652870515438 0 -0.085973026742836481 -0.34840464574108848 0 -0.093744099962334404 -0.3605901655978293 0 -0.093605867285144306 -0.38210404948207882 0 -0.08007595071935697 -0.37477652870515438 0 -0.085973026742836481 -0.34840464574108848 0 -0.093744099962334404 -0.3605901655978293 0 -0.08007595071935697 -0.37477652870515438 0 -0.085973026742836481 -0.34840464574108848 0 -0.093882332639525348 -0.33907628171357979 0 -0.093744099962334404 -0.3605901655978293 0 -0.085973026742836481 -0.34840464574108848 0 -0.10366425481328 -0.26928899684889168 0 -0.086143967499887036 -0.25234192112604298 0 -0.1101627290440967 -0.24022764488770201 0 -0.10366425481328 -0.26928899684889168 0 -0.086143967499887036 -0.25234192112604298 0 -0.10366425481328 -0.26928899684889168 0 -0.1101627290440967 -0.24022764488770201 0 -0.13363707598743549 -0.2532616675208415 0 -0.1206528625699053 -0.26465102107573729 0 -0.1101627290440967 -0.24022764488770201 0 -0.1206528625699053 -0.26465102107573729 0 -0.10366425481328 -0.26928899684889168 0 -0.1101627290440967 -0.24022764488770201 0 -0.10366425481328 -0.26928899684889168 0 -0.1220911833121683 -0.28711305115942409 0 -0.1206528625699053 -0.26465102107573729 0 -0.10366425481328 -0.26928899684889168 0 -0.1220911833121683 -0.28711305115942409 0 -0.10366425481328 -0.26928899684889168 0 -0.097767178789795545 -0.29566087981295658 0 -0.11126625047289079 -0.2945396455151319 0 -0.10366425481328 -0.26928899684889168 0 -0.097767178789795545 -0.29566087981295658 0 -0.091274296711309807 -0.28036372116385111 0 -0.10366425481328 -0.26928899684889168 0 -0.097767178789795545 -0.29566087981295658 0 -0.10366425481328 -0.26928899684889168 0 -0.1220911833121683 -0.28711305115942409 0 -0.11126625047289079 -0.2945396455151319 0 -0.1220911833121683 -0.28711305115942409 0 -0.11126625047289079 -0.2945396455151319 0 -0.1167856477006454 -0.30580143912451119 0 -0.1311919661336382 -0.31124018649745983 0 -0.1220911833121683 -0.28711305115942409 0 -0.1167856477006454 -0.30580143912451119 0 -0.11126625047289079 -0.2945396455151319 0 -0.1167856477006454 -0.30580143912451119 0 -0.1078068769430429 -0.30690765836828648 0 -0.1311919661336382 -0.31124018649745983 0 -0.1218882644260182 -0.31628381945792899 0 -0.1167856477006454 -0.30580143912451119 0 -0.1218882644260182 -0.31628381945792899 0 -0.113597128035994 -0.31389801618099811 0 -0.1167856477006454 -0.30580143912451119 0 -0.113597128035994 -0.31389801618099811 0 -0.1167856477006454 -0.30580143912451119 0 -0.1078068769430429 -0.30690765836828648 0 -0.10658082563776861 -0.31668480324164711 0 -0.10096656167564461 -0.31314309880783397 0 -0.1078068769430429 -0.30690765836828648 0 -0.10096656167564461 -0.31314309880783397 0 -0.097767178789795545 -0.29566087981295658 0 -0.1078068769430429 -0.30690765836828648 0 -0.091870102766315992 -0.3220327627770227 0 -0.097767178789795545 -0.29566087981295658 0 -0.094020565316716292 -0.31756239782933038 0 -0.091870102766315992 -0.3220327627770227 0 -0.097767178789795545 -0.29566087981295658 0 -0.094020565316716292 -0.31756239782933038 0 -0.10096656167564461 -0.31314309880783397 0 -0.097767178789795545 -0.29566087981295658 0 -0.097767178789795545 -0.29566087981295658 0 -0.11126625047289079 -0.2945396455151319 0 -0.1078068769430429 -0.30690765836828648 0 -0.091870102766315992 -0.3220327627770227 0 -0.097767178789795545 -0.29566087981295658 0 -0.084060435309079501 -0.3001955445982103 0 -0.08307580703749079 -0.31539485860826832 0 -0.07651629467915709 -0.31317183079252647 0 -0.084060435309079501 -0.3001955445982103 0 -0.064373563168819356 -0.32177456098011742 0 -0.069632375151412448 -0.2996768137937314 0 -0.053704702293469811 -0.30305239479993312 0 -0.07651629467915709 -0.31317183079252647 0 -0.064373563168819356 -0.32177456098011742 0 -0.069632375151412448 -0.2996768137937314 0 -0.064373563168819356 -0.32177456098011742 0 -0.069632375151412448 -0.2996768137937314 0 -0.07651629467915709 -0.31317183079252647 0 -0.084060435309079501 -0.3001955445982103 0 -0.069632375151412448 -0.2996768137937314 0 -0.084060435309079501 -0.3001955445982103 0 -0.069632375151412448 -0.2996768137937314 0 -0.074891187134005541 -0.27757906660734538 0 -0.069632375151412448 -0.2996768137937314 0 -0.074891187134005541 -0.27757906660734538 0 -0.054941005904939749 -0.28474111444978761 0 -0.069632375151412448 -0.2996768137937314 0 -0.074891187134005541 -0.27757906660734538 0 -0.097767178789795545 -0.29566087981295658 0 -0.084060435309079501 -0.3001955445982103 0 -0.091274296711309807 -0.28036372116385111 0 -0.084060435309079501 -0.3001955445982103 0 -0.091274296711309807 -0.28036372116385111 0 -0.074891187134005541 -0.27757906660734538 0 -0.091274296711309807 -0.28036372116385111 0 -0.074891187134005541 -0.27757906660734538 0 -0.086143967499887036 -0.25234192112604298 0 -0.10366425481328 -0.26928899684889168 0 -0.091274296711309807 -0.28036372116385111 0 -0.086143967499887036 -0.25234192112604298 0 -0.074891187134005541 -0.27757906660734538 0 -0.068024863348320641 -0.25877973592827141 0 -0.051552945432800888 -0.26596553823294172 0 -0.074891187134005541 -0.27757906660734538 0 -0.068024863348320641 -0.25877973592827141 0 -0.086143967499887036 -0.25234192112604298 0 -0.039176545593521468 -0.25965662681093349 0 -0.01891283023970295 -0.26577982372269371 0 -0.036153264592620818 -0.24251984825047071 0 -0.039176545593521468 -0.25965662681093349 0 -0.051196552554431993 -0.249781983371651 0 -0.036153264592620818 -0.24251984825047071 0 -0.068024863348320641 -0.25877973592827141 0 -0.051552945432800888 -0.26596553823294172 0 -0.051196552554431993 -0.249781983371651 0 -0.039176545593521468 -0.25965662681093349 0 -0.051552945432800888 -0.26596553823294172 0 -0.051196552554431993 -0.249781983371651 0 -0.074891187134005541 -0.27757906660734538 0 -0.051552945432800888 -0.26596553823294172 0 -0.054941005904939749 -0.28474111444978761 0 -0.051552945432800888 -0.26596553823294172 0 -0.037527826964481627 -0.27506110308354659 0 -0.054941005904939749 -0.28474111444978761 0 -0.039176545593521468 -0.25965662681093349 0 -0.037527826964481627 -0.27506110308354659 0 -0.01891283023970295 -0.26577982372269371 0 -0.039176545593521468 -0.25965662681093349 0 -0.051552945432800888 -0.26596553823294172 0 -0.037527826964481627 -0.27506110308354659 0 -0.037527826964481627 -0.27506110308354659 0 -0.037477931082273319 -0.28939846047307238 0 -0.02181136389308572 -0.28680544506777778 0 -0.037527826964481627 -0.27506110308354659 0 -0.037477931082273319 -0.28939846047307238 0 -0.054941005904939749 -0.28474111444978761 0 -0.037477931082273319 -0.28939846047307238 0 -0.054941005904939749 -0.28474111444978761 0 -0.053704702293469811 -0.30305239479993312 0 -0.069632375151412448 -0.2996768137937314 0 -0.054941005904939749 -0.28474111444978761 0 -0.053704702293469811 -0.30305239479993312 0 -0.053704702293469811 -0.30305239479993312 0 -0.03961629112459239 -0.30847771182215311 0 -0.048618097332594423 -0.31835595162452462 0 -0.037477931082273319 -0.28939846047307238 0 -0.03961629112459239 -0.30847771182215311 0 -0.02147586758955438 -0.31380338595054957 0 -0.037477931082273319 -0.28939846047307238 0 -0.053704702293469811 -0.30305239479993312 0 -0.03961629112459239 -0.30847771182215311 0 -0.024794551333250991 -0.30099800509369429 0 -0.02147586758955438 -0.31380338595054957 0 -0.0058562422159927369 -0.31566351695783967 0 -0.037477931082273319 -0.28939846047307238 0 -0.024794551333250991 -0.30099800509369429 0 -0.02147586758955438 -0.31380338595054957 0 -0.037477931082273319 -0.28939846047307238 0 -0.02147586758955438 -0.31380338595054957 0 -0.024794551333250991 -0.30099800509369429 0 -0.0099433396684511944 -0.30138064144538018 0 -0.0058562422159927369 -0.31566351695783967 0 -0.024794551333250991 -0.30099800509369429 0 -0.0058562422159927369 -0.31566351695783967 0 -0.0099433396684511944 -0.30138064144538018 0 -0.0058562422159927369 -0.31566351695783967 0 0.01556803846613254 -0.31229977466713921 0 -0.0099433396684511944 -0.30138064144538018 0 -0.001672395886785232 -0.28903979919491629 0 -0.02181136389308572 -0.28680544506777778 0 -0.037477931082273319 -0.28939846047307238 0 -0.024794551333250991 -0.30099800509369429 0 -0.02181136389308572 -0.28680544506777778 0 -0.024794551333250991 -0.30099800509369429 0 -0.0099433396684511944 -0.30138064144538018 0 -0.02181136389308572 -0.28680544506777778 0 -0.037527826964481627 -0.27506110308354659 0 -0.02181136389308572 -0.28680544506777778 0 -0.01891283023970295 -0.26577982372269371 0 -0.001672395886785232 -0.28903979919491629 0 -0.01891283023970295 -0.26577982372269371 0 -0.001672395886785232 -0.28903979919491629 0 -0.02181136389308572 -0.28680544506777778 0 -0.01891283023970295 -0.26577982372269371 0 -0.001672395886785232 -0.28903979919491629 0 -0.01891283023970295 -0.26577982372269371 0 0.0012650324002853009 -0.26969392882808513 0 -0.01891283023970295 -0.26577982372269371 0 -0.0037676009972298589 -0.25546460003562632 0 0.0012650324002853009 -0.26969392882808513 0 -0.01891283023970295 -0.26577982372269371 0 -0.0037676009972298589 -0.25546460003562632 0 -0.01719112655688302 -0.24802023597079551 0 -0.01891283023970295 -0.26577982372269371 0 -0.01719112655688302 -0.24802023597079551 0 -0.036153264592620818 -0.24251984825047071 0 -0.01891283023970295 -0.26577982372269371 0 -0.036153264592620818 -0.24251984825047071 0 -0.039491833495996609 -0.35299480262819521 0 -0.045150482824253303 -0.33936664226302932 0 -0.034470091163863202 -0.34008710442778223 0 -0.039491833495996609 -0.35299480262819521 0 -0.037934655832104307 -0.37026631736442023 0 -0.053508973415171253 -0.36742802006072361 0 -0.039491833495996609 -0.35299480262819521 0 -0.037934655832104307 -0.37026631736442023 0 -0.019868915805767232 -0.36211729708988732 0 -0.039491833495996609 -0.35299480262819521 0 -0.053508973415171253 -0.36742802006072361 0 -0.059114751186226062 -0.34387230816650322 0 -0.039491833495996609 -0.35299480262819521 0 -0.059114751186226062 -0.34387230816650322 0 -0.045150482824253303 -0.33936664226302932 0 -0.039491833495996609 -0.35299480262819521 0 -0.059114751186226062 -0.34387230816650322 0 -0.053508973415171253 -0.36742802006072361 0 -0.059114751186226062 -0.34387230816650322 0 -0.070412260638746324 -0.35877033855193619 0 -0.053508973415171253 -0.36742802006072361 0 -0.059114751186226062 -0.34387230816650322 0 -0.064373563168819356 -0.32177456098011742 0 -0.059114751186226062 -0.34387230816650322 0 -0.064373563168819356 -0.32177456098011742 0 -0.059114751186226062 -0.34387230816650322 0 -0.051951134604086228 -0.33083342656626008 0 -0.059114751186226062 -0.34387230816650322 0 -0.051951134604086228 -0.33083342656626008 0 -0.045150482824253303 -0.33936664226302932 0 -0.064373563168819356 -0.32177456098011742 0 -0.051951134604086228 -0.33083342656626008 0 -0.048618097332594423 -0.31835595162452462 0 -0.064373563168819356 -0.32177456098011742 0 -0.053704702293469811 -0.30305239479993312 0 -0.048618097332594423 -0.31835595162452462 0 -0.051951134604086228 -0.33083342656626008 0 -0.048618097332594423 -0.31835595162452462 0 -0.040724603671094393 -0.32904556952640568 0 -0.033538252198315417 -0.31925833631163569 0 -0.040724603671094393 -0.32904556952640568 0 -0.02303421015982874 -0.33227383401489852 0 -0.03961629112459239 -0.30847771182215311 0 -0.033538252198315417 -0.31925833631163569 0 -0.02147586758955438 -0.31380338595054957 0 -0.03961629112459239 -0.30847771182215311 0 -0.048618097332594423 -0.31835595162452462 0 -0.033538252198315417 -0.31925833631163569 0 -0.048618097332594423 -0.31835595162452462 0 -0.033538252198315417 -0.31925833631163569 0 -0.040724603671094393 -0.32904556952640568 0 -0.040724603671094393 -0.32904556952640568 0 -0.034470091163863202 -0.34008710442778223 0 -0.02303421015982874 -0.33227383401489852 0 -0.045150482824253303 -0.33936664226302932 0 -0.040724603671094393 -0.32904556952640568 0 -0.034470091163863202 -0.34008710442778223 0 -0.051951134604086228 -0.33083342656626008 0 -0.045150482824253303 -0.33936664226302932 0 -0.040724603671094393 -0.32904556952640568 0 -0.034470091163863202 -0.34008710442778223 0 -0.02303421015982874 -0.33227383401489852 0 -0.01967357117292522 -0.34664075391822319 0 -0.02303421015982874 -0.33227383401489852 0 -0.0054738040968354334 -0.33820831142802682 0 -0.01967357117292522 -0.34664075391822319 0 -0.033538252198315417 -0.31925833631163569 0 -0.02303421015982874 -0.33227383401489852 0 -0.02147586758955438 -0.31380338595054957 0 -0.02303421015982874 -0.33227383401489852 0 -0.02147586758955438 -0.31380338595054957 0 -0.0054738040968354334 -0.33820831142802682 0 -0.02147586758955438 -0.31380338595054957 0 -0.0054738040968354334 -0.33820831142802682 0 -0.02147586758955438 -0.31380338595054957 0 -0.0058562422159927369 -0.31566351695783967 0 -0.0054738040968354334 -0.33820831142802682 0 -0.0054738040968354334 -0.33820831142802682 0 -0.01967357117292522 -0.34664075391822319 0 0.00070469466344070218 -0.35366527386759589 0 -0.01967357117292522 -0.34664075391822319 0 -0.019868915805767232 -0.36211729708988732 0 0.00070469466344070218 -0.35366527386759589 0 -0.039491833495996609 -0.35299480262819521 0 -0.034470091163863202 -0.34008710442778223 0 -0.01967357117292522 -0.34664075391822319 0 -0.039491833495996609 -0.35299480262819521 0 -0.01967357117292522 -0.34664075391822319 0 -0.019868915805767232 -0.36211729708988732 0 -0.039491833495996609 -0.35299480262819521 0 -0.019868915805767232 -0.36211729708988732 0 -0.037934655832104307 -0.37026631736442023 0 -0.019868915805767232 -0.36211729708988732 0 -0.028389835969148219 -0.38177572227102419 0 -0.019868915805767232 -0.36211729708988732 0 -0.014033762696486689 -0.37698096505979051 0 -0.028389835969148219 -0.38177572227102419 0 -0.019868915805767232 -0.36211729708988732 0 -0.00024599811553788209 -0.37123979155157932 0 -0.019868915805767232 -0.36211729708988732 0 -0.00024599811553788209 -0.37123979155157932 0 0.00070469466344070218 -0.35366527386759589 0 -0.019868915805767232 -0.36211729708988732 0 -0.00024599811553788209 -0.37123979155157932 0 -0.014033762696486689 -0.37698096505979051 0 -0.0056360938850787152 -0.38607414576439381 0 -0.014033762696486689 -0.37698096505979051 0 -0.017183606652602539 -0.39457985246228638 0 -0.00024599811553788209 -0.37123979155157932 0 -0.0056360938850787152 -0.38607414576439381 0 -0.014033762696486689 -0.37698096505979051 0 -0.0030508565299749478 -0.40163911683637288 0 -0.017183606652602539 -0.39457985246228638 0 -0.022260474487640361 -0.41311508364538629 0 -0.0056360938850787152 -0.38607414576439381 0 -0.0030508565299749478 -0.40163911683637288 0 -0.017183606652602539 -0.39457985246228638 0 -0.017183606652602539 -0.39457985246228638 0 -0.031606906125313708 -0.39899876683656099 0 -0.022260474487640361 -0.41311508364538629 0 -0.017183606652602539 -0.39457985246228638 0 -0.028389835969148219 -0.38177572227102419 0 -0.031606906125313708 -0.39899876683656099 0 -0.014033762696486689 -0.37698096505979051 0 -0.017183606652602539 -0.39457985246228638 0 -0.028389835969148219 -0.38177572227102419 0 -0.037934655832104307 -0.37026631736442023 0 -0.053508973415171253 -0.36742802006072361 0 -0.047903195644116242 -0.39098373195494379 0 -0.028389835969148219 -0.38177572227102419 0 -0.031606906125313708 -0.39899876683656099 0 -0.047903195644116242 -0.39098373195494379 0 -0.037934655832104307 -0.37026631736442023 0 -0.028389835969148219 -0.38177572227102419 0 -0.047903195644116242 -0.39098373195494379 0 -0.031606906125313708 -0.39899876683656099 0 -0.047903195644116242 -0.39098373195494379 0 -0.042297417873061197 -0.41453944384916408 0 -0.047903195644116242 -0.39098373195494379 0 -0.042297417873061197 -0.41453944384916408 0 -0.047903195644116242 -0.39098373195494379 0 -0.05950637732044492 -0.41163436845398338 0 -0.042297417873061197 -0.41453944384916408 0 -0.047903195644116242 -0.39098373195494379 0 -0.05950637732044492 -0.41163436845398338 0 -0.069338389103050596 -0.39721496164856679 0 -0.047903195644116242 -0.39098373195494379 0 -0.064079591518304252 -0.38091008353044908 0 -0.069338389103050596 -0.39721496164856679 0 -0.053508973415171253 -0.36742802006072361 0 -0.047903195644116242 -0.39098373195494379 0 -0.053508973415171253 -0.36742802006072361 0 -0.047903195644116242 -0.39098373195494379 0 -0.064079591518304252 -0.38091008353044908 0 -0.050816804239513028 -0.43665108064929359 0 -0.072119330997018324 -0.42369675411628088 0 -0.050816804239513028 -0.43665108064929359 0 -0.05950637732044492 -0.41163436845398338 0 -0.072119330997018324 -0.42369675411628088 0 -0.050816804239513028 -0.43665108064929359 0 -0.05950637732044492 -0.41163436845398338 0 -0.042297417873061197 -0.41453944384916408 0 -0.042297417873061197 -0.41453944384916408 0 -0.030363429996082911 -0.42835995322024562 0 -0.022260474487640361 -0.41311508364538629 0 -0.031606906125313708 -0.39899876683656099 0 -0.042297417873061197 -0.41453944384916408 0 -0.022260474487640361 -0.41311508364538629 0 -0.050816804239513028 -0.43665108064929359 0 -0.042297417873061197 -0.41453944384916408 0 -0.030363429996082911 -0.42835995322024562 0 -0.030363429996082911 -0.42835995322024562 0 -0.022260474487640361 -0.41311508364538629 0 -0.006928175898192333 -0.42788875077507749 0 -0.030363429996082911 -0.42835995322024562 0 -0.006928175898192333 -0.42788875077507749 0 -0.02951427748200763 -0.4496054071823064 0 -0.0030508565299749478 -0.40163911683637288 0 -0.022260474487640361 -0.41311508364538629 0 -0.006928175898192333 -0.42788875077507749 0 -0.006928175898192333 -0.42788875077507749 0 -0.02951427748200763 -0.4496054071823064 0 0.00018356116932998889 -0.45460021365762759 0 -0.02951427748200763 -0.4496054071823064 0 -0.01125188331078086 -0.47583166011634043 0 0.00018356116932998889 -0.45460021365762759 0 -0.02951427748200763 -0.4496054071823064 0 -0.01125188331078086 -0.47583166011634043 0 -0.03400154211981176 -0.47138489666466421 0 -0.01125188331078086 -0.47583166011634043 0 -0.023555245371763511 -0.5 0 0.0061496526193284273 -0.5 0 -0.01125188331078086 -0.47583166011634043 0 -0.023555245371763511 -0.5 0 -0.03400154211981176 -0.47138489666466421 0 -0.023555245371763511 -0.5 0 -0.03400154211981176 -0.47138489666466421 0 -0.05326014336285545 -0.5 0 -0.03400154211981176 -0.47138489666466421 0 -0.057845218395842779 -0.47086247906995471 0 -0.05326014336285545 -0.5 0 -0.057845218395842779 -0.47086247906995471 0 -0.05326014336285545 -0.5 0 -0.070510273362421827 -0.48508122278263721 0 -0.050816804239513028 -0.43665108064929359 0 -0.02951427748200763 -0.4496054071823064 0 -0.052650782710239388 -0.45386099549155889 0 -0.050816804239513028 -0.43665108064929359 0 -0.030363429996082911 -0.42835995322024562 0 -0.02951427748200763 -0.4496054071823064 0 -0.050816804239513028 -0.43665108064929359 0 -0.02951427748200763 -0.4496054071823064 0 -0.02951427748200763 -0.4496054071823064 0 -0.03400154211981176 -0.47138489666466421 0 -0.052650782710239388 -0.45386099549155889 0 -0.057845218395842779 -0.47086247906995471 0 -0.052650782710239388 -0.45386099549155889 0 -0.070745177235672738 -0.45802681895442532 0 -0.03400154211981176 -0.47138489666466421 0 -0.057845218395842779 -0.47086247906995471 0 -0.052650782710239388 -0.45386099549155889 0 -0.050816804239513028 -0.43665108064929359 0 -0.052650782710239388 -0.45386099549155889 0 -0.068212471968392252 -0.44260882046197098 0 -0.052650782710239388 -0.45386099549155889 0 -0.068212471968392252 -0.44260882046197098 0 -0.070745177235672738 -0.45802681895442532 0 -0.068212471968392252 -0.44260882046197098 0 -0.081775579569599383 -0.44929367206127641 0 -0.08158797528087218 -0.43666144433361209 0 -0.068212471968392252 -0.44260882046197098 0 -0.070745177235672738 -0.45802681895442532 0 -0.081775579569599383 -0.44929367206127641 0 -0.057845218395842779 -0.47086247906995471 0 -0.070745177235672738 -0.45802681895442532 0 -0.073954558227682654 -0.47227449067861221 0 -0.070745177235672738 -0.45802681895442532 0 -0.085663022255332649 -0.46658107516531577 0 -0.073954558227682654 -0.47227449067861221 0 -0.085663022255332649 -0.46658107516531577 0 -0.081775579569599383 -0.44929367206127641 0 -0.101843247798795 -0.4597317029216117 0 -0.081775579569599383 -0.44929367206127641 0 -0.101843247798795 -0.4597317029216117 0 -0.070745177235672738 -0.45802681895442532 0 -0.085663022255332649 -0.46658107516531577 0 -0.081775579569599383 -0.44929367206127641 0 -0.093210360406904585 -0.44365888027002193 0 -0.081775579569599383 -0.44929367206127641 0 -0.101843247798795 -0.4597317029216117 0 -0.093210360406904585 -0.44365888027002193 0 -0.081775579569599383 -0.44929367206127641 0 -0.08158797528087218 -0.43666144433361209 0 -0.05326014336285545 -0.5 0 -0.070510273362421827 -0.48508122278263721 0 -0.082965041353947389 -0.5 0 -0.057845218395842779 -0.47086247906995471 0 -0.070510273362421827 -0.48508122278263721 0 -0.073954558227682654 -0.47227449067861221 0 -0.070510273362421827 -0.48508122278263721 0 -0.073954558227682654 -0.47227449067861221 0 -0.084526405471780863 -0.48226914416461908 0 -0.085663022255332649 -0.46658107516531577 0 -0.073954558227682654 -0.47227449067861221 0 -0.084526405471780863 -0.48226914416461908 0 -0.085663022255332649 -0.46658107516531577 0 -0.084526405471780863 -0.48226914416461908 0 -0.098900203825244629 -0.47725990951687591 0 -0.084526405471780863 -0.48226914416461908 0 -0.096889875506136813 -0.48961664594026427 0 -0.098900203825244629 -0.47725990951687591 0 -0.070510273362421827 -0.48508122278263721 0 -0.084526405471780863 -0.48226914416461908 0 -0.082965041353947389 -0.5 0 -0.084526405471780863 -0.48226914416461908 0 -0.082965041353947389 -0.5 0 -0.096889875506136813 -0.48961664594026427 0 -0.082965041353947389 -0.5 0 -0.10758239677127771 -0.5 0 -0.096889875506136813 -0.48961664594026427 0 -0.10758239677127771 -0.5 0 -0.096889875506136813 -0.48961664594026427 0 -0.1082423687052128 -0.48827854901838252 0 -0.096889875506136813 -0.48961664594026427 0 -0.1082423687052128 -0.48827854901838252 0 -0.098900203825244629 -0.47725990951687591 0 -0.098900203825244629 -0.47725990951687591 0 -0.11007030935387239 -0.47633564109136162 0 -0.101843247798795 -0.4597317029216117 0 -0.1082423687052128 -0.48827854901838252 0 -0.098900203825244629 -0.47725990951687591 0 -0.11007030935387239 -0.47633564109136162 0 -0.12954218601469991 -0.48471465532121621 0 -0.1219109160279906 -0.47016973378194687 0 -0.1194548104121191 -0.48623831021799108 0 -0.1219109160279906 -0.47016973378194687 0 -0.11007030935387239 -0.47633564109136162 0 -0.1194548104121191 -0.48623831021799108 0 -0.1082423687052128 -0.48827854901838252 0 -0.11007030935387239 -0.47633564109136162 0 -0.1194548104121191 -0.48623831021799108 0 -0.13481432462882961 -0.49534535490479492 0 -0.10758239677127771 -0.5 0 -0.13481432462882961 -0.49534535490479492 0 -0.10758239677127771 -0.5 0 -0.1126699393450394 -0.5 0 -0.13481432462882961 -0.49534535490479492 0 -0.10758239677127771 -0.5 0 -0.11699517830683021 -0.49329984359857593 0 -0.1082423687052128 -0.48827854901838252 0 -0.1194548104121191 -0.48623831021799108 0 -0.11699517830683021 -0.49329984359857593 0 -0.1252016248406197 -0.48989954101064448 0 -0.1194548104121191 -0.48623831021799108 0 -0.11699517830683021 -0.49329984359857593 0 -0.1252016248406197 -0.48989954101064448 0 -0.12954218601469991 -0.48471465532121621 0 -0.1194548104121191 -0.48623831021799108 0 -0.10758239677127771 -0.5 0 -0.1082423687052128 -0.48827854901838252 0 -0.11699517830683021 -0.49329984359857593 0 -0.093210360406904585 -0.44365888027002193 0 -0.1052542259544781 -0.44754480949812903 0 -0.101843247798795 -0.4597317029216117 0 -0.1052542259544781 -0.44754480949812903 0 -0.101843247798795 -0.4597317029216117 0 -0.1181183874658143 -0.45147491278412177 0 -0.093210360406904585 -0.44365888027002193 0 -0.1052542259544781 -0.44754480949812903 0 -0.1088565166324873 -0.4347792566880489 0 -0.085663022255332649 -0.46658107516531577 0 -0.098900203825244629 -0.47725990951687591 0 -0.101843247798795 -0.4597317029216117 0 -0.1219109160279906 -0.47016973378194687 0 -0.101843247798795 -0.4597317029216117 0 -0.1181183874658143 -0.45147491278412177 0 -0.1219109160279906 -0.47016973378194687 0 -0.11007030935387239 -0.47633564109136162 0 -0.101843247798795 -0.4597317029216117 0 -0.1219109160279906 -0.47016973378194687 0 -0.101843247798795 -0.4597317029216117 0 -0.12925744212726331 -0.43629998275471921 0 -0.1181183874658143 -0.45147491278412177 0 -0.1088565166324873 -0.4347792566880489 0 -0.1052542259544781 -0.44754480949812903 0 -0.1181183874658143 -0.45147491278412177 0 -0.1088565166324873 -0.4347792566880489 0 -0.1088565166324873 -0.4347792566880489 0 -0.1055072021532895 -0.41844011827532229 0 -0.12126011619242399 -0.41923157065313771 0 -0.12925744212726331 -0.43629998275471921 0 -0.1088565166324873 -0.4347792566880489 0 -0.12126011619242399 -0.41923157065313771 0 -0.1088565166324873 -0.4347792566880489 0 -0.1055072021532895 -0.41844011827532229 0 -0.093316109080714485 -0.4272006539266453 0 -0.093210360406904585 -0.44365888027002193 0 -0.1088565166324873 -0.4347792566880489 0 -0.093316109080714485 -0.4272006539266453 0 -0.1055072021532895 -0.41844011827532229 0 -0.1106814111062976 -0.40024668252551049 0 -0.093421857754523996 -0.41074242758326868 0 -0.1055072021532895 -0.41844011827532229 0 -0.093316109080714485 -0.4272006539266453 0 -0.093421857754523996 -0.41074242758326868 0 -0.13405445746913611 -0.40502949172506519 0 -0.12126011619242399 -0.41923157065313771 0 -0.1106814111062976 -0.40024668252551049 0 -0.1055072021532895 -0.41844011827532229 0 -0.12126011619242399 -0.41923157065313771 0 -0.1106814111062976 -0.40024668252551049 0 -0.1279409644580716 -0.38975093746775302 0 -0.1106814111062976 -0.40024668252551049 0 -0.10936196569222249 -0.38438159741952449 0 -0.1279409644580716 -0.38975093746775302 0 -0.1106814111062976 -0.40024668252551049 0 -0.1279409644580716 -0.38975093746775302 0 -0.13405445746913611 -0.40502949172506519 0 -0.1106814111062976 -0.40024668252551049 0 -0.1279409644580716 -0.38975093746775302 0 -0.12954167267392819 -0.37092982091023941 0 -0.1142696659494902 -0.36923708224716861 0 -0.1279409644580716 -0.38975093746775302 0 -0.1142696659494902 -0.36923708224716861 0 -0.10936196569222249 -0.38438159741952449 0 -0.1142696659494902 -0.36923708224716861 0 -0.10936196569222249 -0.38438159741952449 0 -0.093605867285144306 -0.38210404948207882 0 -0.1142696659494902 -0.36923708224716861 0 -0.093605867285144306 -0.38210404948207882 0 -0.1106814111062976 -0.40024668252551049 0 -0.10936196569222249 -0.38438159741952449 0 -0.093605867285144306 -0.38210404948207882 0 -0.1106814111062976 -0.40024668252551049 0 -0.093605867285144306 -0.38210404948207882 0 -0.093421857754523996 -0.41074242758326868 0 -0.1106814111062976 -0.40024668252551049 0 -0.093421857754523996 -0.41074242758326868 0 -0.083631626901062683 -0.39993422158356101 0 -0.093605867285144306 -0.38210404948207882 0 -0.093421857754523996 -0.41074242758326868 0 -0.093605867285144306 -0.38210404948207882 0 -0.093421857754523996 -0.41074242758326868 0 -0.083631626901062683 -0.39993422158356101 0 -0.093605867285144306 -0.38210404948207882 0 -0.069338389103050596 -0.39721496164856679 0 -0.093605867285144306 -0.38210404948207882 0 -0.069338389103050596 -0.39721496164856679 0 -0.08007595071935697 -0.37477652870515438 0 -0.093605867285144306 -0.38210404948207882 0 -0.069338389103050596 -0.39721496164856679 0 -0.08007595071935697 -0.37477652870515438 0 -0.064079591518304252 -0.38091008353044908 0 -0.069338389103050596 -0.39721496164856679 0 -0.05950637732044492 -0.41163436845398338 0 -0.069338389103050596 -0.39721496164856679 0 -0.075603516415220104 -0.40864454667713218 0 -0.083631626901062683 -0.39993422158356101 0 -0.069338389103050596 -0.39721496164856679 0 -0.075603516415220104 -0.40864454667713218 0 -0.05950637732044492 -0.41163436845398338 0 -0.075603516415220104 -0.40864454667713218 0 -0.072119330997018324 -0.42369675411628088 0 -0.050816804239513028 -0.43665108064929359 0 -0.068212471968392252 -0.44260882046197098 0 -0.072119330997018324 -0.42369675411628088 0 -0.068212471968392252 -0.44260882046197098 0 -0.072119330997018324 -0.42369675411628088 0 -0.08158797528087218 -0.43666144433361209 0 -0.072119330997018324 -0.42369675411628088 0 -0.093316109080714485 -0.4272006539266453 0 -0.08158797528087218 -0.43666144433361209 0 -0.093210360406904585 -0.44365888027002193 0 -0.093316109080714485 -0.4272006539266453 0 -0.08158797528087218 -0.43666144433361209 0 -0.093210360406904585 -0.44365888027002193 0 -0.093316109080714485 -0.4272006539266453 0 -0.072119330997018324 -0.42369675411628088 0 -0.093421857754523996 -0.41074242758326868 0 -0.075603516415220104 -0.40864454667713218 0 -0.072119330997018324 -0.42369675411628088 0 -0.093421857754523996 -0.41074242758326868 0 -0.083631626901062683 -0.39993422158356101 0 -0.075603516415220104 -0.40864454667713218 0 -0.093421857754523996 -0.41074242758326868 0 -0.072119330997018324 -0.42369675411628088 0 -0.093316109080714485 -0.4272006539266453 0 -0.093421857754523996 -0.41074242758326868 0 -0.093316109080714485 -0.4272006539266453 0 -0.093421857754523996 -0.41074242758326868 0 -0.080507957652018736 -0.088558042158619399 0 -0.087839285783300594 -0.072031554011163068 0 -0.10464983967478921 -0.089215899442861388 0 -0.080507957652018736 -0.088558042158619399 0 -0.087839285783300594 -0.072031554011163068 0 -0.073737605050866767 -0.072008573715759791 0 -0.087839285783300594 -0.072031554011163068 0 -0.073737605050866767 -0.072008573715759791 0 -0.083123622436293107 -0.05911796644564353 0 -0.073737605050866767 -0.072008573715759791 0 -0.061968826784957583 -0.086482841765197743 0 -0.054533931193457341 -0.072018426815968123 0 -0.073737605050866767 -0.072008573715759791 0 -0.072370782994968505 -0.056291394480853851 0 -0.054533931193457341 -0.072018426815968123 0 -0.072370782994968505 -0.056291394480853851 0 -0.054533931193457341 -0.072018426815968123 0 -0.080507957652018736 -0.088558042158619399 0 -0.073737605050866767 -0.072008573715759791 0 -0.061968826784957583 -0.086482841765197743 0 -0.080507957652018736 -0.088558042158619399 0 -0.070708237065965948 -0.1132321810895198 0 -0.061968826784957583 -0.086482841765197743 0 -0.070708237065965948 -0.1132321810895198 0 -0.054241644927164261 -0.1229162681213274 0 -0.071918961933606973 -0.13378207477775181 0 -0.070708237065965948 -0.1132321810895198 0 -0.08771381590298527 -0.12597554205873859 0 -0.071918961933606973 -0.13378207477775181 0 -0.070708237065965948 -0.1132321810895198 0 -0.08771381590298527 -0.12597554205873859 0 -0.070708237065965948 -0.1132321810895198 0 -0.090537103116394582 -0.1065179173440079 0 -0.08771381590298527 -0.12597554205873859 0 -0.080507957652018736 -0.088558042158619399 0 -0.070708237065965948 -0.1132321810895198 0 -0.090537103116394582 -0.1065179173440079 0 -0.080507957652018736 -0.088558042158619399 0 -0.090537103116394582 -0.1065179173440079 0 -0.10464983967478921 -0.089215899442861388 0 -0.090537103116394582 -0.1065179173440079 0 -0.10910566528621379 -0.1156079219703004 0 -0.10464983967478921 -0.089215899442861388 0 -0.090537103116394582 -0.1065179173440079 0 -0.10910566528621379 -0.1156079219703004 0 -0.08771381590298527 -0.12597554205873859 0 -0.10910566528621379 -0.1156079219703004 0 -0.13477124601368931 -0.13017769354615469 0 -0.1284090075068029 -0.10531499392795469 0 -0.10910566528621379 -0.1156079219703004 0 -0.10464983967478921 -0.089215899442861388 0 -0.1284090075068029 -0.10531499392795469 0 -0.1235405153330069 -0.086060361932581597 0 -0.10464983967478921 -0.089215899442861388 0 -0.1178533253688711 -0.072054272591921154 0 -0.1235405153330069 -0.086060361932581597 0 -0.10464983967478921 -0.089215899442861388 0 -0.1284090075068029 -0.10531499392795469 0 -0.087839285783300594 -0.072031554011163068 0 -0.103207740731139 -0.068944668083862209 0 -0.097497671220764262 -0.055864528001337337 0 -0.10464983967478921 -0.089215899442861388 0 -0.103207740731139 -0.068944668083862209 0 -0.1178533253688711 -0.072054272591921154 0 -0.087839285783300594 -0.072031554011163068 0 -0.10464983967478921 -0.089215899442861388 0 -0.103207740731139 -0.068944668083862209 0 -0.103207740731139 -0.068944668083862209 0 -0.1178533253688711 -0.072054272591921154 0 -0.11431823111001541 -0.053049749990636948 0 -0.1235405153330069 -0.086060361932581597 0 -0.1178533253688711 -0.072054272591921154 0 -0.132948838303063 -0.075019825605675064 0 -0.1178533253688711 -0.072054272591921154 0 -0.11431823111001541 -0.053049749990636948 0 -0.13069577916492961 -0.05940471413077867 0 -0.11431823111001541 -0.053049749990636948 0 -0.12878194217520569 -0.044366267572887683 0 -0.13069577916492961 -0.05940471413077867 0 -0.11431823111001541 -0.053049749990636948 0 -0.11873873503008781 -0.032280082648662438 0 -0.12878194217520569 -0.044366267572887683 0 -0.11431823111001541 -0.053049749990636948 0 -0.11873873503008781 -0.032280082648662438 0 -0.11431823111001541 -0.053049749990636948 0 -0.11873873503008781 -0.032280082648662438 0 -0.10521693186120171 -0.041799234085638487 0 -0.11873873503008781 -0.032280082648662438 0 -0.10521693186120171 -0.041799234085638487 0 -0.1062297536317673 -0.02643740836474795 0 -0.1062297536317673 -0.02643740836474795 0 -0.089300268313373898 -0.041364401422807777 0 -0.10521693186120171 -0.041799234085638487 0 -0.097497671220764262 -0.055864528001337337 0 -0.089300268313373898 -0.041364401422807777 0 -0.10521693186120171 -0.041799234085638487 0 -0.1062297536317673 -0.02643740836474795 0 -0.089300268313373898 -0.041364401422807777 0 -0.103207740731139 -0.068944668083862209 0 -0.11431823111001541 -0.053049749990636948 0 -0.097497671220764262 -0.055864528001337337 0 -0.11431823111001541 -0.053049749990636948 0 -0.10521693186120171 -0.041799234085638487 0 -0.097497671220764262 -0.055864528001337337 0 -0.1231592389501604 -0.01151041530668794 0 -0.1022364627064003 -0.0092294706397440755 0 -0.1107478437432257 0.0076006666536393543 0 -0.11873873503008781 -0.032280082648662438 0 -0.1231592389501604 -0.01151041530668794 0 -0.1231592389501604 -0.01151041530668794 0 -0.1062297536317673 -0.02643740836474795 0 -0.1022364627064003 -0.0092294706397440755 0 -0.11873873503008781 -0.032280082648662438 0 -0.1231592389501604 -0.01151041530668794 0 -0.1062297536317673 -0.02643740836474795 0 -0.1231592389501604 -0.01151041530668794 0 -0.1062297536317673 -0.02643740836474795 0 -0.1062297536317673 -0.02643740836474795 0 -0.1022364627064003 -0.0092294706397440755 0 -0.083795932197764073 -0.0227685960135562 0 -0.1022364627064003 -0.0092294706397440755 0 -0.086168345632243293 -0.0058649827448112217 0 -0.094987884996875799 0.0073395273471782464 0 -0.086168345632243293 -0.0058649827448112217 0 -0.073841079145465033 -0.0099659898851858358 0 -0.078462057111030492 0.0076527769379092746 0 -0.086168345632243293 -0.0058649827448112217 0 -0.083795932197764073 -0.0227685960135562 0 -0.073841079145465033 -0.0099659898851858358 0 -0.1022364627064003 -0.0092294706397440755 0 -0.086168345632243293 -0.0058649827448112217 0 -0.083795932197764073 -0.0227685960135562 0 -0.1062297536317673 -0.02643740836474795 0 -0.083795932197764073 -0.0227685960135562 0 -0.089300268313373898 -0.041364401422807777 0 -0.083795932197764073 -0.0227685960135562 0 -0.06363986287267473 -0.022537188626711311 0 -0.074998802815724519 -0.037206642979606207 0 -0.083795932197764073 -0.0227685960135562 0 -0.06363986287267473 -0.022537188626711311 0 -0.073841079145465033 -0.0099659898851858358 0 -0.073841079145465033 -0.0099659898851858358 0 -0.060466491373628979 -0.0028009421811297751 0 -0.078462057111030492 0.0076527769379092746 0 -0.06363986287267473 -0.022537188626711311 0 -0.073841079145465033 -0.0099659898851858358 0 -0.060466491373628979 -0.0028009421811297751 0 -0.089300268313373898 -0.041364401422807777 0 -0.072370782994968505 -0.056291394480853851 0 -0.083123622436293107 -0.05911796644564353 0 -0.089300268313373898 -0.041364401422807777 0 -0.072370782994968505 -0.056291394480853851 0 -0.097497671220764262 -0.055864528001337337 0 -0.083123622436293107 -0.05911796644564353 0 -0.089300268313373898 -0.041364401422807777 0 -0.087839285783300594 -0.072031554011163068 0 -0.097497671220764262 -0.055864528001337337 0 -0.083123622436293107 -0.05911796644564353 0 -0.089300268313373898 -0.041364401422807777 0 -0.074998802815724519 -0.037206642979606207 0 -0.072370782994968505 -0.056291394480853851 0 -0.083795932197764073 -0.0227685960135562 0 -0.089300268313373898 -0.041364401422807777 0 -0.074998802815724519 -0.037206642979606207 0 -0.074998802815724519 -0.037206642979606207 0 -0.072370782994968505 -0.056291394480853851 0 -0.061347754515817782 -0.039367228469393979 0 -0.06363986287267473 -0.022537188626711311 0 -0.074998802815724519 -0.037206642979606207 0 -0.061347754515817782 -0.039367228469393979 0 -0.072370782994968505 -0.056291394480853851 0 -0.053641540733381038 -0.051368085489935177 0 -0.073737605050866767 -0.072008573715759791 0 -0.083123622436293107 -0.05911796644564353 0 -0.072370782994968505 -0.056291394480853851 0 -0.083123622436293107 -0.05911796644564353 0 -0.072370782994968505 -0.056291394480853851 0 -0.072370782994968505 -0.056291394480853851 0 -0.053641540733381038 -0.051368085489935177 0 -0.054533931193457341 -0.072018426815968123 0 -0.053641540733381038 -0.051368085489935177 0 -0.043003878089039702 -0.067934076524116149 0 -0.072370782994968505 -0.056291394480853851 0 -0.053641540733381038 -0.051368085489935177 0 -0.061347754515817782 -0.039367228469393979 0 -0.053641540733381038 -0.051368085489935177 0 -0.061347754515817782 -0.039367228469393979 0 -0.061347754515817782 -0.039367228469393979 0 -0.048712263985468608 -0.037890703626714137 0 -0.053432227384019093 -0.028571097335117829 0 -0.053641540733381038 -0.051368085489935177 0 -0.061347754515817782 -0.039367228469393979 0 -0.048712263985468608 -0.037890703626714137 0 -0.033084088148661657 -0.04596419943163306 0 -0.042733653384756889 -0.023808759273827911 0 -0.053641540733381038 -0.051368085489935177 0 -0.048712263985468608 -0.037890703626714137 0 -0.033084088148661657 -0.04596419943163306 0 -0.048712263985468608 -0.037890703626714137 0 -0.033084088148661657 -0.04596419943163306 0 -0.042733653384756889 -0.023808759273827911 0 -0.033084088148661657 -0.04596419943163306 0 -0.042733653384756889 -0.023808759273827911 0 -0.02857696783615123 -0.034409657958946328 0 -0.053641540733381038 -0.051368085489935177 0 -0.033084088148661657 -0.04596419943163306 0 -0.053641540733381038 -0.051368085489935177 0 -0.033084088148661657 -0.04596419943163306 0 -0.037996372647884663 -0.057639563218205063 0 -0.053641540733381038 -0.051368085489935177 0 -0.037996372647884663 -0.057639563218205063 0 -0.043003878089039702 -0.067934076524116149 0 -0.033084088148661657 -0.04596419943163306 0 -0.037996372647884663 -0.057639563218205063 0 -0.026668800767266309 -0.060693724772522738 0 -0.060466491373628979 -0.0028009421811297751 0 -0.040823162424032437 -0.01442441650764823 0 -0.042516026620283989 -0.0011487078488288669 0 -0.060466491373628979 -0.0028009421811297751 0 -0.052083490639963793 -0.018503310411619261 0 -0.040823162424032437 -0.01442441650764823 0 -0.06363986287267473 -0.022537188626711311 0 -0.060466491373628979 -0.0028009421811297751 0 -0.052083490639963793 -0.018503310411619261 0 -0.060466491373628979 -0.0028009421811297751 0 -0.040823162424032437 -0.01442441650764823 0 -0.06363986287267473 -0.022537188626711311 0 -0.061347754515817782 -0.039367228469393979 0 -0.053432227384019093 -0.028571097335117829 0 -0.06363986287267473 -0.022537188626711311 0 -0.052083490639963793 -0.018503310411619261 0 -0.053432227384019093 -0.028571097335117829 0 -0.052083490639963793 -0.018503310411619261 0 -0.053432227384019093 -0.028571097335117829 0 -0.042733653384756889 -0.023808759273827911 0 -0.048712263985468608 -0.037890703626714137 0 -0.053432227384019093 -0.028571097335117829 0 -0.042733653384756889 -0.023808759273827911 0 -0.042733653384756889 -0.023808759273827911 0 -0.040823162424032437 -0.01442441650764823 0 -0.021179833474435882 -0.026047890834166691 0 -0.052083490639963793 -0.018503310411619261 0 -0.042733653384756889 -0.023808759273827911 0 -0.040823162424032437 -0.01442441650764823 0 -0.040823162424032437 -0.01442441650764823 0 -0.042516026620283989 -0.0011487078488288669 0 -0.029909871257333048 -0.012833316735615311 0 -0.042516026620283989 -0.0011487078488288669 0 -0.029909871257333048 -0.012833316735615311 0 -0.015120462510579869 -0.0097122517518174346 0 -0.042516026620283989 -0.0011487078488288669 0 -0.015120462510579869 -0.0097122517518174346 0 -0.029909871257333048 -0.012833316735615311 0 -0.021179833474435882 -0.026047890834166691 0 -0.015120462510579869 -0.0097122517518174346 0 -0.040823162424032437 -0.01442441650764823 0 -0.029909871257333048 -0.012833316735615311 0 -0.021179833474435882 -0.026047890834166691 0 -0.042733653384756889 -0.023808759273827911 0 -0.021179833474435882 -0.026047890834166691 0 -0.02857696783615123 -0.034409657958946328 0 -0.040823162424032437 -0.01442441650764823 0 -0.021179833474435882 -0.026047890834166691 0 -0.021179833474435882 -0.026047890834166691 0 -0.0039213121239204214 -0.024019612186942811 0 -0.0015365045248385699 -0.037671365160683951 0 -0.0039213121239204214 -0.024019612186942811 0 -0.015120462510579869 -0.0097122517518174346 0 0.012275101599124399 -0.018275795654806051 0 -0.021179833474435882 -0.026047890834166691 0 -0.0039213121239204214 -0.024019612186942811 0 -0.015120462510579869 -0.0097122517518174346 0 -0.015120462510579869 -0.0097122517518174346 0 0.012275101599124399 -0.018275795654806051 0 -0.033084088148661657 -0.04596419943163306 0 -0.026668800767266309 -0.060693724772522738 0 -0.017310296336750349 -0.041817782296157603 0 -0.026668800767266309 -0.060693724772522738 0 -0.017310296336750349 -0.041817782296157603 0 -0.012719548513722669 -0.054844996069052923 0 -0.033084088148661657 -0.04596419943163306 0 -0.026668800767266309 -0.060693724772522738 0 -0.021179833474435882 -0.026047890834166691 0 -0.02857696783615123 -0.034409657958946328 0 -0.017310296336750349 -0.041817782296157603 0 -0.033084088148661657 -0.04596419943163306 0 -0.02857696783615123 -0.034409657958946328 0 -0.017310296336750349 -0.041817782296157603 0 -0.033084088148661657 -0.04596419943163306 0 -0.017310296336750349 -0.041817782296157603 0 -0.017310296336750349 -0.041817782296157603 0 -0.0015365045248385699 -0.037671365160683951 0 -0.012719548513722669 -0.054844996069052923 0 -0.021179833474435882 -0.026047890834166691 0 -0.017310296336750349 -0.041817782296157603 0 -0.0015365045248385699 -0.037671365160683951 0 -0.021179833474435882 -0.026047890834166691 0 -0.0015365045248385699 -0.037671365160683951 0 -0.017310296336750349 -0.041817782296157603 0 -0.0015365045248385699 -0.037671365160683951 0 -0.0015365045248385699 -0.037671365160683951 0 -0.012719548513722669 -0.054844996069052923 0 0.002171372446112714 -0.058618858002487888 0 -0.0083840766596059071 -0.080417808071053185 0 0.0030420178430166892 -0.078936690626402614 0 0.002171372446112714 -0.058618858002487888 0 -0.012719548513722669 -0.054844996069052923 0 -0.020253513385871051 -0.075423250113412554 0 0.002171372446112714 -0.058618858002487888 0 -0.020253513385871051 -0.075423250113412554 0 0.002171372446112714 -0.058618858002487888 0 -0.0083840766596059071 -0.080417808071053185 0 -0.020253513385871051 -0.075423250113412554 0 0.002171372446112714 -0.058618858002487888 0 -0.0083840766596059071 -0.080417808071053185 0 -0.01314239525443584 -0.091750405623669054 0 -0.020253513385871051 -0.075423250113412554 0 -0.0083840766596059071 -0.080417808071053185 0 0.0013244843624020371 -0.094741037539600739 0 0.0030420178430166892 -0.078936690626402614 0 -0.0083840766596059071 -0.080417808071053185 0 -0.01314239525443584 -0.091750405623669054 0 0.0013244843624020371 -0.094741037539600739 0 -0.032366215444702029 -0.084500067558299446 0 -0.036697079391935811 -0.08774545915107089 0 -0.02191004782168765 -0.1007834170953024 0 -0.01314239525443584 -0.091750405623669054 0 -0.021896581143787071 -0.085851034235711249 0 -0.020253513385871051 -0.075423250113412554 0 -0.01314239525443584 -0.091750405623669054 0 -0.020253513385871051 -0.075423250113412554 0 -0.032366215444702029 -0.084500067558299446 0 -0.02191004782168765 -0.1007834170953024 0 -0.021896581143787071 -0.085851034235711249 0 -0.032366215444702029 -0.084500067558299446 0 -0.02191004782168765 -0.1007834170953024 0 -0.01314239525443584 -0.091750405623669054 0 -0.021896581143787071 -0.085851034235711249 0 -0.02191004782168765 -0.1007834170953024 0 -0.020253513385871051 -0.075423250113412554 0 -0.032366215444702029 -0.084500067558299446 0 -0.021896581143787071 -0.085851034235711249 0 -0.020253513385871051 -0.075423250113412554 0 -0.032366215444702029 -0.084500067558299446 0 -0.026668800767266309 -0.060693724772522738 0 -0.012719548513722669 -0.054844996069052923 0 -0.020253513385871051 -0.075423250113412554 0 -0.020253513385871051 -0.075423250113412554 0 -0.031899769421595107 -0.072502122022462562 0 -0.032366215444702029 -0.084500067558299446 0 -0.026668800767266309 -0.060693724772522738 0 -0.020253513385871051 -0.075423250113412554 0 -0.031899769421595107 -0.072502122022462562 0 -0.026668800767266309 -0.060693724772522738 0 -0.020253513385871051 -0.075423250113412554 0 -0.043003878089039702 -0.067934076524116149 0 -0.031899769421595107 -0.072502122022462562 0 -0.032366215444702029 -0.084500067558299446 0 -0.037996372647884663 -0.057639563218205063 0 -0.043003878089039702 -0.067934076524116149 0 -0.031899769421595107 -0.072502122022462562 0 -0.037996372647884663 -0.057639563218205063 0 -0.026668800767266309 -0.060693724772522738 0 -0.031899769421595107 -0.072502122022462562 0 -0.043003878089039702 -0.067934076524116149 0 -0.036697079391935811 -0.08774545915107089 0 -0.054533931193457341 -0.072018426815968123 0 -0.043003878089039702 -0.067934076524116149 0 -0.032366215444702029 -0.084500067558299446 0 -0.043003878089039702 -0.067934076524116149 0 -0.032366215444702029 -0.084500067558299446 0 -0.036697079391935811 -0.08774545915107089 0 -0.036697079391935811 -0.08774545915107089 0 -0.054533931193457341 -0.072018426815968123 0 -0.032366215444702029 -0.084500067558299446 0 -0.036697079391935811 -0.08774545915107089 0 -0.036697079391935811 -0.08774545915107089 0 -0.061968826784957583 -0.086482841765197743 0 -0.054533931193457341 -0.072018426815968123 0 -0.036697079391935811 -0.08774545915107089 0 -0.061968826784957583 -0.086482841765197743 0 -0.053702658228946612 -0.100488820120301 0 -0.053641540733381038 -0.051368085489935177 0 -0.043003878089039702 -0.067934076524116149 0 -0.054533931193457341 -0.072018426815968123 0 -0.070708237065965948 -0.1132321810895198 0 -0.054241644927164261 -0.1229162681213274 0 -0.053702658228946612 -0.100488820120301 0 -0.054241644927164261 -0.1229162681213274 0 -0.053702658228946612 -0.100488820120301 0 -0.038076012839783041 -0.11457364086478281 0 -0.070708237065965948 -0.1132321810895198 0 -0.061968826784957583 -0.086482841765197743 0 -0.053702658228946612 -0.100488820120301 0 -0.070708237065965948 -0.1132321810895198 0 -0.053702658228946612 -0.100488820120301 0 -0.053702658228946612 -0.100488820120301 0 -0.034338370015975138 -0.1014349425270665 0 -0.038076012839783041 -0.11457364086478281 0 -0.036697079391935811 -0.08774545915107089 0 -0.053702658228946612 -0.100488820120301 0 -0.034338370015975138 -0.1014349425270665 0 -0.036697079391935811 -0.08774545915107089 0 -0.053702658228946612 -0.100488820120301 0 -0.034338370015975138 -0.1014349425270665 0 -0.038076012839783041 -0.11457364086478281 0 -0.02565558109139349 -0.1097054465338109 0 -0.038076012839783041 -0.11457364086478281 0 -0.021543215134451059 -0.1243562784724742 0 -0.038637905002645627 -0.12996603760966779 0 -0.054241644927164261 -0.1229162681213274 0 -0.038076012839783041 -0.11457364086478281 0 -0.038637905002645627 -0.12996603760966779 0 -0.038076012839783041 -0.11457364086478281 0 -0.02565558109139349 -0.1097054465338109 0 -0.021543215134451059 -0.1243562784724742 0 -0.02565558109139349 -0.1097054465338109 0 -0.017018451323041941 -0.1143159618690619 0 -0.021543215134451059 -0.1243562784724742 0 -0.036697079391935811 -0.08774545915107089 0 -0.02191004782168765 -0.1007834170953024 0 -0.036697079391935811 -0.08774545915107089 0 -0.034338370015975138 -0.1014349425270665 0 -0.02191004782168765 -0.1007834170953024 0 -0.034338370015975138 -0.1014349425270665 0 -0.02565558109139349 -0.1097054465338109 0 -0.02191004782168765 -0.1007834170953024 0 -0.02565558109139349 -0.1097054465338109 0 -0.019831472069815479 -0.10402037510205391 0 -0.02191004782168765 -0.1007834170953024 0 -0.02565558109139349 -0.1097054465338109 0 -0.017018451323041941 -0.1143159618690619 0 -0.019831472069815479 -0.10402037510205391 0 -0.019831472069815479 -0.10402037510205391 0 -0.02191004782168765 -0.1007834170953024 0 -0.01314239525443584 -0.091750405623669054 0 -0.0060312771230008706 -0.10807756113392571 0 -0.02191004782168765 -0.1007834170953024 0 -0.0060312771230008706 -0.10807756113392571 0 -0.001043536996507721 -0.1191817473679085 0 -0.019831472069815479 -0.10402037510205391 0 -0.02191004782168765 -0.1007834170953024 0 -0.001043536996507721 -0.1191817473679085 0 -0.01314239525443584 -0.091750405623669054 0 -0.02191004782168765 -0.1007834170953024 0 -0.0060312771230008706 -0.10807756113392571 0 -0.01314239525443584 -0.091750405623669054 0 -0.0060312771230008706 -0.10807756113392571 0 0.0013244843624020371 -0.094741037539600739 0 -0.0060312771230008706 -0.10807756113392571 0 0.0046327842355795186 -0.1097690924407289 0 0.0013244843624020371 -0.094741037539600739 0 -0.017018451323041941 -0.1143159618690619 0 -0.019831472069815479 -0.10402037510205391 0 -0.001043536996507721 -0.1191817473679085 0 -0.017018451323041941 -0.1143159618690619 0 -0.021543215134451059 -0.1243562784724742 0 -0.001043536996507721 -0.1191817473679085 0 -0.02191004782168765 -0.1007834170953024 0 -0.001043536996507721 -0.1191817473679085 0 -0.0060312771230008706 -0.10807756113392571 0 -0.001043536996507721 -0.1191817473679085 0 0.0046327842355795186 -0.1097690924407289 0 -0.021543215134451059 -0.1243562784724742 0 -0.001043536996507721 -0.1191817473679085 0 -0.0035679149115061628 -0.14124214058008361 0 -0.021543215134451059 -0.1243562784724742 0 -0.027226732801425589 -0.14288523495042249 0 -0.0035679149115061628 -0.14124214058008361 0 -0.021543215134451059 -0.1243562784724742 0 -0.027226732801425589 -0.14288523495042249 0 -0.038637905002645627 -0.12996603760966779 0 -0.027226732801425589 -0.14288523495042249 0 -0.016302216196717911 -0.1558765054960721 0 -0.031349504810743729 -0.1668193094281068 0 -0.027226732801425589 -0.14288523495042249 0 -0.016302216196717911 -0.1558765054960721 0 -0.0035679149115061628 -0.14124214058008361 0 -0.016302216196717911 -0.1558765054960721 0 -0.0035679149115061628 -0.14124214058008361 0 -0.0024628466161756421 -0.1602726340402203 0 -0.0024628466161756421 -0.1602726340402203 0 -0.01207319725151865 -0.16943126008911619 0 0.0028716684178432539 -0.176104986180316 0 -0.016302216196717911 -0.1558765054960721 0 -0.0024628466161756421 -0.1602726340402203 0 -0.01207319725151865 -0.16943126008911619 0 -0.01207319725151865 -0.16943126008911619 0 -0.01070764475568931 -0.18871689110466081 0 0.0028716684178432539 -0.176104986180316 0 -0.031349504810743729 -0.1668193094281068 0 -0.01070764475568931 -0.18871689110466081 0 -0.02298969475000414 -0.1888532719062192 0 -0.01207319725151865 -0.16943126008911619 0 -0.031349504810743729 -0.1668193094281068 0 -0.01070764475568931 -0.18871689110466081 0 -0.031349504810743729 -0.1668193094281068 0 -0.01070764475568931 -0.18871689110466081 0 -0.031349504810743729 -0.1668193094281068 0 -0.02298969475000414 -0.1888532719062192 0 -0.031815660174230917 -0.18892782119971829 0 -0.016302216196717911 -0.1558765054960721 0 -0.01207319725151865 -0.16943126008911619 0 -0.031349504810743729 -0.1668193094281068 0 -0.031349504810743729 -0.1668193094281068 0 -0.05280397398114528 -0.16808894962107271 0 -0.051991364865798147 -0.1449217277515529 0 -0.031349504810743729 -0.1668193094281068 0 -0.041949498606674018 -0.17781725730558251 0 -0.05280397398114528 -0.16808894962107271 0 -0.031349504810743729 -0.1668193094281068 0 -0.041949498606674018 -0.17781725730558251 0 -0.031815660174230917 -0.18892782119971829 0 -0.041949498606674018 -0.17781725730558251 0 -0.051828855460576202 -0.18743294897343321 0 -0.031815660174230917 -0.18892782119971829 0 -0.051828855460576202 -0.18743294897343321 0 -0.067820020887906285 -0.17510352220545061 0 -0.041949498606674018 -0.17781725730558251 0 -0.051828855460576202 -0.18743294897343321 0 -0.05280397398114528 -0.16808894962107271 0 -0.051828855460576202 -0.18743294897343321 0 -0.05280397398114528 -0.16808894962107271 0 -0.067820020887906285 -0.17510352220545061 0 -0.05280397398114528 -0.16808894962107271 0 -0.051991364865798147 -0.1449217277515529 0 -0.072701217301150214 -0.1553051159387481 0 -0.054241644927164261 -0.1229162681213274 0 -0.051991364865798147 -0.1449217277515529 0 -0.038637905002645627 -0.12996603760966779 0 -0.054241644927164261 -0.1229162681213274 0 -0.051991364865798147 -0.1449217277515529 0 -0.071918961933606973 -0.13378207477775181 0 -0.027226732801425589 -0.14288523495042249 0 -0.051991364865798147 -0.1449217277515529 0 -0.038637905002645627 -0.12996603760966779 0 -0.027226732801425589 -0.14288523495042249 0 -0.031349504810743729 -0.1668193094281068 0 -0.051991364865798147 -0.1449217277515529 0 -0.031349504810743729 -0.1668193094281068 0 -0.051991364865798147 -0.1449217277515529 0 -0.02415883817859597 -0.2349609586475076 0 -0.01719112655688302 -0.24802023597079551 0 -0.036153264592620818 -0.24251984825047071 0 -0.02415883817859597 -0.2349609586475076 0 -0.01719112655688302 -0.24802023597079551 0 -0.0029630987762654971 -0.24137594919767921 0 -0.02415883817859597 -0.2349609586475076 0 -0.0029630987762654971 -0.24137594919767921 0 -0.0094330388027927987 -0.23073595219582699 0 -0.0037676009972298589 -0.25546460003562632 0 -0.01719112655688302 -0.24802023597079551 0 -0.0029630987762654971 -0.24137594919767921 0 -0.02415883817859597 -0.2349609586475076 0 -0.0029630987762654971 -0.24137594919767921 0 -0.0037676009972298589 -0.25546460003562632 0 -0.0029630987762654971 -0.24137594919767921 0 0.0051357754909989034 -0.24696665200157411 0 -0.01473110793867119 -0.21603586496520871 0 0.0041208896823614616 -0.23057103597291281 0 0.0099342152993651192 -0.2106144727812147 0 -0.0094330388027927987 -0.23073595219582699 0 -0.01473110793867119 -0.21603586496520871 0 0.0041208896823614616 -0.23057103597291281 0 -0.01473110793867119 -0.21603586496520871 0 0.0041208896823614616 -0.23057103597291281 0 -0.0029630987762654971 -0.24137594919767921 0 -0.0094330388027927987 -0.23073595219582699 0 0.0041208896823614616 -0.23057103597291281 0 -0.02415883817859597 -0.2349609586475076 0 -0.0094330388027927987 -0.23073595219582699 0 -0.01473110793867119 -0.21603586496520871 0 -0.02415883817859597 -0.2349609586475076 0 -0.01473110793867119 -0.21603586496520871 0 -0.032169093297146643 -0.21915976032262621 0 -0.02415883817859597 -0.2349609586475076 0 -0.032169093297146643 -0.21915976032262621 0 -0.037384725348727478 -0.23029698604351809 0 -0.01473110793867119 -0.21603586496520871 0 -0.016522141316891451 -0.20090900943049739 0 -0.033583105559702342 -0.20150069395750281 0 -0.01473110793867119 -0.21603586496520871 0 -0.033583105559702342 -0.20150069395750281 0 -0.032169093297146643 -0.21915976032262621 0 -0.01473110793867119 -0.21603586496520871 0 -0.033583105559702342 -0.20150069395750281 0 -0.01473110793867119 -0.21603586496520871 0 -0.016522141316891451 -0.20090900943049739 0 0.0099342152993651192 -0.2106144727812147 0 -0.01070764475568931 -0.18871689110466081 0 -0.016522141316891451 -0.20090900943049739 0 0.0099342152993651192 -0.2106144727812147 0 -0.01070764475568931 -0.18871689110466081 0 0.0099342152993651192 -0.2106144727812147 0 -0.01070764475568931 -0.18871689110466081 0 -0.02298969475000414 -0.1888532719062192 0 -0.016522141316891451 -0.20090900943049739 0 -0.016522141316891451 -0.20090900943049739 0 -0.02870724668144975 -0.1967843586517172 0 -0.033583105559702342 -0.20150069395750281 0 -0.02298969475000414 -0.1888532719062192 0 -0.016522141316891451 -0.20090900943049739 0 -0.02870724668144975 -0.1967843586517172 0 -0.02870724668144975 -0.1967843586517172 0 -0.033583105559702342 -0.20150069395750281 0 -0.02298969475000414 -0.1888532719062192 0 -0.02870724668144975 -0.1967843586517172 0 -0.031815660174230917 -0.18892782119971829 0 -0.051828855460576202 -0.18743294897343321 0 -0.033583105559702342 -0.20150069395750281 0 -0.051828855460576202 -0.18743294897343321 0 -0.031815660174230917 -0.18892782119971829 0 -0.033583105559702342 -0.20150069395750281 0 -0.051828855460576202 -0.18743294897343321 0 -0.031815660174230917 -0.18892782119971829 0 -0.051828855460576202 -0.18743294897343321 0 -0.033583105559702342 -0.20150069395750281 0 -0.051103392873097411 -0.2184477696803494 0 -0.02870724668144975 -0.1967843586517172 0 -0.031815660174230917 -0.18892782119971829 0 -0.033583105559702342 -0.20150069395750281 0 -0.051828855460576202 -0.18743294897343321 0 -0.051103392873097411 -0.2184477696803494 0 -0.065403498240902497 -0.20432058984471779 0 -0.033583105559702342 -0.20150069395750281 0 -0.051103392873097411 -0.2184477696803494 0 -0.033583105559702342 -0.20150069395750281 0 -0.051103392873097411 -0.2184477696803494 0 -0.032169093297146643 -0.21915976032262621 0 -0.051103392873097411 -0.2184477696803494 0 -0.032169093297146643 -0.21915976032262621 0 -0.037384725348727478 -0.23029698604351809 0 -0.051103392873097411 -0.2184477696803494 0 -0.037384725348727478 -0.23029698604351809 0 -0.048892323111073978 -0.23528828654983711 0 -0.051103392873097411 -0.2184477696803494 0 -0.048892323111073978 -0.23528828654983711 0 -0.068623680186492217 -0.23539484540319619 0 -0.051103392873097411 -0.2184477696803494 0 -0.068623680186492217 -0.23539484540319619 0 -0.065403498240902497 -0.20432058984471779 0 -0.051103392873097411 -0.2184477696803494 0 -0.068623680186492217 -0.23539484540319619 0 -0.048892323111073978 -0.23528828654983711 0 -0.051196552554431993 -0.249781983371651 0 -0.068623680186492217 -0.23539484540319619 0 -0.048892323111073978 -0.23528828654983711 0 -0.051196552554431993 -0.249781983371651 0 -0.036153264592620818 -0.24251984825047071 0 -0.037384725348727478 -0.23029698604351809 0 -0.048892323111073978 -0.23528828654983711 0 -0.036153264592620818 -0.24251984825047071 0 -0.02415883817859597 -0.2349609586475076 0 -0.037384725348727478 -0.23029698604351809 0 -0.036153264592620818 -0.24251984825047071 0 -0.086143967499887036 -0.25234192112604298 0 -0.068623680186492217 -0.23539484540319619 0 -0.089689484997947461 -0.23182668379059049 0 -0.068024863348320641 -0.25877973592827141 0 -0.051196552554431993 -0.249781983371651 0 -0.068623680186492217 -0.23539484540319619 0 -0.086143967499887036 -0.25234192112604298 0 -0.068623680186492217 -0.23539484540319619 0 -0.068024863348320641 -0.25877973592827141 0 -0.086143967499887036 -0.25234192112604298 0 -0.068623680186492217 -0.23539484540319619 0 -0.068623680186492217 -0.23539484540319619 0 -0.089689484997947461 -0.23182668379059049 0 -0.086078052617673761 -0.2097943934577261 0 -0.068623680186492217 -0.23539484540319619 0 -0.086078052617673761 -0.2097943934577261 0 -0.065403498240902497 -0.20432058984471779 0 -0.086078052617673761 -0.2097943934577261 0 -0.065403498240902497 -0.20432058984471779 0 -0.075605796142297496 -0.18565694630406329 0 -0.051828855460576202 -0.18743294897343321 0 -0.065403498240902497 -0.20432058984471779 0 -0.075605796142297496 -0.18565694630406329 0 -0.086078052617673761 -0.2097943934577261 0 -0.075605796142297496 -0.18565694630406329 0 -0.09938273682401888 -0.18388094363469421 0 -0.086078052617673761 -0.2097943934577261 0 -0.1166612032749183 -0.21116629292651329 0 -0.09938273682401888 -0.18388094363469421 0 -0.1166612032749183 -0.21116629292651329 0 -0.12315967750574031 -0.18210494096532501 0 -0.1302897421874912 -0.1953388420013763 0 -0.1166612032749183 -0.21116629292651329 0 -0.12315967750574031 -0.18210494096532501 0 -0.1166612032749183 -0.21116629292651329 0 -0.09938273682401888 -0.18388094363469421 0 -0.12315967750574031 -0.18210494096532501 0 -0.089689484997947461 -0.23182668379059049 0 -0.086078052617673761 -0.2097943934577261 0 -0.1166612032749183 -0.21116629292651329 0 -0.089689484997947461 -0.23182668379059049 0 -0.1166612032749183 -0.21116629292651329 0 -0.1101627290440967 -0.24022764488770201 0 -0.1166612032749183 -0.21116629292651329 0 -0.1101627290440967 -0.24022764488770201 0 -0.1166612032749183 -0.21116629292651329 0 -0.1101627290440967 -0.24022764488770201 0 -0.13696110654409069 -0.23531972623879291 0 -0.086143967499887036 -0.25234192112604298 0 -0.089689484997947461 -0.23182668379059049 0 -0.1101627290440967 -0.24022764488770201 0 -0.071918961933606973 -0.13378207477775181 0 -0.072701217301150214 -0.1553051159387481 0 -0.09415749153857797 -0.14034161370662401 0 -0.09024751503769983 -0.15559340225916729 0 -0.072701217301150214 -0.1553051159387481 0 -0.09415749153857797 -0.14034161370662401 0 -0.08771381590298527 -0.12597554205873859 0 -0.071918961933606973 -0.13378207477775181 0 -0.09415749153857797 -0.14034161370662401 0 -0.051991364865798147 -0.1449217277515529 0 -0.071918961933606973 -0.13378207477775181 0 -0.072701217301150214 -0.1553051159387481 0 -0.072701217301150214 -0.1553051159387481 0 -0.067820020887906285 -0.17510352220545061 0 -0.084136782310215 -0.17121453710719439 0 -0.05280397398114528 -0.16808894962107271 0 -0.072701217301150214 -0.1553051159387481 0 -0.067820020887906285 -0.17510352220545061 0 -0.051828855460576202 -0.18743294897343321 0 -0.075605796142297496 -0.18565694630406329 0 -0.067820020887906285 -0.17510352220545061 0 -0.075605796142297496 -0.18565694630406329 0 -0.067820020887906285 -0.17510352220545061 0 -0.084136782310215 -0.17121453710719439 0 -0.051828855460576202 -0.18743294897343321 0 -0.075605796142297496 -0.18565694630406329 0 -0.075605796142297496 -0.18565694630406329 0 -0.084136782310215 -0.17121453710719439 0 -0.09938273682401888 -0.18388094363469421 0 -0.075605796142297496 -0.18565694630406329 0 -0.09938273682401888 -0.18388094363469421 0 -0.09024751503769983 -0.15559340225916729 0 -0.072701217301150214 -0.1553051159387481 0 -0.084136782310215 -0.17121453710719439 0 -0.09024751503769983 -0.15559340225916729 0 -0.084136782310215 -0.17121453710719439 0 -0.1071019804619 -0.1649037973911324 0 -0.084136782310215 -0.17121453710719439 0 -0.1071019804619 -0.1649037973911324 0 -0.09938273682401888 -0.18388094363469421 0 -0.1071019804619 -0.1649037973911324 0 -0.09938273682401888 -0.18388094363469421 0 -0.12315967750574031 -0.18210494096532501 0 -0.09938273682401888 -0.18388094363469421 0 -0.12315967750574031 -0.18210494096532501 0 -0.1071019804619 -0.1649037973911324 0 -0.12315967750574031 -0.18210494096532501 0 -0.1289654617597146 -0.15614131725573979 0 -0.1071019804619 -0.1649037973911324 0 -0.109845191779652 -0.13899958858200359 0 -0.1289654617597146 -0.15614131725573979 0 -0.109845191779652 -0.13899958858200359 0 -0.13477124601368931 -0.13017769354615469 0 -0.1289654617597146 -0.15614131725573979 0 -0.09024751503769983 -0.15559340225916729 0 -0.1071019804619 -0.1649037973911324 0 -0.109845191779652 -0.13899958858200359 0 -0.09024751503769983 -0.15559340225916729 0 -0.09415749153857797 -0.14034161370662401 0 -0.109845191779652 -0.13899958858200359 0 -0.08771381590298527 -0.12597554205873859 0 -0.09415749153857797 -0.14034161370662401 0 -0.109845191779652 -0.13899958858200359 0 -0.10910566528621379 -0.1156079219703004 0 -0.08771381590298527 -0.12597554205873859 0 -0.109845191779652 -0.13899958858200359 0 -0.10910566528621379 -0.1156079219703004 0 -0.109845191779652 -0.13899958858200359 0 -0.13477124601368931 -0.13017769354615469 0 -0.14763625720698709 -0.1431841122617841 0 -0.16595226835076551 -0.13753171568135439 0 -0.1549887479566488 -0.11740182579239999 0 -0.13477124601368931 -0.13017769354615469 0 -0.14763625720698709 -0.1431841122617841 0 -0.1549887479566488 -0.11740182579239999 0 -0.14763625720698709 -0.1431841122617841 0 -0.14285073335480841 -0.16270580143985089 0 -0.15828908580629639 -0.15514631985520461 0 -0.14763625720698709 -0.1431841122617841 0 -0.1289654617597146 -0.15614131725573979 0 -0.14285073335480841 -0.16270580143985089 0 -0.13477124601368931 -0.13017769354615469 0 -0.14763625720698709 -0.1431841122617841 0 -0.1289654617597146 -0.15614131725573979 0 -0.13477124601368931 -0.13017769354615469 0 -0.1289654617597146 -0.15614131725573979 0 -0.1289654617597146 -0.15614131725573979 0 -0.13262274363998819 -0.17507966214005369 0 -0.14285073335480841 -0.16270580143985089 0 -0.12315967750574031 -0.18210494096532501 0 -0.1289654617597146 -0.15614131725573979 0 -0.13262274363998819 -0.17507966214005369 0 -0.12315967750574031 -0.18210494096532501 0 -0.1289654617597146 -0.15614131725573979 0 -0.13262274363998819 -0.17507966214005369 0 -0.1405283549113229 -0.17545871415821679 0 -0.14285073335480841 -0.16270580143985089 0 -0.12315967750574031 -0.18210494096532501 0 -0.1308445772393646 -0.1860178128777461 0 -0.12831568845668029 -0.18171981617846791 0 -0.12315967750574031 -0.18210494096532501 0 -0.12831568845668029 -0.18171981617846791 0 -0.1308445772393646 -0.1860178128777461 0 -0.12831568845668029 -0.18171981617846791 0 -0.1343249228315567 -0.18166846351985411 0 -0.12315967750574031 -0.18210494096532501 0 -0.12831568845668029 -0.18171981617846791 0 -0.13262274363998819 -0.17507966214005369 0 -0.12831568845668029 -0.18171981617846791 0 -0.13262274363998819 -0.17507966214005369 0 -0.1343249228315567 -0.18166846351985411 0 -0.13262274363998819 -0.17507966214005369 0 -0.1405283549113229 -0.17545871415821679 0 -0.1343249228315567 -0.18166846351985411 0 -0.1405283549113229 -0.17545871415821679 0 -0.1343249228315567 -0.18166846351985411 0 -0.13813285521535451 -0.1892570017237071 0 -0.1308445772393646 -0.1860178128777461 0 -0.1343249228315567 -0.18166846351985411 0 -0.13813285521535451 -0.1892570017237071 0 -0.1405283549113229 -0.17545871415821679 0 -0.14723771865779869 -0.18708544357809959 0 -0.1487071323038093 -0.17880458417185019 0 -0.1405283549113229 -0.17545871415821679 0 -0.1487071323038093 -0.17880458417185019 0 -0.15371799794104421 -0.1697505184123515 0 -0.1487071323038093 -0.17880458417185019 0 -0.15557233865557729 -0.18285268400126201 0 -0.15371799794104421 -0.1697505184123515 0 -0.14723771865779869 -0.18708544357809959 0 -0.15557233865557729 -0.18285268400126201 0 -0.1539241277654953 -0.18842477248961439 0 -0.14723771865779869 -0.18708544357809959 0 -0.1487071323038093 -0.17880458417185019 0 -0.15557233865557729 -0.18285268400126201 0 -0.1405283549113229 -0.17545871415821679 0 -0.14285073335480841 -0.16270580143985089 0 -0.15371799794104421 -0.1697505184123515 0 -0.14285073335480841 -0.16270580143985089 0 -0.15371799794104421 -0.1697505184123515 0 -0.15828908580629639 -0.15514631985520461 0 -0.15371799794104421 -0.1697505184123515 0 -0.1671302785301739 -0.1649686598787137 0 -0.15828908580629639 -0.15514631985520461 0 -0.1671302785301739 -0.1649686598787137 0 -0.17535667300888791 -0.15211765186482409 0 -0.15828908580629639 -0.15514631985520461 0 -0.15371799794104421 -0.1697505184123515 0 -0.1671302785301739 -0.1649686598787137 0 -0.16204407209454941 -0.17350564455303619 0 -0.1671302785301739 -0.1649686598787137 0 -0.16204407209454941 -0.17350564455303619 0 -0.17089447200106561 -0.17430852506396921 0 -0.15557233865557729 -0.18285268400126201 0 -0.158476845255794 -0.19144037339724429 0 -0.16500368200251889 -0.1879330563769698 0 -0.15557233865557729 -0.18285268400126201 0 -0.16379363188274071 -0.18062301880478701 0 -0.16500368200251889 -0.1879330563769698 0 -0.15557233865557729 -0.18285268400126201 0 -0.16379363188274071 -0.18062301880478701 0 -0.16204407209454941 -0.17350564455303619 0 -0.15557233865557729 -0.18285268400126201 0 -0.15371799794104421 -0.1697505184123515 0 -0.16204407209454941 -0.17350564455303619 0 -0.16379363188274071 -0.18062301880478701 0 -0.16204407209454941 -0.17350564455303619 0 -0.17089447200106561 -0.17430852506396921 0 -0.16379363188274071 -0.18062301880478701 0 -0.17089447200106561 -0.17430852506396921 0 -0.17092407071150831 -0.18319786835307819 0 -0.17092407071150831 -0.18319786835307819 0 -0.17165339212334421 -0.19120142384530889 0 -0.16500368200251889 -0.1879330563769698 0 -0.16379363188274071 -0.18062301880478701 0 -0.17092407071150831 -0.18319786835307819 0 -0.16500368200251889 -0.1879330563769698 0 -0.17092407071150831 -0.18319786835307819 0 -0.17823857558996961 -0.18599114309494311 0 -0.17846332869616269 -0.1778067376398712 0 -0.17092407071150831 -0.18319786835307819 0 -0.17823857558996961 -0.18599114309494311 0 -0.17165339212334421 -0.19120142384530889 0 -0.17089447200106561 -0.17430852506396921 0 -0.17092407071150831 -0.18319786835307819 0 -0.17846332869616269 -0.1778067376398712 0 -0.17089447200106561 -0.17430852506396921 0 -0.17846332869616269 -0.1778067376398712 0 -0.18319652478664539 -0.16678571769514219 0 -0.17846332869616269 -0.1778067376398712 0 -0.18319652478664539 -0.16678571769514219 0 -0.19054768599021379 -0.17723512059121019 0 -0.18319652478664539 -0.16678571769514219 0 -0.19054768599021379 -0.17723512059121019 0 -0.17823857558996961 -0.18599114309494311 0 -0.18481527372426049 -0.19186727440255161 0 -0.19054768599021379 -0.17723512059121019 0 -0.17823857558996961 -0.18599114309494311 0 -0.17846332869616269 -0.1778067376398712 0 -0.19054768599021379 -0.17723512059121019 0 -0.1671302785301739 -0.1649686598787137 0 -0.17089447200106561 -0.17430852506396921 0 -0.18319652478664539 -0.16678571769514219 0 -0.18319652478664539 -0.16678571769514219 0 -0.18796177158060251 -0.15538856431494391 0 -0.19054768599021379 -0.17723512059121019 0 -0.1671302785301739 -0.1649686598787137 0 -0.18319652478664539 -0.16678571769514219 0 -0.17535667300888791 -0.15211765186482409 0 -0.18319652478664539 -0.16678571769514219 0 -0.17535667300888791 -0.15211765186482409 0 -0.18796177158060251 -0.15538856431494391 0 -0.17535667300888791 -0.15211765186482409 0 -0.1870717923548505 -0.14068511841761089 0 -0.18796177158060251 -0.15538856431494391 0 -0.17535667300888791 -0.15211765186482409 0 -0.1870717923548505 -0.14068511841761089 0 -0.16595226835076551 -0.13753171568135439 0 -0.1870717923548505 -0.14068511841761089 0 -0.16595226835076551 -0.13753171568135439 0 -0.1810884072397127 -0.12393129142106039 0 -0.16595226835076551 -0.13753171568135439 0 -0.1810884072397127 -0.12393129142106039 0 -0.1549887479566488 -0.11740182579239999 0 -0.17535667300888791 -0.15211765186482409 0 -0.16595226835076551 -0.13753171568135439 0 -0.15828908580629639 -0.15514631985520461 0 -0.14763625720698709 -0.1431841122617841 0 -0.16595226835076551 -0.13753171568135439 0 -0.15828908580629639 -0.15514631985520461 0 -0.14729195408805709 -0.24522062107368231 0 -0.13696110654409069 -0.23531972623879291 0 -0.15471489552033491 -0.22554864181490331 0 -0.16180816582484039 -0.25059360564324651 0 -0.14729195408805709 -0.24522062107368231 0 -0.15471489552033491 -0.22554864181490331 0 -0.13363707598743549 -0.2532616675208415 0 -0.1101627290440967 -0.24022764488770201 0 -0.13696110654409069 -0.23531972623879291 0 -0.13363707598743549 -0.2532616675208415 0 -0.14729195408805709 -0.24522062107368231 0 -0.13696110654409069 -0.23531972623879291 0 -0.1166612032749183 -0.21116629292651329 0 -0.13696110654409069 -0.23531972623879291 0 -0.1418725936392011 -0.2156588918631526 0 -0.13696110654409069 -0.23531972623879291 0 -0.15471489552033491 -0.22554864181490331 0 -0.1418725936392011 -0.2156588918631526 0 -0.15471489552033491 -0.22554864181490331 0 -0.1418725936392011 -0.2156588918631526 0 -0.14762162521582889 -0.2005036779865601 0 -0.15471489552033491 -0.22554864181490331 0 -0.14762162521582889 -0.2005036779865601 0 -0.1604088171156984 -0.21225623895955861 0 -0.15471489552033491 -0.22554864181490331 0 -0.14762162521582889 -0.2005036779865601 0 -0.14762162521582889 -0.2005036779865601 0 -0.15017918974244401 -0.20018292985386599 0 -0.1604088171156984 -0.21225623895955861 0 -0.1418725936392011 -0.2156588918631526 0 -0.14012729025181039 -0.20497021322299441 0 -0.14762162521582889 -0.2005036779865601 0 -0.1166612032749183 -0.21116629292651329 0 -0.1418725936392011 -0.2156588918631526 0 -0.1329554305439741 -0.2044531736387831 0 -0.1166612032749183 -0.21116629292651329 0 -0.1329554305439741 -0.2044531736387831 0 -0.1302897421874912 -0.1953388420013763 0 -0.1418725936392011 -0.2156588918631526 0 -0.1329554305439741 -0.2044531736387831 0 -0.14012729025181039 -0.20497021322299441 0 -0.1329554305439741 -0.2044531736387831 0 -0.14012729025181039 -0.20497021322299441 0 -0.13805951160823751 -0.19926510940348199 0 -0.1329554305439741 -0.2044531736387831 0 -0.13805951160823751 -0.19926510940348199 0 -0.1302897421874912 -0.1953388420013763 0 -0.12315967750574031 -0.18210494096532501 0 -0.1308445772393646 -0.1860178128777461 0 -0.1302897421874912 -0.1953388420013763 0 -0.13805951160823751 -0.19926510940348199 0 -0.1302897421874912 -0.1953388420013763 0 -0.13813285521535451 -0.1892570017237071 0 -0.1308445772393646 -0.1860178128777461 0 -0.1302897421874912 -0.1953388420013763 0 -0.13813285521535451 -0.1892570017237071 0 -0.14723771865779869 -0.18708544357809959 0 -0.14762162521582889 -0.2005036779865601 0 -0.14886266432980019 -0.19582024359514461 0 -0.1405283549113229 -0.17545871415821679 0 -0.14762162521582889 -0.2005036779865601 0 -0.1405283549113229 -0.17545871415821679 0 -0.13813285521535451 -0.1892570017237071 0 -0.14762162521582889 -0.2005036779865601 0 -0.1405283549113229 -0.17545871415821679 0 -0.14723771865779869 -0.18708544357809959 0 -0.14762162521582889 -0.2005036779865601 0 -0.14012729025181039 -0.20497021322299441 0 -0.13805951160823751 -0.19926510940348199 0 -0.14762162521582889 -0.2005036779865601 0 -0.13805951160823751 -0.19926510940348199 0 -0.13813285521535451 -0.1892570017237071 0 -0.14762162521582889 -0.2005036779865601 0 -0.14762162521582889 -0.2005036779865601 0 -0.14886266432980019 -0.19582024359514461 0 -0.14947723317544129 -0.1982849410671875 0 -0.14886266432980019 -0.19582024359514461 0 -0.14947723317544129 -0.1982849410671875 0 -0.1512454534136923 -0.1966329128331793 0 -0.14947723317544129 -0.1982849410671875 0 -0.1512454534136923 -0.1966329128331793 0 -0.15017918974244401 -0.20018292985386599 0 -0.14762162521582889 -0.2005036779865601 0 -0.14947723317544129 -0.1982849410671875 0 -0.15017918974244401 -0.20018292985386599 0 -0.1512454534136923 -0.1966329128331793 0 -0.15017918974244401 -0.20018292985386599 0 -0.15576569437483009 -0.19578363853805239 0 -0.15576569437483009 -0.19578363853805239 0 -0.15275461565379009 -0.1929107069498569 0 -0.158476845255794 -0.19144037339724429 0 -0.15557233865557729 -0.18285268400126201 0 -0.1539241277654953 -0.18842477248961439 0 -0.158476845255794 -0.19144037339724429 0 -0.14723771865779869 -0.18708544357809959 0 -0.14886266432980019 -0.19582024359514461 0 -0.15275461565379009 -0.1929107069498569 0 -0.1512454534136923 -0.1966329128331793 0 -0.15576569437483009 -0.19578363853805239 0 -0.15275461565379009 -0.1929107069498569 0 -0.15275461565379009 -0.1929107069498569 0 -0.1539241277654953 -0.18842477248961439 0 -0.158476845255794 -0.19144037339724429 0 -0.14723771865779869 -0.18708544357809959 0 -0.15275461565379009 -0.1929107069498569 0 -0.1539241277654953 -0.18842477248961439 0 -0.14886266432980019 -0.19582024359514461 0 -0.1512454534136923 -0.1966329128331793 0 -0.15275461565379009 -0.1929107069498569 0 -0.15017918974244401 -0.20018292985386599 0 -0.16517772290236549 -0.19753030422751189 0 -0.17908286145831079 -0.2064994282138943 0 -0.158476845255794 -0.19144037339724429 0 -0.16517772290236549 -0.19753030422751189 0 -0.16500368200251889 -0.1879330563769698 0 -0.15576569437483009 -0.19578363853805239 0 -0.158476845255794 -0.19144037339724429 0 -0.16517772290236549 -0.19753030422751189 0 -0.15017918974244401 -0.20018292985386599 0 -0.15576569437483009 -0.19578363853805239 0 -0.16517772290236549 -0.19753030422751189 0 -0.16517772290236549 -0.19753030422751189 0 -0.17165339212334421 -0.19120142384530889 0 -0.17473752576327869 -0.19760949217728041 0 -0.16517772290236549 -0.19753030422751189 0 -0.17165339212334421 -0.19120142384530889 0 -0.16500368200251889 -0.1879330563769698 0 -0.17823857558996961 -0.18599114309494311 0 -0.17165339212334421 -0.19120142384530889 0 -0.18481527372426049 -0.19186727440255161 0 -0.17165339212334421 -0.19120142384530889 0 -0.18481527372426049 -0.19186727440255161 0 -0.17473752576327869 -0.19760949217728041 0 -0.18481527372426049 -0.19186727440255161 0 -0.17908286145831079 -0.2064994282138943 0 -0.18481527372426049 -0.19186727440255161 0 -0.17908286145831079 -0.2064994282138943 0 -0.19141787607185939 -0.20125262865911159 0 -0.18481527372426049 -0.19186727440255161 0 -0.17473752576327869 -0.19760949217728041 0 -0.17908286145831079 -0.2064994282138943 0 -0.16517772290236549 -0.19753030422751189 0 -0.17473752576327869 -0.19760949217728041 0 -0.17908286145831079 -0.2064994282138943 0 -0.17908286145831079 -0.2064994282138943 0 -0.1704455136415747 -0.22854651692857 0 -0.17908286145831079 -0.2064994282138943 0 -0.1604088171156984 -0.21225623895955861 0 -0.1704455136415747 -0.22854651692857 0 -0.15017918974244401 -0.20018292985386599 0 -0.17908286145831079 -0.2064994282138943 0 -0.1604088171156984 -0.21225623895955861 0 -0.15017918974244401 -0.20018292985386599 0 -0.17908286145831079 -0.2064994282138943 0 -0.15471489552033491 -0.22554864181490331 0 -0.1604088171156984 -0.21225623895955861 0 -0.1704455136415747 -0.22854651692857 0 -0.17908286145831079 -0.2064994282138943 0 -0.1704455136415747 -0.22854651692857 0 -0.18627724774876461 -0.22128836783371009 0 -0.1704455136415747 -0.22854651692857 0 -0.18627724774876461 -0.22128836783371009 0 -0.1865656605386751 -0.23542545125172459 0 -0.18024488942319691 -0.25378078528003239 0 -0.17476605735707179 -0.2420865897758934 0 -0.1865656605386751 -0.23542545125172459 0 -0.1704455136415747 -0.22854651692857 0 -0.17476605735707179 -0.2420865897758934 0 -0.1865656605386751 -0.23542545125172459 0 -0.16180816582484039 -0.25059360564324651 0 -0.18024488942319691 -0.25378078528003239 0 -0.17476605735707179 -0.2420865897758934 0 -0.16180816582484039 -0.25059360564324651 0 -0.15471489552033491 -0.22554864181490331 0 -0.16180816582484039 -0.25059360564324651 0 -0.1704455136415747 -0.22854651692857 0 -0.17476605735707179 -0.2420865897758934 0 -0.16180816582484039 -0.25059360564324651 0 -0.1704455136415747 -0.22854651692857 0 -0.16180816582484039 -0.25059360564324651 0 -0.15471489552033491 -0.22554864181490331 0 -0.1704455136415747 -0.22854651692857 0 -0.21760187781827181 -0.25419728823726118 0 -0.20961605931669999 -0.23626542181495899 0 -0.19850728873847889 -0.24890370094164491 0 -0.18024488942319691 -0.25378078528003239 0 -0.1865656605386751 -0.23542545125172459 0 -0.19850728873847889 -0.24890370094164491 0 -0.1865656605386751 -0.23542545125172459 0 -0.20961605931669999 -0.23626542181495899 0 -0.1865656605386751 -0.23542545125172459 0 -0.20961605931669999 -0.23626542181495899 0 -0.19850728873847889 -0.24890370094164491 0 -0.1865656605386751 -0.23542545125172459 0 -0.20961605931669999 -0.23626542181495899 0 -0.19784851133590919 -0.2249019862091706 0 -0.18627724774876461 -0.22128836783371009 0 -0.1865656605386751 -0.23542545125172459 0 -0.19784851133590919 -0.2249019862091706 0 -0.18627724774876461 -0.22128836783371009 0 -0.19784851133590919 -0.2249019862091706 0 -0.19802047841945719 -0.21063798291567429 0 -0.20961605931669999 -0.23626542181495899 0 -0.19784851133590919 -0.2249019862091706 0 -0.21695809538060579 -0.21477653761744431 0 -0.21695809538060579 -0.21477653761744431 0 -0.2037528906854105 -0.19600582910432671 0 -0.21695809538060579 -0.21477653761744431 0 -0.19802047841945719 -0.21063798291567429 0 -0.19784851133590919 -0.2249019862091706 0 -0.21695809538060579 -0.21477653761744431 0 -0.19802047841945719 -0.21063798291567429 0 -0.21695809538060579 -0.21477653761744431 0 -0.19802047841945719 -0.21063798291567429 0 -0.2037528906854105 -0.19600582910432671 0 -0.17908286145831079 -0.2064994282138943 0 -0.19802047841945719 -0.21063798291567429 0 -0.17908286145831079 -0.2064994282138943 0 -0.18627724774876461 -0.22128836783371009 0 -0.19802047841945719 -0.21063798291567429 0 -0.17908286145831079 -0.2064994282138943 0 -0.19802047841945719 -0.21063798291567429 0 -0.19141787607185939 -0.20125262865911159 0 -0.18481527372426049 -0.19186727440255161 0 -0.2037528906854105 -0.19600582910432671 0 -0.19054768599021379 -0.17723512059121019 0 -0.18481527372426049 -0.19186727440255161 0 -0.19141787607185939 -0.20125262865911159 0 -0.2037528906854105 -0.19600582910432671 0 -0.19802047841945719 -0.21063798291567429 0 -0.19141787607185939 -0.20125262865911159 0 -0.2037528906854105 -0.19600582910432671 0 -0.2037528906854105 -0.19600582910432671 0 -0.22542312405861351 -0.19442328197901529 0 -0.2059815282801444 -0.17997816972994871 0 -0.21695809538060579 -0.21477653761744431 0 -0.2037528906854105 -0.19600582910432671 0 -0.22542312405861351 -0.19442328197901529 0 -0.22542312405861351 -0.19442328197901529 0 -0.24690285340742571 -0.19114610178065169 0 -0.24488486066899559 -0.20652901969351281 0 -0.22542312405861351 -0.19442328197901529 0 -0.24690285340742571 -0.19114610178065169 0 -0.2347890063656719 -0.17857756518932411 0 -0.24488486066899559 -0.20652901969351281 0 -0.24146418111165299 -0.22013200428108479 0 -0.25976906760045032 -0.2200800725267324 0 -0.24488486066899559 -0.20652901969351281 0 -0.23106921809509659 -0.20895188134742851 0 -0.24146418111165299 -0.22013200428108479 0 -0.21695809538060579 -0.21477653761744431 0 -0.22542312405861351 -0.19442328197901529 0 -0.23106921809509659 -0.20895188134742851 0 -0.22542312405861351 -0.19442328197901529 0 -0.24488486066899559 -0.20652901969351281 0 -0.23106921809509659 -0.20895188134742851 0 -0.21695809538060579 -0.21477653761744431 0 -0.23106921809509659 -0.20895188134742851 0 -0.24146418111165299 -0.22013200428108479 0 -0.21695809538060579 -0.21477653761744431 0 -0.24146418111165299 -0.22013200428108479 0 -0.20961605931669999 -0.23626542181495899 0 -0.21695809538060579 -0.21477653761744431 0 -0.23266645809472469 -0.23710539237819531 0 -0.21695809538060579 -0.21477653761744431 0 -0.23266645809472469 -0.23710539237819531 0 -0.21695809538060579 -0.21477653761744431 0 -0.24146418111165299 -0.22013200428108479 0 -0.23266645809472469 -0.23710539237819531 0 -0.24146418111165299 -0.22013200428108479 0 -0.24972092479861499 -0.23772686752666619 0 -0.23266645809472469 -0.23710539237819531 0 -0.24972092479861499 -0.23772686752666619 0 -0.23266645809472469 -0.23710539237819531 0 -0.2465658025307402 -0.25686279477778151 0 -0.23266645809472469 -0.23710539237819531 0 -0.2465658025307402 -0.25686279477778151 0 -0.24972092479861499 -0.23772686752666619 0 -0.23266645809472469 -0.23710539237819531 0 -0.23190529603631399 -0.25240867011539941 0 -0.2465658025307402 -0.25686279477778151 0 -0.23266645809472469 -0.23710539237819531 0 -0.20961605931669999 -0.23626542181495899 0 -0.23266645809472469 -0.23710539237819531 0 -0.21760187781827181 -0.25419728823726118 0 -0.20961605931669999 -0.23626542181495899 0 -0.23266645809472469 -0.23710539237819531 0 -0.23190529603631399 -0.25240867011539941 0 -0.21760187781827181 -0.25419728823726118 0 -0.23266645809472469 -0.23710539237819531 0 -0.20080672486872531 -0.15104861692353469 0 -0.22691293841788471 -0.151157674909146 0 -0.2110657637472389 -0.12486211325586 0 -0.20080672486872531 -0.15104861692353469 0 -0.2110657637472389 -0.12486211325586 0 -0.1870717923548505 -0.14068511841761089 0 -0.20080672486872531 -0.15104861692353469 0 -0.2110657637472389 -0.12486211325586 0 -0.1870717923548505 -0.14068511841761089 0 -0.2110657637472389 -0.12486211325586 0 -0.1810884072397127 -0.12393129142106039 0 -0.1870717923548505 -0.14068511841761089 0 -0.20080672486872531 -0.15104861692353469 0 -0.18796177158060251 -0.15538856431494391 0 -0.20080672486872531 -0.15104861692353469 0 -0.18796177158060251 -0.15538856431494391 0 -0.19054768599021379 -0.17723512059121019 0 -0.20080672486872531 -0.15104861692353469 0 -0.19054768599021379 -0.17723512059121019 0 -0.20080672486872531 -0.15104861692353469 0 -0.19054768599021379 -0.17723512059121019 0 -0.2059815282801444 -0.17997816972994871 0 -0.2037528906854105 -0.19600582910432671 0 -0.19054768599021379 -0.17723512059121019 0 -0.2037528906854105 -0.19600582910432671 0 -0.19054768599021379 -0.17723512059121019 0 -0.2059815282801444 -0.17997816972994871 0 -0.18481527372426049 -0.19186727440255161 0 -0.19054768599021379 -0.17723512059121019 0 -0.22542312405861351 -0.19442328197901529 0 -0.2059815282801444 -0.17997816972994871 0 -0.2184069609820849 -0.17108013250285289 0 -0.20080672486872531 -0.15104861692353469 0 -0.2059815282801444 -0.17997816972994871 0 -0.2184069609820849 -0.17108013250285289 0 -0.20080672486872531 -0.15104861692353469 0 -0.2184069609820849 -0.17108013250285289 0 -0.22691293841788471 -0.151157674909146 0 -0.2184069609820849 -0.17108013250285289 0 -0.2347890063656719 -0.17857756518932411 0 -0.22691293841788471 -0.151157674909146 0 -0.22542312405861351 -0.19442328197901529 0 -0.2184069609820849 -0.17108013250285289 0 -0.2347890063656719 -0.17857756518932411 0 -0.24690285340742571 -0.19114610178065169 0 -0.2347890063656719 -0.17857756518932411 0 -0.25034570606257017 -0.1645063498948689 0 -0.2347890063656719 -0.17857756518932411 0 -0.22691293841788471 -0.151157674909146 0 -0.25034570606257017 -0.1645063498948689 0 -0.22691293841788471 -0.151157674909146 0 -0.24230833289442899 -0.14031226057926799 0 -0.25034570606257017 -0.1645063498948689 0 -0.22691293841788471 -0.151157674909146 0 -0.2293446891521094 -0.13050141208862501 0 -0.24230833289442899 -0.14031226057926799 0 -0.22691293841788471 -0.151157674909146 0 -0.2293446891521094 -0.13050141208862501 0 -0.2110657637472389 -0.12486211325586 0 -0.24230833289442899 -0.14031226057926799 0 -0.24120545458686549 -0.1198803092441708 0 -0.26108610654798831 -0.14108500890015169 0 -0.2293446891521094 -0.13050141208862501 0 -0.24230833289442899 -0.14031226057926799 0 -0.24120545458686549 -0.1198803092441708 0 -0.24120545458686549 -0.1198803092441708 0 -0.2376370895948571 -0.094167140444009589 0 -0.25193648993446072 -0.099598643599438333 0 -0.24120545458686549 -0.1198803092441708 0 -0.2376370895948571 -0.094167140444009589 0 -0.22132480262574891 -0.098675609588184193 0 -0.24120545458686549 -0.1198803092441708 0 -0.22132480262574891 -0.098675609588184193 0 -0.22132480262574891 -0.098675609588184193 0 -0.21707452693307361 -0.094142266330916546 0 -0.2293446891521094 -0.13050141208862501 0 -0.24120545458686549 -0.1198803092441708 0 -0.22495006219835079 -0.1151987052604827 0 -0.24120545458686549 -0.1198803092441708 0 -0.22132480262574891 -0.098675609588184193 0 -0.22495006219835079 -0.1151987052604827 0 -0.2293446891521094 -0.13050141208862501 0 -0.22495006219835079 -0.1151987052604827 0 -0.2110657637472389 -0.12486211325586 0 -0.22132480262574891 -0.098675609588184193 0 -0.22495006219835079 -0.1151987052604827 0 -0.2110657637472389 -0.12486211325586 0 -0.2432588454446484 -0.067497412278163804 0 -0.2484305854943871 -0.079405895553652295 0 -0.22924327482245299 -0.078463472400991413 0 -0.2432588454446484 -0.067497412278163804 0 -0.22924327482245299 -0.078463472400991413 0 -0.23716174701915349 -0.05825133521379721 0 -0.2432588454446484 -0.067497412278163804 0 -0.2484305854943871 -0.079405895553652295 0 -0.25363952863718459 -0.06394660783385081 0 -0.2376370895948571 -0.094167140444009589 0 -0.2484305854943871 -0.079405895553652295 0 -0.22924327482245299 -0.078463472400991413 0 -0.2376370895948571 -0.094167140444009589 0 -0.2484305854943871 -0.079405895553652295 0 -0.25193648993446072 -0.099598643599438333 0 -0.2376370895948571 -0.094167140444009589 0 -0.22132480262574891 -0.098675609588184193 0 -0.22924327482245299 -0.078463472400991413 0 -0.22132480262574891 -0.098675609588184193 0 -0.22924327482245299 -0.078463472400991413 0 -0.21707452693307361 -0.094142266330916546 0 -0.22924327482245299 -0.078463472400991413 0 -0.21207877263060751 -0.078733367460180753 0 -0.21707452693307361 -0.094142266330916546 0 -0.22132480262574891 -0.098675609588184193 0 -0.22924327482245299 -0.078463472400991413 0 -0.22924327482245299 -0.078463472400991413 0 -0.2220945692109661 -0.063148207013667162 0 -0.21207877263060751 -0.078733367460180753 0 -0.22924327482245299 -0.078463472400991413 0 -0.23716174701915349 -0.05825133521379721 0 -0.22924327482245299 -0.078463472400991413 0 -0.2220945692109661 -0.063148207013667162 0 -0.23716174701915349 -0.05825133521379721 0 -0.2085925474580842 -0.062765947808683248 0 -0.21207877263060751 -0.078733367460180753 0 -0.1928127462815285 -0.080157351421010575 0 -0.2220945692109661 -0.063148207013667162 0 -0.2085925474580842 -0.062765947808683248 0 -0.21207877263060751 -0.078733367460180753 0 -0.21207877263060751 -0.078733367460180753 0 -0.20506338709678651 -0.092538617591083533 0 -0.1928127462815285 -0.080157351421010575 0 -0.21207877263060751 -0.078733367460180753 0 -0.20506338709678651 -0.092538617591083533 0 -0.21707452693307361 -0.094142266330916546 0 -0.20506338709678651 -0.092538617591083533 0 -0.1928127462815285 -0.080157351421010575 0 -0.19428952903084501 -0.1056331262735437 0 -0.2085925474580842 -0.062765947808683248 0 -0.1928127462815285 -0.080157351421010575 0 -0.19314361637026689 -0.055435455617275108 0 -0.1928127462815285 -0.080157351421010575 0 -0.19314361637026689 -0.055435455617275108 0 -0.22132480262574891 -0.098675609588184193 0 -0.2110657637472389 -0.12486211325586 0 -0.2110657637472389 -0.12486211325586 0 -0.20906136060787819 -0.10402697646976609 0 -0.19428952903084501 -0.1056331262735437 0 -0.22132480262574891 -0.098675609588184193 0 -0.2110657637472389 -0.12486211325586 0 -0.20906136060787819 -0.10402697646976609 0 -0.22132480262574891 -0.098675609588184193 0 -0.21707452693307361 -0.094142266330916546 0 -0.20906136060787819 -0.10402697646976609 0 -0.20506338709678651 -0.092538617591083533 0 -0.21707452693307361 -0.094142266330916546 0 -0.20906136060787819 -0.10402697646976609 0 -0.1928127462815285 -0.080157351421010575 0 -0.19428952903084501 -0.1056331262735437 0 -0.17613211032367529 -0.1090851457895753 0 -0.20506338709678651 -0.092538617591083533 0 -0.20906136060787819 -0.10402697646976609 0 -0.19428952903084501 -0.1056331262735437 0 -0.2110657637472389 -0.12486211325586 0 -0.19428952903084501 -0.1056331262735437 0 -0.1810884072397127 -0.12393129142106039 0 -0.19428952903084501 -0.1056331262735437 0 -0.1810884072397127 -0.12393129142106039 0 -0.17613211032367529 -0.1090851457895753 0 -0.1810884072397127 -0.12393129142106039 0 -0.17613211032367529 -0.1090851457895753 0 -0.1549887479566488 -0.11740182579239999 0 -0.16493459317992309 -0.094380591982610729 0 -0.17613211032367529 -0.1090851457895753 0 -0.1549887479566488 -0.11740182579239999 0 -0.1928127462815285 -0.080157351421010575 0 -0.16493459317992309 -0.094380591982610729 0 -0.17613211032367529 -0.1090851457895753 0 -0.1928127462815285 -0.080157351421010575 0 -0.16493459317992309 -0.094380591982610729 0 -0.1659614158824726 -0.067590314180919792 0 -0.1928127462815285 -0.080157351421010575 0 -0.1659614158824726 -0.067590314180919792 0 -0.19314361637026689 -0.055435455617275108 0 -0.16493459317992309 -0.094380591982610729 0 -0.1659614158824726 -0.067590314180919792 0 -0.14518632655292019 -0.08725896811098427 0 -0.16493459317992309 -0.094380591982610729 0 -0.1659614158824726 -0.067590314180919792 0 -0.14518632655292019 -0.08725896811098427 0 -0.14788465952965199 -0.064745311274849823 0 -0.132948838303063 -0.075019825605675064 0 -0.1659614158824726 -0.067590314180919792 0 -0.14518632655292019 -0.08725896811098427 0 -0.14788465952965199 -0.064745311274849823 0 -0.14788465952965199 -0.064745311274849823 0 -0.132948838303063 -0.075019825605675064 0 -0.13069577916492961 -0.05940471413077867 0 -0.1178533253688711 -0.072054272591921154 0 -0.132948838303063 -0.075019825605675064 0 -0.13069577916492961 -0.05940471413077867 0 -0.1235405153330069 -0.086060361932581597 0 -0.14518632655292019 -0.08725896811098427 0 -0.132948838303063 -0.075019825605675064 0 -0.1235405153330069 -0.086060361932581597 0 -0.14518632655292019 -0.08725896811098427 0 -0.1284090075068029 -0.10531499392795469 0 -0.13477124601368931 -0.13017769354615469 0 -0.1284090075068029 -0.10531499392795469 0 -0.1549887479566488 -0.11740182579239999 0 -0.14518632655292019 -0.08725896811098427 0 -0.1284090075068029 -0.10531499392795469 0 -0.1549887479566488 -0.11740182579239999 0 -0.16493459317992309 -0.094380591982610729 0 -0.14518632655292019 -0.08725896811098427 0 -0.1549887479566488 -0.11740182579239999 0 -0.14224593893236689 -0.028738709943654281 0 -0.14987877517658249 -0.01008769233691054 0 -0.16801506128757171 -0.01400975857753816 0 -0.1231592389501604 -0.01151041530668794 0 -0.14987877517658249 -0.01008769233691054 0 -0.1438800315568145 0.0067594329243729767 0 -0.1231592389501604 -0.01151041530668794 0 -0.1438800315568145 0.0067594329243729767 0 -0.1231592389501604 -0.01151041530668794 0 -0.14224593893236689 -0.028738709943654281 0 -0.14987877517658249 -0.01008769233691054 0 -0.11873873503008781 -0.032280082648662438 0 -0.1231592389501604 -0.01151041530668794 0 -0.14224593893236689 -0.028738709943654281 0 -0.11873873503008781 -0.032280082648662438 0 -0.14224593893236689 -0.028738709943654281 0 -0.12878194217520569 -0.044366267572887683 0 -0.14224593893236689 -0.028738709943654281 0 -0.12878194217520569 -0.044366267572887683 0 -0.1423876785027709 -0.047192857748701411 0 -0.14788465952965199 -0.064745311274849823 0 -0.13069577916492961 -0.05940471413077867 0 -0.1423876785027709 -0.047192857748701411 0 -0.12878194217520569 -0.044366267572887683 0 -0.13069577916492961 -0.05940471413077867 0 -0.1423876785027709 -0.047192857748701411 0 -0.14788465952965199 -0.064745311274849823 0 -0.1423876785027709 -0.047192857748701411 0 -0.16698823858502221 -0.040800036379228972 0 -0.14224593893236689 -0.028738709943654281 0 -0.1423876785027709 -0.047192857748701411 0 -0.16698823858502221 -0.040800036379228972 0 -0.1659614158824726 -0.067590314180919792 0 -0.16698823858502221 -0.040800036379228972 0 -0.1659614158824726 -0.067590314180919792 0 -0.14788465952965199 -0.064745311274849823 0 -0.16698823858502221 -0.040800036379228972 0 -0.1659614158824726 -0.067590314180919792 0 -0.16698823858502221 -0.040800036379228972 0 -0.19314361637026689 -0.055435455617275108 0 -0.16698823858502221 -0.040800036379228972 0 -0.1934744864590052 -0.030713559813539681 0 -0.19314361637026689 -0.055435455617275108 0 -0.16698823858502221 -0.040800036379228972 0 -0.16801506128757171 -0.01400975857753816 0 -0.1934744864590052 -0.030713559813539681 0 -0.16801506128757171 -0.01400975857753816 0 -0.19380535654774361 -0.0059916640098042553 0 -0.1934744864590052 -0.030713559813539681 0 -0.16698823858502221 -0.040800036379228972 0 -0.16801506128757171 -0.01400975857753816 0 -0.14224593893236689 -0.028738709943654281 0 -0.16698823858502221 -0.040800036379228972 0 -0.16801506128757171 -0.01400975857753816 0 -0.14987877517658249 -0.01008769233691054 0 -0.16801506128757171 -0.01400975857753816 0 -0.17107803706591429 0.0042598912221591193 0 -0.16801506128757171 -0.01400975857753816 0 -0.19380535654774361 -0.0059916640098042553 0 -0.17107803706591429 0.0042598912221591193 0 -0.19380535654774361 -0.0059916640098042553 0 -0.20828651602488199 -0.01317142839397259 0 -0.20634245682441041 0.0072878254295738404 0 -0.19380535654774361 -0.0059916640098042553 0 -0.1934744864590052 -0.030713559813539681 0 -0.19380535654774361 -0.0059916640098042553 0 -0.1934744864590052 -0.030713559813539681 0 -0.20828651602488199 -0.01317142839397259 0 -0.1934744864590052 -0.030713559813539681 0 -0.21166954635342539 -0.03098515325155099 0 -0.20828651602488199 -0.01317142839397259 0 -0.21166954635342539 -0.03098515325155099 0 -0.20828651602488199 -0.01317142839397259 0 -0.22366896075770001 -0.01833396720848016 0 -0.20828651602488199 -0.01317142839397259 0 -0.20634245682441041 0.0072878254295738404 0 -0.22160413220632469 0.00074689388804805002 0 -0.20828651602488199 -0.01317142839397259 0 -0.22366896075770001 -0.01833396720848016 0 -0.22160413220632469 0.00074689388804805002 0 -0.2085925474580842 -0.062765947808683248 0 -0.19314361637026689 -0.055435455617275108 0 -0.20334406929140569 -0.043168691219554897 0 -0.1934744864590052 -0.030713559813539681 0 -0.19314361637026689 -0.055435455617275108 0 -0.1934744864590052 -0.030713559813539681 0 -0.19314361637026689 -0.055435455617275108 0 -0.20334406929140569 -0.043168691219554897 0 -0.1934744864590052 -0.030713559813539681 0 -0.21166954635342539 -0.03098515325155099 0 -0.20334406929140569 -0.043168691219554897 0 -0.21166954635342539 -0.03098515325155099 0 -0.21631658118153971 -0.047188740802206502 0 -0.2260215160050752 -0.03370974679125413 0 -0.21166954635342539 -0.03098515325155099 0 -0.20334406929140569 -0.043168691219554897 0 -0.21631658118153971 -0.047188740802206502 0 -0.2085925474580842 -0.062765947808683248 0 -0.20334406929140569 -0.043168691219554897 0 -0.21631658118153971 -0.047188740802206502 0 -0.2220945692109661 -0.063148207013667162 0 -0.2085925474580842 -0.062765947808683248 0 -0.21631658118153971 -0.047188740802206502 0 -0.2220945692109661 -0.063148207013667162 0 -0.21631658118153971 -0.047188740802206502 0 -0.22779414312861179 -0.049726573861791787 0 -0.2220945692109661 -0.063148207013667162 0 -0.22779414312861179 -0.049726573861791787 0 -0.23716174701915349 -0.05825133521379721 0 -0.22779414312861179 -0.049726573861791787 0 -0.23769240852554649 -0.044136426162547718 0 -0.23716174701915349 -0.05825133521379721 0 -0.21631658118153971 -0.047188740802206502 0 -0.22779414312861179 -0.049726573861791787 0 -0.2260215160050752 -0.03370974679125413 0 -0.22779414312861179 -0.049726573861791787 0 -0.2260215160050752 -0.03370974679125413 0 -0.23769240852554649 -0.044136426162547718 0 -0.2260215160050752 -0.03370974679125413 0 -0.23588171078730211 -0.03441806567886925 0 -0.23769240852554649 -0.044136426162547718 0 -0.24508021921585699 -0.038039198026604167 0 -0.23769240852554649 -0.044136426162547718 0 -0.23716174701915349 -0.05825133521379721 0 -0.23588171078730211 -0.03441806567886925 0 -0.24508021921585699 -0.038039198026604167 0 -0.23886001108399749 -0.024759974780490759 0 -0.23588171078730211 -0.03441806567886925 0 -0.24508021921585699 -0.038039198026604167 0 -0.23769240852554649 -0.044136426162547718 0 -0.24508021921585699 -0.038039198026604167 0 -0.23769240852554649 -0.044136426162547718 0 -0.24508021921585699 -0.038039198026604167 0 -0.23716174701915349 -0.05825133521379721 0 -0.25080897644395789 -0.052660014619966111 0 -0.24508021921585699 -0.038039198026604167 0 -0.23716174701915349 -0.05825133521379721 0 -0.2432588454446484 -0.067497412278163804 0 -0.23716174701915349 -0.05825133521379721 0 -0.25080897644395789 -0.052660014619966111 0 -0.2432588454446484 -0.067497412278163804 0 -0.25080897644395789 -0.052660014619966111 0 -0.25363952863718459 -0.06394660783385081 0 -0.22366896075770001 -0.01833396720848016 0 -0.23808270299121401 -0.0090090400044546739 0 -0.22160413220632469 0.00074689388804805002 0 -0.22366896075770001 -0.01833396720848016 0 -0.23886001108399749 -0.024759974780490759 0 -0.23808270299121401 -0.0090090400044546739 0 -0.21166954635342539 -0.03098515325155099 0 -0.2260215160050752 -0.03370974679125413 0 -0.22366896075770001 -0.01833396720848016 0 -0.2260215160050752 -0.03370974679125413 0 -0.22366896075770001 -0.01833396720848016 0 -0.23886001108399749 -0.024759974780490759 0 -0.2260215160050752 -0.03370974679125413 0 -0.23588171078730211 -0.03441806567886925 0 -0.23886001108399749 -0.024759974780490759 0 -0.23886001108399749 -0.024759974780490759 0 -0.2443087209063855 -0.017757132543283809 0 -0.23808270299121401 -0.0090090400044546739 0 -0.24508021921585699 -0.038039198026604167 0 -0.23886001108399749 -0.024759974780490759 0 -0.25244519604058868 -0.019239874335844519 0 -0.24508021921585699 -0.038039198026604167 0 -0.25244519604058868 -0.019239874335844519 0 -0.23886001108399749 -0.024759974780490759 0 -0.2443087209063855 -0.017757132543283809 0 -0.25244519604058868 -0.019239874335844519 0 -0.2443087209063855 -0.017757132543283809 0 -0.24734477077779199 -0.01319159618746053 0 -0.25244519604058868 -0.019239874335844519 0 -0.24734477077779199 -0.01319159618746053 0 -0.23808270299121401 -0.0090090400044546739 0 -0.25441168121153462 -0.0055030345160287097 0 -0.2443087209063855 -0.017757132543283809 0 -0.24734477077779199 -0.01319159618746053 0 -0.23808270299121401 -0.0090090400044546739 0 -0.25981017286532337 -0.00044055064508607619 0 -0.25244519604058868 -0.019239874335844519 0 -0.26378572694418828 -0.009283233954968502 0 -0.25981017286532337 -0.00044055064508607619 0 -0.25244519604058868 -0.019239874335844519 0 -0.25441168121153462 -0.0055030345160287097 0 -0.25981017286532337 -0.00044055064508607619 0 -0.25244519604058868 -0.019239874335844519 0 -0.24734477077779199 -0.01319159618746053 0 -0.25441168121153462 -0.0055030345160287097 0 -0.25244519604058868 -0.019239874335844519 0 -0.26378572694418828 -0.009283233954968502 0 -0.25244519604058868 -0.019239874335844519 0 -0.26279607802109561 -0.016589022047721381 0 -0.26378572694418828 -0.009283233954968502 0 -0.26279607802109561 -0.016589022047721381 0 -0.26747911853824852 -0.019553180329694071 0 -0.26378572694418828 -0.009283233954968502 0 -0.25981017286532337 -0.00044055064508607619 0 -0.2666675497691825 -0.0025076994135350612 0 -0.24508021921585699 -0.038039198026604167 0 -0.26747911853824852 -0.019553180329694071 0 -0.24508021921585699 -0.038039198026604167 0 -0.25244519604058868 -0.019239874335844519 0 -0.26747911853824852 -0.019553180329694071 0 -0.25244519604058868 -0.019239874335844519 0 -0.26279607802109561 -0.016589022047721381 0 -0.26747911853824852 -0.019553180329694071 0 -0.26279607802109561 -0.016589022047721381 0 -0.26747911853824852 -0.019553180329694071 0 -0.26747911853824852 -0.019553180329694071 0 -0.28703578881631908 -0.003412880413627258 0 -0.28689875094370781 -0.031844951886372569 0 -0.26747911853824852 -0.019553180329694071 0 -0.28689875094370781 -0.031844951886372569 0 -0.26747911853824852 -0.019553180329694071 0 -0.28689875094370781 -0.031844951886372569 0 -0.26398143241926258 -0.038128162619657881 0 -0.26747911853824852 -0.019553180329694071 0 -0.27186991247003262 -0.0058280833914001904 0 -0.28703578881631908 -0.003412880413627258 0 -0.26747911853824852 -0.019553180329694071 0 -0.28703578881631908 -0.003412880413627258 0 -0.27186991247003262 -0.0058280833914001904 0 -0.28703578881631908 -0.003412880413627258 0 -0.27120438679718573 0.0055210703373145239 0 -0.2666675497691825 -0.0025076994135350612 0 -0.27186991247003262 -0.0058280833914001904 0 -0.27120438679718573 0.0055210703373145239 0 -0.26378572694418828 -0.009283233954968502 0 -0.2666675497691825 -0.0025076994135350612 0 -0.27186991247003262 -0.0058280833914001904 0 -0.26378572694418828 -0.009283233954968502 0 -0.26747911853824852 -0.019553180329694071 0 -0.27186991247003262 -0.0058280833914001904 0 -0.28703578881631908 -0.003412880413627258 0 -0.30645542122178099 -0.01570465197030595 0 -0.28689875094370781 -0.031844951886372569 0 -0.30645542122178099 -0.01570465197030595 0 -0.30631838334916778 -0.044136723443049822 0 -0.28689875094370781 -0.031844951886372569 0 -0.30645542122178099 -0.01570465197030595 0 -0.30631838334916778 -0.044136723443049822 0 -0.30645542122178099 -0.01570465197030595 0 -0.30631838334916778 -0.044136723443049822 0 -0.31804617626715442 -0.030561539136578039 0 -0.28703578881631908 -0.003412880413627258 0 -0.30645542122178099 -0.01570465197030595 0 -0.3065924590943912 0.012727419502438031 0 -0.30645542122178099 -0.01570465197030595 0 -0.3065924590943912 0.012727419502438031 0 -0.30645542122178099 -0.01570465197030595 0 -0.31971975053049612 -0.0021254955264083651 0 -0.3065924590943912 0.012727419502438031 0 -0.30629308041806058 -0.049386474713038149 0 -0.29351482987642907 -0.047643891491361889 0 -0.2921903732703689 -0.065155403057705369 0 -0.30629308041806058 -0.049386474713038149 0 -0.31231731493832149 -0.047933782786837048 0 -0.2921903732703689 -0.065155403057705369 0 -0.31231731493832149 -0.047933782786837048 0 -0.2921903732703689 -0.065155403057705369 0 -0.31231731493832149 -0.047933782786837048 0 -0.2921903732703689 -0.065155403057705369 0 -0.30616662534674732 -0.065800945888034867 0 -0.31231731493832149 -0.047933782786837048 0 -0.30616662534674732 -0.065800945888034867 0 -0.31467316045338201 -0.058405429219157048 0 -0.30629308041806058 -0.049386474713038149 0 -0.30631838334916778 -0.044136723443049822 0 -0.29351482987642907 -0.047643891491361889 0 -0.30629308041806058 -0.049386474713038149 0 -0.31231731493832149 -0.047933782786837048 0 -0.30631838334916778 -0.044136723443049822 0 -0.31231731493832149 -0.047933782786837048 0 -0.30631838334916778 -0.044136723443049822 0 -0.30629308041806058 -0.049386474713038149 0 -0.30631838334916778 -0.044136723443049822 0 -0.30631838334916778 -0.044136723443049822 0 -0.28689875094370781 -0.031844951886372569 0 -0.29351482987642907 -0.047643891491361889 0 -0.28689875094370781 -0.031844951886372569 0 -0.29351482987642907 -0.047643891491361889 0 -0.27587356140084152 -0.047695904356642477 0 -0.30631838334916778 -0.044136723443049822 0 -0.28689875094370781 -0.031844951886372569 0 -0.29351482987642907 -0.047643891491361889 0 -0.27587356140084152 -0.047695904356642477 0 -0.2921903732703689 -0.065155403057705369 0 -0.27587356140084152 -0.047695904356642477 0 -0.27354839896047051 -0.064940134352331425 0 -0.2921903732703689 -0.065155403057705369 0 -0.27587356140084152 -0.047695904356642477 0 -0.26371319383131298 -0.058099817115911917 0 -0.27354839896047051 -0.064940134352331425 0 -0.27587356140084152 -0.047695904356642477 0 -0.26371319383131298 -0.058099817115911917 0 -0.2619930558760265 -0.04813637988971501 0 -0.28689875094370781 -0.031844951886372569 0 -0.27587356140084152 -0.047695904356642477 0 -0.26398143241926258 -0.038128162619657881 0 -0.27587356140084152 -0.047695904356642477 0 -0.26398143241926258 -0.038128162619657881 0 -0.2619930558760265 -0.04813637988971501 0 -0.24508021921585699 -0.038039198026604167 0 -0.26398143241926258 -0.038128162619657881 0 -0.2555881152847575 -0.044098000736396657 0 -0.24508021921585699 -0.038039198026604167 0 -0.26747911853824852 -0.019553180329694071 0 -0.26398143241926258 -0.038128162619657881 0 -0.26398143241926258 -0.038128162619657881 0 -0.2555881152847575 -0.044098000736396657 0 -0.2619930558760265 -0.04813637988971501 0 -0.24508021921585699 -0.038039198026604167 0 -0.2555881152847575 -0.044098000736396657 0 -0.25080897644395789 -0.052660014619966111 0 -0.26371319383131298 -0.058099817115911917 0 -0.2619930558760265 -0.04813637988971501 0 -0.25080897644395789 -0.052660014619966111 0 -0.2555881152847575 -0.044098000736396657 0 -0.2619930558760265 -0.04813637988971501 0 -0.25080897644395789 -0.052660014619966111 0 -0.26371319383131298 -0.058099817115911917 0 -0.25080897644395789 -0.052660014619966111 0 -0.25363952863718459 -0.06394660783385081 0 -0.26371319383131298 -0.058099817115911917 0 -0.25363952863718459 -0.06394660783385081 0 -0.26291017348085038 -0.071633189682447029 0 -0.2484305854943871 -0.079405895553652295 0 -0.25363952863718459 -0.06394660783385081 0 -0.26291017348085038 -0.071633189682447029 0 -0.2484305854943871 -0.079405895553652295 0 -0.26291017348085038 -0.071633189682447029 0 -0.25883517012802831 -0.083253688041027382 0 -0.25883517012802831 -0.083253688041027382 0 -0.27206343160241492 -0.082377023328571844 0 -0.25193648993446072 -0.099598643599438333 0 -0.27206343160241492 -0.082377023328571844 0 -0.25193648993446072 -0.099598643599438333 0 -0.27206343160241492 -0.082377023328571844 0 -0.25193648993446072 -0.099598643599438333 0 -0.27150077371924658 -0.096708781624809642 0 -0.2484305854943871 -0.079405895553652295 0 -0.25883517012802831 -0.083253688041027382 0 -0.25193648993446072 -0.099598643599438333 0 -0.26291017348085038 -0.071633189682447029 0 -0.25883517012802831 -0.083253688041027382 0 -0.27206343160241492 -0.082377023328571844 0 -0.27206343160241492 -0.082377023328571844 0 -0.27150077371924658 -0.096708781624809642 0 -0.28553460083174359 -0.087770747276047417 0 -0.27206343160241492 -0.082377023328571844 0 -0.27354839896047051 -0.064940134352331425 0 -0.2921903732703689 -0.065155403057705369 0 -0.26291017348085038 -0.071633189682447029 0 -0.27206343160241492 -0.082377023328571844 0 -0.27354839896047051 -0.064940134352331425 0 -0.26371319383131298 -0.058099817115911917 0 -0.26291017348085038 -0.071633189682447029 0 -0.27354839896047051 -0.064940134352331425 0 -0.25798412026367251 -0.12241725880595949 0 -0.25193648993446072 -0.099598643599438333 0 -0.27331035368986589 -0.11442787808809959 0 -0.24120545458686549 -0.1198803092441708 0 -0.25798412026367251 -0.12241725880595949 0 -0.25193648993446072 -0.099598643599438333 0 -0.25193648993446072 -0.099598643599438333 0 -0.27150077371924658 -0.096708781624809642 0 -0.27331035368986589 -0.11442787808809959 0 -0.27150077371924658 -0.096708781624809642 0 -0.27331035368986589 -0.11442787808809959 0 -0.28553460083174359 -0.087770747276047417 0 -0.27331035368986589 -0.11442787808809959 0 -0.28553460083174359 -0.087770747276047417 0 -0.27331035368986589 -0.11442787808809959 0 -0.29221965676820377 -0.1172450308521977 0 -0.27611002899866521 -0.1325652314475276 0 -0.29221965676820377 -0.1172450308521977 0 -0.28553460083174359 -0.087770747276047417 0 -0.29839100848084849 -0.088982994978551416 0 -0.27331035368986589 -0.11442787808809959 0 -0.29221965676820377 -0.1172450308521977 0 -0.28553460083174359 -0.087770747276047417 0 -0.29221965676820377 -0.1172450308521977 0 -0.29839100848084849 -0.088982994978551416 0 -0.29221965676820377 -0.1172450308521977 0 -0.3052891971444649 -0.10324157867763641 0 -0.29839100848084849 -0.088982994978551416 0 -0.3052891971444649 -0.10324157867763641 0 -0.29839100848084849 -0.088982994978551416 0 -0.31281814087075688 -0.091491528954712145 0 -0.3052891971444649 -0.10324157867763641 0 -0.31281814087075688 -0.091491528954712145 0 -0.31584104005981672 -0.10524894747937789 0 -0.3052891971444649 -0.10324157867763641 0 -0.30674849238194302 -0.11572464272079371 0 -0.31584104005981672 -0.10524894747937789 0 -0.29221965676820377 -0.1172450308521977 0 -0.3052891971444649 -0.10324157867763641 0 -0.30674849238194302 -0.11572464272079371 0 -0.30674849238194302 -0.11572464272079371 0 -0.3159283016389291 -0.1216907249220384 0 -0.30446426629830042 -0.13119693167271801 0 -0.29221965676820377 -0.1172450308521977 0 -0.30674849238194302 -0.11572464272079371 0 -0.30446426629830042 -0.13119693167271801 0 -0.27206343160241492 -0.082377023328571844 0 -0.29393343203305522 -0.077992859091244066 0 -0.2921903732703689 -0.065155403057705369 0 -0.27206343160241492 -0.082377023328571844 0 -0.2921903732703689 -0.065155403057705369 0 -0.27206343160241492 -0.082377023328571844 0 -0.29393343203305522 -0.077992859091244066 0 -0.28553460083174359 -0.087770747276047417 0 -0.29393343203305522 -0.077992859091244066 0 -0.28553460083174359 -0.087770747276047417 0 -0.29839100848084849 -0.088982994978551416 0 -0.29393343203305522 -0.077992859091244066 0 -0.29839100848084849 -0.088982994978551416 0 -0.30925455266620872 -0.077870040018553605 0 -0.29839100848084849 -0.088982994978551416 0 -0.30925455266620872 -0.077870040018553605 0 -0.31281814087075688 -0.091491528954712145 0 -0.30925455266620872 -0.077870040018553605 0 -0.30616662534674732 -0.065800945888034867 0 -0.31559222210517762 -0.067768463631306924 0 -0.29393343203305522 -0.077992859091244066 0 -0.30925455266620872 -0.077870040018553605 0 -0.30616662534674732 -0.065800945888034867 0 -0.29393343203305522 -0.077992859091244066 0 -0.2921903732703689 -0.065155403057705369 0 -0.30616662534674732 -0.065800945888034867 0 -0.30616662534674732 -0.065800945888034867 0 -0.31559222210517762 -0.067768463631306924 0 -0.31467316045338201 -0.058405429219157048 0 -0.31559222210517762 -0.067768463631306924 0 -0.32184991022948661 -0.074324908462055111 0 -0.32884389640913791 -0.065228794800649678 0 -0.31559222210517762 -0.067768463631306924 0 -0.32884389640913791 -0.065228794800649678 0 -0.32540937328811509 -0.056220478800563328 0 -0.32184991022948661 -0.074324908462055111 0 -0.32884389640913791 -0.065228794800649678 0 -0.32983274346827091 -0.072958835709205416 0 -0.32184991022948661 -0.074324908462055111 0 -0.32907556437074981 -0.081432452259101867 0 -0.32983274346827091 -0.072958835709205416 0 -0.30925455266620872 -0.077870040018553605 0 -0.31559222210517762 -0.067768463631306924 0 -0.32184991022948661 -0.074324908462055111 0 -0.30925455266620872 -0.077870040018553605 0 -0.31914364905788201 -0.082753450336804313 0 -0.31281814087075688 -0.091491528954712145 0 -0.30925455266620872 -0.077870040018553605 0 -0.32184991022948661 -0.074324908462055111 0 -0.31914364905788201 -0.082753450336804313 0 -0.31281814087075688 -0.091491528954712145 0 -0.32367565632453532 -0.088131632682522984 0 -0.32279432574342298 -0.095316196245454871 0 -0.31914364905788201 -0.082753450336804313 0 -0.31281814087075688 -0.091491528954712145 0 -0.32367565632453532 -0.088131632682522984 0 -0.32367565632453532 -0.088131632682522984 0 -0.32907556437074981 -0.081432452259101867 0 -0.33002404568591698 -0.089642673318594379 0 -0.32367565632453532 -0.088131632682522984 0 -0.33002404568591698 -0.089642673318594379 0 -0.32279432574342298 -0.095316196245454871 0 -0.32184991022948661 -0.074324908462055111 0 -0.31914364905788201 -0.082753450336804313 0 -0.32907556437074981 -0.081432452259101867 0 -0.31914364905788201 -0.082753450336804313 0 -0.32367565632453532 -0.088131632682522984 0 -0.32907556437074981 -0.081432452259101867 0 -0.32907556437074981 -0.081432452259101867 0 -0.3341336932287946 -0.085244122692767391 0 -0.33421925369939731 -0.077291453949887193 0 -0.32907556437074981 -0.081432452259101867 0 -0.3341336932287946 -0.085244122692767391 0 -0.33002404568591698 -0.089642673318594379 0 -0.3341336932287946 -0.085244122692767391 0 -0.33844635499434589 -0.08146662172807799 0 -0.33421925369939731 -0.077291453949887193 0 -0.3341336932287946 -0.085244122692767391 0 -0.33002404568591698 -0.089642673318594379 0 -0.33807571040868017 -0.089871535003478054 0 -0.33002404568591698 -0.089642673318594379 0 -0.33807571040868017 -0.089871535003478054 0 -0.33229991101685469 -0.096802590111988995 0 -0.33807571040868017 -0.089871535003478054 0 -0.33844635499434589 -0.08146662172807799 0 -0.34573533060402162 -0.0877556827461137 0 -0.33807571040868017 -0.089871535003478054 0 -0.34041702851705558 -0.097750864942513643 0 -0.34573533060402162 -0.0877556827461137 0 -0.33844635499434589 -0.08146662172807799 0 -0.34406339974472611 -0.078015373287406112 0 -0.34573533060402162 -0.0877556827461137 0 -0.3341336932287946 -0.085244122692767391 0 -0.33807571040868017 -0.089871535003478054 0 -0.33844635499434589 -0.08146662172807799 0 -0.33831397473837049 -0.072986378927684739 0 -0.34653623407200912 -0.068926481142391804 0 -0.34406339974472611 -0.078015373287406112 0 -0.33844635499434589 -0.08146662172807799 0 -0.33831397473837049 -0.072986378927684739 0 -0.34406339974472611 -0.078015373287406112 0 -0.33844635499434589 -0.08146662172807799 0 -0.33831397473837049 -0.072986378927684739 0 -0.33421925369939731 -0.077291453949887193 0 -0.33831397473837049 -0.072986378927684739 0 -0.33850143163790852 -0.064507174814290261 0 -0.33387301156342192 -0.06892029606295752 0 -0.33831397473837049 -0.072986378927684739 0 -0.33850143163790852 -0.064507174814290261 0 -0.34653623407200912 -0.068926481142391804 0 -0.33850143163790852 -0.064507174814290261 0 -0.34653623407200912 -0.068926481142391804 0 -0.33798991550188029 -0.058608601720207029 0 -0.33850143163790852 -0.064507174814290261 0 -0.33387301156342192 -0.06892029606295752 0 -0.32884389640913791 -0.065228794800649678 0 -0.33387301156342192 -0.06892029606295752 0 -0.32884389640913791 -0.065228794800649678 0 -0.32983274346827091 -0.072958835709205416 0 -0.33831397473837049 -0.072986378927684739 0 -0.33387301156342192 -0.06892029606295752 0 -0.32983274346827091 -0.072958835709205416 0 -0.32907556437074981 -0.081432452259101867 0 -0.32983274346827091 -0.072958835709205416 0 -0.33421925369939731 -0.077291453949887193 0 -0.33831397473837049 -0.072986378927684739 0 -0.32983274346827091 -0.072958835709205416 0 -0.33421925369939731 -0.077291453949887193 0 -0.3159283016389291 -0.1216907249220384 0 -0.32407730379827032 -0.11179281701477389 0 -0.31584104005981672 -0.10524894747937789 0 -0.30674849238194302 -0.11572464272079371 0 -0.3159283016389291 -0.1216907249220384 0 -0.31584104005981672 -0.10524894747937789 0 -0.3159283016389291 -0.1216907249220384 0 -0.32407730379827032 -0.11179281701477389 0 -0.32789187853475033 -0.12517599283146261 0 -0.32407730379827032 -0.11179281701477389 0 -0.32565234529092391 -0.10260908589125289 0 -0.33450082633134781 -0.1051227051789312 0 -0.32407730379827032 -0.11179281701477389 0 -0.32565234529092391 -0.10260908589125289 0 -0.31584104005981672 -0.10524894747937789 0 -0.31281814087075688 -0.091491528954712145 0 -0.31584104005981672 -0.10524894747937789 0 -0.32279432574342298 -0.095316196245454871 0 -0.32565234529092391 -0.10260908589125289 0 -0.31584104005981672 -0.10524894747937789 0 -0.32279432574342298 -0.095316196245454871 0 -0.32565234529092391 -0.10260908589125289 0 -0.32279432574342298 -0.095316196245454871 0 -0.33229991101685469 -0.096802590111988995 0 -0.33229991101685469 -0.096802590111988995 0 -0.34041702851705558 -0.097750864942513643 0 -0.33450082633134781 -0.1051227051789312 0 -0.33002404568591698 -0.089642673318594379 0 -0.32279432574342298 -0.095316196245454871 0 -0.33229991101685469 -0.096802590111988995 0 -0.32565234529092391 -0.10260908589125289 0 -0.33229991101685469 -0.096802590111988995 0 -0.33450082633134781 -0.1051227051789312 0 -0.33807571040868017 -0.089871535003478054 0 -0.33229991101685469 -0.096802590111988995 0 -0.34041702851705558 -0.097750864942513643 0 -0.34355922343604778 -0.1055338759529319 0 -0.33450082633134781 -0.1051227051789312 0 -0.33938352776868602 -0.1112412916663591 0 -0.34041702851705558 -0.097750864942513643 0 -0.34355922343604778 -0.1055338759529319 0 -0.33450082633134781 -0.1051227051789312 0 -0.33450082633134781 -0.1051227051789312 0 -0.33325724742595247 -0.11672225342188371 0 -0.33938352776868602 -0.1112412916663591 0 -0.32407730379827032 -0.11179281701477389 0 -0.33450082633134781 -0.1051227051789312 0 -0.33325724742595247 -0.11672225342188371 0 -0.34355922343604778 -0.1055338759529319 0 -0.33938352776868602 -0.1112412916663591 0 -0.3465796325978116 -0.1144286749914139 0 -0.33938352776868602 -0.1112412916663591 0 -0.33994675536383301 -0.1172613009145685 0 -0.3465796325978116 -0.1144286749914139 0 -0.33325724742595247 -0.11672225342188371 0 -0.33938352776868602 -0.1112412916663591 0 -0.33994675536383301 -0.1172613009145685 0 -0.33994675536383301 -0.1172613009145685 0 -0.34479448550022002 -0.1208191069976705 0 -0.33821175220128991 -0.12550938859712391 0 -0.33325724742595247 -0.11672225342188371 0 -0.33994675536383301 -0.1172613009145685 0 -0.33821175220128991 -0.12550938859712391 0 -0.33994675536383301 -0.1172613009145685 0 -0.34479448550022002 -0.1208191069976705 0 -0.3465796325978116 -0.1144286749914139 0 -0.32407730379827032 -0.11179281701477389 0 -0.33325724742595247 -0.11672225342188371 0 -0.32789187853475033 -0.12517599283146261 0 -0.33325724742595247 -0.11672225342188371 0 -0.32789187853475033 -0.12517599283146261 0 -0.33821175220128991 -0.12550938859712391 0 -0.35246234538210403 -0.1209314122971045 0 -0.36297150057078942 -0.119081661751962 0 -0.35532129350639252 -0.12816021333450289 0 -0.35246234538210403 -0.1209314122971045 0 -0.35873181503775342 -0.1167181448663437 0 -0.36297150057078942 -0.119081661751962 0 -0.35246234538210403 -0.1209314122971045 0 -0.35407052706073411 -0.114850448609261 0 -0.35873181503775342 -0.1167181448663437 0 -0.35246234538210403 -0.1209314122971045 0 -0.34479448550022002 -0.1208191069976705 0 -0.34844653193434721 -0.12616497426618681 0 -0.34479448550022002 -0.1208191069976705 0 -0.33821175220128991 -0.12550938859712391 0 -0.34844653193434721 -0.12616497426618681 0 -0.35246234538210403 -0.1209314122971045 0 -0.34479448550022002 -0.1208191069976705 0 -0.3465796325978116 -0.1144286749914139 0 -0.35246234538210403 -0.1209314122971045 0 -0.3465796325978116 -0.1144286749914139 0 -0.35407052706073411 -0.114850448609261 0 -0.34355922343604778 -0.1055338759529319 0 -0.3465796325978116 -0.1144286749914139 0 -0.35177231275116522 -0.1100367508535306 0 -0.3465796325978116 -0.1144286749914139 0 -0.35177231275116522 -0.1100367508535306 0 -0.35407052706073411 -0.114850448609261 0 -0.35177231275116522 -0.1100367508535306 0 -0.35407052706073411 -0.114850448609261 0 -0.35963133240988909 -0.11047826344863319 0 -0.35407052706073411 -0.114850448609261 0 -0.35873181503775342 -0.1167181448663437 0 -0.35963133240988909 -0.11047826344863319 0 -0.35177231275116522 -0.1100367508535306 0 -0.35590272788390942 -0.103568476931198 0 -0.34918503619042263 -0.099116691214769737 0 -0.35177231275116522 -0.1100367508535306 0 -0.35590272788390942 -0.103568476931198 0 -0.35963133240988909 -0.11047826344863319 0 -0.34355922343604778 -0.1055338759529319 0 -0.35177231275116522 -0.1100367508535306 0 -0.34918503619042263 -0.099116691214769737 0 -0.34041702851705558 -0.097750864942513643 0 -0.34355922343604778 -0.1055338759529319 0 -0.34918503619042263 -0.099116691214769737 0 -0.34041702851705558 -0.097750864942513643 0 -0.34918503619042263 -0.099116691214769737 0 -0.34573533060402162 -0.0877556827461137 0 -0.35590272788390942 -0.103568476931198 0 -0.34918503619042263 -0.099116691214769737 0 -0.35835784968114343 -0.090912322987177163 0 -0.35590272788390942 -0.103568476931198 0 -0.36412292434324489 -0.1027532138252909 0 -0.35835784968114343 -0.090912322987177163 0 -0.36749378418407402 -0.095654579989698063 0 -0.36412292434324489 -0.1027532138252909 0 -0.35835784968114343 -0.090912322987177163 0 -0.36749378418407402 -0.095654579989698063 0 -0.3745432890728071 -0.1018370531428367 0 -0.37244036742442982 -0.088743793888634237 0 -0.36749378418407402 -0.095654579989698063 0 -0.3745432890728071 -0.1018370531428367 0 -0.36412292434324489 -0.1027532138252909 0 -0.3745432890728071 -0.1018370531428367 0 -0.36412292434324489 -0.1027532138252909 0 -0.3694761487854803 -0.1133550625183109 0 -0.35590272788390942 -0.103568476931198 0 -0.36412292434324489 -0.1027532138252909 0 -0.35963133240988909 -0.11047826344863319 0 -0.36412292434324489 -0.1027532138252909 0 -0.35963133240988909 -0.11047826344863319 0 -0.3694761487854803 -0.1133550625183109 0 -0.35532129350639252 -0.12816021333450289 0 -0.37886590014221699 -0.11624347574354781 0 -0.36297150057078942 -0.119081661751962 0 -0.35532129350639252 -0.12816021333450289 0 -0.37886590014221699 -0.11624347574354781 0 -0.3694761487854803 -0.1133550625183109 0 -0.36297150057078942 -0.119081661751962 0 -0.37886590014221699 -0.11624347574354781 0 -0.35873181503775342 -0.1167181448663437 0 -0.35963133240988909 -0.11047826344863319 0 -0.3694761487854803 -0.1133550625183109 0 -0.35873181503775342 -0.1167181448663437 0 -0.3694761487854803 -0.1133550625183109 0 -0.36297150057078942 -0.119081661751962 0 -0.3694761487854803 -0.1133550625183109 0 -0.37886590014221699 -0.11624347574354781 0 -0.3745432890728071 -0.1018370531428367 0 -0.3694761487854803 -0.1133550625183109 0 -0.37886590014221699 -0.11624347574354781 0 -0.34653623407200912 -0.068926481142391804 0 -0.36191641936126451 -0.06997337219146349 0 -0.33798991550188029 -0.058608601720207029 0 -0.36191641936126451 -0.06997337219146349 0 -0.33798991550188029 -0.058608601720207029 0 -0.34653623407200912 -0.068926481142391804 0 -0.35128510431488302 -0.078941701892762339 0 -0.36191641936126451 -0.06997337219146349 0 -0.34653623407200912 -0.068926481142391804 0 -0.34406339974472611 -0.078015373287406112 0 -0.35128510431488302 -0.078941701892762339 0 -0.35128510431488302 -0.078941701892762339 0 -0.35835784968114343 -0.090912322987177163 0 -0.36191641936126451 -0.06997337219146349 0 -0.34406339974472611 -0.078015373287406112 0 -0.35128510431488302 -0.078941701892762339 0 -0.34573533060402162 -0.0877556827461137 0 -0.34918503619042263 -0.099116691214769737 0 -0.34573533060402162 -0.0877556827461137 0 -0.35835784968114343 -0.090912322987177163 0 -0.35128510431488302 -0.078941701892762339 0 -0.34573533060402162 -0.0877556827461137 0 -0.35835784968114343 -0.090912322987177163 0 -0.35835784968114343 -0.090912322987177163 0 -0.37244036742442982 -0.088743793888634237 0 -0.36191641936126451 -0.06997337219146349 0 -0.37244036742442982 -0.088743793888634237 0 -0.36191641936126451 -0.06997337219146349 0 -0.38584292322064861 -0.08133814266272027 0 -0.36749378418407402 -0.095654579989698063 0 -0.35835784968114343 -0.090912322987177163 0 -0.37244036742442982 -0.088743793888634237 0 -0.36191641936126451 -0.06997337219146349 0 -0.37499372020549421 -0.057027089463448997 0 -0.38584292322064861 -0.08133814266272027 0 -0.36191641936126451 -0.06997337219146349 0 -0.38584292322064861 -0.08133814266272027 0 -0.37499372020549421 -0.057027089463448997 0 -0.36680572542804618 -0.050438275083267703 0 -0.36033770259571513 -0.058104653081134258 0 -0.37349046831425209 -0.049557141874736768 0 -0.36680572542804618 -0.050438275083267703 0 -0.37588013934093267 -0.044923037718606028 0 -0.37499372020549421 -0.057027089463448997 0 -0.37349046831425209 -0.049557141874736768 0 -0.37588013934093267 -0.044923037718606028 0 -0.37499372020549421 -0.057027089463448997 0 -0.37349046831425209 -0.049557141874736768 0 -0.36680572542804618 -0.050438275083267703 0 -0.36680572542804618 -0.050438275083267703 0 -0.36033770259571513 -0.058104653081134258 0 -0.35447202774383002 -0.049538700430098358 0 -0.36680572542804618 -0.050438275083267703 0 -0.35447202774383002 -0.049538700430098358 0 -0.36000715444720988 -0.040781373737157831 0 -0.36191641936126451 -0.06997337219146349 0 -0.37499372020549421 -0.057027089463448997 0 -0.36033770259571513 -0.058104653081134258 0 -0.35447202774383002 -0.049538700430098358 0 -0.34425826975008428 -0.048388744722497719 0 -0.33798991550188029 -0.058608601720207029 0 -0.36191641936126451 -0.06997337219146349 0 -0.36033770259571513 -0.058104653081134258 0 -0.33798991550188029 -0.058608601720207029 0 -0.36033770259571513 -0.058104653081134258 0 -0.35447202774383002 -0.049538700430098358 0 -0.33798991550188029 -0.058608601720207029 0 -0.34856070052576538 -0.040917085646671472 0 -0.35091677092060669 -0.030017599469271881 0 -0.34173148364995998 -0.033582808321259427 0 -0.34425826975008428 -0.048388744722497719 0 -0.34856070052576538 -0.040917085646671472 0 -0.33908536408275991 -0.041469517419734113 0 -0.35447202774383002 -0.049538700430098358 0 -0.34425826975008428 -0.048388744722497719 0 -0.34856070052576538 -0.040917085646671472 0 -0.35447202774383002 -0.049538700430098358 0 -0.34856070052576538 -0.040917085646671472 0 -0.36000715444720988 -0.040781373737157831 0 -0.34856070052576538 -0.040917085646671472 0 -0.36000715444720988 -0.040781373737157831 0 -0.35091677092060669 -0.030017599469271881 0 -0.36000715444720988 -0.040781373737157831 0 -0.36405909524465041 -0.028435324239961882 0 -0.35091677092060669 -0.030017599469271881 0 -0.36000715444720988 -0.040781373737157831 0 -0.36405909524465041 -0.028435324239961882 0 -0.37588013934093267 -0.044923037718606028 0 -0.36677412365980522 -0.024156160899122189 0 -0.37588013934093267 -0.044923037718606028 0 -0.36677412365980522 -0.024156160899122189 0 -0.36405909524465041 -0.028435324239961882 0 -0.37588013934093267 -0.044923037718606028 0 -0.36680572542804618 -0.050438275083267703 0 -0.36000715444720988 -0.040781373737157831 0 -0.37588013934093267 -0.044923037718606028 0 -0.36405909524465041 -0.028435324239961882 0 -0.37588013934093267 -0.044923037718606028 0 -0.36677412365980522 -0.024156160899122189 0 -0.36405909524465041 -0.028435324239961882 0 -0.35231320041842379 -0.011893731681220709 0 -0.36677412365980522 -0.024156160899122189 0 -0.36913187509128559 -0.0082216486727445179 0 -0.37676100499808618 -0.01460101658744465 0 -0.36677412365980522 -0.024156160899122189 0 -0.35231320041842379 -0.011893731681220709 0 -0.36677412365980522 -0.024156160899122189 0 -0.36913187509128559 -0.0082216486727445179 0 -0.35702485944307649 -0.0019223128409648241 0 -0.36677412365980522 -0.024156160899122189 0 -0.35702485944307649 -0.0019223128409648241 0 -0.36913187509128559 -0.0082216486727445179 0 -0.37744823449314668 -0.002724083045299296 0 -0.3676511528623137 0.0022953300091082081 0 -0.36913187509128559 -0.0082216486727445179 0 -0.37676100499808618 -0.01460101658744465 0 -0.37744823449314668 -0.002724083045299296 0 -0.36913187509128559 -0.0082216486727445179 0 -0.35702485944307649 -0.0019223128409648241 0 -0.3676511528623137 0.0022953300091082081 0 -0.36677412365980522 -0.024156160899122189 0 -0.35702485944307649 -0.0019223128409648241 0 -0.35231320041842379 -0.011893731681220709 0 -0.35231320041842379 -0.011893731681220709 0 -0.34258181855612108 -0.022086326939360749 0 -0.34077754107553021 -0.010614958068357921 0 -0.35231320041842379 -0.011893731681220709 0 -0.34077754107553021 -0.010614958068357921 0 -0.34334607665684941 0.00045470552153091878 0 -0.35702485944307649 -0.0019223128409648241 0 -0.35231320041842379 -0.011893731681220709 0 -0.34334607665684941 0.00045470552153091878 0 -0.35231320041842379 -0.011893731681220709 0 -0.34334607665684941 0.00045470552153091878 0 -0.35231320041842379 -0.011893731681220709 0 -0.35091677092060669 -0.030017599469271881 0 -0.34258181855612108 -0.022086326939360749 0 -0.36405909524465041 -0.028435324239961882 0 -0.35231320041842379 -0.011893731681220709 0 -0.36405909524465041 -0.028435324239961882 0 -0.35231320041842379 -0.011893731681220709 0 -0.35091677092060669 -0.030017599469271881 0 -0.35091677092060669 -0.030017599469271881 0 -0.34258181855612108 -0.022086326939360749 0 -0.34173148364995998 -0.033582808321259427 0 -0.32932555448355438 -0.017521328176477169 0 -0.33585775110059812 -0.026936316206345939 0 -0.32891239657280191 -0.033416744594474947 0 -0.34258181855612108 -0.022086326939360749 0 -0.33585775110059812 -0.026936316206345939 0 -0.34173148364995998 -0.033582808321259427 0 -0.34258181855612108 -0.022086326939360749 0 -0.32932555448355438 -0.017521328176477169 0 -0.34077754107553021 -0.010614958068357921 0 -0.34258181855612108 -0.022086326939360749 0 -0.32932555448355438 -0.017521328176477169 0 -0.33585775110059812 -0.026936316206345939 0 -0.34077754107553021 -0.010614958068357921 0 -0.33215967342583369 -0.0030826770591157859 0 -0.34334607665684941 0.00045470552153091878 0 -0.32932555448355438 -0.017521328176477169 0 -0.34077754107553021 -0.010614958068357921 0 -0.33215967342583369 -0.0030826770591157859 0 -0.30645542122178099 -0.01570465197030595 0 -0.32932555448355438 -0.017521328176477169 0 -0.31971975053049612 -0.0021254955264083651 0 -0.32932555448355438 -0.017521328176477169 0 -0.33215967342583369 -0.0030826770591157859 0 -0.31971975053049612 -0.0021254955264083651 0 -0.30645542122178099 -0.01570465197030595 0 -0.32932555448355438 -0.017521328176477169 0 -0.31804617626715442 -0.030561539136578039 0 -0.32932555448355438 -0.017521328176477169 0 -0.31804617626715442 -0.030561539136578039 0 -0.32891239657280191 -0.033416744594474947 0 -0.30631838334916778 -0.044136723443049822 0 -0.31804617626715442 -0.030561539136578039 0 -0.31921912570846761 -0.042028247498581292 0 -0.31921912570846761 -0.042028247498581292 0 -0.31406341164249613 -0.047243831248950527 0 -0.3306342513273805 -0.045388909476345843 0 -0.31804617626715442 -0.030561539136578039 0 -0.31921912570846761 -0.042028247498581292 0 -0.32891239657280191 -0.033416744594474947 0 -0.31921912570846761 -0.042028247498581292 0 -0.32891239657280191 -0.033416744594474947 0 -0.3306342513273805 -0.045388909476345843 0 -0.31231731493832149 -0.047933782786837048 0 -0.30631838334916778 -0.044136723443049822 0 -0.31921912570846761 -0.042028247498581292 0 -0.31231731493832149 -0.047933782786837048 0 -0.31921912570846761 -0.042028247498581292 0 -0.31231731493832149 -0.047933782786837048 0 -0.31921912570846761 -0.042028247498581292 0 -0.31406341164249613 -0.047243831248950527 0 -0.31231731493832149 -0.047933782786837048 0 -0.31406341164249613 -0.047243831248950527 0 -0.32540937328811509 -0.056220478800563328 0 -0.31406341164249613 -0.047243831248950527 0 -0.32540937328811509 -0.056220478800563328 0 -0.33798991550188029 -0.058608601720207029 0 -0.31406341164249613 -0.047243831248950527 0 -0.33798991550188029 -0.058608601720207029 0 -0.31406341164249613 -0.047243831248950527 0 -0.33798991550188029 -0.058608601720207029 0 -0.3306342513273805 -0.045388909476345843 0 -0.31231731493832149 -0.047933782786837048 0 -0.31467316045338201 -0.058405429219157048 0 -0.32540937328811509 -0.056220478800563328 0 -0.31231731493832149 -0.047933782786837048 0 -0.32540937328811509 -0.056220478800563328 0 -0.31559222210517762 -0.067768463631306924 0 -0.31467316045338201 -0.058405429219157048 0 -0.32540937328811509 -0.056220478800563328 0 -0.33850143163790852 -0.064507174814290261 0 -0.32884389640913791 -0.065228794800649678 0 -0.32540937328811509 -0.056220478800563328 0 -0.33850143163790852 -0.064507174814290261 0 -0.32540937328811509 -0.056220478800563328 0 -0.33798991550188029 -0.058608601720207029 0 -0.33850143163790852 -0.064507174814290261 0 -0.32540937328811509 -0.056220478800563328 0 -0.34425826975008428 -0.048388744722497719 0 -0.33798991550188029 -0.058608601720207029 0 -0.3306342513273805 -0.045388909476345843 0 -0.34425826975008428 -0.048388744722497719 0 -0.33908536408275991 -0.041469517419734113 0 -0.3306342513273805 -0.045388909476345843 0 -0.33908536408275991 -0.041469517419734113 0 -0.34173148364995998 -0.033582808321259427 0 -0.32891239657280191 -0.033416744594474947 0 -0.34856070052576538 -0.040917085646671472 0 -0.33908536408275991 -0.041469517419734113 0 -0.34173148364995998 -0.033582808321259427 0 -0.33585775110059812 -0.026936316206345939 0 -0.34173148364995998 -0.033582808321259427 0 -0.32891239657280191 -0.033416744594474947 0 -0.33908536408275991 -0.041469517419734113 0 -0.32891239657280191 -0.033416744594474947 0 -0.3306342513273805 -0.045388909476345843 0 -0.30627292041572213 -0.25636185243388721 0 -0.31390441240863842 -0.24006575288640869 0 -0.30407998288955201 -0.23234112169411791 0 -0.2903399019555718 -0.2392070477807737 0 -0.31390441240863842 -0.24006575288640869 0 -0.30627292041572213 -0.25636185243388721 0 -0.2903399019555718 -0.2392070477807737 0 -0.31390441240863842 -0.24006575288640869 0 -0.30627292041572213 -0.25636185243388721 0 -0.31390441240863842 -0.24006575288640869 0 -0.3158589578121852 -0.24952041115528059 0 -0.2903399019555718 -0.2392070477807737 0 -0.31390441240863842 -0.24006575288640869 0 -0.30407998288955201 -0.23234112169411791 0 -0.31785831674354481 -0.23162268320847151 0 -0.31390441240863842 -0.24006575288640869 0 -0.30492722156486829 -0.2234328760066871 0 -0.31785831674354481 -0.23162268320847151 0 -0.30492722156486829 -0.2234328760066871 0 -0.30407998288955201 -0.23234112169411791 0 -0.31785831674354481 -0.23162268320847151 0 -0.30492722156486829 -0.2234328760066871 0 -0.2919961263861921 -0.21524306880490249 0 -0.30492722156486829 -0.2234328760066871 0 -0.30407998288955201 -0.23234112169411791 0 -0.29376584574093761 -0.22739087890307111 0 -0.30407998288955201 -0.23234112169411791 0 -0.29376584574093761 -0.22739087890307111 0 -0.2903399019555718 -0.2392070477807737 0 -0.30492722156486829 -0.2234328760066871 0 -0.29376584574093761 -0.22739087890307111 0 -0.2919961263861921 -0.21524306880490249 0 -0.27938575894434797 -0.22679570574001989 0 -0.2919961263861921 -0.21524306880490249 0 -0.29376584574093761 -0.22739087890307111 0 -0.27938575894434797 -0.22679570574001989 0 -0.2919961263861921 -0.21524306880490249 0 -0.29376584574093761 -0.22739087890307111 0 -0.2903399019555718 -0.2392070477807737 0 -0.27938575894434797 -0.22679570574001989 0 -0.2903399019555718 -0.2392070477807737 0 -0.26677539150250512 -0.23834834267513871 0 -0.27768781240853779 -0.25792173907992338 0 -0.2903399019555718 -0.2392070477807737 0 -0.26677539150250512 -0.23834834267513871 0 -0.2903399019555718 -0.2392070477807737 0 -0.26677539150250512 -0.23834834267513871 0 -0.27938575894434797 -0.22679570574001989 0 -0.2465658025307402 -0.25686279477778151 0 -0.26677539150250512 -0.23834834267513871 0 -0.2465658025307402 -0.25686279477778151 0 -0.24972092479861499 -0.23772686752666619 0 -0.26677539150250512 -0.23834834267513871 0 -0.24972092479861499 -0.23772686752666619 0 -0.26677539150250512 -0.23834834267513871 0 -0.24972092479861499 -0.23772686752666619 0 -0.26677539150250512 -0.23834834267513871 0 -0.25976906760045032 -0.2200800725267324 0 -0.24146418111165299 -0.22013200428108479 0 -0.24972092479861499 -0.23772686752666619 0 -0.25976906760045032 -0.2200800725267324 0 -0.26677539150250512 -0.23834834267513871 0 -0.25976906760045032 -0.2200800725267324 0 -0.27938575894434797 -0.22679570574001989 0 -0.25976906760045032 -0.2200800725267324 0 -0.27938575894434797 -0.22679570574001989 0 -0.27314381998495357 -0.21429424560813631 0 -0.26677539150250512 -0.23834834267513871 0 -0.27938575894434797 -0.22679570574001989 0 -0.27938575894434797 -0.22679570574001989 0 -0.27314381998495357 -0.21429424560813631 0 -0.28489586619087442 -0.2107461749781491 0 -0.27314381998495357 -0.21429424560813631 0 -0.27370560163026969 -0.20203113847313681 0 -0.28489586619087442 -0.2107461749781491 0 -0.27314381998495357 -0.21429424560813631 0 -0.25912236943178718 -0.20295119362820149 0 -0.27370560163026969 -0.20203113847313681 0 -0.25976906760045032 -0.2200800725267324 0 -0.27314381998495357 -0.21429424560813631 0 -0.25912236943178718 -0.20295119362820149 0 -0.24488486066899559 -0.20652901969351281 0 -0.25976906760045032 -0.2200800725267324 0 -0.25912236943178718 -0.20295119362820149 0 -0.25912236943178718 -0.20295119362820149 0 -0.27370560163026969 -0.20203113847313681 0 -0.26359761460273801 -0.18440007413656281 0 -0.24690285340742571 -0.19114610178065169 0 -0.25912236943178718 -0.20295119362820149 0 -0.26359761460273801 -0.18440007413656281 0 -0.24690285340742571 -0.19114610178065169 0 -0.24488486066899559 -0.20652901969351281 0 -0.25912236943178718 -0.20295119362820149 0 -0.27370560163026969 -0.20203113847313681 0 -0.28431613452941912 -0.1957801844944165 0 -0.27987695334291451 -0.17376910259949041 0 -0.27370560163026969 -0.20203113847313681 0 -0.27987695334291451 -0.17376910259949041 0 -0.27370560163026969 -0.20203113847313681 0 -0.28431613452941912 -0.1957801844944165 0 -0.28489586619087442 -0.2107461749781491 0 -0.29213480702749911 -0.1896792554665685 0 -0.29096744445553779 -0.20267525095473771 0 -0.30094635467465342 -0.19701693584038979 0 -0.29213480702749911 -0.1896792554665685 0 -0.29096744445553779 -0.20267525095473771 0 -0.28431613452941912 -0.1957801844944165 0 -0.29096744445553779 -0.20267525095473771 0 -0.28431613452941912 -0.1957801844944165 0 -0.28489586619087442 -0.2107461749781491 0 -0.29096744445553779 -0.20267525095473771 0 -0.28489586619087442 -0.2107461749781491 0 -0.29073702084139053 -0.20937726487447189 0 -0.27938575894434797 -0.22679570574001989 0 -0.28489586619087442 -0.2107461749781491 0 -0.2919961263861921 -0.21524306880490249 0 -0.28489586619087442 -0.2107461749781491 0 -0.2919961263861921 -0.21524306880490249 0 -0.28489586619087442 -0.2107461749781491 0 -0.2919961263861921 -0.21524306880490249 0 -0.29073702084139053 -0.20937726487447189 0 -0.2919961263861921 -0.21524306880490249 0 -0.29647036394129539 -0.21114412067559671 0 -0.29073702084139053 -0.20937726487447189 0 -0.2919961263861921 -0.21524306880490249 0 -0.29647036394129539 -0.21114412067559671 0 -0.29096744445553779 -0.20267525095473771 0 -0.29647036394129539 -0.21114412067559671 0 -0.30208341156127788 -0.20543158252145549 0 -0.29096744445553779 -0.20267525095473771 0 -0.29647036394129539 -0.21114412067559671 0 -0.29073702084139053 -0.20937726487447189 0 -0.29647036394129539 -0.21114412067559671 0 -0.30208341156127788 -0.20543158252145549 0 -0.30838896143207462 -0.21227032089182149 0 -0.30492722156486829 -0.2234328760066871 0 -0.29647036394129539 -0.21114412067559671 0 -0.30838896143207462 -0.21227032089182149 0 -0.30492722156486829 -0.2234328760066871 0 -0.2919961263861921 -0.21524306880490249 0 -0.29647036394129539 -0.21114412067559671 0 -0.30492722156486829 -0.2234328760066871 0 -0.30838896143207462 -0.21227032089182149 0 -0.31501785557782458 -0.21852760539770871 0 -0.30208341156127788 -0.20543158252145549 0 -0.30838896143207462 -0.21227032089182149 0 -0.3117664323466825 -0.20122739919718671 0 -0.30838896143207462 -0.21227032089182149 0 -0.3117664323466825 -0.20122739919718671 0 -0.31661064243268461 -0.21010814811148579 0 -0.3117664323466825 -0.20122739919718671 0 -0.30094635467465342 -0.19701693584038979 0 -0.3068409275041965 -0.18465924853822779 0 -0.30208341156127788 -0.20543158252145549 0 -0.3117664323466825 -0.20122739919718671 0 -0.30094635467465342 -0.19701693584038979 0 -0.29213480702749911 -0.1896792554665685 0 -0.30094635467465342 -0.19701693584038979 0 -0.3068409275041965 -0.18465924853822779 0 -0.29096744445553779 -0.20267525095473771 0 -0.30208341156127788 -0.20543158252145549 0 -0.30094635467465342 -0.19701693584038979 0 -0.3068409275041965 -0.18465924853822779 0 -0.29864758861848129 -0.16810190818691281 0 -0.29454988289451722 -0.1790829959714712 0 -0.3068409275041965 -0.18465924853822779 0 -0.29864758861848129 -0.16810190818691281 0 -0.31406315044598943 -0.16818541260206871 0 -0.29213480702749911 -0.1896792554665685 0 -0.3068409275041965 -0.18465924853822779 0 -0.29454988289451722 -0.1790829959714712 0 -0.29864758861848129 -0.16810190818691281 0 -0.29255370251104917 -0.15946129794443911 0 -0.30564196302724211 -0.15046711426550921 0 -0.29864758861848129 -0.16810190818691281 0 -0.30564196302724211 -0.15046711426550921 0 -0.31406315044598943 -0.16818541260206871 0 -0.29864758861848129 -0.16810190818691281 0 -0.29255370251104917 -0.15946129794443911 0 -0.27987695334291451 -0.17376910259949041 0 -0.29255370251104917 -0.15946129794443911 0 -0.27987695334291451 -0.17376910259949041 0 -0.28604830505555923 -0.1455070667258439 0 -0.27987695334291451 -0.17376910259949041 0 -0.28604830505555923 -0.1455070667258439 0 -0.29213480702749911 -0.1896792554665685 0 -0.29454988289451722 -0.1790829959714712 0 -0.27987695334291451 -0.17376910259949041 0 -0.29864758861848129 -0.16810190818691281 0 -0.29454988289451722 -0.1790829959714712 0 -0.27987695334291451 -0.17376910259949041 0 -0.29213480702749911 -0.1896792554665685 0 -0.28431613452941912 -0.1957801844944165 0 -0.27987695334291451 -0.17376910259949041 0 -0.27370560163026969 -0.20203113847313681 0 -0.27987695334291451 -0.17376910259949041 0 -0.26359761460273801 -0.18440007413656281 0 -0.27987695334291451 -0.17376910259949041 0 -0.26359761460273801 -0.18440007413656281 0 -0.26626184748952758 -0.1683476843643229 0 -0.26359761460273801 -0.18440007413656281 0 -0.25034570606257017 -0.1645063498948689 0 -0.26626184748952758 -0.1683476843643229 0 -0.24690285340742571 -0.19114610178065169 0 -0.26359761460273801 -0.18440007413656281 0 -0.25034570606257017 -0.1645063498948689 0 -0.25034570606257017 -0.1645063498948689 0 -0.26626184748952758 -0.1683476843643229 0 -0.27203059353082881 -0.15275839666498661 0 -0.27987695334291451 -0.17376910259949041 0 -0.27203059353082881 -0.15275839666498661 0 -0.28604830505555923 -0.1455070667258439 0 -0.27987695334291451 -0.17376910259949041 0 -0.26626184748952758 -0.1683476843643229 0 -0.27203059353082881 -0.15275839666498661 0 -0.27203059353082881 -0.15275839666498661 0 -0.26108610654798831 -0.14108500890015169 0 -0.27611002899866521 -0.1325652314475276 0 -0.27203059353082881 -0.15275839666498661 0 -0.27611002899866521 -0.1325652314475276 0 -0.28604830505555923 -0.1455070667258439 0 -0.27203059353082881 -0.15275839666498661 0 -0.26108610654798831 -0.14108500890015169 0 -0.25034570606257017 -0.1645063498948689 0 -0.27203059353082881 -0.15275839666498661 0 -0.26108610654798831 -0.14108500890015169 0 -0.24230833289442899 -0.14031226057926799 0 -0.25034570606257017 -0.1645063498948689 0 -0.26108610654798831 -0.14108500890015169 0 -0.25034570606257017 -0.1645063498948689 0 -0.26108610654798831 -0.14108500890015169 0 -0.24120545458686549 -0.1198803092441708 0 -0.25798412026367251 -0.12241725880595949 0 -0.26108610654798831 -0.14108500890015169 0 -0.25798412026367251 -0.12241725880595949 0 -0.27331035368986589 -0.11442787808809959 0 -0.26108610654798831 -0.14108500890015169 0 -0.24120545458686549 -0.1198803092441708 0 -0.26108610654798831 -0.14108500890015169 0 -0.27331035368986589 -0.11442787808809959 0 -0.26108610654798831 -0.14108500890015169 0 -0.27611002899866521 -0.1325652314475276 0 -0.27331035368986589 -0.11442787808809959 0 -0.26108610654798831 -0.14108500890015169 0 -0.29221965676820377 -0.1172450308521977 0 -0.27611002899866521 -0.1325652314475276 0 -0.28604830505555923 -0.1455070667258439 0 -0.29221965676820377 -0.1172450308521977 0 -0.28604830505555923 -0.1455070667258439 0 -0.29221965676820377 -0.1172450308521977 0 -0.28604830505555923 -0.1455070667258439 0 -0.30446426629830042 -0.13119693167271801 0 -0.29255370251104917 -0.15946129794443911 0 -0.28604830505555923 -0.1455070667258439 0 -0.30564196302724211 -0.15046711426550921 0 -0.28604830505555923 -0.1455070667258439 0 -0.30564196302724211 -0.15046711426550921 0 -0.30446426629830042 -0.13119693167271801 0 -0.30564196302724211 -0.15046711426550921 0 -0.30446426629830042 -0.13119693167271801 0 -0.31977123175716943 -0.13903226214737571 0 -0.32789187853475033 -0.12517599283146261 0 -0.31977123175716943 -0.13903226214737571 0 -0.336105434386891 -0.1363085108855798 0 -0.3159283016389291 -0.1216907249220384 0 -0.32789187853475033 -0.12517599283146261 0 -0.31977123175716943 -0.13903226214737571 0 -0.3159283016389291 -0.1216907249220384 0 -0.30446426629830042 -0.13119693167271801 0 -0.31977123175716943 -0.13903226214737571 0 -0.30564196302724211 -0.15046711426550921 0 -0.31977123175716943 -0.13903226214737571 0 -0.31967329226340002 -0.1546005192555433 0 -0.31977123175716943 -0.13903226214737571 0 -0.31967329226340002 -0.1546005192555433 0 -0.3329375236726107 -0.15128559590750121 0 -0.3329375236726107 -0.15128559590750121 0 -0.34418614954519261 -0.1429427420407299 0 -0.34879759697927848 -0.15991680089622209 0 -0.31977123175716943 -0.13903226214737571 0 -0.3329375236726107 -0.15128559590750121 0 -0.336105434386891 -0.1363085108855798 0 -0.3329375236726107 -0.15128559590750121 0 -0.336105434386891 -0.1363085108855798 0 -0.34418614954519261 -0.1429427420407299 0 -0.336105434386891 -0.1363085108855798 0 -0.34664502750087728 -0.13287615176632769 0 -0.34418614954519261 -0.1429427420407299 0 -0.32789187853475033 -0.12517599283146261 0 -0.336105434386891 -0.1363085108855798 0 -0.33821175220128991 -0.12550938859712391 0 -0.336105434386891 -0.1363085108855798 0 -0.33821175220128991 -0.12550938859712391 0 -0.34664502750087728 -0.13287615176632769 0 -0.33821175220128991 -0.12550938859712391 0 -0.34844653193434721 -0.12616497426618681 0 -0.34664502750087728 -0.13287615176632769 0 -0.34844653193434721 -0.12616497426618681 0 -0.34664502750087728 -0.13287615176632769 0 -0.35532129350639252 -0.12816021333450289 0 -0.34664502750087728 -0.13287615176632769 0 -0.35644516518630548 -0.13432665074801881 0 -0.34418614954519261 -0.1429427420407299 0 -0.34664502750087728 -0.13287615176632769 0 -0.35644516518630548 -0.13432665074801881 0 -0.35532129350639252 -0.12816021333450289 0 -0.35246234538210403 -0.1209314122971045 0 -0.34844653193434721 -0.12616497426618681 0 -0.35532129350639252 -0.12816021333450289 0 -0.35532129350639252 -0.12816021333450289 0 -0.36649418718204801 -0.13069836442780899 0 -0.37886590014221699 -0.11624347574354781 0 -0.35644516518630548 -0.13432665074801881 0 -0.35532129350639252 -0.12816021333450289 0 -0.36649418718204801 -0.13069836442780899 0 -0.35644516518630548 -0.13432665074801881 0 -0.36649418718204801 -0.13069836442780899 0 -0.3673862295040744 -0.1435114286710106 0 -0.36649418718204801 -0.13069836442780899 0 -0.37445234757125051 -0.13125005364196499 0 -0.3673862295040744 -0.1435114286710106 0 -0.36649418718204801 -0.13069836442780899 0 -0.37445234757125051 -0.13125005364196499 0 -0.37886590014221699 -0.11624347574354781 0 -0.3673862295040744 -0.1435114286710106 0 -0.34879759697927848 -0.15991680089622209 0 -0.37200230697398651 -0.16071948697172689 0 -0.35644516518630548 -0.13432665074801881 0 -0.3673862295040744 -0.1435114286710106 0 -0.34879759697927848 -0.15991680089622209 0 -0.35644516518630548 -0.13432665074801881 0 -0.34418614954519261 -0.1429427420407299 0 -0.34879759697927848 -0.15991680089622209 0 -0.35644516518630548 -0.13432665074801881 0 -0.34879759697927848 -0.15991680089622209 0 -0.34879759697927848 -0.15991680089622209 0 -0.37200230697398651 -0.16071948697172689 0 -0.36155189704168161 -0.1787527137617804 0 -0.36155189704168161 -0.1787527137617804 0 -0.37428560390694832 -0.1996895348543129 0 -0.378907440432249 -0.17797872190532399 0 -0.37200230697398651 -0.16071948697172689 0 -0.36155189704168161 -0.1787527137617804 0 -0.378907440432249 -0.17797872190532399 0 -0.36155189704168161 -0.1787527137617804 0 -0.34115002877225142 -0.1855069510444253 0 -0.3553770874073926 -0.19555229446690309 0 -0.34879759697927848 -0.15991680089622209 0 -0.34115002877225142 -0.1855069510444253 0 -0.34879759697927848 -0.15991680089622209 0 -0.36155189704168161 -0.1787527137617804 0 -0.34115002877225142 -0.1855069510444253 0 -0.34115002877225142 -0.1855069510444253 0 -0.33018046868917938 -0.16704874142318049 0 -0.3249460681982429 -0.18314310118056079 0 -0.3329375236726107 -0.15128559590750121 0 -0.34879759697927848 -0.15991680089622209 0 -0.33018046868917938 -0.16704874142318049 0 -0.34879759697927848 -0.15991680089622209 0 -0.34115002877225142 -0.1855069510444253 0 -0.33018046868917938 -0.16704874142318049 0 -0.31967329226340002 -0.1546005192555433 0 -0.3329375236726107 -0.15128559590750121 0 -0.33018046868917938 -0.16704874142318049 0 -0.30564196302724211 -0.15046711426550921 0 -0.31967329226340002 -0.1546005192555433 0 -0.31406315044598943 -0.16818541260206871 0 -0.31967329226340002 -0.1546005192555433 0 -0.33018046868917938 -0.16704874142318049 0 -0.31406315044598943 -0.16818541260206871 0 -0.3068409275041965 -0.18465924853822779 0 -0.31406315044598943 -0.16818541260206871 0 -0.3249460681982429 -0.18314310118056079 0 -0.3068409275041965 -0.18465924853822779 0 -0.3249460681982429 -0.18314310118056079 0 -0.3206777610588103 -0.19399324396561579 0 -0.33018046868917938 -0.16704874142318049 0 -0.31406315044598943 -0.16818541260206871 0 -0.3249460681982429 -0.18314310118056079 0 -0.3117664323466825 -0.20122739919718671 0 -0.3068409275041965 -0.18465924853822779 0 -0.3206777610588103 -0.19399324396561579 0 -0.3206777610588103 -0.19399324396561579 0 -0.32215903541138857 -0.2036823564868184 0 -0.33358353804736052 -0.19804343395931531 0 -0.3249460681982429 -0.18314310118056079 0 -0.3206777610588103 -0.19399324396561579 0 -0.33358353804736052 -0.19804343395931531 0 -0.3117664323466825 -0.20122739919718671 0 -0.3206777610588103 -0.19399324396561579 0 -0.32215903541138857 -0.2036823564868184 0 -0.3117664323466825 -0.20122739919718671 0 -0.31661064243268461 -0.21010814811148579 0 -0.32215903541138857 -0.2036823564868184 0 -0.32572092739545261 -0.2148330585838934 0 -0.32215903541138857 -0.2036823564868184 0 -0.33358353804736052 -0.19804343395931531 0 -0.31661064243268461 -0.21010814811148579 0 -0.31501785557782458 -0.21852760539770871 0 -0.32572092739545261 -0.2148330585838934 0 -0.30838896143207462 -0.21227032089182149 0 -0.31661064243268461 -0.21010814811148579 0 -0.31501785557782458 -0.21852760539770871 0 -0.31661064243268461 -0.21010814811148579 0 -0.32572092739545261 -0.2148330585838934 0 -0.32215903541138857 -0.2036823564868184 0 -0.32572092739545261 -0.2148330585838934 0 -0.33358353804736052 -0.19804343395931531 0 -0.32572092739545261 -0.2148330585838934 0 -0.33350246056522448 -0.21109710119262851 0 -0.33358353804736052 -0.19804343395931531 0 -0.33350246056522448 -0.21109710119262851 0 -0.34510690988334158 -0.21574830059720879 0 -0.34125060408172297 -0.22476859845816091 0 -0.33350246056522448 -0.21109710119262851 0 -0.34520920262455318 -0.20065783326663181 0 -0.34510690988334158 -0.21574830059720879 0 -0.34115002877225142 -0.1855069510444253 0 -0.33350246056522448 -0.21109710119262851 0 -0.33358353804736052 -0.19804343395931531 0 -0.34115002877225142 -0.1855069510444253 0 -0.33350246056522448 -0.21109710119262851 0 -0.34115002877225142 -0.1855069510444253 0 -0.3249460681982429 -0.18314310118056079 0 -0.33358353804736052 -0.19804343395931531 0 -0.34115002877225142 -0.1855069510444253 0 -0.33350246056522448 -0.21109710119262851 0 -0.34520920262455318 -0.20065783326663181 0 -0.34115002877225142 -0.1855069510444253 0 -0.34520920262455318 -0.20065783326663181 0 -0.3553770874073926 -0.19555229446690309 0 -0.36155189704168161 -0.1787527137617804 0 -0.3553770874073926 -0.19555229446690309 0 -0.37428560390694832 -0.1996895348543129 0 -0.3553770874073926 -0.19555229446690309 0 -0.37428560390694832 -0.1996895348543129 0 -0.35468870469152841 -0.21315443940736489 0 -0.37428560390694832 -0.1996895348543129 0 -0.35468870469152841 -0.21315443940736489 0 -0.37428560390694832 -0.1996895348543129 0 -0.35468870469152841 -0.21315443940736489 0 -0.37315942728371082 -0.22312060565814251 0 -0.34520920262455318 -0.20065783326663181 0 -0.3553770874073926 -0.19555229446690309 0 -0.35468870469152841 -0.21315443940736489 0 -0.34520920262455318 -0.20065783326663181 0 -0.35468870469152841 -0.21315443940736489 0 -0.34510690988334158 -0.21574830059720879 0 -0.35468870469152841 -0.21315443940736489 0 -0.34510690988334158 -0.21574830059720879 0 -0.35377816735088369 -0.227329495915473 0 -0.34510690988334158 -0.21574830059720879 0 -0.35377816735088369 -0.227329495915473 0 -0.34125060408172297 -0.22476859845816091 0 -0.35377816735088369 -0.227329495915473 0 -0.3524301033479561 -0.24146965251647221 0 -0.34249855401991242 -0.23342157082773121 0 -0.35377816735088369 -0.227329495915473 0 -0.34249855401991242 -0.23342157082773121 0 -0.34125060408172297 -0.22476859845816091 0 -0.35377816735088369 -0.227329495915473 0 -0.37315942728371082 -0.22312060565814251 0 -0.37261567676119389 -0.24220522709947209 0 -0.35468870469152841 -0.21315443940736489 0 -0.35377816735088369 -0.227329495915473 0 -0.37315942728371082 -0.22312060565814251 0 -0.36482927333241238 -0.25212951776171361 0 -0.37261567676119389 -0.24220522709947209 0 -0.3524301033479561 -0.24146965251647221 0 -0.35377816735088369 -0.227329495915473 0 -0.37261567676119389 -0.24220522709947209 0 -0.3524301033479561 -0.24146965251647221 0 -0.37261567676119389 -0.24220522709947209 0 -0.3524301033479561 -0.24146965251647221 0 -0.35228165108508203 -0.25342443067102521 0 -0.35822344834074732 -0.25421052090076218 0 -0.3524301033479561 -0.24146965251647221 0 -0.35228165108508203 -0.25342443067102521 0 -0.3524301033479561 -0.24146965251647221 0 -0.3322445299347182 -0.24073407793347229 0 -0.35822344834074732 -0.25421052090076218 0 -0.36482927333241238 -0.25212951776171361 0 -0.3524301033479561 -0.24146965251647221 0 -0.3524301033479561 -0.24146965251647221 0 -0.3322445299347182 -0.24073407793347229 0 -0.34574933721119638 -0.25328958626596532 0 -0.35228165108508203 -0.25342443067102521 0 -0.3322445299347182 -0.24073407793347229 0 -0.35228165108508203 -0.25342443067102521 0 -0.3322445299347182 -0.24073407793347229 0 -0.33668400879166471 -0.25003653060852321 0 -0.34574933721119638 -0.25328958626596532 0 -0.3322445299347182 -0.24073407793347229 0 -0.3524301033479561 -0.24146965251647221 0 -0.3322445299347182 -0.24073407793347229 0 -0.34249855401991242 -0.23342157082773121 0 -0.33668400879166471 -0.25003653060852321 0 -0.3315076224095731 -0.24714144879994501 0 -0.3322445299347182 -0.24073407793347229 0 -0.3315076224095731 -0.24714144879994501 0 -0.3322445299347182 -0.24073407793347229 0 -0.32472736928580792 -0.2404601480234084 0 -0.3322445299347182 -0.24073407793347229 0 -0.33507020819195449 -0.2293417199505654 0 -0.32585489235819659 -0.23668725134083141 0 -0.3322445299347182 -0.24073407793347229 0 -0.32472736928580792 -0.2404601480234084 0 -0.3322445299347182 -0.24073407793347229 0 -0.32585489235819659 -0.23668725134083141 0 -0.3322445299347182 -0.24073407793347229 0 -0.34249855401991242 -0.23342157082773121 0 -0.33507020819195449 -0.2293417199505654 0 -0.34249855401991242 -0.23342157082773121 0 -0.34125060408172297 -0.22476859845816091 0 -0.33507020819195449 -0.2293417199505654 0 -0.33350246056522448 -0.21109710119262851 0 -0.34125060408172297 -0.22476859845816091 0 -0.33507020819195449 -0.2293417199505654 0 -0.33350246056522448 -0.21109710119262851 0 -0.33507020819195449 -0.2293417199505654 0 -0.32585489235819659 -0.23668725134083141 0 -0.33350246056522448 -0.21109710119262851 0 -0.32585489235819659 -0.23668725134083141 0 -0.32572092739545261 -0.2148330585838934 0 -0.33350246056522448 -0.21109710119262851 0 -0.32585489235819659 -0.23668725134083141 0 -0.32572092739545261 -0.2148330585838934 0 -0.31785831674354481 -0.23162268320847151 0 -0.32585489235819659 -0.23668725134083141 0 -0.31785831674354481 -0.23162268320847151 0 -0.32585489235819659 -0.23668725134083141 0 -0.31501785557782458 -0.21852760539770871 0 -0.32572092739545261 -0.2148330585838934 0 -0.31785831674354481 -0.23162268320847151 0 -0.32572092739545261 -0.2148330585838934 0 -0.31785831674354481 -0.23162268320847151 0 -0.30492722156486829 -0.2234328760066871 0 -0.31501785557782458 -0.21852760539770871 0 -0.31785831674354481 -0.23162268320847151 0 -0.31390441240863842 -0.24006575288640869 0 -0.32005003387637732 -0.2370074077245084 0 -0.32472736928580792 -0.2404601480234084 0 -0.31390441240863842 -0.24006575288640869 0 -0.32472736928580792 -0.2404601480234084 0 -0.31785831674354481 -0.23162268320847151 0 -0.31390441240863842 -0.24006575288640869 0 -0.32005003387637732 -0.2370074077245084 0 -0.31785831674354481 -0.23162268320847151 0 -0.31390441240863842 -0.24006575288640869 0 -0.31390441240863842 -0.24006575288640869 0 -0.3158589578121852 -0.24952041115528059 0 -0.32472736928580792 -0.2404601480234084 0 -0.32723301537407917 -0.2523527637654861 0 -0.3315076224095731 -0.24714144879994501 0 -0.32472736928580792 -0.2404601480234084 0 -0.31785831674354481 -0.23162268320847151 0 -0.32005003387637732 -0.2370074077245084 0 -0.32585489235819659 -0.23668725134083141 0 -0.3322445299347182 -0.24073407793347229 0 -0.32472736928580792 -0.2404601480234084 0 -0.32585489235819659 -0.23668725134083141 0 -0.32472736928580792 -0.2404601480234084 0 -0.32585489235819659 -0.23668725134083141 0 -0.32005003387637732 -0.2370074077245084 0 -0.32472736928580792 -0.2404601480234084 0 -0.32585489235819659 -0.23668725134083141 0 -0.41853086337149498 -0.25309053714782143 0 -0.42022519851326989 -0.23259437627896859 0 -0.43822346061495648 -0.23801048684192611 0 -0.42022519851326989 -0.23259437627896859 0 -0.43072078076369619 -0.21518350204903969 0 -0.43822346061495648 -0.23801048684192611 0 -0.42022519851326989 -0.23259437627896859 0 -0.40506762508401267 -0.236436316235481 0 -0.41027384656800642 -0.21795949309806931 0 -0.42022519851326989 -0.23259437627896859 0 -0.41027384656800642 -0.21795949309806931 0 -0.43072078076369619 -0.21518350204903969 0 -0.39860507647727672 -0.25526751824771909 0 -0.41853086337149498 -0.25309053714782143 0 -0.40506762508401267 -0.236436316235481 0 -0.41853086337149498 -0.25309053714782143 0 -0.42022519851326989 -0.23259437627896859 0 -0.40506762508401267 -0.236436316235481 0 -0.39860507647727672 -0.25526751824771909 0 -0.40506762508401267 -0.236436316235481 0 -0.38876654489906132 -0.23795129017210251 0 -0.3830880296455455 -0.25549359971904922 0 -0.37261567676119389 -0.24220522709947209 0 -0.38876654489906132 -0.23795129017210251 0 -0.3830880296455455 -0.25549359971904922 0 -0.39860507647727672 -0.25526751824771909 0 -0.38876654489906132 -0.23795129017210251 0 -0.37315942728371082 -0.22312060565814251 0 -0.37261567676119389 -0.24220522709947209 0 -0.38876654489906132 -0.23795129017210251 0 -0.37315942728371082 -0.22312060565814251 0 -0.38876654489906132 -0.23795129017210251 0 -0.39400422067496699 -0.22175468246820529 0 -0.40506762508401267 -0.236436316235481 0 -0.39400422067496699 -0.22175468246820529 0 -0.41027384656800642 -0.21795949309806931 0 -0.40506762508401267 -0.236436316235481 0 -0.38876654489906132 -0.23795129017210251 0 -0.39400422067496699 -0.22175468246820529 0 -0.39400422067496699 -0.22175468246820529 0 -0.39993562462386351 -0.20446128860126231 0 -0.41027384656800642 -0.21795949309806931 0 -0.37428560390694832 -0.1996895348543129 0 -0.39400422067496699 -0.22175468246820529 0 -0.39993562462386351 -0.20446128860126231 0 -0.37428560390694832 -0.1996895348543129 0 -0.37315942728371082 -0.22312060565814251 0 -0.39400422067496699 -0.22175468246820529 0 -0.37428560390694832 -0.1996895348543129 0 -0.39388250312236828 -0.18622463030126091 0 -0.378907440432249 -0.17797872190532399 0 -0.37428560390694832 -0.1996895348543129 0 -0.39388250312236828 -0.18622463030126091 0 -0.37428560390694832 -0.1996895348543129 0 -0.39993562462386351 -0.20446128860126231 0 -0.39388250312236828 -0.18622463030126091 0 -0.39993562462386351 -0.20446128860126231 0 -0.41664878483655088 -0.2010059954371613 0 -0.39388250312236828 -0.18622463030126091 0 -0.41664878483655088 -0.2010059954371613 0 -0.42403915889381238 -0.18499454850901911 0 -0.39388250312236828 -0.18622463030126091 0 -0.41664878483655088 -0.2010059954371613 0 -0.41027384656800642 -0.21795949309806931 0 -0.43072078076369619 -0.21518350204903969 0 -0.39993562462386351 -0.20446128860126231 0 -0.41664878483655088 -0.2010059954371613 0 -0.41027384656800642 -0.21795949309806931 0 -0.41664878483655088 -0.2010059954371613 0 -0.43072078076369619 -0.21518350204903969 0 -0.43899318417766831 -0.19765666492820419 0 -0.41664878483655088 -0.2010059954371613 0 -0.42403915889381238 -0.18499454850901911 0 -0.43899318417766831 -0.19765666492820419 0 -0.42403915889381238 -0.18499454850901911 0 -0.43917839088219462 -0.1793374289846591 0 -0.43899318417766831 -0.19765666492820419 0 -0.4274433134167509 -0.17409663110926091 0 -0.42403915889381238 -0.18499454850901911 0 -0.43917839088219462 -0.1793374289846591 0 -0.4274433134167509 -0.17409663110926091 0 -0.43307630155320842 -0.1592948211951567 0 -0.43917839088219462 -0.1793374289846591 0 -0.43307630155320842 -0.1592948211951567 0 -0.41347940233778829 -0.1727597257482088 0 -0.4274433134167509 -0.17409663110926091 0 -0.43307630155320842 -0.1592948211951567 0 -0.41347940233778829 -0.1727597257482088 0 -0.43307630155320842 -0.1592948211951567 0 -0.41347940233778829 -0.1727597257482088 0 -0.41168474400614441 -0.14915459776975931 0 -0.42403915889381238 -0.18499454850901911 0 -0.41347940233778829 -0.1727597257482088 0 -0.39388250312236828 -0.18622463030126091 0 -0.4274433134167509 -0.17409663110926091 0 -0.42403915889381238 -0.18499454850901911 0 -0.41347940233778829 -0.1727597257482088 0 -0.41347940233778829 -0.1727597257482088 0 -0.39388250312236828 -0.18622463030126091 0 -0.39281489111626028 -0.16450724363753899 0 -0.41347940233778829 -0.1727597257482088 0 -0.39388250312236828 -0.18622463030126091 0 -0.39388250312236828 -0.18622463030126091 0 -0.378907440432249 -0.17797872190532399 0 -0.39281489111626028 -0.16450724363753899 0 -0.37200230697398651 -0.16071948697172689 0 -0.378907440432249 -0.17797872190532399 0 -0.39281489111626028 -0.16450724363753899 0 -0.41347940233778829 -0.1727597257482088 0 -0.39281489111626028 -0.16450724363753899 0 -0.41168474400614441 -0.14915459776975931 0 -0.39281489111626028 -0.16450724363753899 0 -0.38627467686773709 -0.1418161868388684 0 -0.41168474400614441 -0.14915459776975931 0 -0.37200230697398651 -0.16071948697172689 0 -0.39281489111626028 -0.16450724363753899 0 -0.38627467686773709 -0.1418161868388684 0 -0.3673862295040744 -0.1435114286710106 0 -0.37200230697398651 -0.16071948697172689 0 -0.38627467686773709 -0.1418161868388684 0 -0.37200230697398651 -0.16071948697172689 0 -0.38627467686773709 -0.1418161868388684 0 -0.38627467686773709 -0.1418161868388684 0 -0.38503499283567311 -0.1280556507325977 0 -0.40054704676148772 -0.12291288670600981 0 -0.37445234757125051 -0.13125005364196499 0 -0.3673862295040744 -0.1435114286710106 0 -0.38627467686773709 -0.1418161868388684 0 -0.37445234757125051 -0.13125005364196499 0 -0.38503499283567311 -0.1280556507325977 0 -0.37886590014221699 -0.11624347574354781 0 -0.37445234757125051 -0.13125005364196499 0 -0.38627467686773709 -0.1418161868388684 0 -0.38503499283567311 -0.1280556507325977 0 -0.38627467686773709 -0.1418161868388684 0 -0.40054704676148772 -0.12291288670600981 0 -0.38627467686773709 -0.1418161868388684 0 -0.41168474400614441 -0.14915459776975931 0 -0.40054704676148772 -0.12291288670600981 0 -0.42690175043357981 -0.13101994638646219 0 -0.40054704676148772 -0.12291288670600981 0 -0.41168474400614441 -0.14915459776975931 0 -0.42690175043357981 -0.13101994638646219 0 -0.40054704676148772 -0.12291288670600981 0 -0.41168474400614441 -0.14915459776975931 0 -0.42686094794668378 -0.14678830717554969 0 -0.42690175043357981 -0.13101994638646219 0 -0.42686094794668378 -0.14678830717554969 0 -0.42690175043357981 -0.13101994638646219 0 -0.43774947791394919 -0.14675582546809909 0 -0.43307630155320842 -0.1592948211951567 0 -0.41168474400614441 -0.14915459776975931 0 -0.42686094794668378 -0.14678830717554969 0 -0.43307630155320842 -0.1592948211951567 0 -0.42686094794668378 -0.14678830717554969 0 -0.43774947791394919 -0.14675582546809909 0 -0.49999999999999489 -0.1355612327928718 0 -0.47761068641084248 -0.1815081296663498 0 -0.5 -0.21854333319641181 0 -0.42690175043357981 -0.13101994638646219 0 -0.45325645410567189 -0.13912700606691489 0 -0.44387412092493062 -0.12299702039557731 0 -0.42690175043357981 -0.13101994638646219 0 -0.45325645410567189 -0.13912700606691489 0 -0.42690175043357981 -0.13101994638646219 0 -0.43774947791394919 -0.14675582546809909 0 -0.45325645410567189 -0.13912700606691489 0 -0.45325645410567189 -0.13912700606691489 0 -0.44387412092493062 -0.12299702039557731 0 -0.4609918274756486 -0.11703287069502 0 -0.45794226788862419 -0.15345777958820889 0 -0.45325645410567189 -0.13912700606691489 0 -0.44621742249393281 -0.1592322175257869 0 -0.45325645410567189 -0.13912700606691489 0 -0.44621742249393281 -0.1592322175257869 0 -0.43774947791394919 -0.14675582546809909 0 -0.45325645410567189 -0.13912700606691489 0 -0.44621742249393281 -0.1592322175257869 0 -0.43307630155320842 -0.1592948211951567 0 -0.43774947791394919 -0.14675582546809909 0 -0.44621742249393281 -0.1592322175257869 0 -0.45794226788862419 -0.15345777958820889 0 -0.47270054646866899 -0.14053914855267299 0 -0.47353595388003128 -0.1576260050925781 0 -0.45794226788862419 -0.15345777958820889 0 -0.45739356892437671 -0.14039963797192251 0 -0.45325645410567189 -0.13912700606691489 0 -0.45794226788862419 -0.15345777958820889 0 -0.45739356892437671 -0.14039963797192251 0 -0.47270054646866899 -0.14053914855267299 0 -0.45739356892437671 -0.14039963797192251 0 -0.46496766214243751 -0.13267914300609551 0 -0.47270054646866899 -0.14053914855267299 0 -0.45325645410567189 -0.13912700606691489 0 -0.46496766214243751 -0.13267914300609551 0 -0.4609918274756486 -0.11703287069502 0 -0.45325645410567189 -0.13912700606691489 0 -0.4609918274756486 -0.11703287069502 0 -0.45739356892437671 -0.14039963797192251 0 -0.45325645410567189 -0.13912700606691489 0 -0.46496766214243751 -0.13267914300609551 0 -0.45739356892437671 -0.14039963797192251 0 -0.45325645410567189 -0.13912700606691489 0 -0.47270054646866899 -0.14053914855267299 0 -0.4804959137378213 -0.12629705174394701 0 -0.49999999999999489 -0.1355612327928718 0 -0.46496766214243751 -0.13267914300609551 0 -0.4804959137378213 -0.12629705174394701 0 -0.4609918274756486 -0.11703287069502 0 -0.46496766214243751 -0.13267914300609551 0 -0.47270054646866899 -0.14053914855267299 0 -0.4804959137378213 -0.12629705174394701 0 -0.4804959137378213 -0.12629705174394701 0 -0.49999999999999489 -0.1355612327928718 0 -0.48952413375192211 -0.1209705482846456 0 -0.4804959137378213 -0.12629705174394701 0 -0.49999999999999489 -0.1355612327928718 0 -0.47270054646866899 -0.14053914855267299 0 -0.49999999999999489 -0.1355612327928718 0 -0.47353595388003128 -0.1576260050925781 0 -0.47353595388003128 -0.1576260050925781 0 -0.47761068641084248 -0.1815081296663498 0 -0.45671383511067148 -0.17538946650182519 0 -0.49999999999999489 -0.1355612327928718 0 -0.47353595388003128 -0.1576260050925781 0 -0.47761068641084248 -0.1815081296663498 0 -0.45794226788862419 -0.15345777958820889 0 -0.45671383511067148 -0.17538946650182519 0 -0.44621742249393281 -0.1592322175257869 0 -0.45794226788862419 -0.15345777958820889 0 -0.47353595388003128 -0.1576260050925781 0 -0.45671383511067148 -0.17538946650182519 0 -0.44621742249393281 -0.1592322175257869 0 -0.43917839088219462 -0.1793374289846591 0 -0.43307630155320842 -0.1592948211951567 0 -0.44621742249393281 -0.1592322175257869 0 -0.43917839088219462 -0.1793374289846591 0 -0.45671383511067148 -0.17538946650182519 0 -0.44621742249393281 -0.1592322175257869 0 -0.43917839088219462 -0.1793374289846591 0 -0.45671383511067148 -0.17538946650182519 0 -0.43917839088219462 -0.1793374289846591 0 -0.43899318417766831 -0.19765666492820419 0 -0.5 -0.28594455838845612 0 -0.5 -0.21854333319641181 0 -0.46449094791441381 -0.2433377566233508 0 -0.45671383511067148 -0.17538946650182519 0 -0.43899318417766831 -0.19765666492820419 0 -0.45797401964432582 -0.21054676286003629 0 -0.47761068641084248 -0.1815081296663498 0 -0.45671383511067148 -0.17538946650182519 0 -0.45797401964432582 -0.21054676286003629 0 -0.43072078076369619 -0.21518350204903969 0 -0.43899318417766831 -0.19765666492820419 0 -0.45797401964432582 -0.21054676286003629 0 -0.47761068641084248 -0.1815081296663498 0 -0.45797401964432582 -0.21054676286003629 0 -0.5 -0.21854333319641181 0 -0.45797401964432582 -0.21054676286003629 0 -0.5 -0.21854333319641181 0 -0.46449094791441381 -0.2433377566233508 0 -0.45797401964432582 -0.21054676286003629 0 -0.46449094791441381 -0.2433377566233508 0 -0.43822346061495648 -0.23801048684192611 0 -0.43072078076369619 -0.21518350204903969 0 -0.45797401964432582 -0.21054676286003629 0 -0.43822346061495648 -0.23801048684192611 0 -0.4422929472126545 -0.26199235859238229 0 -0.46449094791441381 -0.2433377566233508 0 -0.43822346061495648 -0.23801048684192611 0 -0.41150961335892028 -0.040596976697111792 0 -0.42227272625315238 -0.05236099152402808 0 -0.42249701146599128 -0.03870670332085166 0 -0.41150961335892028 -0.040596976697111792 0 -0.42249701146599128 -0.03870670332085166 0 -0.41492352546316191 -0.030416581426507529 0 -0.42249701146599128 -0.03870670332085166 0 -0.42439518464367898 -0.025358625704145179 0 -0.41492352546316191 -0.030416581426507529 0 -0.40648035025199669 -0.032519391005830497 0 -0.41150961335892028 -0.040596976697111792 0 -0.41492352546316191 -0.030416581426507529 0 -0.40648035025199669 -0.032519391005830497 0 -0.41150961335892028 -0.040596976697111792 0 -0.40429150670743441 -0.038020105512483332 0 -0.41150961335892028 -0.040596976697111792 0 -0.41187110096897661 -0.049658852643635003 0 -0.40411501859126597 -0.045217207569789947 0 -0.41150961335892028 -0.040596976697111792 0 -0.40411501859126597 -0.045217207569789947 0 -0.40429150670743441 -0.038020105512483332 0 -0.40958704567256721 -0.060460234783610622 0 -0.42227272625315238 -0.05236099152402808 0 -0.42444343576095578 -0.073058008027511737 0 -0.41187110096897661 -0.049658852643635003 0 -0.40958704567256721 -0.060460234783610622 0 -0.40411501859126597 -0.045217207569789947 0 -0.41150961335892028 -0.040596976697111792 0 -0.41187110096897661 -0.049658852643635003 0 -0.42227272625315238 -0.05236099152402808 0 -0.41187110096897661 -0.049658852643635003 0 -0.40958704567256721 -0.060460234783610622 0 -0.42227272625315238 -0.05236099152402808 0 -0.42227272625315238 -0.05236099152402808 0 -0.43724709455810118 -0.061835463204294727 0 -0.43938400761104301 -0.044800341252465722 0 -0.42227272625315238 -0.05236099152402808 0 -0.43724709455810118 -0.061835463204294727 0 -0.42444343576095578 -0.073058008027511737 0 -0.42249701146599128 -0.03870670332085166 0 -0.42439518464367898 -0.025358625704145179 0 -0.43938400761104301 -0.044800341252465722 0 -0.42439518464367898 -0.025358625704145179 0 -0.43938400761104301 -0.044800341252465722 0 -0.43434562343555277 -0.023880679378539701 0 -0.42439518464367898 -0.025358625704145179 0 -0.43938400761104301 -0.044800341252465722 0 -0.42227272625315238 -0.05236099152402808 0 -0.42249701146599128 -0.03870670332085166 0 -0.43938400761104301 -0.044800341252465722 0 -0.43434562343555277 -0.023880679378539701 0 -0.42439518464367898 -0.025358625704145179 0 -0.41435891477952641 -0.0051954118423035728 0 -0.43434562343555277 -0.023880679378539701 0 -0.43682051540353412 -0.01426850615975481 0 -0.44134404119706899 -0.01769739530444427 0 -0.43434562343555277 -0.023880679378539701 0 -0.43682051540353412 -0.01426850615975481 0 -0.42968363616061023 -0.01087514546644147 0 -0.43434562343555277 -0.023880679378539701 0 -0.41435891477952641 -0.0051954118423035728 0 -0.43434562343555277 -0.023880679378539701 0 -0.42451107420172818 -0.0085759914778901387 0 -0.41435891477952641 -0.0051954118423035728 0 -0.43622475355665491 -0.0049987015173346893 0 -0.42968363616061023 -0.01087514546644147 0 -0.42583838960145631 -0.0024653086991814348 0 -0.43622475355665491 -0.0049987015173346893 0 -0.42583838960145631 -0.0024653086991814348 0 -0.43148594715889682 0.0028075617597996621 0 -0.43622475355665491 -0.0049987015173346893 0 -0.43682051540353412 -0.01426850615975481 0 -0.42968363616061023 -0.01087514546644147 0 -0.43434562343555277 -0.023880679378539701 0 -0.42968363616061023 -0.01087514546644147 0 -0.42451107420172818 -0.0085759914778901387 0 -0.42451107420172818 -0.0085759914778901387 0 -0.42583838960145631 -0.0024653086991814348 0 -0.41832880703149561 -0.0004634120029845144 0 -0.42968363616061023 -0.01087514546644147 0 -0.42451107420172818 -0.0085759914778901387 0 -0.42583838960145631 -0.0024653086991814348 0 -0.42439518464367898 -0.025358625704145179 0 -0.41435891477952641 -0.0051954118423035728 0 -0.40940636167631478 -0.0059169101558246371 0 -0.42451107420172818 -0.0085759914778901387 0 -0.41832880703149561 -0.0004634120029845144 0 -0.41435891477952641 -0.0051954118423035728 0 -0.41832880703149561 -0.0004634120029845144 0 -0.41435891477952641 -0.0051954118423035728 0 -0.41246238514309019 0.0014755993293775881 0 -0.40704100428570361 -0.01454374672074845 0 -0.40940636167631478 -0.0059169101558246371 0 -0.41249809214276939 -0.019943848058001239 0 -0.40704100428570361 -0.01454374672074845 0 -0.40940636167631478 -0.0059169101558246371 0 -0.40473861881515599 -0.0095496550718263025 0 -0.42439518464367898 -0.025358625704145179 0 -0.40940636167631478 -0.0059169101558246371 0 -0.42439518464367898 -0.025358625704145179 0 -0.40940636167631478 -0.0059169101558246371 0 -0.41249809214276939 -0.019943848058001239 0 -0.42439518464367898 -0.025358625704145179 0 -0.41492352546316191 -0.030416581426507529 0 -0.41249809214276939 -0.019943848058001239 0 -0.40704100428570361 -0.01454374672074845 0 -0.41249809214276939 -0.019943848058001239 0 -0.40672438464498789 -0.023483376282780421 0 -0.40648035025199669 -0.032519391005830497 0 -0.41492352546316191 -0.030416581426507529 0 -0.40672438464498789 -0.023483376282780421 0 -0.41492352546316191 -0.030416581426507529 0 -0.41249809214276939 -0.019943848058001239 0 -0.40672438464498789 -0.023483376282780421 0 -0.40672438464498789 -0.023483376282780421 0 -0.40095062939734638 -0.02727291915521048 0 -0.39663808486902219 -0.02187858467050666 0 -0.40648035025199669 -0.032519391005830497 0 -0.40672438464498789 -0.023483376282780421 0 -0.40095062939734638 -0.02727291915521048 0 -0.40648035025199669 -0.032519391005830497 0 -0.40095062939734638 -0.02727291915521048 0 -0.40071153129108072 -0.03369004951414608 0 -0.40704100428570361 -0.01454374672074845 0 -0.40672438464498789 -0.023483376282780421 0 -0.39663808486902219 -0.02187858467050666 0 -0.40704100428570361 -0.01454374672074845 0 -0.39663808486902219 -0.02187858467050666 0 -0.39851440323879972 -0.011839250595743931 0 -0.40095062939734638 -0.02727291915521048 0 -0.39663808486902219 -0.02187858467050666 0 -0.39276233290041079 -0.031327782835815443 0 -0.40095062939734638 -0.02727291915521048 0 -0.39276233290041079 -0.031327782835815443 0 -0.40071153129108072 -0.03369004951414608 0 -0.39663808486902219 -0.02187858467050666 0 -0.38639314715524542 -0.024627350132744131 0 -0.39276233290041079 -0.031327782835815443 0 -0.40940636167631478 -0.0059169101558246371 0 -0.40122161262503647 -0.0061944658318964681 0 -0.40473861881515599 -0.0095496550718263025 0 -0.40940636167631478 -0.0059169101558246371 0 -0.40122161262503647 -0.0061944658318964681 0 -0.39747222446939401 0.0021009111280557119 0 -0.40704100428570361 -0.01454374672074845 0 -0.40473861881515599 -0.0095496550718263025 0 -0.39851440323879972 -0.011839250595743931 0 -0.40122161262503647 -0.0061944658318964681 0 -0.40473861881515599 -0.0095496550718263025 0 -0.39851440323879972 -0.011839250595743931 0 -0.39851440323879972 -0.011839250595743931 0 -0.39398168693272601 -0.0039263993304375234 0 -0.38654870617167569 -0.0085941052078327071 0 -0.39663808486902219 -0.02187858467050666 0 -0.39851440323879972 -0.011839250595743931 0 -0.38654870617167569 -0.0085941052078327071 0 -0.40122161262503647 -0.0061944658318964681 0 -0.39398168693272601 -0.0039263993304375234 0 -0.39747222446939401 0.0021009111280557119 0 -0.40122161262503647 -0.0061944658318964681 0 -0.39851440323879972 -0.011839250595743931 0 -0.39398168693272601 -0.0039263993304375234 0 -0.39398168693272601 -0.0039263993304375234 0 -0.38711484779157168 -0.00085187064853555969 0 -0.39224677636555128 0.0018365780215424429 0 -0.39398168693272601 -0.0039263993304375234 0 -0.39224677636555128 0.0018365780215424429 0 -0.39747222446939401 0.0021009111280557119 0 -0.38711484779157168 -0.00085187064853555969 0 -0.38654870617167569 -0.0085941052078327071 0 -0.37744823449314668 -0.002724083045299296 0 -0.39398168693272601 -0.0039263993304375234 0 -0.38711484779157168 -0.00085187064853555969 0 -0.38654870617167569 -0.0085941052078327071 0 -0.38654870617167569 -0.0085941052078327071 0 -0.37676100499808618 -0.01460101658744465 0 -0.37744823449314668 -0.002724083045299296 0 -0.39663808486902219 -0.02187858467050666 0 -0.38654870617167569 -0.0085941052078327071 0 -0.38639314715524542 -0.024627350132744131 0 -0.36677412365980522 -0.024156160899122189 0 -0.38639314715524542 -0.024627350132744131 0 -0.38623758813881492 -0.040660595057655548 0 -0.38654870617167569 -0.0085941052078327071 0 -0.37676100499808618 -0.01460101658744465 0 -0.38639314715524542 -0.024627350132744131 0 -0.36677412365980522 -0.024156160899122189 0 -0.37676100499808618 -0.01460101658744465 0 -0.38639314715524542 -0.024627350132744131 0 -0.38654870617167569 -0.0085941052078327071 0 -0.38639314715524542 -0.024627350132744131 0 -0.36677412365980522 -0.024156160899122189 0 -0.37588013934093267 -0.044923037718606028 0 -0.38623758813881492 -0.040660595057655548 0 -0.36677412365980522 -0.024156160899122189 0 -0.38623758813881492 -0.040660595057655548 0 -0.38639314715524542 -0.024627350132744131 0 -0.38623758813881492 -0.040660595057655548 0 -0.39276233290041079 -0.031327782835815443 0 -0.38639314715524542 -0.024627350132744131 0 -0.38623758813881492 -0.040660595057655548 0 -0.38623758813881492 -0.040660595057655548 0 -0.39276233290041079 -0.031327782835815443 0 -0.3915538000802985 -0.04049303099871325 0 -0.39276233290041079 -0.031327782835815443 0 -0.40071153129108072 -0.03369004951414608 0 -0.39864102004390789 -0.038076902775538303 0 -0.39276233290041079 -0.031327782835815443 0 -0.3915538000802985 -0.04049303099871325 0 -0.39864102004390789 -0.038076902775538303 0 -0.38623758813881492 -0.040660595057655548 0 -0.3915538000802985 -0.04049303099871325 0 -0.39791231690569118 -0.050560414920632943 0 -0.38623758813881492 -0.040660595057655548 0 -0.39791231690569118 -0.050560414920632943 0 -0.3915538000802985 -0.04049303099871325 0 -0.40411501859126597 -0.045217207569789947 0 -0.39864102004390789 -0.038076902775538303 0 -0.40411501859126597 -0.045217207569789947 0 -0.40429150670743441 -0.038020105512483332 0 -0.39864102004390789 -0.038076902775538303 0 -0.40648035025199669 -0.032519391005830497 0 -0.40429150670743441 -0.038020105512483332 0 -0.40071153129108072 -0.03369004951414608 0 -0.40429150670743441 -0.038020105512483332 0 -0.40071153129108072 -0.03369004951414608 0 -0.39864102004390789 -0.038076902775538303 0 -0.40958704567256721 -0.060460234783610622 0 -0.3915538000802985 -0.04049303099871325 0 -0.40411501859126597 -0.045217207569789947 0 -0.40958704567256721 -0.060460234783610622 0 -0.3915538000802985 -0.04049303099871325 0 -0.39791231690569118 -0.050560414920632943 0 -0.40958704567256721 -0.060460234783610622 0 -0.3915538000802985 -0.04049303099871325 0 -0.38623758813881492 -0.040660595057655548 0 -0.39791231690569118 -0.050560414920632943 0 -0.3934903081432608 -0.056821262746563739 0 -0.40958704567256721 -0.060460234783610622 0 -0.39791231690569118 -0.050560414920632943 0 -0.39945125483638089 -0.063011679803123333 0 -0.40958704567256721 -0.060460234783610622 0 -0.39791231690569118 -0.050560414920632943 0 -0.39791231690569118 -0.050560414920632943 0 -0.3934903081432608 -0.056821262746563739 0 -0.39945125483638089 -0.063011679803123333 0 -0.3934903081432608 -0.056821262746563739 0 -0.38900142609889321 -0.063224298992510364 0 -0.39945125483638089 -0.063011679803123333 0 -0.38605849404409931 -0.059119566778389573 0 -0.38900142609889321 -0.063224298992510364 0 -0.38623758813881492 -0.040660595057655548 0 -0.38605849404409931 -0.059119566778389573 0 -0.38623758813881492 -0.040660595057655548 0 -0.3934903081432608 -0.056821262746563739 0 -0.38605849404409931 -0.059119566778389573 0 -0.37588013934093267 -0.044923037718606028 0 -0.38623758813881492 -0.040660595057655548 0 -0.38605849404409931 -0.059119566778389573 0 -0.3934903081432608 -0.056821262746563739 0 -0.38605849404409931 -0.059119566778389573 0 -0.38900142609889321 -0.063224298992510364 0 -0.37499372020549421 -0.057027089463448997 0 -0.37588013934093267 -0.044923037718606028 0 -0.38605849404409931 -0.059119566778389573 0 -0.37588013934093267 -0.044923037718606028 0 -0.38605849404409931 -0.059119566778389573 0 -0.38605849404409931 -0.059119566778389573 0 -0.38584292322064861 -0.08133814266272027 0 -0.38605849404409931 -0.059119566778389573 0 -0.38900142609889321 -0.063224298992510364 0 -0.38584292322064861 -0.08133814266272027 0 -0.38900142609889321 -0.063224298992510364 0 -0.38584292322064861 -0.08133814266272027 0 -0.39378444557865772 -0.070236207300516829 0 -0.37499372020549421 -0.057027089463448997 0 -0.38605849404409931 -0.059119566778389573 0 -0.38584292322064861 -0.08133814266272027 0 -0.37244036742442982 -0.088743793888634237 0 -0.38584292322064861 -0.08133814266272027 0 -0.38570049173017518 -0.096018352297512599 0 -0.38584292322064861 -0.08133814266272027 0 -0.38570049173017518 -0.096018352297512599 0 -0.38584292322064861 -0.08133814266272027 0 -0.4018317847602223 -0.088932638814847365 0 -0.38584292322064861 -0.08133814266272027 0 -0.4018317847602223 -0.088932638814847365 0 -0.40084217815870832 -0.07337070774371332 0 -0.38584292322064861 -0.08133814266272027 0 -0.4018317847602223 -0.088932638814847365 0 -0.38570049173017518 -0.096018352297512599 0 -0.4018317847602223 -0.088932638814847365 0 -0.40084217815870832 -0.07337070774371332 0 -0.41085964688561072 -0.077888367943821563 0 -0.40958704567256721 -0.060460234783610622 0 -0.40084217815870832 -0.07337070774371332 0 -0.39945125483638089 -0.063011679803123333 0 -0.38900142609889321 -0.063224298992510364 0 -0.39945125483638089 -0.063011679803123333 0 -0.39378444557865772 -0.070236207300516829 0 -0.40084217815870832 -0.07337070774371332 0 -0.39945125483638089 -0.063011679803123333 0 -0.39378444557865772 -0.070236207300516829 0 -0.38584292322064861 -0.08133814266272027 0 -0.40084217815870832 -0.07337070774371332 0 -0.39378444557865772 -0.070236207300516829 0 -0.37886590014221699 -0.11624347574354781 0 -0.40054704676148772 -0.12291288670600981 0 -0.38503499283567311 -0.1280556507325977 0 -0.37886590014221699 -0.11624347574354781 0 -0.40054704676148772 -0.12291288670600981 0 -0.37886590014221699 -0.11624347574354781 0 -0.39834327322100671 -0.1063853053552636 0 -0.37886590014221699 -0.11624347574354781 0 -0.38436323854155152 -0.1051210466347902 0 -0.39834327322100671 -0.1063853053552636 0 -0.38436323854155152 -0.1051210466347902 0 -0.38570049173017518 -0.096018352297512599 0 -0.39834327322100671 -0.1063853053552636 0 -0.3745432890728071 -0.1018370531428367 0 -0.37886590014221699 -0.11624347574354781 0 -0.38436323854155152 -0.1051210466347902 0 -0.3745432890728071 -0.1018370531428367 0 -0.38436323854155152 -0.1051210466347902 0 -0.38570049173017518 -0.096018352297512599 0 -0.3745432890728071 -0.1018370531428367 0 -0.37244036742442982 -0.088743793888634237 0 -0.38570049173017518 -0.096018352297512599 0 -0.4018317847602223 -0.088932638814847365 0 -0.39834327322100671 -0.1063853053552636 0 -0.41782064629979498 -0.096527134966976624 0 -0.4018317847602223 -0.088932638814847365 0 -0.38570049173017518 -0.096018352297512599 0 -0.39834327322100671 -0.1063853053552636 0 -0.37886590014221699 -0.11624347574354781 0 -0.39834327322100671 -0.1063853053552636 0 -0.40054704676148772 -0.12291288670600981 0 -0.39834327322100671 -0.1063853053552636 0 -0.40054704676148772 -0.12291288670600981 0 -0.41015842455671392 -0.1101829224109418 0 -0.40054704676148772 -0.12291288670600981 0 -0.41015842455671392 -0.1101829224109418 0 -0.42690175043357981 -0.13101994638646219 0 -0.40054704676148772 -0.12291288670600981 0 -0.41015842455671392 -0.1101829224109418 0 -0.42690175043357981 -0.13101994638646219 0 -0.41015842455671392 -0.1101829224109418 0 -0.42704806340084261 -0.1129127888561683 0 -0.39834327322100671 -0.1063853053552636 0 -0.41782064629979498 -0.096527134966976624 0 -0.39834327322100671 -0.1063853053552636 0 -0.41015842455671392 -0.1101829224109418 0 -0.41782064629979498 -0.096527134966976624 0 -0.41015842455671392 -0.1101829224109418 0 -0.41976980235194022 -0.097452958115873872 0 -0.42704806340084261 -0.1129127888561683 0 -0.41015842455671392 -0.1101829224109418 0 -0.41976980235194022 -0.097452958115873872 0 -0.41015842455671392 -0.1101829224109418 0 -0.41782064629979498 -0.096527134966976624 0 -0.41976980235194022 -0.097452958115873872 0 -0.41976980235194022 -0.097452958115873872 0 -0.42210669528465378 -0.094357817728236398 0 -0.41782064629979498 -0.096527134966976624 0 -0.41976980235194022 -0.097452958115873872 0 -0.42210669528465378 -0.094357817728236398 0 -0.41782064629979498 -0.096527134966976624 0 -0.42210669528465378 -0.094357817728236398 0 -0.41782064629979498 -0.096527134966976624 0 -0.41976980235194022 -0.097452958115873872 0 -0.42210669528465378 -0.094357817728236398 0 -0.44038081491379399 -0.1072429144054477 0 -0.44353558182417863 -0.098049549256699522 0 -0.41976980235194022 -0.097452958115873872 0 -0.44038081491379399 -0.1072429144054477 0 -0.41976980235194022 -0.097452958115873872 0 -0.42210669528465378 -0.094357817728236398 0 -0.44038081491379399 -0.1072429144054477 0 -0.41976980235194022 -0.097452958115873872 0 -0.42704806340084261 -0.1129127888561683 0 -0.44038081491379399 -0.1072429144054477 0 -0.42690175043357981 -0.13101994638646219 0 -0.42704806340084261 -0.1129127888561683 0 -0.44387412092493062 -0.12299702039557731 0 -0.42704806340084261 -0.1129127888561683 0 -0.44387412092493062 -0.12299702039557731 0 -0.44038081491379399 -0.1072429144054477 0 -0.40958704567256721 -0.060460234783610622 0 -0.40084217815870832 -0.07337070774371332 0 -0.41085964688561072 -0.077888367943821563 0 -0.40958704567256721 -0.060460234783610622 0 -0.41085964688561072 -0.077888367943821563 0 -0.4220559760856899 -0.074266383724724938 0 -0.40958704567256721 -0.060460234783610622 0 -0.4220559760856899 -0.074266383724724938 0 -0.42444343576095578 -0.073058008027511737 0 -0.40958704567256721 -0.060460234783610622 0 -0.42444343576095578 -0.073058008027511737 0 -0.40958704567256721 -0.060460234783610622 0 -0.4220559760856899 -0.074266383724724938 0 -0.4018317847602223 -0.088932638814847365 0 -0.41782064629979498 -0.096527134966976624 0 -0.4018317847602223 -0.088932638814847365 0 -0.41085964688561072 -0.077888367943821563 0 -0.41650072673444782 -0.088600531979853958 0 -0.41650072673444782 -0.088600531979853958 0 -0.42357308234445512 -0.09241563469145142 0 -0.4220559760856899 -0.074266383724724938 0 -0.4018317847602223 -0.088932638814847365 0 -0.41782064629979498 -0.096527134966976624 0 -0.41650072673444782 -0.088600531979853958 0 -0.41782064629979498 -0.096527134966976624 0 -0.42210669528465378 -0.094357817728236398 0 -0.41650072673444782 -0.088600531979853958 0 -0.42210669528465378 -0.094357817728236398 0 -0.41650072673444782 -0.088600531979853958 0 -0.42357308234445512 -0.09241563469145142 0 -0.41085964688561072 -0.077888367943821563 0 -0.41650072673444782 -0.088600531979853958 0 -0.4220559760856899 -0.074266383724724938 0 -0.42210669528465378 -0.094357817728236398 0 -0.43452490649881431 -0.088072532665837686 0 -0.44353558182417863 -0.098049549256699522 0 -0.42357308234445512 -0.09241563469145142 0 -0.43452490649881431 -0.088072532665837686 0 -0.4220559760856899 -0.074266383724724938 0 -0.43452490649881431 -0.088072532665837686 0 -0.4220559760856899 -0.074266383724724938 0 -0.43452490649881431 -0.088072532665837686 0 -0.4220559760856899 -0.074266383724724938 0 -0.42444343576095578 -0.073058008027511737 0 -0.42210669528465378 -0.094357817728236398 0 -0.42357308234445512 -0.09241563469145142 0 -0.43452490649881431 -0.088072532665837686 0 -0.42210669528465378 -0.094357817728236398 0 -0.43452490649881431 -0.088072532665837686 0 -0.42210669528465378 -0.094357817728236398 0 -0.42357308234445512 -0.09241563469145142 0 -0.43452490649881431 -0.088072532665837686 0 -0.43929982584934357 -0.08565578127141385 0 -0.43452490649881431 -0.088072532665837686 0 -0.42444343576095578 -0.073058008027511737 0 -0.43929982584934357 -0.08565578127141385 0 -0.42444343576095578 -0.073058008027511737 0 -0.43929982584934357 -0.08565578127141385 0 -0.42444343576095578 -0.073058008027511737 0 -0.43765582149171611 -0.072535673825628283 0 -0.43929982584934357 -0.08565578127141385 0 -0.43724709455810118 -0.061835463204294727 0 -0.42444343576095578 -0.073058008027511737 0 -0.43765582149171611 -0.072535673825628283 0 -0.43724709455810118 -0.061835463204294727 0 -0.44639411468113299 -0.071638670810972388 0 -0.43765582149171611 -0.072535673825628283 0 -0.43724709455810118 -0.061835463204294727 0 -0.44639411468113299 -0.071638670810972388 0 -0.45437283057840722 -0.064242056800786249 0 -0.44639411468113299 -0.071638670810972388 0 -0.44725500092735038 -0.081629392750213095 0 -0.45543982585009052 -0.077950767473939572 0 -0.44639411468113299 -0.071638670810972388 0 -0.45437283057840722 -0.064242056800786249 0 -0.45543982585009052 -0.077950767473939572 0 -0.44639411468113299 -0.071638670810972388 0 -0.43765582149171611 -0.072535673825628283 0 -0.44725500092735038 -0.081629392750213095 0 -0.43929982584934357 -0.08565578127141385 0 -0.44725500092735038 -0.081629392750213095 0 -0.43765582149171611 -0.072535673825628283 0 -0.43929982584934357 -0.08565578127141385 0 -0.44725500092735038 -0.081629392750213095 0 -0.43929982584934357 -0.08565578127141385 0 -0.44933186478509829 -0.087972816784106914 0 -0.44725500092735038 -0.081629392750213095 0 -0.43929982584934357 -0.08565578127141385 0 -0.44353558182417863 -0.098049549256699522 0 -0.45189827843509772 -0.096338891229829235 0 -0.43452490649881431 -0.088072532665837686 0 -0.44353558182417863 -0.098049549256699522 0 -0.43452490649881431 -0.088072532665837686 0 -0.43929982584934357 -0.08565578127141385 0 -0.44353558182417863 -0.098049549256699522 0 -0.43929982584934357 -0.08565578127141385 0 -0.44933186478509829 -0.087972816784106914 0 -0.45189827843509772 -0.096338891229829235 0 -0.43929982584934357 -0.08565578127141385 0 -0.45189827843509772 -0.096338891229829235 0 -0.44933186478509829 -0.087972816784106914 0 -0.44725500092735038 -0.081629392750213095 0 -0.45887435392860099 -0.088267201884971933 0 -0.44725500092735038 -0.081629392750213095 0 -0.45887435392860099 -0.088267201884971933 0 -0.45543982585009052 -0.077950767473939572 0 -0.45887435392860099 -0.088267201884971933 0 -0.46449673102085121 -0.1070220011882452 0 -0.47211037024972963 -0.085275568566332977 0 -0.44933186478509829 -0.087972816784106914 0 -0.45887435392860099 -0.088267201884971933 0 -0.45189827843509772 -0.096338891229829235 0 -0.45887435392860099 -0.088267201884971933 0 -0.4693616535457712 -0.083683772349106733 0 -0.47211037024972963 -0.085275568566332977 0 -0.45887435392860099 -0.088267201884971933 0 -0.45543982585009052 -0.077950767473939572 0 -0.4693616535457712 -0.083683772349106733 0 -0.45437283057840722 -0.064242056800786249 0 -0.4693616535457712 -0.083683772349106733 0 -0.46721585007003152 -0.069839341305210245 0 -0.45437283057840722 -0.064242056800786249 0 -0.4693616535457712 -0.083683772349106733 0 -0.46721585007003152 -0.069839341305210245 0 -0.45437283057840722 -0.064242056800786249 0 -0.45832754774235679 -0.054195773229472402 0 -0.45437283057840722 -0.064242056800786249 0 -0.45543982585009052 -0.077950767473939572 0 -0.4693616535457712 -0.083683772349106733 0 -0.44387412092493062 -0.12299702039557731 0 -0.44038081491379399 -0.1072429144054477 0 -0.4609918274756486 -0.11703287069502 0 -0.44038081491379399 -0.1072429144054477 0 -0.45411165947935628 -0.1071663829878632 0 -0.4609918274756486 -0.11703287069502 0 -0.44038081491379399 -0.1072429144054477 0 -0.4609918274756486 -0.11703287069502 0 -0.44807147942847148 -0.10286563479782811 0 -0.44038081491379399 -0.1072429144054477 0 -0.45411165947935628 -0.1071663829878632 0 -0.44807147942847148 -0.10286563479782811 0 -0.45189827843509772 -0.096338891229829235 0 -0.45411165947935628 -0.1071663829878632 0 -0.44807147942847148 -0.10286563479782811 0 -0.44038081491379399 -0.1072429144054477 0 -0.44353558182417863 -0.098049549256699522 0 -0.44807147942847148 -0.10286563479782811 0 -0.44353558182417863 -0.098049549256699522 0 -0.45189827843509772 -0.096338891229829235 0 -0.46449673102085121 -0.1070220011882452 0 -0.47211037024972963 -0.085275568566332977 0 -0.45887435392860099 -0.088267201884971933 0 -0.45189827843509772 -0.096338891229829235 0 -0.46449673102085121 -0.1070220011882452 0 -0.45189827843509772 -0.096338891229829235 0 -0.46449673102085121 -0.1070220011882452 0 -0.45189827843509772 -0.096338891229829235 0 -0.46449673102085121 -0.1070220011882452 0 -0.45411165947935628 -0.1071663829878632 0 -0.46449673102085121 -0.1070220011882452 0 -0.4609918274756486 -0.11703287069502 0 -0.47975790652389982 -0.1199630203240484 0 -0.46449673102085121 -0.1070220011882452 0 -0.45411165947935628 -0.1071663829878632 0 -0.4609918274756486 -0.11703287069502 0 -0.46449673102085121 -0.1070220011882452 0 -0.4609918274756486 -0.11703287069502 0 -0.4804959137378213 -0.12629705174394701 0 -0.4609918274756486 -0.11703287069502 0 -0.4804959137378213 -0.12629705174394701 0 -0.4609918274756486 -0.11703287069502 0 -0.47975790652389982 -0.1199630203240484 0 -0.4804959137378213 -0.12629705174394701 0 -0.47975790652389982 -0.1199630203240484 0 -0.48952413375192211 -0.1209705482846456 0 -0.46449673102085121 -0.1070220011882452 0 -0.47975790652389982 -0.1199630203240484 0 -0.47911024436285859 -0.1092356213141671 0 -0.46449673102085121 -0.1070220011882452 0 -0.47975790652389982 -0.1199630203240484 0 -0.47975790652389982 -0.1199630203240484 0 -0.47911024436285859 -0.1092356213141671 0 -0.48736684849789491 -0.11193022211946781 0 -0.46449673102085121 -0.1070220011882452 0 -0.47911024436285859 -0.1092356213141671 0 -0.4848194914087891 -0.098027241624907197 0 -0.46449673102085121 -0.1070220011882452 0 -0.4848194914087891 -0.098027241624907197 0 -0.47211037024972963 -0.085275568566332977 0 -0.47911024436285859 -0.1092356213141671 0 -0.4848194914087891 -0.098027241624907197 0 -0.48736684849789491 -0.11193022211946781 0 -0.4848194914087891 -0.098027241624907197 0 -0.5 -0.1111012144428908 0 -0.5 -0.086641196092909656 0 -0.4848194914087891 -0.098027241624907197 0 -0.48736684849789491 -0.11193022211946781 0 -0.5 -0.1111012144428908 0 -0.49999999999999489 -0.1355612327928718 0 -0.5 -0.1111012144428908 0 -0.48952413375192211 -0.1209705482846456 0 -0.48736684849789491 -0.11193022211946781 0 -0.5 -0.1111012144428908 0 -0.48952413375192211 -0.1209705482846456 0 -0.47975790652389982 -0.1199630203240484 0 -0.48736684849789491 -0.11193022211946781 0 -0.48952413375192211 -0.1209705482846456 0 -0.46721585007003152 -0.069839341305210245 0 -0.47972400947860838 -0.063529135944420875 0 -0.47211037024972963 -0.085275568566332977 0 -0.47972400947860838 -0.063529135944420875 0 -0.47211037024972963 -0.085275568566332977 0 -0.47972400947860838 -0.063529135944420875 0 -0.47211037024972963 -0.085275568566332977 0 -0.49063025551841127 -0.074411186917920938 0 -0.46721585007003152 -0.069839341305210245 0 -0.47972400947860838 -0.063529135944420875 0 -0.46830525632696351 -0.055895838338678283 0 -0.46721585007003152 -0.069839341305210245 0 -0.4693616535457712 -0.083683772349106733 0 -0.47211037024972963 -0.085275568566332977 0 -0.4848194914087891 -0.098027241624907197 0 -0.47211037024972963 -0.085275568566332977 0 -0.49063025551841127 -0.074411186917920938 0 -0.4848194914087891 -0.098027241624907197 0 -0.5 -0.086641196092909656 0 -0.49063025551841127 -0.074411186917920938 0 -0.5 -0.086641196092909656 0 -0.49063025551841127 -0.074411186917920938 0 -0.499999999999998 -0.062181177742928667 0 -0.47972400947860838 -0.063529135944420875 0 -0.49063025551841127 -0.074411186917920938 0 -0.499999999999998 -0.062181177742928667 0 -0.499999999999998 -0.062181177742928667 0 -0.48733764870748741 -0.041782703322508823 0 -0.47972400947860838 -0.063529135944420875 0 -0.499999999999998 -0.062181177742928667 0 -0.48733764870748741 -0.041782703322508823 0 -0.499999999999998 -0.062181177742928667 0 -0.5 -0.04017586859957667 0 -0.48733764870748741 -0.041782703322508823 0 -0.5 -0.04017586859957667 0 -0.48733764870748741 -0.041782703322508823 0 -0.49085267797721699 -0.031742912247527538 0 -0.48733764870748741 -0.041782703322508823 0 -0.49085267797721699 -0.031742912247527538 0 -0.48733764870748741 -0.041782703322508823 0 -0.47367277336520802 -0.035378383697717578 0 -0.47264466790280357 -0.01811297673062669 0 -0.48733764870748741 -0.041782703322508823 0 -0.47264858485916511 -0.04496052496223351 0 -0.47367277336520802 -0.035378383697717578 0 -0.47264858485916511 -0.04496052496223351 0 -0.47367277336520802 -0.035378383697717578 0 -0.46707511071837482 -0.039774502026946483 0 -0.47367277336520802 -0.035378383697717578 0 -0.46707511071837482 -0.039774502026946483 0 -0.46681096674437739 -0.030851870459641419 0 -0.47972400947860838 -0.063529135944420875 0 -0.48733764870748741 -0.041782703322508823 0 -0.47264858485916511 -0.04496052496223351 0 -0.47972400947860838 -0.063529135944420875 0 -0.47264858485916511 -0.04496052496223351 0 -0.46830525632696351 -0.055895838338678283 0 -0.47972400947860838 -0.063529135944420875 0 -0.48733764870748741 -0.041782703322508823 0 -0.46721585007003152 -0.069839341305210245 0 -0.46830525632696351 -0.055895838338678283 0 -0.45832754774235679 -0.054195773229472402 0 -0.45832754774235679 -0.054195773229472402 0 -0.45739408262294229 -0.047627376754442667 0 -0.46361028948465588 -0.046954416252054307 0 -0.46830525632696351 -0.055895838338678283 0 -0.45832754774235679 -0.054195773229472402 0 -0.46361028948465588 -0.046954416252054307 0 -0.47264858485916511 -0.04496052496223351 0 -0.46830525632696351 -0.055895838338678283 0 -0.46361028948465588 -0.046954416252054307 0 -0.46361028948465588 -0.046954416252054307 0 -0.46707511071837482 -0.039774502026946483 0 -0.45796884003479371 -0.041739928898562657 0 -0.47264858485916511 -0.04496052496223351 0 -0.46361028948465588 -0.046954416252054307 0 -0.46707511071837482 -0.039774502026946483 0 -0.46707511071837482 -0.039774502026946483 0 -0.45796884003479371 -0.041739928898562657 0 -0.46681096674437739 -0.030851870459641419 0 -0.45505302902757611 -0.033061506121560343 0 -0.45796884003479371 -0.041739928898562657 0 -0.45433233209157908 -0.042565946914775832 0 -0.45739408262294229 -0.047627376754442667 0 -0.46361028948465588 -0.046954416252054307 0 -0.45796884003479371 -0.041739928898562657 0 -0.45739408262294229 -0.047627376754442667 0 -0.45796884003479371 -0.041739928898562657 0 -0.45433233209157908 -0.042565946914775832 0 -0.45739408262294229 -0.047627376754442667 0 -0.45433233209157908 -0.042565946914775832 0 -0.43938400761104301 -0.044800341252465722 0 -0.43434562343555277 -0.023880679378539701 0 -0.45433233209157908 -0.042565946914775832 0 -0.44895143550799321 -0.028777259638466949 0 -0.43434562343555277 -0.023880679378539701 0 -0.45433233209157908 -0.042565946914775832 0 -0.43434562343555277 -0.023880679378539701 0 -0.45433233209157908 -0.042565946914775832 0 -0.43938400761104301 -0.044800341252465722 0 -0.45505302902757611 -0.033061506121560343 0 -0.45433233209157908 -0.042565946914775832 0 -0.44895143550799321 -0.028777259638466949 0 -0.45437283057840722 -0.064242056800786249 0 -0.45832754774235679 -0.054195773229472402 0 -0.43938400761104301 -0.044800341252465722 0 -0.45832754774235679 -0.054195773229472402 0 -0.45739408262294229 -0.047627376754442667 0 -0.43938400761104301 -0.044800341252465722 0 -0.45437283057840722 -0.064242056800786249 0 -0.43938400761104301 -0.044800341252465722 0 -0.43724709455810118 -0.061835463204294727 0 -0.45437283057840722 -0.064242056800786249 0 -0.43938400761104301 -0.044800341252465722 0 -0.44741350942271257 -0.017021061362213909 0 -0.45430515552566142 -0.018074419516373709 0 -0.45434569391027901 -0.0061761300106339626 0 -0.44362023996696348 -0.01092279103134575 0 -0.44741350942271257 -0.017021061362213909 0 -0.45434569391027901 -0.0061761300106339626 0 -0.44539864997285922 -0.0021628660365445411 0 -0.44362023996696348 -0.01092279103134575 0 -0.45434569391027901 -0.0061761300106339626 0 -0.43622475355665491 -0.0049987015173346893 0 -0.44539864997285922 -0.0021628660365445411 0 -0.44362023996696348 -0.01092279103134575 0 -0.43622475355665491 -0.0049987015173346893 0 -0.44539864997285922 -0.0021628660365445411 0 -0.43939345035808453 0.0032490758603283998 0 -0.43622475355665491 -0.0049987015173346893 0 -0.43682051540353412 -0.01426850615975481 0 -0.44362023996696348 -0.01092279103134575 0 -0.44362023996696348 -0.01092279103134575 0 -0.44134404119706899 -0.01769739530444427 0 -0.44741350942271257 -0.017021061362213909 0 -0.43682051540353412 -0.01426850615975481 0 -0.44362023996696348 -0.01092279103134575 0 -0.44134404119706899 -0.01769739530444427 0 -0.43434562343555277 -0.023880679378539701 0 -0.44134404119706899 -0.01769739530444427 0 -0.44452031775658229 -0.022393938590367181 0 -0.44134404119706899 -0.01769739530444427 0 -0.44452031775658229 -0.022393938590367181 0 -0.44741350942271257 -0.017021061362213909 0 -0.43434562343555277 -0.023880679378539701 0 -0.44452031775658229 -0.022393938590367181 0 -0.44895143550799321 -0.028777259638466949 0 -0.44452031775658229 -0.022393938590367181 0 -0.44895143550799321 -0.028777259638466949 0 -0.45161058191799142 -0.022988221058139292 0 -0.44895143550799321 -0.028777259638466949 0 -0.45161058191799142 -0.022988221058139292 0 -0.45384672881867738 -0.027773265767419359 0 -0.45505302902757611 -0.033061506121560343 0 -0.44895143550799321 -0.028777259638466949 0 -0.45384672881867738 -0.027773265767419359 0 -0.44452031775658229 -0.022393938590367181 0 -0.44741350942271257 -0.017021061362213909 0 -0.45161058191799142 -0.022988221058139292 0 -0.44741350942271257 -0.017021061362213909 0 -0.45161058191799142 -0.022988221058139292 0 -0.45430515552566142 -0.018074419516373709 0 -0.45161058191799142 -0.022988221058139292 0 -0.45384672881867738 -0.027773265767419359 0 -0.46151765593888899 -0.01808958316511225 0 -0.45796884003479371 -0.041739928898562657 0 -0.46151765593888899 -0.01808958316511225 0 -0.45161058191799142 -0.022988221058139292 0 -0.45430515552566142 -0.018074419516373709 0 -0.46151765593888899 -0.01808958316511225 0 -0.45505302902757611 -0.033061506121560343 0 -0.45796884003479371 -0.041739928898562657 0 -0.46151765593888899 -0.01808958316511225 0 -0.45796884003479371 -0.041739928898562657 0 -0.46681096674437739 -0.030851870459641419 0 -0.46151765593888899 -0.01808958316511225 0 -0.45430515552566142 -0.018074419516373709 0 -0.46151765593888899 -0.01808958316511225 0 -0.45505302902757611 -0.033061506121560343 0 -0.45384672881867738 -0.027773265767419359 0 -0.46151765593888899 -0.01808958316511225 0 -0.46151765593888899 -0.01808958316511225 0 -0.47264466790280357 -0.01811297673062669 0 -0.46681096674437739 -0.030851870459641419 0 -0.46151765593888899 -0.01808958316511225 0 -0.47264466790280357 -0.01811297673062669 0 -0.46151765593888899 -0.01808958316511225 0 -0.45434569391027901 -0.0061761300106339626 0 -0.4647411693553587 0.0033928517754987582 0 -0.46151765593888899 -0.01808958316511225 0 -0.4651582146850381 -0.0060526396783260189 0 -0.4647411693553587 0.0033928517754987582 0 -0.46151765593888899 -0.01808958316511225 0 -0.4651582146850381 -0.0060526396783260189 0 -0.47264466790280357 -0.01811297673062669 0 -0.46151765593888899 -0.01808958316511225 0 -0.4647411693553587 0.0033928517754987582 0 -0.45430515552566142 -0.018074419516373709 0 -0.46151765593888899 -0.01808958316511225 0 -0.45434569391027901 -0.0061761300106339626 0 -0.47759254546356711 -0.00077167599016167421 0 -0.47264466790280357 -0.01811297673062669 0 -0.50003355294535201 -0.018170559456224721 0 -0.4651582146850381 -0.0060526396783260189 0 -0.47759254546356711 -0.00077167599016167421 0 -0.4647411693553587 0.0033928517754987582 0 -0.4651582146850381 -0.0060526396783260189 0 -0.47759254546356711 -0.00077167599016167421 0 -0.47264466790280357 -0.01811297673062669 0 -0.4651582146850381 -0.0060526396783260189 0 -0.47264466790280357 -0.01811297673062669 0 -0.48733764870748741 -0.041782703322508823 0 -0.47264466790280357 -0.01811297673062669 0 -0.48733764870748741 -0.041782703322508823 0 -0.49085267797721699 -0.031742912247527538 0 -0.47264466790280357 -0.01811297673062669 0 -0.47367277336520802 -0.035378383697717578 0 -0.46681096674437739 -0.030851870459641419 0 -0.47264466790280357 -0.01811297673062669 0 -0.47264466790280357 -0.01811297673062669 0 -0.50003355294535201 -0.018170559456224721 0 -0.49085267797721699 -0.031742912247527538 0 -0.47264466790280357 -0.01811297673062669 0 -0.50003355294535201 -0.018170559456224721 0 -0.5 -0.04017586859957667 0 -0.49085267797721699 -0.031742912247527538 0 -0.50003355294535201 -0.018170559456224721 0 -0.50003355294535201 -0.018170559456224721 0 -0.4905547308183672 0.0030339659022659352 0 -0.50003355294535201 -0.018170559456224721 0 -0.4905547308183672 0.0030339659022659352 0 -0.5 0.011090670742144589 0 -0.47759254546356711 -0.00077167599016167421 0 -0.50003355294535201 -0.018170559456224721 0 -0.4905547308183672 0.0030339659022659352 0 -0.4905547308183672 0.0030339659022659352 0 -0.5 0.011090670742144589 0 -0.48107590869138162 0.024238491260756379 0 -0.4905547308183672 0.0030339659022659352 0 -0.48107590869138162 0.024238491260756379 0 -0.5 0.011090670742144589 0 -0.48107590869138162 0.024238491260756379 0 -0.500000000000001 0.040351900940513892 0 -0.48107590869138162 0.024238491260756379 0 -0.46757383539515118 0.01274179982125192 0 -0.46796468277182862 0.024875286716109699 0 -0.48107590869138162 0.024238491260756379 0 -0.46757383539515118 0.01274179982125192 0 -0.47759254546356711 -0.00077167599016167421 0 -0.4905547308183672 0.0030339659022659352 0 -0.48107590869138162 0.024238491260756379 0 -0.47759254546356711 -0.00077167599016167421 0 -0.48107590869138162 0.024238491260756379 0 -0.46757383539515118 0.01274179982125192 0 -0.47759254546356711 -0.00077167599016167421 0 -0.4647411693553587 0.0033928517754987582 0 -0.46757383539515118 0.01274179982125192 0 -0.49048990023457278 0.050675031769034172 0 -0.500000000000001 0.040351900940513892 0 -0.5 0.064174306300444961 0 -0.48827700876319202 0.060217435392076038 0 -0.49048990023457278 0.050675031769034172 0 -0.5 0.064174306300444961 0 -0.49048990023457278 0.050675031769034172 0 -0.48413550493057173 0.041230774043059928 0 -0.47928065604104658 0.052404277229944153 0 -0.48827700876319202 0.060217435392076038 0 -0.49048990023457278 0.050675031769034172 0 -0.47928065604104658 0.052404277229944153 0 -0.48107590869138162 0.024238491260756379 0 -0.500000000000001 0.040351900940513892 0 -0.48413550493057173 0.041230774043059928 0 -0.48107590869138162 0.024238491260756379 0 -0.500000000000001 0.040351900940513892 0 -0.49048990023457278 0.050675031769034172 0 -0.500000000000001 0.040351900940513892 0 -0.48413550493057173 0.041230774043059928 0 -0.48107590869138162 0.024238491260756379 0 -0.47118819618829738 0.046357721656720807 0 -0.48107590869138162 0.024238491260756379 0 -0.47118819618829738 0.046357721656720807 0 -0.46796468277182862 0.024875286716109699 0 -0.48107590869138162 0.024238491260756379 0 -0.47118819618829738 0.046357721656720807 0 -0.48413550493057173 0.041230774043059928 0 -0.47118819618829738 0.046357721656720807 0 -0.46796468277182862 0.024875286716109699 0 -0.47118819618829738 0.046357721656720807 0 -0.48413550493057173 0.041230774043059928 0 -0.47928065604104658 0.052404277229944153 0 -0.48827700876319202 0.060217435392076038 0 -0.47928065604104658 0.052404277229944153 0 -0.4797354273027547 0.074594636356359406 0 -0.47928065604104658 0.052404277229944153 0 -0.47144979076947302 0.048101064352980193 0 -0.47334817443016519 0.053035542134479197 0 -0.47118819618829738 0.046357721656720807 0 -0.47928065604104658 0.052404277229944153 0 -0.47144979076947302 0.048101064352980193 0 -0.47118819618829738 0.046357721656720807 0 -0.46923309885404918 0.05073135695095507 0 -0.47144979076947302 0.048101064352980193 0 -0.46923309885404918 0.05073135695095507 0 -0.47144979076947302 0.048101064352980193 0 -0.47334817443016519 0.053035542134479197 0 -0.47118819618829738 0.046357721656720807 0 -0.46923309885404918 0.05073135695095507 0 -0.47118819618829738 0.046357721656720807 0 -0.47144979076947302 0.048101064352980193 0 -0.46923309885404918 0.05073135695095507 0 -0.47334817443016519 0.053035542134479197 0 -0.46563774281660331 0.05659017135462794 0 -0.47334817443016519 0.053035542134479197 0 -0.47194333378557402 0.061798583466398098 0 -0.46563774281660331 0.05659017135462794 0 -0.47928065604104658 0.052404277229944153 0 -0.47334817443016519 0.053035542134479197 0 -0.47194333378557402 0.061798583466398098 0 -0.45496164182301579 0.058357230723331072 0 -0.462033864792393 0.044889363451192293 0 -0.45044691508745782 0.040478022596933998 0 -0.45496164182301579 0.058357230723331072 0 -0.46563774281660331 0.05659017135462794 0 -0.46441113346591922 0.069467038344404347 0 -0.46923309885404918 0.05073135695095507 0 -0.46563774281660331 0.05659017135462794 0 -0.462033864792393 0.044889363451192293 0 -0.47118819618829738 0.046357721656720807 0 -0.46923309885404918 0.05073135695095507 0 -0.462033864792393 0.044889363451192293 0 -0.45496164182301579 0.058357230723331072 0 -0.46563774281660331 0.05659017135462794 0 -0.462033864792393 0.044889363451192293 0 -0.462033864792393 0.044889363451192293 0 -0.45044691508745782 0.040478022596933998 0 -0.46796468277182862 0.024875286716109699 0 -0.47118819618829738 0.046357721656720807 0 -0.462033864792393 0.044889363451192293 0 -0.46796468277182862 0.024875286716109699 0 -0.45044691508745782 0.040478022596933998 0 -0.44756782554266561 0.024860898762258669 0 -0.42895755797442192 0.034065464600647341 0 -0.45044691508745782 0.040478022596933998 0 -0.43856649164110573 0.051731076461151083 0 -0.42895755797442192 0.034065464600647341 0 -0.45496164182301579 0.058357230723331072 0 -0.45044691508745782 0.040478022596933998 0 -0.43856649164110573 0.051731076461151083 0 -0.4647411693553587 0.0033928517754987582 0 -0.46796468277182862 0.024875286716109699 0 -0.45074421952395433 0.0087400782126690578 0 -0.4647411693553587 0.0033928517754987582 0 -0.46796468277182862 0.024875286716109699 0 -0.4647411693553587 0.0033928517754987582 0 -0.46757383539515118 0.01274179982125192 0 -0.46796468277182862 0.024875286716109699 0 -0.45434569391027901 -0.0061761300106339626 0 -0.4647411693553587 0.0033928517754987582 0 -0.45074421952395433 0.0087400782126690578 0 -0.46796468277182862 0.024875286716109699 0 -0.44756782554266561 0.024860898762258669 0 -0.45074421952395433 0.0087400782126690578 0 -0.45044691508745782 0.040478022596933998 0 -0.46796468277182862 0.024875286716109699 0 -0.44756782554266561 0.024860898762258669 0 -0.44756782554266561 0.024860898762258669 0 -0.45074421952395433 0.0087400782126690578 0 -0.43446561848242488 0.013494361269869269 0 -0.45074421952395433 0.0087400782126690578 0 -0.43939345035808453 0.0032490758603283998 0 -0.43446561848242488 0.013494361269869269 0 -0.44539864997285922 -0.0021628660365445411 0 -0.45434569391027901 -0.0061761300106339626 0 -0.45074421952395433 0.0087400782126690578 0 -0.44539864997285922 -0.0021628660365445411 0 -0.45074421952395433 0.0087400782126690578 0 -0.43939345035808453 0.0032490758603283998 0 -0.43939345035808453 0.0032490758603283998 0 -0.43148594715889682 0.0028075617597996621 0 -0.43446561848242488 0.013494361269869269 0 -0.43622475355665491 -0.0049987015173346893 0 -0.43939345035808453 0.0032490758603283998 0 -0.43148594715889682 0.0028075617597996621 0 -0.43446561848242488 0.013494361269869269 0 -0.42247704106848522 0.0069057903313201018 0 -0.42154522902345981 0.01932866050324859 0 -0.42583838960145631 -0.0024653086991814348 0 -0.43148594715889682 0.0028075617597996621 0 -0.42247704106848522 0.0069057903313201018 0 -0.42583838960145631 -0.0024653086991814348 0 -0.41832880703149561 -0.0004634120029845144 0 -0.42247704106848522 0.0069057903313201018 0 -0.43148594715889682 0.0028075617597996621 0 -0.43446561848242488 0.013494361269869269 0 -0.42247704106848522 0.0069057903313201018 0 -0.41832880703149561 -0.0004634120029845144 0 -0.42247704106848522 0.0069057903313201018 0 -0.41517733284298303 0.0046490722233908594 0 -0.41832880703149561 -0.0004634120029845144 0 -0.41517733284298303 0.0046490722233908594 0 -0.41246238514309019 0.0014755993293775881 0 -0.42247704106848522 0.0069057903313201018 0 -0.41517733284298303 0.0046490722233908594 0 -0.41566533227754132 0.011384728077646339 0 -0.42247704106848522 0.0069057903313201018 0 -0.41566533227754132 0.011384728077646339 0 -0.42154522902345981 0.01932866050324859 0 -0.41517733284298303 0.0046490722233908594 0 -0.41566533227754132 0.011384728077646339 0 -0.41183396506920411 0.0080009495788197008 0 -0.41566533227754132 0.011384728077646339 0 -0.41183396506920411 0.0080009495788197008 0 -0.41015945042515628 0.01222141704464246 0 -0.41566533227754132 0.011384728077646339 0 -0.41015945042515628 0.01222141704464246 0 -0.41216153142211748 0.01806004823452937 0 -0.41015945042515628 0.01222141704464246 0 -0.4075698620567737 0.016067732186752011 0 -0.41216153142211748 0.01806004823452937 0 -0.41015945042515628 0.01222141704464246 0 -0.4075698620567737 0.016067732186752011 0 -0.40506814753737008 0.011905188299553541 0 -0.41015945042515628 0.01222141704464246 0 -0.40811976614889189 0.0082149657040945078 0 -0.40506814753737008 0.011905188299553541 0 -0.41183396506920411 0.0080009495788197008 0 -0.41015945042515628 0.01222141704464246 0 -0.40811976614889189 0.0082149657040945078 0 -0.41246238514309019 0.0014755993293775881 0 -0.41033005724831589 0.0054794774991625741 0 -0.40399686026169068 0.0072053305506378316 0 -0.40811976614889189 0.0082149657040945078 0 -0.41033005724831589 0.0054794774991625741 0 -0.40399686026169068 0.0072053305506378316 0 -0.41435891477952641 -0.0051954118423035728 0 -0.41246238514309019 0.0014755993293775881 0 -0.40399686026169068 0.0072053305506378316 0 -0.41183396506920411 0.0080009495788197008 0 -0.40811976614889189 0.0082149657040945078 0 -0.41033005724831589 0.0054794774991625741 0 -0.41517733284298303 0.0046490722233908594 0 -0.41246238514309019 0.0014755993293775881 0 -0.41033005724831589 0.0054794774991625741 0 -0.41517733284298303 0.0046490722233908594 0 -0.41183396506920411 0.0080009495788197008 0 -0.41033005724831589 0.0054794774991625741 0 -0.41377011961126459 0.027226639461305931 0 -0.40600416179791488 0.021671931934105201 0 -0.40596884472725492 0.029475256285201021 0 -0.41377011961126459 0.027226639461305931 0 -0.41216153142211748 0.01806004823452937 0 -0.40600416179791488 0.021671931934105201 0 -0.4075698620567737 0.016067732186752011 0 -0.41216153142211748 0.01806004823452937 0 -0.40600416179791488 0.021671931934105201 0 -0.41377011961126459 0.027226639461305931 0 -0.41216153142211748 0.01806004823452937 0 -0.42154522902345981 0.01932866050324859 0 -0.41566533227754132 0.011384728077646339 0 -0.41216153142211748 0.01806004823452937 0 -0.42154522902345981 0.01932866050324859 0 -0.41377011961126459 0.027226639461305931 0 -0.42154522902345981 0.01932866050324859 0 -0.42895755797442192 0.034065464600647341 0 -0.43446561848242488 0.013494361269869269 0 -0.42154522902345981 0.01932866050324859 0 -0.42895755797442192 0.034065464600647341 0 -0.44756782554266561 0.024860898762258669 0 -0.43446561848242488 0.013494361269869269 0 -0.42895755797442192 0.034065464600647341 0 -0.43856649164110573 0.051731076461151083 0 -0.41531371928430427 0.055814069477497771 0 -0.4224950586460825 0.076294538832927972 0 -0.43856649164110573 0.051731076461151083 0 -0.42895755797442192 0.034065464600647341 0 -0.41531371928430427 0.055814069477497771 0 -0.41531371928430427 0.055814069477497771 0 -0.41101534006579787 0.038328752056662613 0 -0.4003822947338338 0.047071023733474403 0 -0.41531371928430427 0.055814069477497771 0 -0.40366562884187529 0.057337969165165738 0 -0.4003822947338338 0.047071023733474403 0 -0.41531371928430427 0.055814069477497771 0 -0.40366562884187529 0.057337969165165738 0 -0.40433041119621921 0.066831561092022818 0 -0.42895755797442192 0.034065464600647341 0 -0.41531371928430427 0.055814069477497771 0 -0.41101534006579787 0.038328752056662613 0 -0.41377011961126459 0.027226639461305931 0 -0.42895755797442192 0.034065464600647341 0 -0.41101534006579787 0.038328752056662613 0 -0.41377011961126459 0.027226639461305931 0 -0.41101534006579787 0.038328752056662613 0 -0.40596884472725492 0.029475256285201021 0 -0.41101534006579787 0.038328752056662613 0 -0.39951905442062352 0.034801461338769192 0 -0.40596884472725492 0.029475256285201021 0 -0.41101534006579787 0.038328752056662613 0 -0.39951905442062352 0.034801461338769192 0 -0.4003822947338338 0.047071023733474403 0 -0.39951905442062352 0.034801461338769192 0 -0.4003822947338338 0.047071023733474403 0 -0.38691698238994471 0.038367409550551908 0 -0.4003822947338338 0.047071023733474403 0 -0.389930246751442 0.049482182042022267 0 -0.38691698238994471 0.038367409550551908 0 -0.39951905442062352 0.034801461338769192 0 -0.38691698238994471 0.038367409550551908 0 -0.39295301096682889 0.030427289110890769 0 -0.40366562884187529 0.057337969165165738 0 -0.39225248420060299 0.059095662362433632 0 -0.40433041119621921 0.066831561092022818 0 -0.40366562884187529 0.057337969165165738 0 -0.4003822947338338 0.047071023733474403 0 -0.39225248420060299 0.059095662362433632 0 -0.4003822947338338 0.047071023733474403 0 -0.39225248420060299 0.059095662362433632 0 -0.389930246751442 0.049482182042022267 0 -0.39225248420060299 0.059095662362433632 0 -0.3801692256813865 0.053394632521629168 0 -0.37328373606952348 0.063834557850238144 0 -0.39225248420060299 0.059095662362433632 0 -0.389930246751442 0.049482182042022267 0 -0.3801692256813865 0.053394632521629168 0 -0.389930246751442 0.049482182042022267 0 -0.3801692256813865 0.053394632521629168 0 -0.38691698238994471 0.038367409550551908 0 -0.38691698238994471 0.038367409550551908 0 -0.38659707847370128 0.029778620400168321 0 -0.39295301096682889 0.030427289110890769 0 -0.3801692256813865 0.053394632521629168 0 -0.38691698238994471 0.038367409550551908 0 -0.37152120592399912 0.045948612193038189 0 -0.38691698238994471 0.038367409550551908 0 -0.38659707847370128 0.029778620400168321 0 -0.37438570565490198 0.03254764286630446 0 -0.38691698238994471 0.038367409550551908 0 -0.37438570565490198 0.03254764286630446 0 -0.37152120592399912 0.045948612193038189 0 -0.38092492143679979 0.024707801467058251 0 -0.38659707847370128 0.029778620400168321 0 -0.37438570565490198 0.03254764286630446 0 -0.38092492143679979 0.024707801467058251 0 -0.37426291356731711 0.019604593194228501 0 -0.37438570565490198 0.03254764286630446 0 -0.38092492143679979 0.024707801467058251 0 -0.38659707847370128 0.029778620400168321 0 -0.38634475718064071 0.023217042336222331 0 -0.38659707847370128 0.029778620400168321 0 -0.38634475718064071 0.023217042336222331 0 -0.39219639180920102 0.023841457629802231 0 -0.38659707847370128 0.029778620400168321 0 -0.39295301096682889 0.030427289110890769 0 -0.39219639180920102 0.023841457629802231 0 -0.38909971479218908 0.01864028022672725 0 -0.38599812631789793 0.01423771347478494 0 -0.39024273528447478 0.015529033290339601 0 -0.38909971479218908 0.01864028022672725 0 -0.39024273528447478 0.015529033290339601 0 -0.39170840985619199 0.01691381309766116 0 -0.38909971479218908 0.01864028022672725 0 -0.38634475718064071 0.023217042336222331 0 -0.39219639180920102 0.023841457629802231 0 -0.38909971479218908 0.01864028022672725 0 -0.38634475718064071 0.023217042336222331 0 -0.38290567939131198 0.019117051957355601 0 -0.38092492143679979 0.024707801467058251 0 -0.38634475718064071 0.023217042336222331 0 -0.38290567939131198 0.019117051957355601 0 -0.38290567939131198 0.019117051957355601 0 -0.37992433702620132 0.014089776600908399 0 -0.38599812631789793 0.01423771347478494 0 -0.38909971479218908 0.01864028022672725 0 -0.38290567939131198 0.019117051957355601 0 -0.38599812631789793 0.01423771347478494 0 -0.38290567939131198 0.019117051957355601 0 -0.37992433702620132 0.014089776600908399 0 -0.37426291356731711 0.019604593194228501 0 -0.38092492143679979 0.024707801467058251 0 -0.38290567939131198 0.019117051957355601 0 -0.37426291356731711 0.019604593194228501 0 -0.37524021904663002 0.0087143672939522434 0 -0.37992433702620132 0.014089776600908399 0 -0.37426291356731711 0.019604593194228501 0 -0.37524021904663002 0.0087143672939522434 0 -0.37992433702620132 0.014089776600908399 0 -0.38329139506234139 0.0099385950700734867 0 -0.37524021904663002 0.0087143672939522434 0 -0.38206243482780089 0.0051219617173589166 0 -0.38329139506234139 0.0099385950700734867 0 -0.37744823449314668 -0.002724083045299296 0 -0.37524021904663002 0.0087143672939522434 0 -0.38206243482780089 0.0051219617173589166 0 -0.38711484779157168 -0.00085187064853555969 0 -0.37744823449314668 -0.002724083045299296 0 -0.38206243482780089 0.0051219617173589166 0 -0.38711484779157168 -0.00085187064853555969 0 -0.38206243482780089 0.0051219617173589166 0 -0.38823931558032571 0.0060780733932094561 0 -0.38206243482780089 0.0051219617173589166 0 -0.38823931558032571 0.0060780733932094561 0 -0.38329139506234139 0.0099385950700734867 0 -0.38711484779157168 -0.00085187064853555969 0 -0.38823931558032571 0.0060780733932094561 0 -0.39224677636555128 0.0018365780215424429 0 -0.37992433702620132 0.014089776600908399 0 -0.38599812631789793 0.01423771347478494 0 -0.38329139506234139 0.0099385950700734867 0 -0.38823931558032571 0.0060780733932094561 0 -0.38329139506234139 0.0099385950700734867 0 -0.38796276748140318 0.010337035393383631 0 -0.38599812631789793 0.01423771347478494 0 -0.38329139506234139 0.0099385950700734867 0 -0.38796276748140318 0.010337035393383631 0 -0.38823931558032571 0.0060780733932094561 0 -0.38796276748140318 0.010337035393383631 0 -0.39104221136743039 0.0091907606471716696 0 -0.38796276748140318 0.010337035393383631 0 -0.39061894051657459 0.011583026571342791 0 -0.38864168875846777 0.01314629152148084 0 -0.38796276748140318 0.010337035393383631 0 -0.39061894051657459 0.011583026571342791 0 -0.39104221136743039 0.0091907606471716696 0 -0.38599812631789793 0.01423771347478494 0 -0.38864168875846777 0.01314629152148084 0 -0.39024273528447478 0.015529033290339601 0 -0.39061894051657459 0.011583026571342791 0 -0.38864168875846777 0.01314629152148084 0 -0.39226711960045157 0.01268405271165049 0 -0.38599812631789793 0.01423771347478494 0 -0.38796276748140318 0.010337035393383631 0 -0.38864168875846777 0.01314629152148084 0 -0.38864168875846777 0.01314629152148084 0 -0.39024273528447478 0.015529033290339601 0 -0.39226711960045157 0.01268405271165049 0 -0.41435891477952641 -0.0051954118423035728 0 -0.39437220612350021 0.01348985569393241 0 -0.40399686026169068 0.0072053305506378316 0 -0.41435891477952641 -0.0051954118423035728 0 -0.40940636167631478 -0.0059169101558246371 0 -0.39437220612350021 0.01348985569393241 0 -0.40940636167631478 -0.0059169101558246371 0 -0.39437220612350021 0.01348985569393241 0 -0.39747222446939401 0.0021009111280557119 0 -0.39024273528447478 0.015529033290339601 0 -0.39239584068841782 0.01466474099830436 0 -0.39226711960045157 0.01268405271165049 0 -0.39437220612350021 0.01348985569393241 0 -0.39404027906460848 0.010016835989986079 0 -0.39747222446939401 0.0021009111280557119 0 -0.40940636167631478 -0.0059169101558246371 0 -0.39437220612350021 0.01348985569393241 0 -0.41435891477952641 -0.0051954118423035728 0 -0.39437220612350021 0.01348985569393241 0 -0.39239584068841782 0.01466474099830436 0 -0.39437220612350021 0.01348985569393241 0 -0.39397537852881492 0.016677582237327421 0 -0.39239584068841782 0.01466474099830436 0 -0.39437220612350021 0.01348985569393241 0 -0.39226711960045157 0.01268405271165049 0 -0.39437220612350021 0.01348985569393241 0 -0.39226711960045157 0.01268405271165049 0 -0.39225742388089452 0.011131310333266481 0 -0.39061894051657459 0.011583026571342791 0 -0.39226711960045157 0.01268405271165049 0 -0.39225742388089452 0.011131310333266481 0 -0.39225742388089452 0.011131310333266481 0 -0.39104221136743039 0.0091907606471716696 0 -0.39404027906460848 0.010016835989986079 0 -0.39104221136743039 0.0091907606471716696 0 -0.39404027906460848 0.010016835989986079 0 -0.39278705288484328 0.0057111625921828797 0 -0.39061894051657459 0.011583026571342791 0 -0.39225742388089452 0.011131310333266481 0 -0.39104221136743039 0.0091907606471716696 0 -0.39437220612350021 0.01348985569393241 0 -0.39225742388089452 0.011131310333266481 0 -0.39404027906460848 0.010016835989986079 0 -0.39782332370594009 0.012354348310747861 0 -0.39618216868694861 0.013567975973024371 0 -0.40067611895035732 0.01444187369730103 0 -0.39618216868694861 0.013567975973024371 0 -0.40067611895035732 0.01444187369730103 0 -0.39761957638996981 0.016410997146622641 0 -0.39437220612350021 0.01348985569393241 0 -0.39397537852881492 0.016677582237327421 0 -0.39761957638996981 0.016410997146622641 0 -0.39437220612350021 0.01348985569393241 0 -0.39618216868694861 0.013567975973024371 0 -0.39761957638996981 0.016410997146622641 0 -0.39437220612350021 0.01348985569393241 0 -0.39782332370594009 0.012354348310747861 0 -0.39618216868694861 0.013567975973024371 0 -0.39404027906460848 0.010016835989986079 0 -0.39278705288484328 0.0057111625921828797 0 -0.39747222446939401 0.0021009111280557119 0 -0.39224677636555128 0.0018365780215424429 0 -0.39278705288484328 0.0057111625921828797 0 -0.39747222446939401 0.0021009111280557119 0 -0.38823931558032571 0.0060780733932094561 0 -0.39104221136743039 0.0091907606471716696 0 -0.39278705288484328 0.0057111625921828797 0 -0.38823931558032571 0.0060780733932094561 0 -0.39224677636555128 0.0018365780215424429 0 -0.39278705288484328 0.0057111625921828797 0 -0.39437220612350021 0.01348985569393241 0 -0.39782332370594009 0.012354348310747861 0 -0.40399686026169068 0.0072053305506378316 0 -0.39782332370594009 0.012354348310747861 0 -0.40067611895035732 0.01444187369730103 0 -0.40184457454747402 0.01129570896552975 0 -0.39782332370594009 0.012354348310747861 0 -0.40399686026169068 0.0072053305506378316 0 -0.40184457454747402 0.01129570896552975 0 -0.40811976614889189 0.0082149657040945078 0 -0.40399686026169068 0.0072053305506378316 0 -0.40506814753737008 0.011905188299553541 0 -0.40399686026169068 0.0072053305506378316 0 -0.40184457454747402 0.01129570896552975 0 -0.40506814753737008 0.011905188299553541 0 -0.4075698620567737 0.016067732186752011 0 -0.40506814753737008 0.011905188299553541 0 -0.40386675969404612 0.01674445759568376 0 -0.40067611895035732 0.01444187369730103 0 -0.40184457454747402 0.01129570896552975 0 -0.40506814753737008 0.011905188299553541 0 -0.40067611895035732 0.01444187369730103 0 -0.40506814753737008 0.011905188299553541 0 -0.40386675969404612 0.01674445759568376 0 -0.40386675969404612 0.01674445759568376 0 -0.40070177709392119 0.01892707856658744 0 -0.40600416179791488 0.021671931934105201 0 -0.4075698620567737 0.016067732186752011 0 -0.40386675969404612 0.01674445759568376 0 -0.40600416179791488 0.021671931934105201 0 -0.40067611895035732 0.01444187369730103 0 -0.40070177709392119 0.01892707856658744 0 -0.39761957638996981 0.016410997146622641 0 -0.40067611895035732 0.01444187369730103 0 -0.40386675969404612 0.01674445759568376 0 -0.40070177709392119 0.01892707856658744 0 -0.40070177709392119 0.01892707856658744 0 -0.40600416179791488 0.021671931934105201 0 -0.39953554774067401 0.02534749663516217 0 -0.40070177709392119 0.01892707856658744 0 -0.39953554774067401 0.02534749663516217 0 -0.39637466669817162 0.019859112376559591 0 -0.40600416179791488 0.021671931934105201 0 -0.40596884472725492 0.029475256285201021 0 -0.39953554774067401 0.02534749663516217 0 -0.39951905442062352 0.034801461338769192 0 -0.40596884472725492 0.029475256285201021 0 -0.39953554774067401 0.02534749663516217 0 -0.39951905442062352 0.034801461338769192 0 -0.39953554774067401 0.02534749663516217 0 -0.39295301096682889 0.030427289110890769 0 -0.39953554774067401 0.02534749663516217 0 -0.39295301096682889 0.030427289110890769 0 -0.39219639180920102 0.023841457629802231 0 -0.39219639180920102 0.023841457629802231 0 -0.39282837998706333 0.019057428735607191 0 -0.39637466669817162 0.019859112376559591 0 -0.38909971479218908 0.01864028022672725 0 -0.39219639180920102 0.023841457629802231 0 -0.39282837998706333 0.019057428735607191 0 -0.38909971479218908 0.01864028022672725 0 -0.39170840985619199 0.01691381309766116 0 -0.39282837998706333 0.019057428735607191 0 -0.39024273528447478 0.015529033290339601 0 -0.39239584068841782 0.01466474099830436 0 -0.39170840985619199 0.01691381309766116 0 -0.39170840985619199 0.01691381309766116 0 -0.39397537852881492 0.016677582237327421 0 -0.39282837998706333 0.019057428735607191 0 -0.39239584068841782 0.01466474099830436 0 -0.39170840985619199 0.01691381309766116 0 -0.39397537852881492 0.016677582237327421 0 -0.39397537852881492 0.016677582237327421 0 -0.39282837998706333 0.019057428735607191 0 -0.39637466669817162 0.019859112376559591 0 -0.39397537852881492 0.016677582237327421 0 -0.39761957638996981 0.016410997146622641 0 -0.39637466669817162 0.019859112376559591 0 -0.40070177709392119 0.01892707856658744 0 -0.39761957638996981 0.016410997146622641 0 -0.39637466669817162 0.019859112376559591 0 -0.39953554774067401 0.02534749663516217 0 -0.39219639180920102 0.023841457629802231 0 -0.39637466669817162 0.019859112376559591 0 -0.40143664215802122 0.1011437627423938 0 -0.39551532249067373 0.1106706111835169 0 -0.38749203317179881 0.10389274227770159 0 -0.40143664215802122 0.1011437627423938 0 -0.38749203317179881 0.10389274227770159 0 -0.39453429053258771 0.0906764288500925 0 -0.40143664215802122 0.1011437627423938 0 -0.39453429053258771 0.0906764288500925 0 -0.40990245977365453 0.090432974886601153 0 -0.40143664215802122 0.1011437627423938 0 -0.40435753411376218 0.1099363331484475 0 -0.41225388613665032 0.1054350322128981 0 -0.40143664215802122 0.1011437627423938 0 -0.40435753411376218 0.1099363331484475 0 -0.39551532249067373 0.1106706111835169 0 -0.40081603658112608 0.1183840137719871 0 -0.40857265521585923 0.1219370921557841 0 -0.38431350924755392 0.12919282426732301 0 -0.40435753411376218 0.1099363331484475 0 -0.40081603658112608 0.1183840137719871 0 -0.40871534617318672 0.1149990397654016 0 -0.40435753411376218 0.1099363331484475 0 -0.40081603658112608 0.1183840137719871 0 -0.39551532249067373 0.1106706111835169 0 -0.40081603658112608 0.1183840137719871 0 -0.39283419694717348 0.1187541387845016 0 -0.38431350924755392 0.12919282426732301 0 -0.40081603658112608 0.1183840137719871 0 -0.40857265521585923 0.1219370921557841 0 -0.40871534617318672 0.1149990397654016 0 -0.39283419694717348 0.1187541387845016 0 -0.39551532249067373 0.1106706111835169 0 -0.38831232127376858 0.114168374465778 0 -0.40081603658112608 0.1183840137719871 0 -0.39283419694717348 0.1187541387845016 0 -0.39551532249067373 0.1106706111835169 0 -0.38831232127376858 0.114168374465778 0 -0.38008246533815893 0.11443262986413499 0 -0.38749203317179881 0.10389274227770159 0 -0.38831232127376858 0.114168374465778 0 -0.38399166508612997 0.1201739008904652 0 -0.38008246533815893 0.11443262986413499 0 -0.39551532249067373 0.1106706111835169 0 -0.38831232127376858 0.114168374465778 0 -0.38749203317179881 0.10389274227770159 0 -0.39283419694717348 0.1187541387845016 0 -0.38399166508612997 0.1201739008904652 0 -0.38431350924755392 0.12919282426732301 0 -0.39283419694717348 0.1187541387845016 0 -0.38831232127376858 0.114168374465778 0 -0.38399166508612997 0.1201739008904652 0 -0.38399166508612997 0.1201739008904652 0 -0.38431350924755392 0.12919282426732301 0 -0.37441583262399492 0.12432153707058841 0 -0.38399166508612997 0.1201739008904652 0 -0.38008246533815893 0.11443262986413499 0 -0.37441583262399492 0.12432153707058841 0 -0.38749203317179881 0.10389274227770159 0 -0.37760997688384201 0.092753610136079218 0 -0.39453429053258771 0.0906764288500925 0 -0.38749203317179881 0.10389274227770159 0 -0.37760997688384201 0.092753610136079218 0 -0.37168120420087369 0.1058309127098148 0 -0.38008246533815893 0.11443262986413499 0 -0.38749203317179881 0.10389274227770159 0 -0.37168120420087369 0.1058309127098148 0 -0.37760997688384201 0.092753610136079218 0 -0.38616964996657549 0.076000950290615474 0 -0.36203172391842547 0.077595673755978728 0 -0.37760997688384201 0.092753610136079218 0 -0.38616964996657549 0.076000950290615474 0 -0.39453429053258771 0.0906764288500925 0 -0.39225248420060299 0.059095662362433632 0 -0.38616964996657549 0.076000950290615474 0 -0.37328373606952348 0.063834557850238144 0 -0.39225248420060299 0.059095662362433632 0 -0.38616964996657549 0.076000950290615474 0 -0.40433041119621921 0.066831561092022818 0 -0.38616964996657549 0.076000950290615474 0 -0.40433041119621921 0.066831561092022818 0 -0.4034863740230239 0.080047290790451989 0 -0.38616964996657549 0.076000950290615474 0 -0.39453429053258771 0.0906764288500925 0 -0.4034863740230239 0.080047290790451989 0 -0.39453429053258771 0.0906764288500925 0 -0.4034863740230239 0.080047290790451989 0 -0.40990245977365453 0.090432974886601153 0 -0.40990245977365453 0.090432974886601153 0 -0.4224950586460825 0.076294538832927972 0 -0.42316144589124621 0.096186553927679413 0 -0.4034863740230239 0.080047290790451989 0 -0.40990245977365453 0.090432974886601153 0 -0.4224950586460825 0.076294538832927972 0 -0.41531371928430427 0.055814069477497771 0 -0.40433041119621921 0.066831561092022818 0 -0.4224950586460825 0.076294538832927972 0 -0.40433041119621921 0.066831561092022818 0 -0.4034863740230239 0.080047290790451989 0 -0.4224950586460825 0.076294538832927972 0 -0.4224950586460825 0.076294538832927972 0 -0.43607938594303558 0.090142133610398384 0 -0.42316144589124621 0.096186553927679413 0 -0.4224950586460825 0.076294538832927972 0 -0.43607938594303558 0.090142133610398384 0 -0.45156691011440758 0.077723447170632745 0 -0.43607938594303558 0.090142133610398384 0 -0.43480469007897538 0.10474513479700551 0 -0.42316144589124621 0.096186553927679413 0 -0.43480469007897538 0.10474513479700551 0 -0.42316144589124621 0.096186553927679413 0 -0.42343319476907892 0.11006950922624539 0 -0.40990245977365453 0.090432974886601153 0 -0.42316144589124621 0.096186553927679413 0 -0.41225388613665032 0.1054350322128981 0 -0.42316144589124621 0.096186553927679413 0 -0.41225388613665032 0.1054350322128981 0 -0.42343319476907892 0.11006950922624539 0 -0.40143664215802122 0.1011437627423938 0 -0.40990245977365453 0.090432974886601153 0 -0.41225388613665032 0.1054350322128981 0 -0.42432354274108502 0.11882617899940261 0 -0.43117917244489068 0.1185279094320864 0 -0.40354630873734559 0.13078676270114989 0 -0.40857265521585923 0.1219370921557841 0 -0.42432354274108502 0.11882617899940261 0 -0.40641824222319761 0.12666613269842841 0 -0.43117917244489068 0.1185279094320864 0 -0.40354630873734559 0.13078676270114989 0 -0.40857265521585923 0.1219370921557841 0 -0.41542732368137519 0.11409574480026451 0 -0.42432354274108502 0.11882617899940261 0 -0.40435753411376218 0.1099363331484475 0 -0.41225388613665032 0.1054350322128981 0 -0.40871534617318672 0.1149990397654016 0 -0.40857265521585923 0.1219370921557841 0 -0.40871534617318672 0.1149990397654016 0 -0.41542732368137519 0.11409574480026451 0 -0.41225388613665032 0.1054350322128981 0 -0.40871534617318672 0.1149990397654016 0 -0.41542732368137519 0.11409574480026451 0 -0.41542732368137519 0.11409574480026451 0 -0.42432354274108502 0.11882617899940261 0 -0.42343319476907892 0.11006950922624539 0 -0.41225388613665032 0.1054350322128981 0 -0.41542732368137519 0.11409574480026451 0 -0.42343319476907892 0.11006950922624539 0 -0.42432354274108502 0.11882617899940261 0 -0.43117917244489068 0.1185279094320864 0 -0.42432354274108502 0.11882617899940261 0 -0.42343319476907892 0.11006950922624539 0 -0.43117917244489068 0.1185279094320864 0 -0.43480469007897538 0.10474513479700551 0 -0.42343319476907892 0.11006950922624539 0 -0.43117917244489068 0.1185279094320864 0 -0.43117917244489068 0.1185279094320864 0 -0.45114305140187511 0.1176593360412083 0 -0.43480469007897538 0.10474513479700551 0 -0.43117917244489068 0.1185279094320864 0 -0.44787325051629939 0.1111218636560988 0 -0.43117917244489068 0.1185279094320864 0 -0.45114305140187511 0.1176593360412083 0 -0.44787325051629939 0.1111218636560988 0 -0.43117917244489068 0.1185279094320864 0 -0.44787325051629939 0.1111218636560988 0 -0.43117917244489068 0.1185279094320864 0 -0.45114305140187511 0.1176593360412083 0 -0.43796763951241641 0.1355271585979492 0 -0.43480469007897538 0.10474513479700551 0 -0.44787325051629939 0.1111218636560988 0 -0.44697831304808527 0.097489679422849404 0 -0.44787325051629939 0.1111218636560988 0 -0.44697831304808527 0.097489679422849404 0 -0.46456732858770972 0.1037158178801145 0 -0.43607938594303558 0.090142133610398384 0 -0.43480469007897538 0.10474513479700551 0 -0.44697831304808527 0.097489679422849404 0 -0.44787325051629939 0.1111218636560988 0 -0.46456732858770972 0.1037158178801145 0 -0.45114305140187511 0.1176593360412083 0 -0.47110693035885948 0.1167907626503298 0 -0.45114305140187511 0.1176593360412083 0 -0.47110693035885948 0.1167907626503298 0 -0.46837162858316311 0.13023378452210521 0 -0.45114305140187511 0.1176593360412083 0 -0.46456732858770972 0.1037158178801145 0 -0.47110693035885948 0.1167907626503298 0 -0.46456732858770972 0.1037158178801145 0 -0.47110693035885948 0.1167907626503298 0 -0.45114305140187511 0.1176593360412083 0 -0.44787325051629939 0.1111218636560988 0 -0.46456732858770972 0.1037158178801145 0 -0.43856649164110573 0.051731076461151083 0 -0.4224950586460825 0.076294538832927972 0 -0.45156691011440758 0.077723447170632745 0 -0.45496164182301579 0.058357230723331072 0 -0.43856649164110573 0.051731076461151083 0 -0.45156691011440758 0.077723447170632745 0 -0.43856649164110573 0.051731076461151083 0 -0.45156691011440758 0.077723447170632745 0 -0.43607938594303558 0.090142133610398384 0 -0.44697831304808527 0.097489679422849404 0 -0.45156691011440758 0.077723447170632745 0 -0.46456732858770972 0.1037158178801145 0 -0.45156691011440758 0.077723447170632745 0 -0.46456732858770972 0.1037158178801145 0 -0.45156691011440758 0.077723447170632745 0 -0.46767324155675177 0.08470956965825871 0 -0.44697831304808527 0.097489679422849404 0 -0.46456732858770972 0.1037158178801145 0 -0.45156691011440758 0.077723447170632745 0 -0.45156691011440758 0.077723447170632745 0 -0.46767324155675177 0.08470956965825871 0 -0.46441113346591922 0.069467038344404347 0 -0.45496164182301579 0.058357230723331072 0 -0.45156691011440758 0.077723447170632745 0 -0.46441113346591922 0.069467038344404347 0 -0.47194333378557402 0.061798583466398098 0 -0.46563774281660331 0.05659017135462794 0 -0.46441113346591922 0.069467038344404347 0 -0.47928065604104658 0.052404277229944153 0 -0.47194333378557402 0.061798583466398098 0 -0.4797354273027547 0.074594636356359406 0 -0.47928065604104658 0.052404277229944153 0 -0.4797354273027547 0.074594636356359406 0 -0.47194333378557402 0.061798583466398098 0 -0.46441113346591922 0.069467038344404347 0 -0.4797354273027547 0.074594636356359406 0 -0.46767324155675177 0.08470956965825871 0 -0.46441113346591922 0.069467038344404347 0 -0.4797354273027547 0.074594636356359406 0 -0.46767324155675177 0.08470956965825871 0 -0.4797354273027547 0.074594636356359406 0 -0.48019019856446421 0.096784995482774611 0 -0.4797354273027547 0.074594636356359406 0 -0.48019019856446421 0.096784995482774611 0 -0.50000000000000633 0.087996711660375981 0 -0.48019019856446421 0.096784995482774611 0 -0.4797354273027547 0.074594636356359406 0 -0.50000000000000633 0.087996711660375981 0 -0.48019019856446421 0.096784995482774611 0 -0.4797354273027547 0.074594636356359406 0 -0.50000000000000633 0.087996711660375981 0 -0.5 0.064174306300444961 0 -0.48827700876319202 0.060217435392076038 0 -0.4797354273027547 0.074594636356359406 0 -0.5 0.064174306300444961 0 -0.48059174154627521 0.1163781046376937 0 -0.47110693035885948 0.1167907626503298 0 -0.48019019856446421 0.096784995482774611 0 -0.48059174154627521 0.1163781046376937 0 -0.47110693035885948 0.1167907626503298 0 -0.48100580331010728 0.13658206212913551 0 -0.48059174154627521 0.1163781046376937 0 -0.47110693035885948 0.1167907626503298 0 -0.46456732858770972 0.1037158178801145 0 -0.47110693035885948 0.1167907626503298 0 -0.48019019856446421 0.096784995482774611 0 -0.48059174154627521 0.1163781046376937 0 -0.48019019856446421 0.096784995482774611 0 -0.46456732858770972 0.1037158178801145 0 -0.46767324155675177 0.08470956965825871 0 -0.48019019856446421 0.096784995482774611 0 -0.46456732858770972 0.1037158178801145 0 -0.48019019856446421 0.096784995482774611 0 -0.50000000000000633 0.087996711660375981 0 -0.48019019856446421 0.096784995482774611 0 -0.50000000000000466 0.1155337047646765 0 -0.48059174154627521 0.1163781046376937 0 -0.48019019856446421 0.096784995482774611 0 -0.50000000000000466 0.1155337047646765 0 -0.48059174154627521 0.1163781046376937 0 -0.50000000000000466 0.1155337047646765 0 -0.49074488044027859 0.12627624693065539 0 -0.48059174154627521 0.1163781046376937 0 -0.50000000000000466 0.1155337047646765 0 -0.48994262120999238 0.13822064821416491 0 -0.49074488044027859 0.12627624693065539 0 -0.5 0.1451969672211382 0 -0.50000000000000466 0.1155337047646765 0 -0.49074488044027859 0.12627624693065539 0 -0.5 0.1451969672211382 0 -0.48994262120999238 0.13822064821416491 0 -0.48100580331010728 0.13658206212913551 0 -0.48436076714625931 0.14328980495489391 0 -0.48994262120999238 0.13822064821416491 0 -0.49074488044027859 0.12627624693065539 0 -0.48100580331010728 0.13658206212913551 0 -0.48059174154627521 0.1163781046376937 0 -0.48100580331010728 0.13658206212913551 0 -0.47110693035885948 0.1167907626503298 0 -0.48100580331010728 0.13658206212913551 0 -0.46837162858316311 0.13023378452210521 0 -0.47110693035885948 0.1167907626503298 0 -0.48100580331010728 0.13658206212913551 0 -0.48059174154627521 0.1163781046376937 0 -0.49074488044027859 0.12627624693065539 0 -0.48100580331010728 0.13658206212913551 0 -0.48100580331010728 0.13658206212913551 0 -0.48436076714625931 0.14328980495489391 0 -0.48100580331010728 0.13658206212913551 0 -0.47407700872325098 0.14119888399505021 0 -0.46837162858316311 0.13023378452210521 0 -0.47407700872325098 0.14119888399505021 0 -0.46837162858316311 0.13023378452210521 0 -0.46490742129359292 0.14410852673753879 0 -0.47011187493795792 0.15384730703055871 0 -0.474289305225288 0.14787193377304311 0 -0.47980121519169228 0.15494130893585789 0 -0.47011187493795792 0.15384730703055871 0 -0.474289305225288 0.14787193377304311 0 -0.46490742129359292 0.14410852673753879 0 -0.47407700872325098 0.14119888399505021 0 -0.474289305225288 0.14787193377304311 0 -0.46490742129359292 0.14410852673753879 0 -0.47407700872325098 0.14119888399505021 0 -0.474289305225288 0.14787193377304311 0 -0.48118914115537881 0.14552794981070949 0 -0.48100580331010728 0.13658206212913551 0 -0.48436076714625931 0.14328980495489391 0 -0.48118914115537881 0.14552794981070949 0 -0.48100580331010728 0.13658206212913551 0 -0.48118914115537881 0.14552794981070949 0 -0.48100580331010728 0.13658206212913551 0 -0.47407700872325098 0.14119888399505021 0 -0.48118914115537881 0.14552794981070949 0 -0.48436076714625931 0.14328980495489391 0 -0.48118914115537881 0.14552794981070949 0 -0.48596778782213013 0.14915203736261601 0 -0.474289305225288 0.14787193377304311 0 -0.48118914115537881 0.14552794981070949 0 -0.47980121519169228 0.15494130893585789 0 -0.48118914115537881 0.14552794981070949 0 -0.47980121519169228 0.15494130893585789 0 -0.48596778782213013 0.14915203736261601 0 -0.47980121519169228 0.15494130893585789 0 -0.49085459801392523 0.15606538242932411 0 -0.48596778782213013 0.14915203736261601 0 -0.49085459801392523 0.15606538242932411 0 -0.48596778782213013 0.14915203736261601 0 -0.4911792067539571 0.14536564222367471 0 -0.48436076714625931 0.14328980495489391 0 -0.48596778782213013 0.14915203736261601 0 -0.4911792067539571 0.14536564222367471 0 -0.48994262120999238 0.13822064821416491 0 -0.48436076714625931 0.14328980495489391 0 -0.4911792067539571 0.14536564222367471 0 -0.48994262120999238 0.13822064821416491 0 -0.4911792067539571 0.14536564222367471 0 -0.5 0.1451969672211382 0 -0.49085459801392523 0.15606538242932411 0 -0.4911792067539571 0.14536564222367471 0 -0.5 0.1451969672211382 0 -0.49085459801392523 0.15606538242932411 0 -0.5 0.1451969672211382 0 -0.5 0.17486022967760009 0 -0.49085459801392523 0.15606538242932411 0 -0.5 0.17486022967760009 0 -0.4842734495563672 0.16569292292817969 0 -0.47980121519169228 0.15494130893585789 0 -0.49085459801392523 0.15606538242932411 0 -0.4842734495563672 0.16569292292817969 0 -0.5 0.17486022967760009 0 -0.48151819312927829 0.1775920096660985 0 -0.4842734495563672 0.16569292292817969 0 -0.5 0.17486022967760009 0 -0.48151819312927829 0.1775920096660985 0 -0.48621660883262491 0.19099142116193071 0 -0.48151819312927829 0.1775920096660985 0 -0.46919324144694041 0.16500568393201809 0 -0.46337387458532708 0.1799285641149628 0 -0.48151819312927829 0.1775920096660985 0 -0.46337387458532708 0.1799285641149628 0 -0.47135895658993282 0.1947570774023932 0 -0.47980121519169228 0.15494130893585789 0 -0.4842734495563672 0.16569292292817969 0 -0.46919324144694041 0.16500568393201809 0 -0.48151819312927829 0.1775920096660985 0 -0.4842734495563672 0.16569292292817969 0 -0.46919324144694041 0.16500568393201809 0 -0.47011187493795792 0.15384730703055871 0 -0.47980121519169228 0.15494130893585789 0 -0.46919324144694041 0.16500568393201809 0 -0.47011187493795792 0.15384730703055871 0 -0.46919324144694041 0.16500568393201809 0 -0.46117960538399372 0.15584284247989899 0 -0.46919324144694041 0.16500568393201809 0 -0.45270483645980991 0.1638461577518269 0 -0.46117960538399372 0.15584284247989899 0 -0.46919324144694041 0.16500568393201809 0 -0.46337387458532708 0.1799285641149628 0 -0.45270483645980991 0.1638461577518269 0 -0.46337387458532708 0.1799285641149628 0 -0.44903378096282542 0.17754281754928339 0 -0.45270483645980991 0.1638461577518269 0 -0.46337387458532708 0.1799285641149628 0 -0.44903378096282542 0.17754281754928339 0 -0.45813144213996632 0.19087796814596891 0 -0.44903378096282542 0.17754281754928339 0 -0.44507907578333061 0.19118744781893379 0 -0.4347531249838551 0.17487394384241539 0 -0.44903378096282542 0.17754281754928339 0 -0.45813144213996632 0.19087796814596891 0 -0.44507907578333061 0.19118744781893379 0 -0.44903378096282542 0.17754281754928339 0 -0.45270483645980991 0.1638461577518269 0 -0.43826729052774138 0.16119813190619811 0 -0.45270483645980991 0.1638461577518269 0 -0.43826729052774138 0.16119813190619811 0 -0.450681269612974 0.14803129722756639 0 -0.44903378096282542 0.17754281754928339 0 -0.43826729052774138 0.16119813190619811 0 -0.4347531249838551 0.17487394384241539 0 -0.43826729052774138 0.16119813190619811 0 -0.43843243957873079 0.14859461884926639 0 -0.450681269612974 0.14803129722756639 0 -0.43843243957873079 0.14859461884926639 0 -0.450681269612974 0.14803129722756639 0 -0.43796763951241641 0.1355271585979492 0 -0.45114305140187511 0.1176593360412083 0 -0.43796763951241641 0.1355271585979492 0 -0.45440046132929868 0.1343074344074352 0 -0.450681269612974 0.14803129722756639 0 -0.43796763951241641 0.1355271585979492 0 -0.45440046132929868 0.1343074344074352 0 -0.45114305140187511 0.1176593360412083 0 -0.45440046132929868 0.1343074344074352 0 -0.46837162858316311 0.13023378452210521 0 -0.45440046132929868 0.1343074344074352 0 -0.46837162858316311 0.13023378452210521 0 -0.46490742129359292 0.14410852673753879 0 -0.45270483645980991 0.1638461577518269 0 -0.450681269612974 0.14803129722756639 0 -0.46117960538399372 0.15584284247989899 0 -0.47011187493795792 0.15384730703055871 0 -0.46490742129359292 0.14410852673753879 0 -0.46117960538399372 0.15584284247989899 0 -0.450681269612974 0.14803129722756639 0 -0.46490742129359292 0.14410852673753879 0 -0.46117960538399372 0.15584284247989899 0 -0.450681269612974 0.14803129722756639 0 -0.45440046132929868 0.1343074344074352 0 -0.46490742129359292 0.14410852673753879 0 -0.48044119393958962 0.2441947675913769 0 -0.4678194004752429 0.2447353426660652 0 -0.47311162244758109 0.25201232219662062 0 -0.47827053313739271 0.2316759407062835 0 -0.4678194004752429 0.2447353426660652 0 -0.47827053313739271 0.2316759407062835 0 -0.47123716620259509 0.23393190699126279 0 -0.4678194004752429 0.2447353426660652 0 -0.48044119393958962 0.2441947675913769 0 -0.47827053313739271 0.2316759407062835 0 -0.4678194004752429 0.2447353426660652 0 -0.48044119393958962 0.2441947675913769 0 -0.4875647887031635 0.2362839868638916 0 -0.47827053313739271 0.2316759407062835 0 -0.48044119393958962 0.2441947675913769 0 -0.4875647887031635 0.2362839868638916 0 -0.49039055063929299 0.25019063880308362 0 -0.5 0.23674204847221289 0 -0.4875647887031635 0.2362839868638916 0 -0.49039055063929299 0.25019063880308362 0 -0.4875647887031635 0.2362839868638916 0 -0.47827053313739271 0.2316759407062835 0 -0.48872166579954218 0.2186165387465015 0 -0.5 0.23674204847221289 0 -0.4875647887031635 0.2362839868638916 0 -0.48872166579954218 0.2186165387465015 0 -0.5 0.23674204847221289 0 -0.48872166579954218 0.2186165387465015 0 -0.49999999999999789 0.20873739748142309 0 -0.47123716620259509 0.23393190699126279 0 -0.48872166579954218 0.2186165387465015 0 -0.47123716620259509 0.23393190699126279 0 -0.48872166579954218 0.2186165387465015 0 -0.46845982041356898 0.21312064432195499 0 -0.47827053313739271 0.2316759407062835 0 -0.48872166579954218 0.2186165387465015 0 -0.47827053313739271 0.2316759407062835 0 -0.47123716620259509 0.23393190699126279 0 -0.48872166579954218 0.2186165387465015 0 -0.48251999979229521 0.2042947858602894 0 -0.47135895658993282 0.1947570774023932 0 -0.46845982041356898 0.21312064432195499 0 -0.48251999979229521 0.2042947858602894 0 -0.48872166579954218 0.2186165387465015 0 -0.46845982041356898 0.21312064432195499 0 -0.48251999979229521 0.2042947858602894 0 -0.48872166579954218 0.2186165387465015 0 -0.49999999999999772 0.2045234921340619 0 -0.48872166579954218 0.2186165387465015 0 -0.49999999999999772 0.2045234921340619 0 -0.48872166579954218 0.2186165387465015 0 -0.49999999999999789 0.20873739748142309 0 -0.48872166579954218 0.2186165387465015 0 -0.49999999999999772 0.2045234921340619 0 -0.49999999999999789 0.20873739748142309 0 -0.48251999979229521 0.2042947858602894 0 -0.49999999999999772 0.2045234921340619 0 -0.48621660883262491 0.19099142116193071 0 -0.5 0.17486022967760009 0 -0.49999999999999772 0.2045234921340619 0 -0.48621660883262491 0.19099142116193071 0 -0.48151819312927829 0.1775920096660985 0 -0.48621660883262491 0.19099142116193071 0 -0.47135895658993282 0.1947570774023932 0 -0.48251999979229521 0.2042947858602894 0 -0.48621660883262491 0.19099142116193071 0 -0.47135895658993282 0.1947570774023932 0 -0.46337387458532708 0.1799285641149628 0 -0.47135895658993282 0.1947570774023932 0 -0.45813144213996632 0.19087796814596891 0 -0.47135895658993282 0.1947570774023932 0 -0.45616119448152159 0.20293189235742129 0 -0.45813144213996632 0.19087796814596891 0 -0.45616119448152159 0.20293189235742129 0 -0.44507907578333061 0.19118744781893379 0 -0.43790629617759508 0.20463875895342601 0 -0.45616119448152159 0.20293189235742129 0 -0.45813144213996632 0.19087796814596891 0 -0.44507907578333061 0.19118744781893379 0 -0.45616119448152159 0.20293189235742129 0 -0.43790629617759508 0.20463875895342601 0 -0.4518485505733974 0.21350748177269219 0 -0.43790629617759508 0.20463875895342601 0 -0.4518485505733974 0.21350748177269219 0 -0.44062710195737231 0.21950515016584879 0 -0.4518485505733974 0.21350748177269219 0 -0.46845982041356898 0.21312064432195499 0 -0.45538621831447401 0.22379539761696191 0 -0.45616119448152159 0.20293189235742129 0 -0.4518485505733974 0.21350748177269219 0 -0.46845982041356898 0.21312064432195499 0 -0.47135895658993282 0.1947570774023932 0 -0.45616119448152159 0.20293189235742129 0 -0.46845982041356898 0.21312064432195499 0 -0.47123716620259509 0.23393190699126279 0 -0.46845982041356898 0.21312064432195499 0 -0.45538621831447401 0.22379539761696191 0 -0.47123716620259509 0.23393190699126279 0 -0.45353672479075913 0.23178561294096409 0 -0.45538621831447401 0.22379539761696191 0 -0.4518485505733974 0.21350748177269219 0 -0.45538621831447401 0.22379539761696191 0 -0.44062710195737231 0.21950515016584879 0 -0.45538621831447401 0.22379539761696191 0 -0.44062710195737231 0.21950515016584879 0 -0.44360297333573639 0.23173852134216039 0 -0.44533901209460858 0.23203395498241411 0 -0.44360297333573639 0.23173852134216039 0 -0.45538621831447401 0.22379539761696191 0 -0.44533901209460858 0.23203395498241411 0 -0.44360297333573639 0.23173852134216039 0 -0.45538621831447401 0.22379539761696191 0 -0.44360297333573639 0.23173852134216039 0 -0.45353672479075913 0.23178561294096409 0 -0.45538621831447401 0.22379539761696191 0 -0.44533901209460858 0.23203395498241411 0 -0.44533901209460858 0.23203395498241411 0 -0.45144030725949058 0.23971462301491159 0 -0.44356314662437668 0.24292459822599469 0 -0.45353672479075913 0.23178561294096409 0 -0.44533901209460858 0.23203395498241411 0 -0.45144030725949058 0.23971462301491159 0 -0.44533901209460858 0.23203395498241411 0 -0.44360297333573639 0.23173852134216039 0 -0.44356314662437668 0.24292459822599469 0 -0.44360297333573639 0.23173852134216039 0 -0.44356314662437668 0.24292459822599469 0 -0.43097575344207523 0.24025057129967251 0 -0.45144030725949058 0.23971462301491159 0 -0.44356314662437668 0.24292459822599469 0 -0.45375266660564839 0.24924727523602441 0 -0.47123716620259509 0.23393190699126279 0 -0.45144030725949058 0.23971462301491159 0 -0.45375266660564839 0.24924727523602441 0 -0.47123716620259509 0.23393190699126279 0 -0.45353672479075913 0.23178561294096409 0 -0.45144030725949058 0.23971462301491159 0 -0.47123716620259509 0.23393190699126279 0 -0.45375266660564839 0.24924727523602441 0 -0.47123716620259509 0.23393190699126279 0 -0.45375266660564839 0.24924727523602441 0 -0.4678194004752429 0.2447353426660652 0 -0.45375266660564839 0.24924727523602441 0 -0.4678194004752429 0.2447353426660652 0 -0.4636578102139311 0.25412052971262689 0 -0.41834853354841411 0.24876262125718501 0 -0.41441873540301022 0.2331000751797985 0 -0.40336563987824853 0.23555196862374411 0 -0.41834853354841411 0.24876262125718501 0 -0.42213062001030438 0.2376621155293927 0 -0.41441873540301022 0.2331000751797985 0 -0.41834853354841411 0.24876262125718501 0 -0.40336563987824853 0.23555196862374411 0 -0.39767435714472738 0.26269915074353378 0 -0.41834853354841411 0.24876262125718501 0 -0.40336563987824853 0.23555196862374411 0 -0.41834853354841411 0.24876262125718501 0 -0.43097575344207523 0.24025057129967251 0 -0.42213062001030438 0.2376621155293927 0 -0.41834853354841411 0.24876262125718501 0 -0.43097575344207523 0.24025057129967251 0 -0.44356314662437668 0.24292459822599469 0 -0.43097575344207523 0.24025057129967251 0 -0.43626816700870152 0.26456264348078568 0 -0.44360297333573639 0.23173852134216039 0 -0.43097575344207523 0.24025057129967251 0 -0.43097575344207523 0.24025057129967251 0 -0.42213062001030438 0.2376621155293927 0 -0.42477945764771791 0.2285351943809146 0 -0.44360297333573639 0.23173852134216039 0 -0.42477945764771791 0.2285351943809146 0 -0.44062710195737231 0.21950515016584879 0 -0.42477945764771791 0.2285351943809146 0 -0.43042397163317592 0.21484521951945831 0 -0.44360297333573639 0.23173852134216039 0 -0.43097575344207523 0.24025057129967251 0 -0.42477945764771791 0.2285351943809146 0 -0.44062710195737231 0.21950515016584879 0 -0.44360297333573639 0.23173852134216039 0 -0.42477945764771791 0.2285351943809146 0 -0.42477945764771791 0.2285351943809146 0 -0.41965457476937229 0.20965216968351769 0 -0.4059559419596997 0.2253318674196674 0 -0.42477945764771791 0.2285351943809146 0 -0.41441873540301022 0.2331000751797985 0 -0.4059559419596997 0.2253318674196674 0 -0.42477945764771791 0.2285351943809146 0 -0.4059559419596997 0.2253318674196674 0 -0.42213062001030438 0.2376621155293927 0 -0.42477945764771791 0.2285351943809146 0 -0.41441873540301022 0.2331000751797985 0 -0.41441873540301022 0.2331000751797985 0 -0.4059559419596997 0.2253318674196674 0 -0.40336563987824853 0.23555196862374411 0 -0.41965457476937229 0.20965216968351769 0 -0.40393982723709371 0.1955624774694861 0 -0.4059559419596997 0.2253318674196674 0 -0.42477945764771791 0.2285351943809146 0 -0.41965457476937229 0.20965216968351769 0 -0.43042397163317592 0.21484521951945831 0 -0.43790629617759508 0.20463875895342601 0 -0.41965457476937229 0.20965216968351769 0 -0.43042397163317592 0.21484521951945831 0 -0.43790629617759508 0.20463875895342601 0 -0.44062710195737231 0.21950515016584879 0 -0.43042397163317592 0.21484521951945831 0 -0.44507907578333061 0.19118744781893379 0 -0.43790629617759508 0.20463875895342601 0 -0.42347734600812958 0.186997916982204 0 -0.43790629617759508 0.20463875895342601 0 -0.41965457476937229 0.20965216968351769 0 -0.42347734600812958 0.186997916982204 0 -0.41965457476937229 0.20965216968351769 0 -0.40393982723709371 0.1955624774694861 0 -0.42347734600812958 0.186997916982204 0 -0.40393982723709371 0.1955624774694861 0 -0.38118159614094987 0.19310371505301599 0 -0.38891764408699142 0.20654979126919421 0 -0.40393982723709371 0.1955624774694861 0 -0.38118159614094987 0.19310371505301599 0 -0.38857831702320311 0.17793580485120669 0 -0.38118159614094987 0.19310371505301599 0 -0.38891764408699142 0.20654979126919421 0 -0.37331740655604068 0.2090579694399505 0 -0.38891764408699142 0.20654979126919421 0 -0.38838274620808172 0.22234131599030471 0 -0.37331740655604068 0.2090579694399505 0 -0.38838274620808172 0.22234131599030471 0 -0.37331740655604068 0.2090579694399505 0 -0.38891764408699142 0.20654979126919421 0 -0.4059559419596997 0.2253318674196674 0 -0.38838274620808172 0.22234131599030471 0 -0.40393982723709371 0.1955624774694861 0 -0.4059559419596997 0.2253318674196674 0 -0.40393982723709371 0.1955624774694861 0 -0.38891764408699142 0.20654979126919421 0 -0.4059559419596997 0.2253318674196674 0 -0.38838274620808172 0.22234131599030471 0 -0.38614743888886771 0.24125964036117761 0 -0.40336563987824853 0.23555196862374411 0 -0.4059559419596997 0.2253318674196674 0 -0.38838274620808172 0.22234131599030471 0 -0.4059559419596997 0.2253318674196674 0 -0.38838274620808172 0.22234131599030471 0 -0.40336563987824853 0.23555196862374411 0 -0.38838274620808172 0.22234131599030471 0 -0.40336563987824853 0.23555196862374411 0 -0.38838274620808172 0.22234131599030471 0 -0.38614743888886771 0.24125964036117761 0 -0.371852193865291 0.23347254170787821 0 -0.38614743888886771 0.24125964036117761 0 -0.371852193865291 0.23347254170787821 0 -0.3694622573479896 0.25223322474042797 0 -0.38614743888886771 0.24125964036117761 0 -0.40336563987824853 0.23555196862374411 0 -0.39767435714472738 0.26269915074353378 0 -0.41179436236041311 0.1426539285414517 0 -0.42672189277009109 0.14808269335674251 0 -0.42273077888135008 0.1631574044952884 0 -0.41179436236041311 0.1426539285414517 0 -0.42224187516503148 0.1351156905258761 0 -0.42672189277009109 0.14808269335674251 0 -0.41179436236041311 0.1426539285414517 0 -0.42224187516503148 0.1351156905258761 0 -0.40354630873734559 0.13078676270114989 0 -0.42432354274108502 0.11882617899940261 0 -0.40641824222319761 0.12666613269842841 0 -0.40354630873734559 0.13078676270114989 0 -0.43117917244489068 0.1185279094320864 0 -0.42224187516503148 0.1351156905258761 0 -0.40354630873734559 0.13078676270114989 0 -0.43117917244489068 0.1185279094320864 0 -0.43796763951241641 0.1355271585979492 0 -0.42224187516503148 0.1351156905258761 0 -0.43796763951241641 0.1355271585979492 0 -0.42224187516503148 0.1351156905258761 0 -0.42672189277009109 0.14808269335674251 0 -0.43843243957873079 0.14859461884926639 0 -0.43796763951241641 0.1355271585979492 0 -0.42672189277009109 0.14808269335674251 0 -0.43826729052774138 0.16119813190619811 0 -0.43843243957873079 0.14859461884926639 0 -0.42672189277009109 0.14808269335674251 0 -0.43826729052774138 0.16119813190619811 0 -0.42273077888135008 0.1631574044952884 0 -0.4347531249838551 0.17487394384241539 0 -0.43826729052774138 0.16119813190619811 0 -0.42672189277009109 0.14808269335674251 0 -0.42273077888135008 0.1631574044952884 0 -0.44507907578333061 0.19118744781893379 0 -0.42347734600812958 0.186997916982204 0 -0.4347531249838551 0.17487394384241539 0 -0.42273077888135008 0.1631574044952884 0 -0.42347734600812958 0.186997916982204 0 -0.4347531249838551 0.17487394384241539 0 -0.42273077888135008 0.1631574044952884 0 -0.42347734600812958 0.186997916982204 0 -0.40192371251448761 0.1657930875193048 0 -0.40393982723709371 0.1955624774694861 0 -0.42347734600812958 0.186997916982204 0 -0.40192371251448761 0.1657930875193048 0 -0.41179436236041311 0.1426539285414517 0 -0.42273077888135008 0.1631574044952884 0 -0.40192371251448761 0.1657930875193048 0 -0.40192371251448761 0.1657930875193048 0 -0.38857831702320311 0.17793580485120669 0 -0.38424540366296478 0.15870588808426239 0 -0.40393982723709371 0.1955624774694861 0 -0.40192371251448761 0.1657930875193048 0 -0.40393982723709371 0.1955624774694861 0 -0.40192371251448761 0.1657930875193048 0 -0.38857831702320311 0.17793580485120669 0 -0.38118159614094987 0.19310371505301599 0 -0.38857831702320311 0.17793580485120669 0 -0.37119564986423909 0.17720326093032479 0 -0.38424540366296478 0.15870588808426239 0 -0.37119564986423909 0.17720326093032479 0 -0.38857831702320311 0.17793580485120669 0 -0.38424540366296478 0.15870588808426239 0 -0.37119564986423909 0.17720326093032479 0 -0.38424540366296478 0.15870588808426239 0 -0.38679875624839682 0.13821653149930341 0 -0.37005120375944739 0.14564630029745571 0 -0.38424540366296478 0.15870588808426239 0 -0.39990759779188162 0.1360236975691235 0 -0.38679875624839682 0.13821653149930341 0 -0.38679875624839682 0.13821653149930341 0 -0.37005120375944739 0.14564630029745571 0 -0.38424540366296478 0.15870588808426239 0 -0.37005120375944739 0.14564630029745571 0 -0.40192371251448761 0.1657930875193048 0 -0.39990759779188162 0.1360236975691235 0 -0.38424540366296478 0.15870588808426239 0 -0.39990759779188162 0.1360236975691235 0 -0.41179436236041311 0.1426539285414517 0 -0.40192371251448761 0.1657930875193048 0 -0.39990759779188162 0.1360236975691235 0 -0.40192371251448761 0.1657930875193048 0 -0.38424540366296478 0.15870588808426239 0 -0.39990759779188162 0.1360236975691235 0 -0.40641824222319761 0.12666613269842841 0 -0.40354630873734559 0.13078676270114989 0 -0.38431350924755392 0.12919282426732301 0 -0.40857265521585923 0.1219370921557841 0 -0.38431350924755392 0.12919282426732301 0 -0.40354630873734559 0.13078676270114989 0 -0.39990759779188162 0.1360236975691235 0 -0.38679875624839682 0.13821653149930341 0 -0.40857265521585923 0.1219370921557841 0 -0.40641824222319761 0.12666613269842841 0 -0.38431350924755392 0.12919282426732301 0 -0.40354630873734559 0.13078676270114989 0 -0.38679875624839682 0.13821653149930341 0 -0.38431350924755392 0.12919282426732301 0 -0.40354630873734559 0.13078676270114989 0 -0.38679875624839682 0.13821653149930341 0 -0.40641824222319761 0.12666613269842841 0 -0.40354630873734559 0.13078676270114989 0 -0.41179436236041311 0.1426539285414517 0 -0.40354630873734559 0.13078676270114989 0 -0.39990759779188162 0.1360236975691235 0 -0.40354630873734559 0.13078676270114989 0 -0.39990759779188162 0.1360236975691235 0 -0.38679875624839682 0.13821653149930341 0 -0.38431350924755392 0.12919282426732301 0 -0.37005120375944739 0.14564630029745571 0 -0.38431350924755392 0.12919282426732301 0 -0.3600543632792485 0.1364485563788618 0 -0.37005120375944739 0.14564630029745571 0 -0.38431350924755392 0.12919282426732301 0 -0.3600543632792485 0.1364485563788618 0 -0.38431350924755392 0.12919282426732301 0 -0.3600543632792485 0.1364485563788618 0 -0.37441583262399492 0.12432153707058841 0 -0.3600543632792485 0.1364485563788618 0 -0.37441583262399492 0.12432153707058841 0 -0.36231237886107021 0.1234446037932188 0 -0.3600543632792485 0.1364485563788618 0 -0.36231237886107021 0.1234446037932188 0 -0.34375662299808379 0.12145357452886529 0 -0.3600543632792485 0.1364485563788618 0 -0.33330286883992483 0.14444973158464389 0 -0.3600543632792485 0.1364485563788618 0 -0.34375662299808379 0.12145357452886529 0 -0.3600543632792485 0.1364485563788618 0 -0.33330286883992483 0.14444973158464389 0 -0.34375662299808379 0.12145357452886529 0 -0.3600543632792485 0.1364485563788618 0 -0.34721502424942668 0.15577718563754281 0 -0.33330286883992483 0.14444973158464389 0 -0.34721502424942668 0.15577718563754281 0 -0.37005120375944739 0.14564630029745571 0 -0.3600543632792485 0.1364485563788618 0 -0.34721502424942668 0.15577718563754281 0 -0.37005120375944739 0.14564630029745571 0 -0.34721502424942668 0.15577718563754281 0 -0.37005120375944739 0.14564630029745571 0 -0.36559879512798932 0.16181969478784269 0 -0.38424540366296478 0.15870588808426239 0 -0.37005120375944739 0.14564630029745571 0 -0.36559879512798932 0.16181969478784269 0 -0.3600543632792485 0.1364485563788618 0 -0.37005120375944739 0.14564630029745571 0 -0.38424540366296478 0.15870588808426239 0 -0.36559879512798932 0.16181969478784269 0 -0.37119564986423909 0.17720326093032479 0 -0.36559879512798932 0.16181969478784269 0 -0.37119564986423909 0.17720326093032479 0 -0.3560626985002262 0.17309352900623859 0 -0.37119564986423909 0.17720326093032479 0 -0.3560626985002262 0.17309352900623859 0 -0.35825206690399858 0.19577462288959721 0 -0.37119564986423909 0.17720326093032479 0 -0.35825206690399858 0.19577462288959721 0 -0.3560626985002262 0.17309352900623859 0 -0.34131545582170092 0.1808413469336026 0 -0.35825206690399858 0.19577462288959721 0 -0.34721502424942668 0.15577718563754281 0 -0.3560626985002262 0.17309352900623859 0 -0.34131545582170092 0.1808413469336026 0 -0.34721502424942668 0.15577718563754281 0 -0.36559879512798932 0.16181969478784269 0 -0.3560626985002262 0.17309352900623859 0 -0.34721502424942668 0.15577718563754281 0 -0.32437884473939849 0.16590807097761351 0 -0.34721502424942668 0.15577718563754281 0 -0.32437884473939849 0.16590807097761351 0 -0.32204307671133492 0.15449318556728081 0 -0.34721502424942668 0.15577718563754281 0 -0.34131545582170092 0.1808413469336026 0 -0.32437884473939849 0.16590807097761351 0 -0.34131545582170092 0.1808413469336026 0 -0.32437884473939849 0.16590807097761351 0 -0.32618799533412418 0.18777374796830279 0 -0.34131545582170092 0.1808413469336026 0 -0.34473550080636739 0.19378830307878861 0 -0.32618799533412418 0.18777374796830279 0 -0.34131545582170092 0.1808413469336026 0 -0.32437884473939849 0.16590807097761351 0 -0.32618799533412418 0.18777374796830279 0 -0.30700979422474978 0.1984651638369081 0 -0.30511296886924621 0.17445505140976439 0 -0.32437884473939849 0.16590807097761351 0 -0.32618799533412418 0.18777374796830279 0 -0.30511296886924621 0.17445505140976439 0 -0.32437884473939849 0.16590807097761351 0 -0.30511296886924621 0.17445505140976439 0 -0.32437884473939849 0.16590807097761351 0 -0.31146803266686612 0.154524405227812 0 -0.30511296886924621 0.17445505140976439 0 -0.32437884473939849 0.16590807097761351 0 -0.31640983694713298 0.1565668099900793 0 -0.32204307671133492 0.15449318556728081 0 -0.32437884473939849 0.16590807097761351 0 -0.31640983694713298 0.1565668099900793 0 -0.31146803266686612 0.154524405227812 0 -0.32437884473939849 0.16590807097761351 0 -0.31146803266686612 0.154524405227812 0 -0.32204307671133492 0.15449318556728081 0 -0.31841576528614229 0.1334833273211441 0 -0.31640983694713298 0.1565668099900793 0 -0.32204307671133492 0.15449318556728081 0 -0.31545927869534268 0.14357558374384891 0 -0.32204307671133492 0.15449318556728081 0 -0.31545927869534268 0.14357558374384891 0 -0.31841576528614229 0.1334833273211441 0 -0.32204307671133492 0.15449318556728081 0 -0.31841576528614229 0.1334833273211441 0 -0.33330286883992483 0.14444973158464389 0 -0.31545927869534268 0.14357558374384891 0 -0.31841576528614229 0.1334833273211441 0 -0.30496843583676098 0.12975901209689131 0 -0.31841576528614229 0.1334833273211441 0 -0.33054626674503379 0.13015498917795831 0 -0.3267098098559843 0.12123332327717989 0 -0.31841576528614229 0.1334833273211441 0 -0.33054626674503379 0.13015498917795831 0 -0.33330286883992483 0.14444973158464389 0 -0.33054626674503379 0.13015498917795831 0 -0.33330286883992483 0.14444973158464389 0 -0.34375662299808379 0.12145357452886529 0 -0.34721502424942668 0.15577718563754281 0 -0.32204307671133492 0.15449318556728081 0 -0.33330286883992483 0.14444973158464389 0 -0.35286962419283269 0.23609019261808381 0 -0.3694622573479896 0.25223322474042797 0 -0.34165023871863548 0.25294654102260028 0 -0.35286962419283269 0.23609019261808381 0 -0.371852193865291 0.23347254170787821 0 -0.3694622573479896 0.25223322474042797 0 -0.35286962419283269 0.23609019261808381 0 -0.371852193865291 0.23347254170787821 0 -0.36147907687567948 0.2177629337817252 0 -0.38838274620808172 0.22234131599030471 0 -0.371852193865291 0.23347254170787821 0 -0.36147907687567948 0.2177629337817252 0 -0.38838274620808172 0.22234131599030471 0 -0.36147907687567948 0.2177629337817252 0 -0.35286962419283269 0.23609019261808381 0 -0.36147907687567948 0.2177629337817252 0 -0.33457540754327758 0.21318455157314509 0 -0.34775121624369448 0.20683536564181729 0 -0.36147907687567948 0.2177629337817252 0 -0.33457540754327758 0.21318455157314509 0 -0.36147907687567948 0.2177629337817252 0 -0.33457540754327758 0.21318455157314509 0 -0.34775121624369448 0.20683536564181729 0 -0.3546090945865446 0.2038385299743298 0 -0.36147907687567948 0.2177629337817252 0 -0.3546090945865446 0.2038385299743298 0 -0.36147907687567948 0.2177629337817252 0 -0.36118965578292439 0.20451196674952199 0 -0.38838274620808172 0.22234131599030471 0 -0.36147907687567948 0.2177629337817252 0 -0.37331740655604068 0.2090579694399505 0 -0.36147907687567948 0.2177629337817252 0 -0.37331740655604068 0.2090579694399505 0 -0.36118965578292439 0.20451196674952199 0 -0.37331740655604068 0.2090579694399505 0 -0.36118965578292439 0.20451196674952199 0 -0.35825206690399858 0.19577462288959721 0 -0.37331740655604068 0.2090579694399505 0 -0.35825206690399858 0.19577462288959721 0 -0.38118159614094987 0.19310371505301599 0 -0.37331740655604068 0.2090579694399505 0 -0.35825206690399858 0.19577462288959721 0 -0.38118159614094987 0.19310371505301599 0 -0.37119564986423909 0.17720326093032479 0 -0.35825206690399858 0.19577462288959721 0 -0.34131545582170092 0.1808413469336026 0 -0.35825206690399858 0.19577462288959721 0 -0.34131545582170092 0.1808413469336026 0 -0.35825206690399858 0.19577462288959721 0 -0.34473550080636739 0.19378830307878861 0 -0.3546090945865446 0.2038385299743298 0 -0.35825206690399858 0.19577462288959721 0 -0.34473550080636739 0.19378830307878861 0 -0.3546090945865446 0.2038385299743298 0 -0.36118965578292439 0.20451196674952199 0 -0.35825206690399858 0.19577462288959721 0 -0.34775121624369448 0.20683536564181729 0 -0.3546090945865446 0.2038385299743298 0 -0.34473550080636739 0.19378830307878861 0 -0.34473550080636739 0.19378830307878861 0 -0.32618799533412418 0.18777374796830279 0 -0.33457540754327758 0.21318455157314509 0 -0.32618799533412418 0.18777374796830279 0 -0.33457540754327758 0.21318455157314509 0 -0.30700979422474978 0.1984651638369081 0 -0.33457540754327758 0.21318455157314509 0 -0.30695526774093912 0.226403260204841 0 -0.30700979422474978 0.1984651638369081 0 -0.34775121624369448 0.20683536564181729 0 -0.34473550080636739 0.19378830307878861 0 -0.33457540754327758 0.21318455157314509 0 -0.35286962419283269 0.23609019261808381 0 -0.33457540754327758 0.21318455157314509 0 -0.33175301095040161 0.23419714454301599 0 -0.33457540754327758 0.21318455157314509 0 -0.33175301095040161 0.23419714454301599 0 -0.30695526774093912 0.226403260204841 0 -0.33175301095040161 0.23419714454301599 0 -0.30695526774093912 0.226403260204841 0 -0.32278850827095751 0.25006775010447602 0 -0.35286962419283269 0.23609019261808381 0 -0.33175301095040161 0.23419714454301599 0 -0.34165023871863548 0.25294654102260028 0 -0.33175301095040161 0.23419714454301599 0 -0.34165023871863548 0.25294654102260028 0 -0.32278850827095751 0.25006775010447602 0 -0.28430592912881081 0.23923246017082489 0 -0.30695526774093912 0.226403260204841 0 -0.30520292760209988 0.25634773778978182 0 -0.30695526774093912 0.226403260204841 0 -0.32278850827095751 0.25006775010447602 0 -0.30520292760209988 0.25634773778978182 0 -0.28430592912881081 0.23923246017082489 0 -0.30695526774093912 0.226403260204841 0 -0.2867682424349336 0.208976136239438 0 -0.30695526774093912 0.226403260204841 0 -0.2867682424349336 0.208976136239438 0 -0.30695526774093912 0.226403260204841 0 -0.2867682424349336 0.208976136239438 0 -0.30700979422474978 0.1984651638369081 0 -0.2867682424349336 0.208976136239438 0 -0.30700979422474978 0.1984651638369081 0 -0.28584709299908723 0.18300203184190039 0 -0.2867682424349336 0.208976136239438 0 -0.26658121712892757 0.19154901227403531 0 -0.28584709299908723 0.18300203184190039 0 -0.2867682424349336 0.208976136239438 0 -0.26658121712892757 0.19154901227403531 0 -0.26658121712892757 0.19154901227403531 0 -0.25906363908136698 0.2090991990882847 0 -0.24241655283030181 0.20226925745268409 0 -0.26658121712892757 0.19154901227403531 0 -0.24241655283030181 0.20226925745268409 0 -0.26658121712892757 0.19154901227403531 0 -0.24241655283030181 0.20226925745268409 0 -0.24533270921762371 0.1881589659560638 0 -0.25906363908136698 0.2090991990882847 0 -0.25658993574280559 0.22669099971176829 0 -0.2409488536013992 0.21868250792619581 0 -0.2867682424349336 0.208976136239438 0 -0.26658121712892757 0.19154901227403531 0 -0.25906363908136698 0.2090991990882847 0 -0.2867682424349336 0.208976136239438 0 -0.25906363908136698 0.2090991990882847 0 -0.26903076664820103 0.22522480631344241 0 -0.28430592912881081 0.23923246017082489 0 -0.2867682424349336 0.208976136239438 0 -0.26903076664820103 0.22522480631344241 0 -0.25906363908136698 0.2090991990882847 0 -0.26903076664820103 0.22522480631344241 0 -0.25658993574280559 0.22669099971176829 0 -0.26903076664820103 0.22522480631344241 0 -0.25658993574280559 0.22669099971176829 0 -0.2645900996779269 0.241021892497989 0 -0.25768378580886803 0.26017067753966372 0 -0.24931631970513429 0.23942659273292949 0 -0.2645900996779269 0.241021892497989 0 -0.25768378580886803 0.26017067753966372 0 -0.24931631970513429 0.23942659273292949 0 -0.25658993574280559 0.22669099971176829 0 -0.2645900996779269 0.241021892497989 0 -0.24931631970513429 0.23942659273292949 0 -0.28430592912881081 0.23923246017082489 0 -0.26903076664820103 0.22522480631344241 0 -0.2645900996779269 0.241021892497989 0 -0.28430592912881081 0.23923246017082489 0 -0.2645900996779269 0.241021892497989 0 -0.27525601128370047 0.25577128989075221 0 -0.2985572205943291 0.14314073947801559 0 -0.27755826782580911 0.14624930764255931 0 -0.28080216710380779 0.1534825875571349 0 -0.2985572205943291 0.14314073947801559 0 -0.28080216710380779 0.1534825875571349 0 -0.2985572205943291 0.14314073947801559 0 -0.2939076317433138 0.16165864117521031 0 -0.28080216710380779 0.1534825875571349 0 -0.28288978460460978 0.1293265151316885 0 -0.2985572205943291 0.14314073947801559 0 -0.28288978460460978 0.1293265151316885 0 -0.2985572205943291 0.14314073947801559 0 -0.27755826782580911 0.14624930764255931 0 -0.28288978460460978 0.1293265151316885 0 -0.29688154734977013 0.1323253882224644 0 -0.2985572205943291 0.14314073947801559 0 -0.28288978460460978 0.1293265151316885 0 -0.29688154734977013 0.1323253882224644 0 -0.29167832247551118 0.1207780377578291 0 -0.29688154734977013 0.1323253882224644 0 -0.3063139732376397 0.1386226366478974 0 -0.2985572205943291 0.14314073947801559 0 -0.29688154734977013 0.1323253882224644 0 -0.30496843583676098 0.12975901209689131 0 -0.3063139732376397 0.1386226366478974 0 -0.29688154734977013 0.1323253882224644 0 -0.30496843583676098 0.12975901209689131 0 -0.29167832247551118 0.1207780377578291 0 -0.31841576528614229 0.1334833273211441 0 -0.30496843583676098 0.12975901209689131 0 -0.30571829013591728 0.1187528323775557 0 -0.2985572205943291 0.14314073947801559 0 -0.31146803266686612 0.154524405227812 0 -0.2939076317433138 0.16165864117521031 0 -0.31640983694713298 0.1565668099900793 0 -0.3063139732376397 0.1386226366478974 0 -0.31146803266686612 0.154524405227812 0 -0.3063139732376397 0.1386226366478974 0 -0.2985572205943291 0.14314073947801559 0 -0.31146803266686612 0.154524405227812 0 -0.31640983694713298 0.1565668099900793 0 -0.30496843583676098 0.12975901209689131 0 -0.3063139732376397 0.1386226366478974 0 -0.31640983694713298 0.1565668099900793 0 -0.30496843583676098 0.12975901209689131 0 -0.31640983694713298 0.1565668099900793 0 -0.31545927869534268 0.14357558374384891 0 -0.30496843583676098 0.12975901209689131 0 -0.3063139732376397 0.1386226366478974 0 -0.2985572205943291 0.14314073947801559 0 -0.2985572205943291 0.14314073947801559 0 -0.31146803266686612 0.154524405227812 0 -0.31146803266686612 0.154524405227812 0 -0.30511296886924621 0.17445505140976439 0 -0.2939076317433138 0.16165864117521031 0 -0.30700979422474978 0.1984651638369081 0 -0.30511296886924621 0.17445505140976439 0 -0.28584709299908723 0.18300203184190039 0 -0.30511296886924621 0.17445505140976439 0 -0.28584709299908723 0.18300203184190039 0 -0.30511296886924621 0.17445505140976439 0 -0.28584709299908723 0.18300203184190039 0 -0.2939076317433138 0.16165864117521031 0 -0.28584709299908723 0.18300203184190039 0 -0.2939076317433138 0.16165864117521031 0 -0.27672771223153481 0.1674942276821402 0 -0.2939076317433138 0.16165864117521031 0 -0.27672771223153481 0.1674942276821402 0 -0.28080216710380779 0.1534825875571349 0 -0.27672771223153481 0.1674942276821402 0 -0.26304711361328531 0.16382443563625221 0 -0.28080216710380779 0.1534825875571349 0 -0.26304711361328531 0.16382443563625221 0 -0.28080216710380779 0.1534825875571349 0 -0.26304711361328531 0.16382443563625221 0 -0.26745848973918501 0.1526885166770828 0 -0.28080216710380779 0.1534825875571349 0 -0.27672771223153481 0.1674942276821402 0 -0.2695176984249914 0.17792114496269659 0 -0.26424955241131992 0.16684024985283971 0 -0.27672771223153481 0.1674942276821402 0 -0.26304711361328531 0.16382443563625221 0 -0.26424955241131992 0.16684024985283971 0 -0.28584709299908723 0.18300203184190039 0 -0.27672771223153481 0.1674942276821402 0 -0.2695176984249914 0.17792114496269659 0 -0.26658121712892757 0.19154901227403531 0 -0.28584709299908723 0.18300203184190039 0 -0.26658121712892757 0.19154901227403531 0 -0.28584709299908723 0.18300203184190039 0 -0.2695176984249914 0.17792114496269659 0 -0.26658121712892757 0.19154901227403531 0 -0.2695176984249914 0.17792114496269659 0 -0.24598086708149211 0.17376507191802079 0 -0.26658121712892757 0.19154901227403531 0 -0.24598086708149211 0.17376507191802079 0 -0.24533270921762371 0.1881589659560638 0 -0.26658121712892757 0.19154901227403531 0 -0.24598086708149211 0.17376507191802079 0 -0.2695176984249914 0.17792114496269659 0 -0.26424955241131992 0.16684024985283971 0 -0.24598086708149211 0.17376507191802079 0 -0.26304711361328531 0.16382443563625221 0 -0.26424955241131992 0.16684024985283971 0 -0.24598086708149211 0.17376507191802079 0 -0.26304711361328531 0.16382443563625221 0 -0.24598086708149211 0.17376507191802079 0 -0.26304711361328531 0.16382443563625221 0 -0.24230168277068409 0.1592505047815353 0 -0.24598086708149211 0.17376507191802079 0 -0.26304711361328531 0.16382443563625221 0 -0.25659529134633818 0.147642741110633 0 -0.24230168277068409 0.1592505047815353 0 -0.26304711361328531 0.16382443563625221 0 -0.26424955241131992 0.16684024985283971 0 -0.26304711361328531 0.16382443563625221 0 -0.25659529134633818 0.147642741110633 0 -0.26745848973918501 0.1526885166770828 0 -0.26304711361328531 0.16382443563625221 0 -0.25659529134633818 0.147642741110633 0 -0.25659529134633818 0.147642741110633 0 -0.26745848973918501 0.1526885166770828 0 -0.27755826782580911 0.14624930764255931 0 -0.25659529134633818 0.147642741110633 0 -0.27755826782580911 0.14624930764255931 0 -0.26531695536165723 0.13197607751873891 0 -0.25659529134633818 0.147642741110633 0 -0.27755826782580911 0.14624930764255931 0 -0.26745848973918501 0.1526885166770828 0 -0.27755826782580911 0.14624930764255931 0 -0.28080216710380779 0.1534825875571349 0 -0.28288978460460978 0.1293265151316885 0 -0.26531695536165723 0.13197607751873891 0 -0.26722234861489053 0.1155122907853614 0 -0.28288978460460978 0.1293265151316885 0 -0.27755826782580911 0.14624930764255931 0 -0.26531695536165723 0.13197607751873891 0 -0.25659529134633818 0.147642741110633 0 -0.26531695536165723 0.13197607751873891 0 -0.25097174827458302 0.1335384381131707 0 -0.25659529134633818 0.147642741110633 0 -0.25097174827458302 0.1335384381131707 0 -0.25097174827458302 0.1335384381131707 0 -0.25569822683886212 0.1222362376235528 0 -0.24534820520282771 0.1194341351157084 0 -0.26531695536165723 0.13197607751873891 0 -0.25097174827458302 0.1335384381131707 0 -0.25569822683886212 0.1222362376235528 0 -0.26531695536165723 0.13197607751873891 0 -0.25569822683886212 0.1222362376235528 0 -0.26722234861489053 0.1155122907853614 0 -0.25569822683886212 0.1222362376235528 0 -0.2496318767403515 0.1107202465847851 0 -0.24534820520282771 0.1194341351157084 0 -0.25569822683886212 0.1222362376235528 0 -0.26722234861489053 0.1155122907853614 0 -0.2496318767403515 0.1107202465847851 0 -0.25155491262517238 0.10169806643903311 0 -0.26722234861489053 0.1155122907853614 0 -0.2496318767403515 0.1107202465847851 0 -0.25155491262517238 0.10169806643903311 0 -0.26722234861489053 0.1155122907853614 0 -0.25155491262517238 0.10169806643903311 0 -0.26634360107005789 0.099805930881343166 0 -0.26722234861489053 0.1155122907853614 0 -0.25329619782595358 0.099198295200388212 0 -0.25155491262517238 0.10169806643903311 0 -0.26634360107005789 0.099805930881343166 0 -0.25329619782595358 0.099198295200388212 0 -0.25155491262517238 0.10169806643903311 0 -0.24893571653906521 0.091804982588433129 0 -0.25329619782595358 0.099198295200388212 0 -0.25782585192372243 0.091252560513962161 0 -0.24893571653906521 0.091804982588433129 0 -0.25329619782595358 0.099198295200388212 0 -0.25155491262517238 0.10169806643903311 0 -0.25329619782595358 0.099198295200388212 0 -0.26634360107005789 0.099805930881343166 0 -0.25782585192372243 0.091252560513962161 0 -0.26634360107005789 0.099805930881343166 0 -0.27855557498345651 0.108287160038682 0 -0.2884764710049933 0.1009885759638675 0 -0.26634360107005789 0.099805930881343166 0 -0.2884764710049933 0.1009885759638675 0 -0.26701466968858462 0.084500123265948177 0 -0.26634360107005789 0.099805930881343166 0 -0.27855557498345651 0.108287160038682 0 -0.26722234861489053 0.1155122907853614 0 -0.28288978460460978 0.1293265151316885 0 -0.26722234861489053 0.1155122907853614 0 -0.28220924442588791 0.1167886578784981 0 -0.28288978460460978 0.1293265151316885 0 -0.26722234861489053 0.1155122907853614 0 -0.27855557498345651 0.108287160038682 0 -0.26722234861489053 0.1155122907853614 0 -0.28220924442588791 0.1167886578784981 0 -0.28288978460460978 0.1293265151316885 0 -0.29167832247551118 0.1207780377578291 0 -0.28220924442588791 0.1167886578784981 0 -0.30496843583676098 0.12975901209689131 0 -0.29167832247551118 0.1207780377578291 0 -0.29352703472638891 0.102951214203703 0 -0.29167832247551118 0.1207780377578291 0 -0.28736006173728751 0.1106613528591593 0 -0.29352703472638891 0.102951214203703 0 -0.27855557498345651 0.108287160038682 0 -0.28736006173728751 0.1106613528591593 0 -0.28220924442588791 0.1167886578784981 0 -0.29167832247551118 0.1207780377578291 0 -0.28736006173728751 0.1106613528591593 0 -0.28220924442588791 0.1167886578784981 0 -0.29659445078205432 0.094887107255408276 0 -0.29352703472638891 0.102951214203703 0 -0.2918407801023542 0.086392299990288676 0 -0.27855557498345651 0.108287160038682 0 -0.28736006173728751 0.1106613528591593 0 -0.2884764710049933 0.1009885759638675 0 -0.29659445078205432 0.094887107255408276 0 -0.29352703472638891 0.102951214203703 0 -0.29850146116329213 0.10015142166244929 0 -0.28736006173728751 0.1106613528591593 0 -0.2884764710049933 0.1009885759638675 0 -0.29352703472638891 0.102951214203703 0 -0.29352703472638891 0.102951214203703 0 -0.30121730475368003 0.10613246526023749 0 -0.30571829013591728 0.1187528323775557 0 -0.30682315092912621 0.1002075777678515 0 -0.31116114243575549 0.091463610828870973 0 -0.31478845386094972 0.1124734690750074 0 -0.29352703472638891 0.102951214203703 0 -0.30121730475368003 0.10613246526023749 0 -0.29850146116329213 0.10015142166244929 0 -0.30121730475368003 0.10613246526023749 0 -0.29850146116329213 0.10015142166244929 0 -0.30268296053282201 0.1015654060225432 0 -0.30121730475368003 0.10613246526023749 0 -0.30268296053282201 0.1015654060225432 0 -0.30595965897422361 0.1072755232798811 0 -0.3011422398375258 0.096099316896088138 0 -0.30682315092912621 0.1002075777678515 0 -0.30520444993348061 0.092368140504718269 0 -0.29659445078205432 0.094887107255408276 0 -0.29850146116329213 0.10015142166244929 0 -0.3011422398375258 0.096099316896088138 0 -0.29850146116329213 0.10015142166244929 0 -0.30268296053282201 0.1015654060225432 0 -0.3011422398375258 0.096099316896088138 0 -0.30268296053282201 0.1015654060225432 0 -0.3011422398375258 0.096099316896088138 0 -0.30682315092912621 0.1002075777678515 0 -0.30682315092912621 0.1002075777678515 0 -0.31116114243575549 0.091463610828870973 0 -0.30520444993348061 0.092368140504718269 0 -0.30682315092912621 0.1002075777678515 0 -0.30595965897422361 0.1072755232798811 0 -0.31478845386094972 0.1124734690750074 0 -0.30268296053282201 0.1015654060225432 0 -0.30682315092912621 0.1002075777678515 0 -0.30595965897422361 0.1072755232798811 0 -0.30496843583676098 0.12975901209689131 0 -0.29352703472638891 0.102951214203703 0 -0.30571829013591728 0.1187528323775557 0 -0.30595965897422361 0.1072755232798811 0 -0.30571829013591728 0.1187528323775557 0 -0.31478845386094972 0.1124734690750074 0 -0.30496843583676098 0.12975901209689131 0 -0.29352703472638891 0.102951214203703 0 -0.30121730475368003 0.10613246526023749 0 -0.30595965897422361 0.1072755232798811 0 -0.30571829013591728 0.1187528323775557 0 -0.30678740908947549 0.066130380002985156 0 -0.29691699730577809 0.078010845233770512 0 -0.29060962576468452 0.067805208448598275 0 -0.30678740908947549 0.066130380002985156 0 -0.29691699730577809 0.078010845233770512 0 -0.30598666700710342 0.086702756636985387 0 -0.30678740908947549 0.066130380002985156 0 -0.31116114243575549 0.091463610828870973 0 -0.30678740908947549 0.066130380002985156 0 -0.31116114243575549 0.091463610828870973 0 -0.30598666700710342 0.086702756636985387 0 -0.30678740908947549 0.066130380002985156 0 -0.31116114243575549 0.091463610828870973 0 -0.31766870603388891 0.08119370201835098 0 -0.31116114243575549 0.091463610828870973 0 -0.30598666700710342 0.086702756636985387 0 -0.31116114243575549 0.091463610828870973 0 -0.30598666700710342 0.086702756636985387 0 -0.30520444993348061 0.092368140504718269 0 -0.3011422398375258 0.096099316896088138 0 -0.30520444993348061 0.092368140504718269 0 -0.2988512515636037 0.089394050462785452 0 -0.30598666700710342 0.086702756636985387 0 -0.30520444993348061 0.092368140504718269 0 -0.2988512515636037 0.089394050462785452 0 -0.29659445078205432 0.094887107255408276 0 -0.3011422398375258 0.096099316896088138 0 -0.2988512515636037 0.089394050462785452 0 -0.29691699730577809 0.078010845233770512 0 -0.30598666700710342 0.086702756636985387 0 -0.2988512515636037 0.089394050462785452 0 -0.29691699730577809 0.078010845233770512 0 -0.2988512515636037 0.089394050462785452 0 -0.2918407801023542 0.086392299990288676 0 -0.29352703472638891 0.102951214203703 0 -0.2820856336160168 0.076143416310514744 0 -0.29352703472638891 0.102951214203703 0 -0.2918407801023542 0.086392299990288676 0 -0.2820856336160168 0.076143416310514744 0 -0.2884764710049933 0.1009885759638675 0 -0.29352703472638891 0.102951214203703 0 -0.2820856336160168 0.076143416310514744 0 -0.29691699730577809 0.078010845233770512 0 -0.2918407801023542 0.086392299990288676 0 -0.2820856336160168 0.076143416310514744 0 -0.29659445078205432 0.094887107255408276 0 -0.2988512515636037 0.089394050462785452 0 -0.2918407801023542 0.086392299990288676 0 -0.30678740908947549 0.066130380002985156 0 -0.29060962576468452 0.067805208448598275 0 -0.29058437031710849 0.054861654399669009 0 -0.29691699730577809 0.078010845233770512 0 -0.2820856336160168 0.076143416310514744 0 -0.29060962576468452 0.067805208448598275 0 -0.2820856336160168 0.076143416310514744 0 -0.29060962576468452 0.067805208448598275 0 -0.28052878263367997 0.062689744189194749 0 -0.2820856336160168 0.076143416310514744 0 -0.26689750246979099 0.065389471785450987 0 -0.26701466968858462 0.084500123265948177 0 -0.2820856336160168 0.076143416310514744 0 -0.28052878263367997 0.062689744189194749 0 -0.26689750246979099 0.065389471785450987 0 -0.2884764710049933 0.1009885759638675 0 -0.26701466968858462 0.084500123265948177 0 -0.2884764710049933 0.1009885759638675 0 -0.2820856336160168 0.076143416310514744 0 -0.26701466968858462 0.084500123265948177 0 -0.26701466968858462 0.084500123265948177 0 -0.25092365096646307 0.083232766792401561 0 -0.25782585192372243 0.091252560513962161 0 -0.26701466968858462 0.084500123265948177 0 -0.25092365096646307 0.083232766792401561 0 -0.24555286837217591 0.06801167056802887 0 -0.26634360107005789 0.099805930881343166 0 -0.26701466968858462 0.084500123265948177 0 -0.25782585192372243 0.091252560513962161 0 -0.25092365096646307 0.083232766792401561 0 -0.25782585192372243 0.091252560513962161 0 -0.24893571653906521 0.091804982588433129 0 -0.26701466968858462 0.084500123265948177 0 -0.24555286837217591 0.06801167056802887 0 -0.26689750246979099 0.065389471785450987 0 -0.26701466968858462 0.084500123265948177 0 -0.24555286837217591 0.06801167056802887 0 -0.26689750246979099 0.065389471785450987 0 -0.25699905901234332 0.05157453444368805 0 -0.24555286837217591 0.06801167056802887 0 -0.25699905901234332 0.05157453444368805 0 -0.26099636426958261 0.033291675825602239 0 -0.24758745507599511 0.041584625118578369 0 -0.25699905901234332 0.05157453444368805 0 -0.26099636426958261 0.033291675825602239 0 -0.27474044167366612 0.048444366999564087 0 -0.26099636426958261 0.033291675825602239 0 -0.2460635779772137 0.02840502717849459 0 -0.24758745507599511 0.041584625118578369 0 -0.26099636426958261 0.033291675825602239 0 -0.27474044167366612 0.048444366999564087 0 -0.28260073025341542 0.030932635998780839 0 -0.26689750246979099 0.065389471785450987 0 -0.25699905901234332 0.05157453444368805 0 -0.27474044167366612 0.048444366999564087 0 -0.28052878263367997 0.062689744189194749 0 -0.26689750246979099 0.065389471785450987 0 -0.27474044167366612 0.048444366999564087 0 -0.25981017286532337 -0.00044055064508607619 0 -0.25217160470833527 0.013394340926445741 0 -0.26717514969005812 0.018358773045672409 0 -0.25441168121153462 -0.0055030345160287097 0 -0.25981017286532337 -0.00044055064508607619 0 -0.25217160470833527 0.013394340926445741 0 -0.25981017286532337 -0.00044055064508607619 0 -0.26717514969005812 0.018358773045672409 0 -0.26099636426958261 0.033291675825602239 0 -0.25217160470833527 0.013394340926445741 0 -0.2460635779772137 0.02840502717849459 0 -0.26099636426958261 0.033291675825602239 0 -0.25217160470833527 0.013394340926445741 0 -0.26717514969005812 0.018358773045672409 0 -0.26099636426958261 0.033291675825602239 0 -0.26717514969005812 0.018358773045672409 0 -0.28260073025341542 0.030932635998780839 0 -0.26717514969005812 0.018358773045672409 0 -0.28297267003449922 0.01523314735014461 0 -0.28260073025341542 0.030932635998780839 0 -0.25981017286532337 -0.00044055064508607619 0 -0.26717514969005812 0.018358773045672409 0 -0.27120438679718573 0.0055210703373145239 0 -0.26717514969005812 0.018358773045672409 0 -0.27120438679718573 0.0055210703373145239 0 -0.28297267003449922 0.01523314735014461 0 -0.28703578881631908 -0.003412880413627258 0 -0.27120438679718573 0.0055210703373145239 0 -0.28297267003449922 0.01523314735014461 0 -0.25981017286532337 -0.00044055064508607619 0 -0.2666675497691825 -0.0025076994135350612 0 -0.27120438679718573 0.0055210703373145239 0 -0.28703578881631908 -0.003412880413627258 0 -0.3065924590943912 0.012727419502438031 0 -0.28703578881631908 -0.003412880413627258 0 -0.28297267003449922 0.01523314735014461 0 -0.29803994239691239 0.015463918351214009 0 -0.28297267003449922 0.01523314735014461 0 -0.28260073025341542 0.030932635998780839 0 -0.28945910474197117 0.023664956952584519 0 -0.28945910474197117 0.023664956952584519 0 -0.29803994239691239 0.015463918351214009 0 -0.29422307628305783 0.033030126110198607 0 -0.28297267003449922 0.01523314735014461 0 -0.28945910474197117 0.023664956952584519 0 -0.29803994239691239 0.015463918351214009 0 -0.28260073025341542 0.030932635998780839 0 -0.28945910474197117 0.023664956952584519 0 -0.29422307628305783 0.033030126110198607 0 -0.29803994239691239 0.015463918351214009 0 -0.3065924590943912 0.012727419502438031 0 -0.30668521908556612 0.031972892659774051 0 -0.3065924590943912 0.012727419502438031 0 -0.30668521908556612 0.031972892659774051 0 -0.31868926993794772 0.022711028791074849 0 -0.29803994239691239 0.015463918351214009 0 -0.29422307628305783 0.033030126110198607 0 -0.302413675743194 0.040797149177099583 0 -0.29803994239691239 0.015463918351214009 0 -0.302413675743194 0.040797149177099583 0 -0.30668521908556612 0.031972892659774051 0 -0.3065924590943912 0.012727419502438031 0 -0.30668521908556612 0.031972892659774051 0 -0.29803994239691239 0.015463918351214009 0 -0.302413675743194 0.040797149177099583 0 -0.28703578881631908 -0.003412880413627258 0 -0.29803994239691239 0.015463918351214009 0 -0.3065924590943912 0.012727419502438031 0 -0.28052878263367997 0.062689744189194749 0 -0.27474044167366612 0.048444366999564087 0 -0.29058437031710849 0.054861654399669009 0 -0.27474044167366612 0.048444366999564087 0 -0.29058437031710849 0.054861654399669009 0 -0.28927774351080032 0.042327960112255127 0 -0.29060962576468452 0.067805208448598275 0 -0.28052878263367997 0.062689744189194749 0 -0.29058437031710849 0.054861654399669009 0 -0.27474044167366612 0.048444366999564087 0 -0.28260073025341542 0.030932635998780839 0 -0.28927774351080032 0.042327960112255127 0 -0.28260073025341542 0.030932635998780839 0 -0.29422307628305783 0.033030126110198607 0 -0.28927774351080032 0.042327960112255127 0 -0.29422307628305783 0.033030126110198607 0 -0.28927774351080032 0.042327960112255127 0 -0.302413675743194 0.040797149177099583 0 -0.29058437031710849 0.054861654399669009 0 -0.28927774351080032 0.042327960112255127 0 -0.302413675743194 0.040797149177099583 0 -0.30668521908556612 0.031972892659774051 0 -0.3067779790767402 0.051218365817110152 0 -0.32064218766345548 0.041528582506798958 0 -0.30668521908556612 0.031972892659774051 0 -0.3067779790767402 0.051218365817110152 0 -0.302413675743194 0.040797149177099583 0 -0.30668521908556612 0.031972892659774051 0 -0.3067779790767402 0.051218365817110152 0 -0.30678740908947549 0.066130380002985156 0 -0.3067779790767402 0.051218365817110152 0 -0.32304115605013478 0.058664091434889938 0 -0.30678740908947549 0.066130380002985156 0 -0.302413675743194 0.040797149177099583 0 -0.30678740908947549 0.066130380002985156 0 -0.29058437031710849 0.054861654399669009 0 -0.302413675743194 0.040797149177099583 0 -0.30678740908947549 0.066130380002985156 0 -0.302413675743194 0.040797149177099583 0 -0.3067779790767402 0.051218365817110152 0 -0.32304115605013478 0.058664091434889938 0 -0.32064218766345548 0.041528582506798958 0 -0.33752633100961932 0.042545383275350158 0 -0.3067779790767402 0.051218365817110152 0 -0.32304115605013478 0.058664091434889938 0 -0.32064218766345548 0.041528582506798958 0 -0.30668521908556612 0.031972892659774051 0 -0.31817962201827882 0.031578916524882497 0 -0.32064218766345548 0.041528582506798958 0 -0.31817962201827882 0.031578916524882497 0 -0.32064218766345548 0.041528582506798958 0 -0.32920086643582203 0.02873161425786485 0 -0.33752633100961932 0.042545383275350158 0 -0.34727559522634788 0.020311535217192651 0 -0.32064218766345548 0.041528582506798958 0 -0.33752633100961932 0.042545383275350158 0 -0.32920086643582203 0.02873161425786485 0 -0.32304115605013478 0.058664091434889938 0 -0.33752633100961932 0.042545383275350158 0 -0.3440132674468197 0.05705162254814778 0 -0.32304115605013478 0.058664091434889938 0 -0.3440132674468197 0.05705162254814778 0 -0.33271265012492329 0.067073783949063881 0 -0.31971975053049612 -0.0021254955264083651 0 -0.3065924590943912 0.012727419502438031 0 -0.32232890616714932 0.010996257322019559 0 -0.32232890616714932 0.010996257322019559 0 -0.31868926993794772 0.022711028791074849 0 -0.33445410216533022 0.0128570218043792 0 -0.3065924590943912 0.012727419502438031 0 -0.32232890616714932 0.010996257322019559 0 -0.31868926993794772 0.022711028791074849 0 -0.33215967342583369 -0.0030826770591157859 0 -0.31971975053049612 -0.0021254955264083651 0 -0.32232890616714932 0.010996257322019559 0 -0.31868926993794772 0.022711028791074849 0 -0.32920086643582203 0.02873161425786485 0 -0.33445410216533022 0.0128570218043792 0 -0.3065924590943912 0.012727419502438031 0 -0.31868926993794772 0.022711028791074849 0 -0.30668521908556612 0.031972892659774051 0 -0.31817962201827882 0.031578916524882497 0 -0.31868926993794772 0.022711028791074849 0 -0.31817962201827882 0.031578916524882497 0 -0.31868926993794772 0.022711028791074849 0 -0.32920086643582203 0.02873161425786485 0 -0.32920086643582203 0.02873161425786485 0 -0.33445410216533022 0.0128570218043792 0 -0.34727559522634788 0.020311535217192651 0 -0.33752633100961932 0.042545383275350158 0 -0.32920086643582203 0.02873161425786485 0 -0.34727559522634788 0.020311535217192651 0 -0.33215967342583369 -0.0030826770591157859 0 -0.33445410216533022 0.0128570218043792 0 -0.34334607665684941 0.00045470552153091878 0 -0.33215967342583369 -0.0030826770591157859 0 -0.32232890616714932 0.010996257322019559 0 -0.33445410216533022 0.0128570218043792 0 -0.33445410216533022 0.0128570218043792 0 -0.34334607665684941 0.00045470552153091878 0 -0.34727559522634788 0.020311535217192651 0 -0.33445410216533022 0.0128570218043792 0 -0.34334607665684941 0.00045470552153091878 0 -0.35702485944307649 -0.0019223128409648241 0 -0.35704615774442577 0.01394668523223124 0 -0.36145207676649999 0.0071966288251382269 0 -0.35702485944307649 -0.0019223128409648241 0 -0.34727559522634788 0.020311535217192651 0 -0.35702485944307649 -0.0019223128409648241 0 -0.34334607665684941 0.00045470552153091878 0 -0.34727559522634788 0.020311535217192651 0 -0.35702485944307649 -0.0019223128409648241 0 -0.35704615774442577 0.01394668523223124 0 -0.34727559522634788 0.020311535217192651 0 -0.34727559522634788 0.020311535217192651 0 -0.36083088820134213 0.025793978515194559 0 -0.35001947115336968 0.037775679000700557 0 -0.35704615774442577 0.01394668523223124 0 -0.34727559522634788 0.020311535217192651 0 -0.36083088820134213 0.025793978515194559 0 -0.36083088820134213 0.025793978515194559 0 -0.37426291356731711 0.019604593194228501 0 -0.37438570565490198 0.03254764286630446 0 -0.36083088820134213 0.025793978515194559 0 -0.37426291356731711 0.019604593194228501 0 -0.36551739173495251 0.01344397512533162 0 -0.35704615774442577 0.01394668523223124 0 -0.36083088820134213 0.025793978515194559 0 -0.36551739173495251 0.01344397512533162 0 -0.35704615774442577 0.01394668523223124 0 -0.36551739173495251 0.01344397512533162 0 -0.36145207676649999 0.0071966288251382269 0 -0.37524021904663002 0.0087143672939522434 0 -0.36551739173495251 0.01344397512533162 0 -0.3676511528623137 0.0022953300091082081 0 -0.37524021904663002 0.0087143672939522434 0 -0.37426291356731711 0.019604593194228501 0 -0.36551739173495251 0.01344397512533162 0 -0.37744823449314668 -0.002724083045299296 0 -0.37524021904663002 0.0087143672939522434 0 -0.3676511528623137 0.0022953300091082081 0 -0.35702485944307649 -0.0019223128409648241 0 -0.3676511528623137 0.0022953300091082081 0 -0.36145207676649999 0.0071966288251382269 0 -0.36551739173495251 0.01344397512533162 0 -0.3676511528623137 0.0022953300091082081 0 -0.36145207676649999 0.0071966288251382269 0 -0.3440132674468197 0.05705162254814778 0 -0.3604512738827198 0.043175875447617633 0 -0.36051899435244461 0.058615410843748467 0 -0.3440132674468197 0.05705162254814778 0 -0.36051899435244461 0.058615410843748467 0 -0.35214699280586592 0.069227602263104787 0 -0.33752633100961932 0.042545383275350158 0 -0.34727559522634788 0.020311535217192651 0 -0.35001947115336968 0.037775679000700557 0 -0.33752633100961932 0.042545383275350158 0 -0.3440132674468197 0.05705162254814778 0 -0.35001947115336968 0.037775679000700557 0 -0.3440132674468197 0.05705162254814778 0 -0.35001947115336968 0.037775679000700557 0 -0.3604512738827198 0.043175875447617633 0 -0.36083088820134213 0.025793978515194559 0 -0.35001947115336968 0.037775679000700557 0 -0.3604512738827198 0.043175875447617633 0 -0.36083088820134213 0.025793978515194559 0 -0.3604512738827198 0.043175875447617633 0 -0.37438570565490198 0.03254764286630446 0 -0.3604512738827198 0.043175875447617633 0 -0.37438570565490198 0.03254764286630446 0 -0.37152120592399912 0.045948612193038189 0 -0.37152120592399912 0.045948612193038189 0 -0.36051899435244461 0.058615410843748467 0 -0.37328373606952348 0.063834557850238144 0 -0.3801692256813865 0.053394632521629168 0 -0.37152120592399912 0.045948612193038189 0 -0.37328373606952348 0.063834557850238144 0 -0.3604512738827198 0.043175875447617633 0 -0.37152120592399912 0.045948612193038189 0 -0.36051899435244461 0.058615410843748467 0 -0.36051899435244461 0.058615410843748467 0 -0.37328373606952348 0.063834557850238144 0 -0.36203172391842547 0.077595673755978728 0 -0.38616964996657549 0.076000950290615474 0 -0.37328373606952348 0.063834557850238144 0 -0.36203172391842547 0.077595673755978728 0 -0.36051899435244461 0.058615410843748467 0 -0.36203172391842547 0.077595673755978728 0 -0.35214699280586592 0.069227602263104787 0 -0.35214699280586592 0.069227602263104787 0 -0.35198057262240778 0.087016830513505755 0 -0.34018091151152569 0.075062638661005793 0 -0.36203172391842547 0.077595673755978728 0 -0.35214699280586592 0.069227602263104787 0 -0.35198057262240778 0.087016830513505755 0 -0.3440132674468197 0.05705162254814778 0 -0.35214699280586592 0.069227602263104787 0 -0.34018091151152569 0.075062638661005793 0 -0.36203172391842547 0.077595673755978728 0 -0.35198057262240778 0.087016830513505755 0 -0.36144384944271157 0.097028335337838847 0 -0.35198057262240778 0.087016830513505755 0 -0.34331567386656769 0.098358108493374563 0 -0.33766107753678137 0.086392570075319058 0 -0.37760997688384201 0.092753610136079218 0 -0.36203172391842547 0.077595673755978728 0 -0.36144384944271157 0.097028335337838847 0 -0.37760997688384201 0.092753610136079218 0 -0.37168120420087369 0.1058309127098148 0 -0.36144384944271157 0.097028335337838847 0 -0.37168120420087369 0.1058309127098148 0 -0.36144384944271157 0.097028335337838847 0 -0.35907091489773252 0.1110717340460855 0 -0.37441583262399492 0.12432153707058841 0 -0.36956735952788539 0.1167021218851079 0 -0.36231237886107021 0.1234446037932188 0 -0.38008246533815893 0.11443262986413499 0 -0.37441583262399492 0.12432153707058841 0 -0.36956735952788539 0.1167021218851079 0 -0.38008246533815893 0.11443262986413499 0 -0.37168120420087369 0.1058309127098148 0 -0.36956735952788539 0.1167021218851079 0 -0.37168120420087369 0.1058309127098148 0 -0.36956735952788539 0.1167021218851079 0 -0.35907091489773252 0.1110717340460855 0 -0.36956735952788539 0.1167021218851079 0 -0.36231237886107021 0.1234446037932188 0 -0.35907091489773252 0.1110717340460855 0 -0.36231237886107021 0.1234446037932188 0 -0.35907091489773252 0.1110717340460855 0 -0.34375662299808379 0.12145357452886529 0 -0.35907091489773252 0.1110717340460855 0 -0.34331567386656769 0.098358108493374563 0 -0.34375662299808379 0.12145357452886529 0 -0.35198057262240778 0.087016830513505755 0 -0.36144384944271157 0.097028335337838847 0 -0.34331567386656769 0.098358108493374563 0 -0.36144384944271157 0.097028335337838847 0 -0.35907091489773252 0.1110717340460855 0 -0.34331567386656769 0.098358108493374563 0 -0.34331567386656769 0.098358108493374563 0 -0.32745888271691892 0.1064585926788689 0 -0.32645425125660571 0.091196174281305553 0 -0.34331567386656769 0.098358108493374563 0 -0.34375662299808379 0.12145357452886529 0 -0.32745888271691892 0.1064585926788689 0 -0.34375662299808379 0.12145357452886529 0 -0.32745888271691892 0.1064585926788689 0 -0.34375662299808379 0.12145357452886529 0 -0.3267098098559843 0.12123332327717989 0 -0.32745888271691892 0.1064585926788689 0 -0.33054626674503379 0.13015498917795831 0 -0.34375662299808379 0.12145357452886529 0 -0.3267098098559843 0.12123332327717989 0 -0.31841576528614229 0.1334833273211441 0 -0.31478845386094972 0.1124734690750074 0 -0.31841576528614229 0.1334833273211441 0 -0.3267098098559843 0.12123332327717989 0 -0.31478845386094972 0.1124734690750074 0 -0.31841576528614229 0.1334833273211441 0 -0.30571829013591728 0.1187528323775557 0 -0.31478845386094972 0.1124734690750074 0 -0.3267098098559843 0.12123332327717989 0 -0.31478845386094972 0.1124734690750074 0 -0.32745888271691892 0.1064585926788689 0 -0.31116114243575549 0.091463610828870973 0 -0.31478845386094972 0.1124734690750074 0 -0.31116114243575549 0.091463610828870973 0 -0.32745888271691892 0.1064585926788689 0 -0.32645425125660571 0.091196174281305553 0 -0.31116114243575549 0.091463610828870973 0 -0.31478845386094972 0.1124734690750074 0 -0.32745888271691892 0.1064585926788689 0 -0.31116114243575549 0.091463610828870973 0 -0.32745888271691892 0.1064585926788689 0 -0.31116114243575549 0.091463610828870973 0 -0.32645425125660571 0.091196174281305553 0 -0.31766870603388891 0.08119370201835098 0 -0.32645425125660571 0.091196174281305553 0 -0.31766870603388891 0.08119370201835098 0 -0.32627202135371858 0.075984642960242238 0 -0.30678740908947549 0.066130380002985156 0 -0.31766870603388891 0.08119370201835098 0 -0.32627202135371858 0.075984642960242238 0 -0.30678740908947549 0.066130380002985156 0 -0.32304115605013478 0.058664091434889938 0 -0.32627202135371858 0.075984642960242238 0 -0.32304115605013478 0.058664091434889938 0 -0.32627202135371858 0.075984642960242238 0 -0.33271265012492329 0.067073783949063881 0 -0.3440132674468197 0.05705162254814778 0 -0.33271265012492329 0.067073783949063881 0 -0.34018091151152569 0.075062638661005793 0 -0.32627202135371858 0.075984642960242238 0 -0.33271265012492329 0.067073783949063881 0 -0.34018091151152569 0.075062638661005793 0 -0.35198057262240778 0.087016830513505755 0 -0.34018091151152569 0.075062638661005793 0 -0.33766107753678137 0.086392570075319058 0 -0.34331567386656769 0.098358108493374563 0 -0.32645425125660571 0.091196174281305553 0 -0.33766107753678137 0.086392570075319058 0 -0.32627202135371858 0.075984642960242238 0 -0.34018091151152569 0.075062638661005793 0 -0.33766107753678137 0.086392570075319058 0 -0.32645425125660571 0.091196174281305553 0 -0.32627202135371858 0.075984642960242238 0 -0.33766107753678137 0.086392570075319058 0 -0.38694203342537192 0.50000000000000067 0 -0.41490328251851522 0.47997949768417802 0 -0.45158040771768448 0.5 0 -0.38694203342537192 0.50000000000000067 0 -0.37642299515177619 0.480367818535617 0 -0.39231640167563642 0.46756759636803152 0 -0.38694203342537192 0.50000000000000067 0 -0.39231640167563642 0.46756759636803152 0 -0.41490328251851522 0.47997949768417802 0 -0.39231640167563642 0.46756759636803152 0 -0.4112180001127006 0.45987502625159898 0 -0.41490328251851522 0.47997949768417802 0 -0.38694203342537192 0.50000000000000067 0 -0.37642299515177619 0.480367818535617 0 -0.36761453130835647 0.5 0 -0.38694203342537192 0.50000000000000067 0 -0.37642299515177619 0.480367818535617 0 -0.37642299515177619 0.480367818535617 0 -0.39231640167563642 0.46756759636803152 0 -0.36590395687818073 0.46073563707123322 0 -0.38997643056421999 0.44729518670193769 0 -0.39231640167563642 0.46756759636803152 0 -0.36590395687818073 0.46073563707123322 0 -0.38997643056421999 0.44729518670193769 0 -0.36590395687818073 0.46073563707123322 0 -0.38997643056421999 0.44729518670193769 0 -0.37272917041155668 0.44869810712959818 0 -0.36590395687818073 0.46073563707123322 0 -0.37613699520865612 0.43909909385515172 0 -0.38997643056421999 0.44729518670193769 0 -0.37272917041155668 0.44869810712959818 0 -0.37613699520865612 0.43909909385515172 0 -0.38997643056421999 0.44729518670193769 0 -0.38767060130375408 0.43331472249054093 0 -0.37613699520865612 0.43909909385515172 0 -0.38997643056421999 0.44729518670193769 0 -0.38997643056421999 0.44729518670193769 0 -0.40392784920557567 0.43950565280209791 0 -0.4112180001127006 0.45987502625159898 0 -0.38997643056421999 0.44729518670193769 0 -0.40392784920557567 0.43950565280209791 0 -0.38767060130375408 0.43331472249054093 0 -0.38997643056421999 0.44729518670193769 0 -0.40392784920557567 0.43950565280209791 0 -0.38997643056421999 0.44729518670193769 0 -0.4112180001127006 0.45987502625159898 0 -0.38997643056421999 0.44729518670193769 0 -0.39231640167563642 0.46756759636803152 0 -0.4112180001127006 0.45987502625159898 0 -0.4112180001127006 0.45987502625159898 0 -0.41964580244939031 0.44623711382694098 0 -0.43004583868844098 0.45567507458213952 0 -0.4112180001127006 0.45987502625159898 0 -0.43245956966118237 0.47245486580125828 0 -0.40392784920557567 0.43950565280209791 0 -0.41964580244939031 0.44623711382694098 0 -0.4178792678469328 0.43171611890226058 0 -0.40392784920557567 0.43950565280209791 0 -0.4112180001127006 0.45987502625159898 0 -0.41964580244939031 0.44623711382694098 0 -0.41964580244939031 0.44623711382694098 0 -0.43446897627926029 0.44269709273994567 0 -0.4178792678469328 0.43171611890226058 0 -0.41964580244939031 0.44623711382694098 0 -0.43446897627926029 0.44269709273994567 0 -0.43004583868844098 0.45567507458213952 0 -0.4112180001127006 0.45987502625159898 0 -0.43004583868844098 0.45567507458213952 0 -0.43245956966118237 0.47245486580125828 0 -0.43245956966118237 0.47245486580125828 0 -0.41490328251851522 0.47997949768417802 0 -0.45158040771768448 0.5 0 -0.4112180001127006 0.45987502625159898 0 -0.43245956966118237 0.47245486580125828 0 -0.41490328251851522 0.47997949768417802 0 -0.5 0.5 0 -0.47579020385884219 0.476563420763084 0 -0.5 0.43517189157324332 0 -0.43245956966118237 0.47245486580125828 0 -0.45158040771768448 0.5 0 -0.45405501874838411 0.47524600217346558 0 -0.45158040771768448 0.5 0 -0.45405501874838411 0.47524600217346558 0 -0.47579020385884219 0.476563420763084 0 -0.45158040771768448 0.5 0 -0.5 0.5 0 -0.47579020385884219 0.476563420763084 0 -0.47579020385884219 0.476563420763084 0 -0.46976996679377869 0.45170019406215639 0 -0.5 0.43517189157324332 0 -0.46976996679377869 0.45170019406215639 0 -0.4717882411380922 0.43142938503707751 0 -0.5 0.43517189157324332 0 -0.46976996679377869 0.45170019406215639 0 -0.46093653402891221 0.43905819393100459 0 -0.45105868471158822 0.4536780665776301 0 -0.46093653402891221 0.43905819393100459 0 -0.45105868471158822 0.4536780665776301 0 -0.44827375197287389 0.43636437754024532 0 -0.46976996679377869 0.45170019406215639 0 -0.46093653402891221 0.43905819393100459 0 -0.4717882411380922 0.43142938503707751 0 -0.45405501874838411 0.47524600217346558 0 -0.47579020385884219 0.476563420763084 0 -0.46976996679377869 0.45170019406215639 0 -0.45405501874838411 0.47524600217346558 0 -0.46976996679377869 0.45170019406215639 0 -0.45105868471158822 0.4536780665776301 0 -0.43004583868844098 0.45567507458213952 0 -0.43245956966118237 0.47245486580125828 0 -0.45105868471158822 0.4536780665776301 0 -0.43245956966118237 0.47245486580125828 0 -0.45405501874838411 0.47524600217346558 0 -0.45105868471158822 0.4536780665776301 0 -0.45105868471158822 0.4536780665776301 0 -0.44056341986043368 0.44234980119076828 0 -0.44827375197287389 0.43636437754024532 0 -0.43446897627926029 0.44269709273994567 0 -0.43004583868844098 0.45567507458213952 0 -0.45105868471158822 0.4536780665776301 0 -0.43446897627926029 0.44269709273994567 0 -0.45105868471158822 0.4536780665776301 0 -0.44056341986043368 0.44234980119076828 0 -0.43446897627926029 0.44269709273994567 0 -0.45105868471158822 0.4536780665776301 0 -0.44056341986043368 0.44234980119076828 0 -0.43880429384193648 0.43366118712703322 0 -0.44827375197287389 0.43636437754024532 0 -0.43880429384193648 0.43366118712703322 0 -0.44338731614044041 0.42802848202562321 0 -0.44827375197287389 0.43636437754024532 0 -0.43880429384193648 0.43366118712703322 0 -0.43820771051840351 0.42637610141191118 0 -0.44338731614044041 0.42802848202562321 0 -0.43820771051840351 0.42637610141191118 0 -0.44338731614044041 0.42802848202562321 0 -0.44047921589703992 0.42041192518209403 0 -0.43820771051840351 0.42637610141191118 0 -0.44047921589703992 0.42041192518209403 0 -0.43473556639216182 0.42235448173931539 0 -0.44338731614044041 0.42802848202562321 0 -0.44827375197287389 0.43636437754024532 0 -0.45489226325393289 0.42141053438941228 0 -0.44338731614044041 0.42802848202562321 0 -0.44047921589703992 0.42041192518209403 0 -0.45489226325393289 0.42141053438941228 0 -0.44300872572774358 0.4100813099101176 0 -0.45489226325393289 0.42141053438941228 0 -0.45784817071044132 0.3949722016563072 0 -0.44300872572774358 0.4100813099101176 0 -0.44047921589703992 0.42041192518209403 0 -0.43102170292628411 0.41418362161912198 0 -0.44300872572774358 0.4100813099101176 0 -0.44047921589703992 0.42041192518209403 0 -0.45489226325393289 0.42141053438941228 0 -0.45489226325393289 0.42141053438941228 0 -0.47588765119002008 0.41266818001788919 0 -0.45784817071044132 0.3949722016563072 0 -0.45489226325393289 0.42141053438941228 0 -0.4717882411380922 0.43142938503707751 0 -0.47588765119002008 0.41266818001788919 0 -0.46093653402891221 0.43905819393100459 0 -0.44827375197287389 0.43636437754024532 0 -0.45489226325393289 0.42141053438941228 0 -0.46093653402891221 0.43905819393100459 0 -0.45489226325393289 0.42141053438941228 0 -0.4717882411380922 0.43142938503707751 0 -0.4717882411380922 0.43142938503707751 0 -0.47588765119002008 0.41266818001788919 0 -0.5 0.43517189157324332 0 -0.47588765119002008 0.41266818001788919 0 -0.5 0.43517189157324332 0 -0.5 0.38608102501004221 0 -0.5 0.38608102501004221 0 -0.45784817071044132 0.3949722016563072 0 -0.47060312679558841 0.35945762485012711 0 -0.47588765119002008 0.41266818001788919 0 -0.5 0.38608102501004221 0 -0.45784817071044132 0.3949722016563072 0 -0.45784817071044132 0.3949722016563072 0 -0.44758426624009062 0.37493585886952402 0 -0.47060312679558841 0.35945762485012711 0 -0.44300872572774358 0.4100813099101176 0 -0.45784817071044132 0.3949722016563072 0 -0.43284553667012488 0.40049174347194899 0 -0.45784817071044132 0.3949722016563072 0 -0.43233694994374661 0.38532775677709991 0 -0.43284553667012488 0.40049174347194899 0 -0.45784817071044132 0.3949722016563072 0 -0.43233694994374661 0.38532775677709991 0 -0.44758426624009062 0.37493585886952402 0 -0.43233694994374661 0.38532775677709991 0 -0.41535721727372998 0.37475686502222932 0 -0.43149883622256519 0.37057103645485451 0 -0.43233694994374661 0.38532775677709991 0 -0.43149883622256519 0.37057103645485451 0 -0.44758426624009062 0.37493585886952402 0 -0.43233694994374661 0.38532775677709991 0 -0.40930688514592373 0.39042202744488191 0 -0.41535721727372998 0.37475686502222932 0 -0.40930688514592373 0.39042202744488191 0 -0.39892690788125312 0.37317734194757868 0 -0.41535721727372998 0.37475686502222932 0 -0.40930688514592373 0.39042202744488191 0 -0.41968686241059427 0.40766671294218498 0 -0.40930688514592373 0.39042202744488191 0 -0.43284553667012488 0.40049174347194899 0 -0.41968686241059427 0.40766671294218498 0 -0.40930688514592373 0.39042202744488191 0 -0.41968686241059427 0.40766671294218498 0 -0.40585279635587679 0.40503868233516083 0 -0.43233694994374661 0.38532775677709991 0 -0.40930688514592373 0.39042202744488191 0 -0.43284553667012488 0.40049174347194899 0 -0.44300872572774358 0.4100813099101176 0 -0.43284553667012488 0.40049174347194899 0 -0.43102170292628411 0.41418362161912198 0 -0.43006683967526399 0.42491139843948877 0 -0.41968686241059427 0.40766671294218498 0 -0.41991621012872232 0.42027375395783118 0 -0.43102170292628411 0.41418362161912198 0 -0.43006683967526399 0.42491139843948877 0 -0.41968686241059427 0.40766671294218498 0 -0.43006683967526399 0.42491139843948877 0 -0.41968686241059427 0.40766671294218498 0 -0.43102170292628411 0.41418362161912198 0 -0.43473556639216182 0.42235448173931539 0 -0.43006683967526399 0.42491139843948877 0 -0.44047921589703992 0.42041192518209403 0 -0.43102170292628411 0.41418362161912198 0 -0.43473556639216182 0.42235448173931539 0 -0.43284553667012488 0.40049174347194899 0 -0.43102170292628411 0.41418362161912198 0 -0.41968686241059427 0.40766671294218498 0 -0.43446897627926029 0.44269709273994567 0 -0.44056341986043368 0.44234980119076828 0 -0.43006683967526399 0.42491139843948877 0 -0.43446897627926029 0.44269709273994567 0 -0.43006683967526399 0.42491139843948877 0 -0.4178792678469328 0.43171611890226058 0 -0.44056341986043368 0.44234980119076828 0 -0.43880429384193648 0.43366118712703322 0 -0.43006683967526399 0.42491139843948877 0 -0.44056341986043368 0.44234980119076828 0 -0.43006683967526399 0.42491139843948877 0 -0.43446897627926029 0.44269709273994567 0 -0.4178792678469328 0.43171611890226058 0 -0.43880429384193648 0.43366118712703322 0 -0.43362484722303851 0.42604430815878391 0 -0.43006683967526399 0.42491139843948877 0 -0.43880429384193648 0.43366118712703322 0 -0.43820771051840351 0.42637610141191118 0 -0.43362484722303851 0.42604430815878391 0 -0.43820771051840351 0.42637610141191118 0 -0.43362484722303851 0.42604430815878391 0 -0.43473556639216182 0.42235448173931539 0 -0.43362484722303851 0.42604430815878391 0 -0.43473556639216182 0.42235448173931539 0 -0.43006683967526399 0.42491139843948877 0 -0.43006683967526399 0.42491139843948877 0 -0.4178792678469328 0.43171611890226058 0 -0.41991621012872232 0.42027375395783118 0 -0.43006683967526399 0.42491139843948877 0 -0.4178792678469328 0.43171611890226058 0 -0.4178792678469328 0.43171611890226058 0 -0.41991621012872232 0.42027375395783118 0 -0.41203187058209861 0.41680078554738981 0 -0.40392784920557567 0.43950565280209791 0 -0.4178792678469328 0.43171611890226058 0 -0.4178792678469328 0.43171611890226058 0 -0.41203187058209861 0.41680078554738981 0 -0.39651553956593732 0.41673160299207118 0 -0.41968686241059427 0.40766671294218498 0 -0.41991621012872232 0.42027375395783118 0 -0.41203187058209861 0.41680078554738981 0 -0.41968686241059427 0.40766671294218498 0 -0.41203187058209861 0.41680078554738981 0 -0.40585279635587679 0.40503868233516083 0 -0.41203187058209861 0.41680078554738981 0 -0.39651553956593732 0.41673160299207118 0 -0.40585279635587679 0.40503868233516083 0 -0.4178792678469328 0.43171611890226058 0 -0.39330428218601582 0.41544957174112318 0 -0.39651553956593732 0.41673160299207118 0 -0.39330428218601582 0.41544957174112318 0 -0.39651553956593732 0.41673160299207118 0 -0.39172282407482972 0.39357228274927603 0 -0.4178792678469328 0.43171611890226058 0 -0.39330428218601582 0.41544957174112318 0 -0.40392784920557567 0.43950565280209791 0 -0.39330428218601582 0.41544957174112318 0 -0.38767060130375408 0.43331472249054093 0 -0.40392784920557567 0.43950565280209791 0 -0.4178792678469328 0.43171611890226058 0 -0.39330428218601582 0.41544957174112318 0 -0.39330428218601582 0.41544957174112318 0 -0.38767060130375408 0.43331472249054093 0 -0.37698457334812357 0.42676188037787077 0 -0.37613699520865612 0.43909909385515172 0 -0.38767060130375408 0.43331472249054093 0 -0.37698457334812357 0.42676188037787077 0 -0.39330428218601582 0.41544957174112318 0 -0.36872929652509939 0.39918302457998478 0 -0.39330428218601582 0.41544957174112318 0 -0.37698457334812357 0.42676188037787077 0 -0.36551342818909832 0.41504301279417422 0 -0.39330428218601582 0.41544957174112318 0 -0.36872929652509939 0.39918302457998478 0 -0.36551342818909832 0.41504301279417422 0 -0.39330428218601582 0.41544957174112318 0 -0.37945777538082481 0.39621967772420341 0 -0.39172282407482972 0.39357228274927603 0 -0.39330428218601582 0.41544957174112318 0 -0.37945777538082481 0.39621967772420341 0 -0.36872929652509939 0.39918302457998478 0 -0.37945777538082481 0.39621967772420341 0 -0.37996396608646549 0.38407047701772362 0 -0.39172282407482972 0.39357228274927603 0 -0.37996396608646549 0.38407047701772362 0 -0.39172282407482972 0.39357228274927603 0 -0.38693010858372201 0.37041296250648081 0 -0.37945777538082481 0.39621967772420341 0 -0.37996396608646549 0.38407047701772362 0 -0.37357970332773172 0.38939717776777782 0 -0.39172282407482972 0.39357228274927603 0 -0.38693010858372201 0.37041296250648081 0 -0.37996396608646549 0.38407047701772362 0 -0.37731004727439782 0.37364831020116879 0 -0.36916915971251979 0.37754789802733651 0 -0.37996396608646549 0.38407047701772362 0 -0.38693010858372201 0.37041296250648081 0 -0.37731004727439782 0.37364831020116879 0 -0.39172282407482972 0.39357228274927603 0 -0.39892690788125312 0.37317734194757868 0 -0.38693010858372201 0.37041296250648081 0 -0.40930688514592373 0.39042202744488191 0 -0.39892690788125312 0.37317734194757868 0 -0.40930688514592373 0.39042202744488191 0 -0.39172282407482972 0.39357228274927603 0 -0.39892690788125312 0.37317734194757868 0 -0.39651553956593732 0.41673160299207118 0 -0.40585279635587679 0.40503868233516083 0 -0.39172282407482972 0.39357228274927603 0 -0.40930688514592373 0.39042202744488191 0 -0.40585279635587679 0.40503868233516083 0 -0.39172282407482972 0.39357228274927603 0 -0.39651553956593732 0.41673160299207118 0 -0.39172282407482972 0.39357228274927603 0 -0.39842600883010881 0.35292345301073857 0 -0.39455236362803298 0.36145645884020799 0 -0.38213739309261457 0.34725364226368549 0 -0.39842600883010881 0.35292345301073857 0 -0.38213739309261457 0.34725364226368549 0 -0.40307861456742827 0.33311310804195199 0 -0.39842600883010881 0.35292345301073857 0 -0.40307861456742827 0.33311310804195199 0 -0.41001604171911021 0.34861937651890501 0 -0.39842600883010881 0.35292345301073857 0 -0.41001604171911021 0.34861937651890501 0 -0.40634139975246669 0.36351489447255619 0 -0.39842600883010881 0.35292345301073857 0 -0.39455236362803298 0.36145645884020799 0 -0.40634139975246669 0.36351489447255619 0 -0.39892690788125312 0.37317734194757868 0 -0.39455236362803298 0.36145645884020799 0 -0.40634139975246669 0.36351489447255619 0 -0.39892690788125312 0.37317734194757868 0 -0.39455236362803298 0.36145645884020799 0 -0.38693010858372201 0.37041296250648081 0 -0.38693010858372201 0.37041296250648081 0 -0.37779519863227512 0.35018570376915809 0 -0.37395864550162161 0.36493313604503141 0 -0.39455236362803298 0.36145645884020799 0 -0.38693010858372201 0.37041296250648081 0 -0.38213739309261457 0.34725364226368549 0 -0.38693010858372201 0.37041296250648081 0 -0.37731004727439782 0.37364831020116879 0 -0.37395864550162161 0.36493313604503141 0 -0.38693010858372201 0.37041296250648081 0 -0.38213739309261457 0.34725364226368549 0 -0.38693010858372201 0.37041296250648081 0 -0.38213739309261457 0.34725364226368549 0 -0.37779519863227512 0.35018570376915809 0 -0.38213739309261457 0.34725364226368549 0 -0.37779519863227512 0.35018570376915809 0 -0.3808488077887221 0.34102695099265801 0 -0.38213739309261457 0.34725364226368549 0 -0.3808488077887221 0.34102695099265801 0 -0.38213739309261457 0.34725364226368549 0 -0.37779519863227512 0.35018570376915809 0 -0.37779519863227512 0.35018570376915809 0 -0.3808488077887221 0.34102695099265801 0 -0.37246027470202242 0.33826876793548089 0 -0.3808488077887221 0.34102695099265801 0 -0.38834779810592979 0.31544512708283079 0 -0.37246027470202242 0.33826876793548089 0 -0.38213739309261457 0.34725364226368549 0 -0.3808488077887221 0.34102695099265801 0 -0.40307861456742827 0.33311310804195199 0 -0.38834779810592979 0.31544512708283079 0 -0.37416310414446308 0.3110037097063521 0 -0.37060379793355758 0.32242193000412978 0 -0.38834779810592979 0.31544512708283079 0 -0.37246027470202242 0.33826876793548089 0 -0.38834779810592979 0.31544512708283079 0 -0.37060379793355758 0.32242193000412978 0 -0.37246027470202242 0.33826876793548089 0 -0.38834779810592979 0.31544512708283079 0 -0.40307861456742827 0.33311310804195199 0 -0.40664007886171211 0.31162179335216073 0 -0.3808488077887221 0.34102695099265801 0 -0.38834779810592979 0.31544512708283079 0 -0.40307861456742827 0.33311310804195199 0 -0.38213739309261457 0.34725364226368549 0 -0.40307861456742827 0.33311310804195199 0 -0.40307861456742827 0.33311310804195199 0 -0.42401983604224153 0.31897257382021782 0 -0.42341912171556612 0.34065952255213128 0 -0.40307861456742827 0.33311310804195199 0 -0.42341912171556612 0.34065952255213128 0 -0.41001604171911021 0.34861937651890501 0 -0.40307861456742827 0.33311310804195199 0 -0.42401983604224153 0.31897257382021782 0 -0.40664007886171211 0.31162179335216073 0 -0.40307861456742827 0.33311310804195199 0 -0.42401983604224153 0.31897257382021782 0 -0.42401983604224153 0.31897257382021782 0 -0.44216357013671731 0.33032693747715081 0 -0.44496105751705473 0.3048320395984836 0 -0.42341912171556612 0.34065952255213128 0 -0.44160042579359238 0.35787381645126942 0 -0.44216357013671731 0.33032693747715081 0 -0.42401983604224153 0.31897257382021782 0 -0.42341912171556612 0.34065952255213128 0 -0.44216357013671731 0.33032693747715081 0 -0.42341912171556612 0.34065952255213128 0 -0.420615321861666 0.35996088515414992 0 -0.44160042579359238 0.35787381645126942 0 -0.42341912171556612 0.34065952255213128 0 -0.41001604171911021 0.34861937651890501 0 -0.420615321861666 0.35996088515414992 0 -0.41001604171911021 0.34861937651890501 0 -0.40634139975246669 0.36351489447255619 0 -0.420615321861666 0.35996088515414992 0 -0.39892690788125312 0.37317734194757868 0 -0.40634139975246669 0.36351489447255619 0 -0.41535721727372998 0.37475686502222932 0 -0.40634139975246669 0.36351489447255619 0 -0.420615321861666 0.35996088515414992 0 -0.41535721727372998 0.37475686502222932 0 -0.420615321861666 0.35996088515414992 0 -0.41535721727372998 0.37475686502222932 0 -0.43149883622256519 0.37057103645485451 0 -0.420615321861666 0.35996088515414992 0 -0.43149883622256519 0.37057103645485451 0 -0.44160042579359238 0.35787381645126942 0 -0.5 0.38608102501004221 0 -0.47060312679558841 0.35945762485012711 0 -0.50000000000002842 0.32075600144458272 0 -0.43149883622256519 0.37057103645485451 0 -0.44758426624009062 0.37493585886952402 0 -0.44160042579359238 0.35787381645126942 0 -0.44160042579359238 0.35787381645126942 0 -0.47060312679558841 0.35945762485012711 0 -0.45952631243511732 0.33745224105689731 0 -0.44758426624009062 0.37493585886952402 0 -0.44160042579359238 0.35787381645126942 0 -0.47060312679558841 0.35945762485012711 0 -0.47060312679558841 0.35945762485012711 0 -0.50000000000002842 0.32075600144458272 0 -0.4750250786956291 0.32772234540987161 0 -0.50000000000002842 0.32075600144458272 0 -0.4750250786956291 0.32772234540987161 0 -0.48295113949596091 0.30572375341067592 0 -0.50000000000002842 0.32075600144458272 0 -0.48295113949596091 0.30572375341067592 0 -0.4750250786956291 0.32772234540987161 0 -0.46204481475143833 0.31522210628708869 0 -0.48295113949596091 0.30572375341067592 0 -0.4750250786956291 0.32772234540987161 0 -0.46204481475143833 0.31522210628708869 0 -0.45952631243511732 0.33745224105689731 0 -0.47060312679558841 0.35945762485012711 0 -0.4750250786956291 0.32772234540987161 0 -0.45952631243511732 0.33745224105689731 0 -0.46204481475143833 0.31522210628708869 0 -0.45952631243511732 0.33745224105689731 0 -0.44216357013671731 0.33032693747715081 0 -0.44160042579359238 0.35787381645126942 0 -0.45952631243511732 0.33745224105689731 0 -0.44216357013671731 0.33032693747715081 0 -0.46204481475143833 0.31522210628708869 0 -0.44216357013671731 0.33032693747715081 0 -0.44496105751705473 0.3048320395984836 0 -0.44496105751705473 0.3048320395984836 0 -0.4510852230002923 0.27762707442878343 0 -0.43347652618479948 0.28598915071723868 0 -0.44496105751705473 0.3048320395984836 0 -0.46590227899188652 0.29069150537677713 0 -0.4510852230002923 0.27762707442878343 0 -0.46590227899188652 0.29069150537677713 0 -0.4510852230002923 0.27762707442878343 0 -0.46590227899188652 0.29069150537677713 0 -0.466325518285162 0.27611413328605589 0 -0.4510852230002923 0.27762707442878343 0 -0.44496105751705473 0.3048320395984836 0 -0.46590227899188652 0.29069150537677713 0 -0.46204481475143833 0.31522210628708869 0 -0.44496105751705473 0.3048320395984836 0 -0.46590227899188652 0.29069150537677713 0 -0.46204481475143833 0.31522210628708869 0 -0.46590227899188652 0.29069150537677713 0 -0.48295113949596091 0.30572375341067592 0 -0.46590227899188652 0.29069150537677713 0 -0.48295113949596091 0.30572375341067592 0 -0.46590227899188652 0.29069150537677713 0 -0.48295113949596091 0.30572375341067592 0 -0.47937881477239569 0.28159149105217052 0 -0.46590227899188652 0.29069150537677713 0 -0.47937881477239569 0.28159149105217052 0 -0.466325518285162 0.27611413328605589 0 -0.46590227899188652 0.29069150537677713 0 -0.47937881477239569 0.28159149105217052 0 -0.48295113949596091 0.30572375341067592 0 -0.47937881477239569 0.28159149105217052 0 -0.5 0.29275135045379269 0 -0.47937881477239569 0.28159149105217052 0 -0.5 0.29275135045379269 0 -0.49285535055292368 0.27249147672759161 0 -0.50000000000002842 0.32075600144458272 0 -0.48295113949596091 0.30572375341067592 0 -0.5 0.29275135045379269 0 -0.5 0.23674204847221289 0 -0.49039055063929299 0.25019063880308362 0 -0.5 0.26474669946300272 0 -0.48044119393958962 0.2441947675913769 0 -0.49039055063929299 0.25019063880308362 0 -0.48298894658265129 0.25622170050732329 0 -0.48935986828017958 0.26249379444882898 0 -0.49039055063929299 0.25019063880308362 0 -0.48298894658265129 0.25622170050732329 0 -0.48935986828017958 0.26249379444882898 0 -0.49039055063929299 0.25019063880308362 0 -0.5 0.26474669946300272 0 -0.48935986828017958 0.26249379444882898 0 -0.5 0.26474669946300272 0 -0.49285535055292368 0.27249147672759161 0 -0.5 0.29275135045379269 0 -0.5 0.26474669946300272 0 -0.49285535055292368 0.27249147672759161 0 -0.47937881477239569 0.28159149105217052 0 -0.49285535055292368 0.27249147672759161 0 -0.48935986828017958 0.26249379444882898 0 -0.49285535055292368 0.27249147672759161 0 -0.48056449362602982 0.26881845674314347 0 -0.47937881477239569 0.28159149105217052 0 -0.49285535055292368 0.27249147672759161 0 -0.48056449362602982 0.26881845674314347 0 -0.47937881477239569 0.28159149105217052 0 -0.48056449362602982 0.26881845674314347 0 -0.466325518285162 0.27611413328605589 0 -0.48056449362602982 0.26881845674314347 0 -0.46870532161686551 0.26209551506668011 0 -0.466325518285162 0.27611413328605589 0 -0.48935986828017958 0.26249379444882898 0 -0.48056449362602982 0.26881845674314347 0 -0.48298894658265129 0.25622170050732329 0 -0.48056449362602982 0.26881845674314347 0 -0.48298894658265129 0.25622170050732329 0 -0.46870532161686551 0.26209551506668011 0 -0.48044119393958962 0.2441947675913769 0 -0.48298894658265129 0.25622170050732329 0 -0.47311162244758109 0.25201232219662062 0 -0.48298894658265129 0.25622170050732329 0 -0.47311162244758109 0.25201232219662062 0 -0.46870532161686551 0.26209551506668011 0 -0.47311162244758109 0.25201232219662062 0 -0.4636578102139311 0.25412052971262689 0 -0.46870532161686551 0.26209551506668011 0 -0.4678194004752429 0.2447353426660652 0 -0.47311162244758109 0.25201232219662062 0 -0.4636578102139311 0.25412052971262689 0 -0.4636578102139311 0.25412052971262689 0 -0.46870532161686551 0.26209551506668011 0 -0.45649918872196299 0.26384973352458901 0 -0.45375266660564839 0.24924727523602441 0 -0.4636578102139311 0.25412052971262689 0 -0.45649918872196299 0.26384973352458901 0 -0.46870532161686551 0.26209551506668011 0 -0.45649918872196299 0.26384973352458901 0 -0.466325518285162 0.27611413328605589 0 -0.45649918872196299 0.26384973352458901 0 -0.466325518285162 0.27611413328605589 0 -0.4510852230002923 0.27762707442878343 0 -0.45649918872196299 0.26384973352458901 0 -0.4510852230002923 0.27762707442878343 0 -0.43626816700870152 0.26456264348078568 0 -0.4510852230002923 0.27762707442878343 0 -0.43626816700870152 0.26456264348078568 0 -0.43347652618479948 0.28598915071723868 0 -0.4510852230002923 0.27762707442878343 0 -0.43626816700870152 0.26456264348078568 0 -0.45375266660564839 0.24924727523602441 0 -0.45649918872196299 0.26384973352458901 0 -0.43626816700870152 0.26456264348078568 0 -0.44356314662437668 0.24292459822599469 0 -0.45375266660564839 0.24924727523602441 0 -0.43626816700870152 0.26456264348078568 0 -0.45375266660564839 0.24924727523602441 0 -0.43626816700870152 0.26456264348078568 0 -0.41834853354841411 0.24876262125718501 0 -0.43626816700870152 0.26456264348078568 0 -0.41834853354841411 0.24876262125718501 0 -0.43626816700870152 0.26456264348078568 0 -0.41552021568478531 0.26473647771697228 0 -0.41834853354841411 0.24876262125718501 0 -0.43097575344207523 0.24025057129967251 0 -0.43626816700870152 0.26456264348078568 0 -0.41834853354841411 0.24876262125718501 0 -0.41552021568478531 0.26473647771697228 0 -0.39767435714472738 0.26269915074353378 0 -0.41834853354841411 0.24876262125718501 0 -0.39767435714472738 0.26269915074353378 0 -0.41552021568478531 0.26473647771697228 0 -0.39767435714472738 0.26269915074353378 0 -0.40596689670900149 0.27614058045480028 0 -0.41552021568478531 0.26473647771697228 0 -0.42025174425927059 0.2785920648554846 0 -0.40596689670900149 0.27614058045480028 0 -0.43626816700870152 0.26456264348078568 0 -0.42025174425927059 0.2785920648554846 0 -0.43347652618479948 0.28598915071723868 0 -0.43626816700870152 0.26456264348078568 0 -0.41552021568478531 0.26473647771697228 0 -0.42025174425927059 0.2785920648554846 0 -0.43626816700870152 0.26456264348078568 0 -0.42025174425927059 0.2785920648554846 0 -0.43347652618479948 0.28598915071723868 0 -0.42662477819489769 0.3000519472401682 0 -0.4194023412534203 0.29156099591423101 0 -0.42025174425927059 0.2785920648554846 0 -0.43347652618479948 0.28598915071723868 0 -0.4194023412534203 0.29156099591423101 0 -0.42401983604224153 0.31897257382021782 0 -0.44496105751705473 0.3048320395984836 0 -0.42401983604224153 0.31897257382021782 0 -0.44496105751705473 0.3048320395984836 0 -0.42662477819489769 0.3000519472401682 0 -0.44496105751705473 0.3048320395984836 0 -0.43347652618479948 0.28598915071723868 0 -0.42662477819489769 0.3000519472401682 0 -0.42401983604224153 0.31897257382021782 0 -0.42662477819489769 0.3000519472401682 0 -0.41434228257448241 0.30178269215221948 0 -0.40664007886171211 0.31162179335216073 0 -0.41434228257448241 0.30178269215221948 0 -0.40423532150983849 0.29262148623018192 0 -0.42401983604224153 0.31897257382021782 0 -0.40664007886171211 0.31162179335216073 0 -0.41434228257448241 0.30178269215221948 0 -0.42662477819489769 0.3000519472401682 0 -0.41434228257448241 0.30178269215221948 0 -0.4194023412534203 0.29156099591423101 0 -0.42025174425927059 0.2785920648554846 0 -0.40562149629384209 0.29063014027745993 0 -0.40423532150983849 0.29262148623018192 0 -0.42025174425927059 0.2785920648554846 0 -0.40423532150983849 0.29262148623018192 0 -0.42025174425927059 0.2785920648554846 0 -0.4194023412534203 0.29156099591423101 0 -0.40423532150983849 0.29262148623018192 0 -0.41434228257448241 0.30178269215221948 0 -0.4194023412534203 0.29156099591423101 0 -0.40423532150983849 0.29262148623018192 0 -0.42025174425927059 0.2785920648554846 0 -0.40562149629384209 0.29063014027745993 0 -0.40596689670900149 0.27614058045480028 0 -0.40187146676622038 0.28329185079815972 0 -0.40562149629384209 0.29063014027745993 0 -0.40596689670900149 0.27614058045480028 0 -0.40102311128961782 0.29543518885458508 0 -0.39266468600230592 0.29255677030217447 0 -0.38349965892108351 0.2983545056762798 0 -0.40187146676622038 0.28329185079815972 0 -0.40056363868569261 0.28858749919124682 0 -0.39417726928143881 0.28260943391372528 0 -0.40187146676622038 0.28329185079815972 0 -0.40056363868569261 0.28858749919124682 0 -0.40562149629384209 0.29063014027745993 0 -0.40056363868569261 0.28858749919124682 0 -0.40562149629384209 0.29063014027745993 0 -0.40423532150983849 0.29262148623018192 0 -0.40562149629384209 0.29063014027745993 0 -0.40423532150983849 0.29262148623018192 0 -0.40423532150983849 0.29262148623018192 0 -0.40102311128961782 0.29543518885458508 0 -0.40056363868569261 0.28858749919124682 0 -0.40423532150983849 0.29262148623018192 0 -0.40102311128961782 0.29543518885458508 0 -0.40056363868569261 0.28858749919124682 0 -0.40102311128961782 0.29543518885458508 0 -0.39266468600230592 0.29255677030217447 0 -0.40056363868569261 0.28858749919124682 0 -0.39266468600230592 0.29255677030217447 0 -0.39417726928143881 0.28260943391372528 0 -0.38834779810592979 0.31544512708283079 0 -0.40423532150983849 0.29262148623018192 0 -0.38834779810592979 0.31544512708283079 0 -0.40423532150983849 0.29262148623018192 0 -0.40102311128961782 0.29543518885458508 0 -0.38834779810592979 0.31544512708283079 0 -0.40102311128961782 0.29543518885458508 0 -0.38349965892108351 0.2983545056762798 0 -0.38834779810592979 0.31544512708283079 0 -0.40664007886171211 0.31162179335216073 0 -0.40423532150983849 0.29262148623018192 0 -0.38834779810592979 0.31544512708283079 0 -0.38349965892108351 0.2983545056762798 0 -0.37416310414446308 0.3110037097063521 0 -0.39266468600230592 0.29255677030217447 0 -0.39417726928143881 0.28260943391372528 0 -0.38349965892108351 0.2983545056762798 0 -0.39417726928143881 0.28260943391372528 0 -0.38349965892108351 0.2983545056762798 0 -0.37700018074104058 0.27663568022988239 0 -0.37700018074104058 0.27663568022988239 0 -0.39767435714472738 0.26269915074353378 0 -0.39417726928143881 0.28260943391372528 0 -0.37700018074104058 0.27663568022988239 0 -0.39767435714472738 0.26269915074353378 0 -0.37700018074104058 0.27663568022988239 0 -0.39767435714472738 0.26269915074353378 0 -0.3694622573479896 0.25223322474042797 0 -0.38614743888886771 0.24125964036117761 0 -0.39767435714472738 0.26269915074353378 0 -0.3694622573479896 0.25223322474042797 0 -0.39417726928143881 0.28260943391372528 0 -0.39767435714472738 0.26269915074353378 0 -0.40596689670900149 0.27614058045480028 0 -0.40187146676622038 0.28329185079815972 0 -0.39417726928143881 0.28260943391372528 0 -0.40596689670900149 0.27614058045480028 0 -0.35220645614290769 0.27204247347125782 0 -0.3694622573479896 0.25223322474042797 0 -0.34165023871863548 0.25294654102260028 0 -0.37700018074104058 0.27663568022988239 0 -0.35220645614290769 0.27204247347125782 0 -0.3694622573479896 0.25223322474042797 0 -0.37700018074104058 0.27663568022988239 0 -0.35220645614290769 0.27204247347125782 0 -0.35632600433735367 0.29057220971623099 0 -0.38349965892108351 0.2983545056762798 0 -0.37700018074104058 0.27663568022988239 0 -0.35632600433735367 0.29057220971623099 0 -0.37700018074104058 0.27663568022988239 0 -0.35632600433735367 0.29057220971623099 0 -0.38349965892108351 0.2983545056762798 0 -0.3651970312151292 0.30441914191810299 0 -0.35632600433735367 0.29057220971623099 0 -0.38349965892108351 0.2983545056762798 0 -0.37416310414446308 0.3110037097063521 0 -0.3651970312151292 0.30441914191810299 0 -0.37416310414446308 0.3110037097063521 0 -0.3651970312151292 0.30441914191810299 0 -0.36005115917324487 0.31575546716430952 0 -0.3651970312151292 0.30441914191810299 0 -0.35194522949950069 0.30640981732734268 0 -0.35632600433735367 0.29057220971623099 0 -0.35194522949950069 0.30640981732734268 0 -0.33565182793366682 0.30450873920257959 0 -0.34416531770233028 0.3181992317437492 0 -0.35632600433735367 0.29057220971623099 0 -0.33565182793366682 0.30450873920257959 0 -0.35194522949950069 0.30640981732734268 0 -0.35632600433735367 0.29057220971623099 0 -0.33565182793366682 0.30450873920257959 0 -0.3651970312151292 0.30441914191810299 0 -0.35194522949950069 0.30640981732734268 0 -0.36005115917324487 0.31575546716430952 0 -0.35632600433735367 0.29057220971623099 0 -0.34037408279471998 0.28921113715355029 0 -0.33565182793366682 0.30450873920257959 0 -0.35220645614290769 0.27204247347125782 0 -0.35632600433735367 0.29057220971623099 0 -0.34037408279471998 0.28921113715355029 0 -0.34037408279471998 0.28921113715355029 0 -0.32793773360984169 0.28626986188494108 0 -0.32842597291770731 0.27065604796485482 0 -0.34037408279471998 0.28921113715355029 0 -0.32774252197837189 0.29904780278607612 0 -0.32793773360984169 0.28626986188494108 0 -0.33565182793366682 0.30450873920257959 0 -0.33422882443643409 0.31429959891504372 0 -0.34416531770233028 0.3181992317437492 0 -0.34037408279471998 0.28921113715355029 0 -0.33565182793366682 0.30450873920257959 0 -0.32774252197837189 0.29904780278607612 0 -0.33565182793366682 0.30450873920257959 0 -0.32588625186858627 0.31119677749676339 0 -0.33422882443643409 0.31429959891504372 0 -0.33565182793366682 0.30450873920257959 0 -0.32588625186858627 0.31119677749676339 0 -0.32774252197837189 0.29904780278607612 0 -0.32588625186858627 0.31119677749676339 0 -0.32774252197837189 0.29904780278607612 0 -0.31579585485578437 0.30535774937247062 0 -0.32774252197837189 0.29904780278607612 0 -0.31579585485578437 0.30535774937247062 0 -0.30438960992187042 0.28608876103727232 0 -0.32774252197837189 0.29904780278607612 0 -0.32793773360984169 0.28626986188494108 0 -0.30438960992187042 0.28608876103727232 0 -0.32774252197837189 0.29904780278607612 0 -0.30438960992187042 0.28608876103727232 0 -0.32842597291770731 0.27065604796485482 0 -0.30520292760209988 0.25634773778978182 0 -0.30438960992187042 0.28608876103727232 0 -0.32793773360984169 0.28626986188494108 0 -0.32842597291770731 0.27065604796485482 0 -0.30438960992187042 0.28608876103727232 0 -0.35220645614290769 0.27204247347125782 0 -0.34037408279471998 0.28921113715355029 0 -0.32842597291770731 0.27065604796485482 0 -0.35220645614290769 0.27204247347125782 0 -0.32842597291770731 0.27065604796485482 0 -0.34165023871863548 0.25294654102260028 0 -0.32842597291770731 0.27065604796485482 0 -0.34165023871863548 0.25294654102260028 0 -0.32278850827095751 0.25006775010447602 0 -0.32842597291770731 0.27065604796485482 0 -0.32278850827095751 0.25006775010447602 0 -0.30520292760209988 0.25634773778978182 0 -0.30520292760209988 0.25634773778978182 0 -0.28961047879567098 0.2606163475708338 0 -0.30438960992187042 0.28608876103727232 0 -0.28961047879567098 0.2606163475708338 0 -0.28103669786536889 0.27312971928846852 0 -0.30438960992187042 0.28608876103727232 0 -0.28103669786536889 0.27312971928846852 0 -0.30438960992187042 0.28608876103727232 0 -0.28430592912881081 0.23923246017082489 0 -0.28961047879567098 0.2606163475708338 0 -0.27525601128370047 0.25577128989075221 0 -0.28961047879567098 0.2606163475708338 0 -0.27525601128370047 0.25577128989075221 0 -0.28103669786536889 0.27312971928846852 0 -0.28430592912881081 0.23923246017082489 0 -0.30520292760209988 0.25634773778978182 0 -0.28961047879567098 0.2606163475708338 0 -0.27525601128370047 0.25577128989075221 0 -0.28103669786536889 0.27312971928846852 0 -0.25768378580886803 0.26017067753966372 0 -0.2645900996779269 0.241021892497989 0 -0.27525601128370047 0.25577128989075221 0 -0.25768378580886803 0.26017067753966372 0 -0.28103669786536889 0.27312971928846852 0 -0.26679114169699458 0.27912508464604602 0 -0.25768378580886803 0.26017067753966372 0 -0.28103669786536889 0.27312971928846852 0 -0.25768378580886803 0.26017067753966372 0 -0.28103669786536889 0.27312971928846852 0 -0.26679114169699458 0.27912508464604602 0 -0.27543418462427349 0.28389043823113058 0 -0.26679114169699458 0.27912508464604602 0 -0.26625542253489543 0.2814209290462486 0 -0.25664485815251131 0.27330490659200379 0 -0.25768378580886803 0.26017067753966372 0 -0.26625542253489543 0.2814209290462486 0 -0.25768378580886803 0.26017067753966372 0 -0.26625542253489543 0.2814209290462486 0 -0.26679114169699458 0.27912508464604602 0 -0.25768378580886803 0.26017067753966372 0 -0.26625542253489543 0.2814209290462486 0 -0.25664485815251131 0.27330490659200379 0 -0.26001132579271619 0.28130395657095703 0 -0.26625542253489543 0.2814209290462486 0 -0.25015917674991622 0.28055509263042699 0 -0.25664485815251131 0.27330490659200379 0 -0.25598524100857439 0.28229162778331229 0 -0.25015917674991622 0.28055509263042699 0 -0.25664485815251131 0.27330490659200379 0 -0.2462921380449441 0.2736975972161475 0 -0.25664485815251131 0.27330490659200379 0 -0.25598524100857439 0.28229162778331229 0 -0.26001132579271619 0.28130395657095703 0 -0.25664485815251131 0.27330490659200379 0 -0.25768378580886803 0.26017067753966372 0 -0.2453852920754056 0.26435655690198262 0 -0.26058883560842611 0.30570529814071901 0 -0.25221460354684649 0.31745922199860271 0 -0.24984746391295079 0.30843565107058613 0 -0.26058883560842611 0.30570529814071901 0 -0.25227733084084702 0.30037690198906042 0 -0.24984746391295079 0.30843565107058613 0 -0.26058883560842611 0.30570529814071901 0 -0.25227733084084702 0.30037690198906042 0 -0.25605505674363532 0.29322103950639672 0 -0.26058883560842611 0.30570529814071901 0 -0.26625542253489543 0.2814209290462486 0 -0.25227733084084702 0.30037690198906042 0 -0.25002584089292512 0.29324001154297308 0 -0.25605505674363532 0.29322103950639672 0 -0.26058883560842611 0.30570529814071901 0 -0.25947991232173723 0.28842978356660098 0 -0.26625542253489543 0.2814209290462486 0 -0.26058883560842611 0.30570529814071901 0 -0.25605505674363532 0.29322103950639672 0 -0.25947991232173723 0.28842978356660098 0 -0.25002584089292512 0.29324001154297308 0 -0.25605505674363532 0.29322103950639672 0 -0.2523922020655654 0.28743196839307972 0 -0.25605505674363532 0.29322103950639672 0 -0.25597810303487811 0.28784360481234739 0 -0.25947991232173723 0.28842978356660098 0 -0.25605505674363532 0.29322103950639672 0 -0.2523922020655654 0.28743196839307972 0 -0.25597810303487811 0.28784360481234739 0 -0.25015917674991622 0.28055509263042699 0 -0.2523922020655654 0.28743196839307972 0 -0.25598524100857439 0.28229162778331229 0 -0.25597810303487811 0.28784360481234739 0 -0.25598524100857439 0.28229162778331229 0 -0.25947991232173723 0.28842978356660098 0 -0.2523922020655654 0.28743196839307972 0 -0.25597810303487811 0.28784360481234739 0 -0.25598524100857439 0.28229162778331229 0 -0.25598524100857439 0.28229162778331229 0 -0.26001132579271619 0.28130395657095703 0 -0.25947991232173723 0.28842978356660098 0 -0.26001132579271619 0.28130395657095703 0 -0.25947991232173723 0.28842978356660098 0 -0.26625542253489543 0.2814209290462486 0 -0.26625542253489543 0.2814209290462486 0 -0.27297963362545169 0.29809116151466752 0 -0.26625542253489543 0.2814209290462486 0 -0.27543418462427349 0.28389043823113058 0 -0.27297963362545169 0.29809116151466752 0 -0.26058883560842611 0.30570529814071901 0 -0.26625542253489543 0.2814209290462486 0 -0.27297963362545169 0.29809116151466752 0 -0.26679114169699458 0.27912508464604602 0 -0.26625542253489543 0.2814209290462486 0 -0.27543418462427349 0.28389043823113058 0 -0.28103669786536889 0.27312971928846852 0 -0.27543418462427349 0.28389043823113058 0 -0.28430526705300008 0.28861007603192318 0 -0.27543418462427349 0.28389043823113058 0 -0.27297963362545169 0.29809116151466752 0 -0.28430526705300008 0.28861007603192318 0 -0.27297963362545169 0.29809116151466752 0 -0.26978281014006589 0.31203230961086731 0 -0.2797038447160079 0.31476139398308622 0 -0.27297963362545169 0.29809116151466752 0 -0.2797038447160079 0.31476139398308622 0 -0.27297963362545169 0.29809116151466752 0 -0.28768620922803612 0.30185030008807728 0 -0.2797038447160079 0.31476139398308622 0 -0.26058883560842611 0.30570529814071901 0 -0.27297963362545169 0.29809116151466752 0 -0.26978281014006589 0.31203230961086731 0 -0.28768620922803612 0.30185030008807728 0 -0.28888027322738408 0.31698267266920549 0 -0.2797038447160079 0.31476139398308622 0 -0.28768620922803612 0.30185030008807728 0 -0.3029991877061079 0.30878346734414308 0 -0.28888027322738408 0.31698267266920549 0 -0.28103669786536889 0.27312971928846852 0 -0.28430526705300008 0.28861007603192318 0 -0.30438960992187042 0.28608876103727232 0 -0.28768620922803612 0.30185030008807728 0 -0.28430526705300008 0.28861007603192318 0 -0.30438960992187042 0.28608876103727232 0 -0.27297963362545169 0.29809116151466752 0 -0.28768620922803612 0.30185030008807728 0 -0.28430526705300008 0.28861007603192318 0 -0.31579585485578437 0.30535774937247062 0 -0.3029991877061079 0.30878346734414308 0 -0.31796170280398539 0.32167193819809842 0 -0.28768620922803612 0.30185030008807728 0 -0.30438960992187042 0.28608876103727232 0 -0.3029991877061079 0.30878346734414308 0 -0.31579585485578437 0.30535774937247062 0 -0.30438960992187042 0.28608876103727232 0 -0.3029991877061079 0.30878346734414308 0 -0.30281243013828318 0.32310140032034418 0 -0.30094870699886472 0.33950656464774681 0 -0.28888027322738408 0.31698267266920549 0 -0.3029991877061079 0.30878346734414308 0 -0.30281243013828318 0.32310140032034418 0 -0.31796170280398539 0.32167193819809842 0 -0.30281243013828318 0.32310140032034418 0 -0.30094870699886472 0.33950656464774681 0 -0.31796170280398539 0.32167193819809842 0 -0.3029991877061079 0.30878346734414308 0 -0.30281243013828318 0.32310140032034418 0 -0.28888027322738408 0.31698267266920549 0 -0.30094870699886472 0.33950656464774681 0 -0.28249071762595251 0.32673852054874619 0 -0.28107784858778162 0.34031538748422252 0 -0.30094870699886472 0.33950656464774681 0 -0.28888027322738408 0.31698267266920549 0 -0.30094870699886472 0.33950656464774681 0 -0.28249071762595251 0.32673852054874619 0 -0.28888027322738408 0.31698267266920549 0 -0.28249071762595251 0.32673852054874619 0 -0.28888027322738408 0.31698267266920549 0 -0.2797038447160079 0.31476139398308622 0 -0.26978281014006589 0.31203230961086731 0 -0.2797038447160079 0.31476139398308622 0 -0.27220594975903911 0.32090413188619982 0 -0.26978281014006589 0.31203230961086731 0 -0.27220594975903911 0.32090413188619982 0 -0.26343578699140491 0.32069956252966347 0 -0.27220594975903911 0.32090413188619982 0 -0.27171177694700099 0.3295337654440762 0 -0.26541995075195751 0.3275055951381371 0 -0.27220594975903911 0.32090413188619982 0 -0.26343578699140491 0.32069956252966347 0 -0.26541995075195751 0.3275055951381371 0 -0.28249071762595251 0.32673852054874619 0 -0.2797038447160079 0.31476139398308622 0 -0.27220594975903911 0.32090413188619982 0 -0.28249071762595251 0.32673852054874619 0 -0.27220594975903911 0.32090413188619982 0 -0.27171177694700099 0.3295337654440762 0 -0.28107784858778162 0.34031538748422252 0 -0.27194291571599671 0.33804592962256119 0 -0.27171177694700099 0.3295337654440762 0 -0.28249071762595251 0.32673852054874619 0 -0.28107784858778162 0.34031538748422252 0 -0.27171177694700099 0.3295337654440762 0 -0.28107784858778162 0.34031538748422252 0 -0.27194291571599671 0.33804592962256119 0 -0.268377885762352 0.34539474437191919 0 -0.27194291571599671 0.33804592962256119 0 -0.26473481078573191 0.33530656961468303 0 -0.268377885762352 0.34539474437191919 0 -0.27194291571599671 0.33804592962256119 0 -0.27171177694700099 0.3295337654440762 0 -0.26473481078573191 0.33530656961468303 0 -0.27171177694700099 0.3295337654440762 0 -0.26473481078573191 0.33530656961468303 0 -0.26541995075195751 0.3275055951381371 0 -0.25184762069606181 0.32948502420814602 0 -0.25492224868195668 0.32998966723518941 0 -0.24925566175548719 0.35427403632965981 0 -0.25492224868195668 0.32998966723518941 0 -0.24925566175548719 0.35427403632965981 0 -0.2551634651755556 0.34047763712670548 0 -0.25492224868195668 0.32998966723518941 0 -0.24925566175548719 0.35427403632965981 0 -0.26473481078573191 0.33530656961468303 0 -0.26145013729080402 0.32972596110828889 0 -0.26541995075195751 0.3275055951381371 0 -0.26473481078573191 0.33530656961468303 0 -0.25873788924296892 0.33512841102377128 0 -0.26145013729080402 0.32972596110828889 0 -0.25873788924296892 0.33512841102377128 0 -0.26145013729080402 0.32972596110828889 0 -0.25492224868195668 0.32998966723518941 0 -0.26473481078573191 0.33530656961468303 0 -0.26005194587495439 0.34148579485380942 0 -0.268377885762352 0.34539474437191919 0 -0.25873788924296892 0.33512841102377128 0 -0.26005194587495439 0.34148579485380942 0 -0.2551634651755556 0.34047763712670548 0 -0.26473481078573191 0.33530656961468303 0 -0.25873788924296892 0.33512841102377128 0 -0.26005194587495439 0.34148579485380942 0 -0.26005194587495439 0.34148579485380942 0 -0.2551634651755556 0.34047763712670548 0 -0.25693389744910128 0.34504122402240622 0 -0.25873788924296892 0.33512841102377128 0 -0.2551634651755556 0.34047763712670548 0 -0.25492224868195668 0.32998966723518941 0 -0.26058883560842611 0.30570529814071901 0 -0.25492224868195668 0.32998966723518941 0 -0.26343578699140491 0.32069956252966347 0 -0.26058883560842611 0.30570529814071901 0 -0.25492224868195668 0.32998966723518941 0 -0.25184762069606181 0.32948502420814602 0 -0.25492224868195668 0.32998966723518941 0 -0.25221460354684649 0.31745922199860271 0 -0.26058883560842611 0.30570529814071901 0 -0.25492224868195668 0.32998966723518941 0 -0.25221460354684649 0.31745922199860271 0 -0.26058883560842611 0.30570529814071901 0 -0.26978281014006589 0.31203230961086731 0 -0.26343578699140491 0.32069956252966347 0 -0.26145013729080402 0.32972596110828889 0 -0.26343578699140491 0.32069956252966347 0 -0.26541995075195751 0.3275055951381371 0 -0.26145013729080402 0.32972596110828889 0 -0.25492224868195668 0.32998966723518941 0 -0.26343578699140491 0.32069956252966347 0 -0.26852615490398701 0.36784849110772933 0 -0.24634500562581699 0.35522147955953631 0 -0.25182284239910208 0.37496965679306948 0 -0.26852615490398701 0.36784849110772933 0 -0.24634500562581699 0.35522147955953631 0 -0.25709877674215292 0.35498941278262741 0 -0.25323654475706769 0.35012910138940367 0 -0.24925566175548719 0.35427403632965981 0 -0.25709877674215292 0.35498941278262741 0 -0.24925566175548719 0.35427403632965981 0 -0.24634500562581699 0.35522147955953631 0 -0.25709877674215292 0.35498941278262741 0 -0.26852615490398701 0.36784849110772933 0 -0.24634500562581699 0.35522147955953631 0 -0.2551634651755556 0.34047763712670548 0 -0.25323654475706769 0.35012910138940367 0 -0.25693389744910128 0.34504122402240622 0 -0.2551634651755556 0.34047763712670548 0 -0.25323654475706769 0.35012910138940367 0 -0.24925566175548719 0.35427403632965981 0 -0.25709877674215292 0.35498941278262741 0 -0.25323654475706769 0.35012910138940367 0 -0.2592836339888277 0.34807236271970621 0 -0.25323654475706769 0.35012910138940367 0 -0.25693389744910128 0.34504122402240622 0 -0.2592836339888277 0.34807236271970621 0 -0.26005194587495439 0.34148579485380942 0 -0.2592836339888277 0.34807236271970621 0 -0.268377885762352 0.34539474437191919 0 -0.2592836339888277 0.34807236271970621 0 -0.26594565942173087 0.35439100558972919 0 -0.268377885762352 0.34539474437191919 0 -0.26005194587495439 0.34148579485380942 0 -0.25693389744910128 0.34504122402240622 0 -0.2592836339888277 0.34807236271970621 0 -0.25709877674215292 0.35498941278262741 0 -0.2592836339888277 0.34807236271970621 0 -0.26594565942173087 0.35439100558972919 0 -0.25709877674215292 0.35498941278262741 0 -0.26594565942173087 0.35439100558972919 0 -0.26852615490398701 0.36784849110772933 0 -0.26594565942173087 0.35439100558972919 0 -0.268377885762352 0.34539474437191919 0 -0.27639411724100388 0.35595632672220467 0 -0.26594565942173087 0.35439100558972919 0 -0.27639411724100388 0.35595632672220467 0 -0.26852615490398701 0.36784849110772933 0 -0.28107784858778162 0.34031538748422252 0 -0.268377885762352 0.34539474437191919 0 -0.27639411724100388 0.35595632672220467 0 -0.27639411724100388 0.35595632672220467 0 -0.26852615490398701 0.36784849110772933 0 -0.28262613633430911 0.36850083185144339 0 -0.26852615490398701 0.36784849110772933 0 -0.28262613633430911 0.36850083185144339 0 -0.29070730418215679 0.38047550265592278 0 -0.26852615490398701 0.36784849110772933 0 -0.29070730418215679 0.38047550265592278 0 -0.28262613633430911 0.36850083185144339 0 -0.29117160180321439 0.37154296074711968 0 -0.29070730418215679 0.38047550265592278 0 -0.28262613633430911 0.36850083185144339 0 -0.29117160180321439 0.37154296074711968 0 -0.29072821145058392 0.35827895785655212 0 -0.27639411724100388 0.35595632672220467 0 -0.28262613633430911 0.36850083185144339 0 -0.29072821145058392 0.35827895785655212 0 -0.29117160180321439 0.37154296074711968 0 -0.29072821145058392 0.35827895785655212 0 -0.29998531728695782 0.36936104823074828 0 -0.29117160180321439 0.37154296074711968 0 -0.29998531728695782 0.36936104823074828 0 -0.29853899472330409 0.37708207830952312 0 -0.30094870699886472 0.33950656464774681 0 -0.28107784858778162 0.34031538748422252 0 -0.29072821145058392 0.35827895785655212 0 -0.28107784858778162 0.34031538748422252 0 -0.27639411724100388 0.35595632672220467 0 -0.29072821145058392 0.35827895785655212 0 -0.30094870699886472 0.33950656464774681 0 -0.31301714077034531 0.36203045662628808 0 -0.30094870699886472 0.33950656464774681 0 -0.29072821145058392 0.35827895785655212 0 -0.31301714077034531 0.36203045662628808 0 -0.29072821145058392 0.35827895785655212 0 -0.29998531728695782 0.36936104823074828 0 -0.31301714077034531 0.36203045662628808 0 -0.29998531728695782 0.36936104823074828 0 -0.30787229497093271 0.37703404077438157 0 -0.29853899472330409 0.37708207830952312 0 -0.29998531728695782 0.36936104823074828 0 -0.31301714077034531 0.36203045662628808 0 -0.30787229497093271 0.37703404077438157 0 -0.31301714077034531 0.36203045662628808 0 -0.33578928298030081 0.369789517109535 0 -0.32508557454182591 0.38455434860482929 0 -0.31301714077034531 0.36203045662628808 0 -0.32508557454182591 0.38455434860482929 0 -0.30787229497093271 0.37703404077438157 0 -0.31301714077034531 0.36203045662628808 0 -0.32508557454182591 0.38455434860482929 0 -0.33578928298030081 0.369789517109535 0 -0.33809135942034929 0.35169198418434372 0 -0.35657275129811511 0.36109240878813081 0 -0.31301714077034531 0.36203045662628808 0 -0.33578928298030081 0.369789517109535 0 -0.33809135942034929 0.35169198418434372 0 -0.33809135942034929 0.35169198418434372 0 -0.34109319176295921 0.33558263261181909 0 -0.35118791264680682 0.34431844081700241 0 -0.30094870699886472 0.33950656464774681 0 -0.31301714077034531 0.36203045662628808 0 -0.32377246871765619 0.33898068297464651 0 -0.31301714077034531 0.36203045662628808 0 -0.33809135942034929 0.35169198418434372 0 -0.32377246871765619 0.33898068297464651 0 -0.30094870699886472 0.33950656464774681 0 -0.32377246871765619 0.33898068297464651 0 -0.31796170280398539 0.32167193819809842 0 -0.32377246871765619 0.33898068297464651 0 -0.31796170280398539 0.32167193819809842 0 -0.33121190024115282 0.32329364721708248 0 -0.32588625186858627 0.31119677749676339 0 -0.31579585485578437 0.30535774937247062 0 -0.31796170280398539 0.32167193819809842 0 -0.32588625186858627 0.31119677749676339 0 -0.31796170280398539 0.32167193819809842 0 -0.33121190024115282 0.32329364721708248 0 -0.33121190024115282 0.32329364721708248 0 -0.34109319176295921 0.33558263261181909 0 -0.34416531770233028 0.3181992317437492 0 -0.32588625186858627 0.31119677749676339 0 -0.33422882443643409 0.31429959891504372 0 -0.33121190024115282 0.32329364721708248 0 -0.33422882443643409 0.31429959891504372 0 -0.33121190024115282 0.32329364721708248 0 -0.34416531770233028 0.3181992317437492 0 -0.32377246871765619 0.33898068297464651 0 -0.33121190024115282 0.32329364721708248 0 -0.34109319176295921 0.33558263261181909 0 -0.33809135942034929 0.35169198418434372 0 -0.32377246871765619 0.33898068297464651 0 -0.34109319176295921 0.33558263261181909 0 -0.34109319176295921 0.33558263261181909 0 -0.35799665354212801 0.33163657813167591 0 -0.34416531770233028 0.3181992317437492 0 -0.34109319176295921 0.33558263261181909 0 -0.35799665354212801 0.33163657813167591 0 -0.35118791264680682 0.34431844081700241 0 -0.35799665354212801 0.33163657813167591 0 -0.35955439804726802 0.34382904891807248 0 -0.35118791264680682 0.34431844081700241 0 -0.35194522949950069 0.30640981732734268 0 -0.34416531770233028 0.3181992317437492 0 -0.36005115917324487 0.31575546716430952 0 -0.35799665354212801 0.33163657813167591 0 -0.34416531770233028 0.3181992317437492 0 -0.36005115917324487 0.31575546716430952 0 -0.35799665354212801 0.33163657813167591 0 -0.36005115917324487 0.31575546716430952 0 -0.37060379793355758 0.32242193000412978 0 -0.37416310414446308 0.3110037097063521 0 -0.36005115917324487 0.31575546716430952 0 -0.37060379793355758 0.32242193000412978 0 -0.35799665354212801 0.33163657813167591 0 -0.37060379793355758 0.32242193000412978 0 -0.37246027470202242 0.33826876793548089 0 -0.35799665354212801 0.33163657813167591 0 -0.37246027470202242 0.33826876793548089 0 -0.35955439804726802 0.34382904891807248 0 -0.37246027470202242 0.33826876793548089 0 -0.35657275129811511 0.36109240878813081 0 -0.37779519863227512 0.35018570376915809 0 -0.37395864550162161 0.36493313604503141 0 -0.35657275129811511 0.36109240878813081 0 -0.37779519863227512 0.35018570376915809 0 -0.37246027470202242 0.33826876793548089 0 -0.35657275129811511 0.36109240878813081 0 -0.37246027470202242 0.33826876793548089 0 -0.35955439804726802 0.34382904891807248 0 -0.35657275129811511 0.36109240878813081 0 -0.37395864550162161 0.36493313604503141 0 -0.35657275129811511 0.36109240878813081 0 -0.36916915971251979 0.37754789802733651 0 -0.35657275129811511 0.36109240878813081 0 -0.35677962782212291 0.38184263683550779 0 -0.36916915971251979 0.37754789802733651 0 -0.37731004727439782 0.37364831020116879 0 -0.37395864550162161 0.36493313604503141 0 -0.36916915971251979 0.37754789802733651 0 -0.33578928298030081 0.369789517109535 0 -0.35657275129811511 0.36109240878813081 0 -0.34604436952760581 0.37701710373929659 0 -0.35657275129811511 0.36109240878813081 0 -0.34604436952760581 0.37701710373929659 0 -0.35677962782212291 0.38184263683550779 0 -0.33809135942034929 0.35169198418434372 0 -0.35657275129811511 0.36109240878813081 0 -0.35118791264680682 0.34431844081700241 0 -0.35955439804726802 0.34382904891807248 0 -0.35657275129811511 0.36109240878813081 0 -0.35118791264680682 0.34431844081700241 0 -0.35401975522820872 0.39229981705650208 0 -0.35748988291600958 0.40021037578178531 0 -0.34952424942416049 0.39983061789614149 0 -0.35401975522820872 0.39229981705650208 0 -0.3601725182499656 0.38867045878908563 0 -0.36243539627977628 0.39501699874458168 0 -0.35401975522820872 0.39229981705650208 0 -0.35748988291600958 0.40021037578178531 0 -0.36243539627977628 0.39501699874458168 0 -0.35748988291600958 0.40021037578178531 0 -0.34952424942416049 0.39983061789614149 0 -0.35165377110078738 0.4070531366350793 0 -0.35748988291600958 0.40021037578178531 0 -0.35165377110078738 0.4070531366350793 0 -0.35874599358033571 0.40730942929341418 0 -0.34952424942416049 0.39983061789614149 0 -0.3462015082832704 0.40537046151802641 0 -0.35165377110078738 0.4070531366350793 0 -0.34952424942416049 0.39983061789614149 0 -0.3462015082832704 0.40537046151802641 0 -0.34215553373812141 0.3984921127833938 0 -0.35401975522820872 0.39229981705650208 0 -0.34952424942416049 0.39983061789614149 0 -0.34497988133526097 0.38916842705583582 0 -0.34952424942416049 0.39983061789614149 0 -0.34497988133526097 0.38916842705583582 0 -0.34215553373812141 0.3984921127833938 0 -0.34497988133526097 0.38916842705583582 0 -0.34604436952760581 0.37701710373929659 0 -0.35677962782212291 0.38184263683550779 0 -0.35401975522820872 0.39229981705650208 0 -0.34497988133526097 0.38916842705583582 0 -0.35677962782212291 0.38184263683550779 0 -0.35401975522820872 0.39229981705650208 0 -0.35677962782212291 0.38184263683550779 0 -0.3601725182499656 0.38867045878908563 0 -0.35677962782212291 0.38184263683550779 0 -0.3601725182499656 0.38867045878908563 0 -0.36618320961134981 0.38612872194282277 0 -0.3601725182499656 0.38867045878908563 0 -0.36618320961134981 0.38612872194282277 0 -0.36628372204648252 0.39150812940809321 0 -0.35677962782212291 0.38184263683550779 0 -0.36618320961134981 0.38612872194282277 0 -0.36916915971251979 0.37754789802733651 0 -0.36618320961134981 0.38612872194282277 0 -0.36916915971251979 0.37754789802733651 0 -0.37357970332773172 0.38939717776777782 0 -0.37996396608646549 0.38407047701772362 0 -0.36916915971251979 0.37754789802733651 0 -0.37357970332773172 0.38939717776777782 0 -0.36618320961134981 0.38612872194282277 0 -0.37357970332773172 0.38939717776777782 0 -0.36628372204648252 0.39150812940809321 0 -0.37945777538082481 0.39621967772420341 0 -0.36944658008480691 0.39564553248933487 0 -0.36872929652509939 0.39918302457998478 0 -0.37945777538082481 0.39621967772420341 0 -0.37357970332773172 0.38939717776777782 0 -0.36944658008480691 0.39564553248933487 0 -0.36944658008480691 0.39564553248933487 0 -0.36872929652509939 0.39918302457998478 0 -0.37357970332773172 0.38939717776777782 0 -0.36944658008480691 0.39564553248933487 0 -0.36628372204648252 0.39150812940809321 0 -0.35748988291600958 0.40021037578178531 0 -0.36243539627977628 0.39501699874458168 0 -0.36872929652509939 0.39918302457998478 0 -0.36944658008480691 0.39564553248933487 0 -0.36628372204648252 0.39150812940809321 0 -0.36243539627977628 0.39501699874458168 0 -0.36944658008480691 0.39564553248933487 0 -0.36243539627977628 0.39501699874458168 0 -0.36872929652509939 0.39918302457998478 0 -0.36243539627977628 0.39501699874458168 0 -0.36872929652509939 0.39918302457998478 0 -0.3601725182499656 0.38867045878908563 0 -0.36628372204648252 0.39150812940809321 0 -0.36243539627977628 0.39501699874458168 0 -0.35748988291600958 0.40021037578178531 0 -0.36872929652509939 0.39918302457998478 0 -0.35874599358033571 0.40730942929341418 0 -0.36872929652509939 0.39918302457998478 0 -0.36551342818909832 0.41504301279417422 0 -0.35874599358033571 0.40730942929341418 0 -0.36872929652509939 0.39918302457998478 0 -0.36551342818909832 0.41504301279417422 0 -0.37698457334812357 0.42676188037787077 0 -0.36551342818909832 0.41504301279417422 0 -0.36414911489252633 0.42177151985456468 0 -0.36551342818909832 0.41504301279417422 0 -0.36414911489252633 0.42177151985456468 0 -0.35051997883997538 0.41439819969214747 0 -0.36551342818909832 0.41504301279417422 0 -0.36414911489252633 0.42177151985456468 0 -0.37613699520865612 0.43909909385515172 0 -0.37698457334812357 0.42676188037787077 0 -0.36229755985309381 0.43090300100836298 0 -0.37613699520865612 0.43909909385515172 0 -0.36229755985309381 0.43090300100836298 0 -0.37698457334812357 0.42676188037787077 0 -0.36414911489252633 0.42177151985456468 0 -0.36229755985309381 0.43090300100836298 0 -0.36414911489252633 0.42177151985456468 0 -0.36229755985309381 0.43090300100836298 0 -0.36229755985309381 0.43090300100836298 0 -0.35153262604212798 0.43391373876458822 0 -0.34416595308908787 0.4201649666391038 0 -0.36229755985309381 0.43090300100836298 0 -0.35153262604212798 0.43391373876458822 0 -0.35889929899516909 0.44766251089007192 0 -0.36229755985309381 0.43090300100836298 0 -0.34416595308908787 0.4201649666391038 0 -0.36414911489252633 0.42177151985456468 0 -0.36229755985309381 0.43090300100836298 0 -0.34416595308908787 0.4201649666391038 0 -0.35153262604212798 0.43391373876458822 0 -0.34416595308908787 0.4201649666391038 0 -0.35153262604212798 0.43391373876458822 0 -0.34416595308908787 0.4201649666391038 0 -0.33916289668576682 0.42935694682356729 0 -0.36414911489252633 0.42177151985456468 0 -0.35051997883997538 0.41439819969214747 0 -0.34416595308908787 0.4201649666391038 0 -0.35165377110078738 0.4070531366350793 0 -0.35874599358033571 0.40730942929341418 0 -0.35051997883997538 0.41439819969214747 0 -0.36551342818909832 0.41504301279417422 0 -0.35874599358033571 0.40730942929341418 0 -0.35051997883997538 0.41439819969214747 0 -0.36414911489252633 0.42177151985456468 0 -0.35051997883997538 0.41439819969214747 0 -0.35051997883997538 0.41439819969214747 0 -0.33715400831330722 0.40707824058337011 0 -0.3462015082832704 0.40537046151802641 0 -0.35165377110078738 0.4070531366350793 0 -0.35051997883997538 0.41439819969214747 0 -0.35051997883997538 0.41439819969214747 0 -0.34416595308908787 0.4201649666391038 0 -0.33715400831330722 0.40707824058337011 0 -0.3462015082832704 0.40537046151802641 0 -0.35051997883997538 0.41439819969214747 0 -0.33715400831330722 0.40707824058337011 0 -0.34416595308908787 0.4201649666391038 0 -0.33715400831330722 0.40707824058337011 0 -0.34416595308908787 0.4201649666391038 0 -0.32781852823113528 0.41048357368488431 0 -0.34416595308908787 0.4201649666391038 0 -0.33715400831330722 0.40707824058337011 0 -0.32781852823113528 0.41048357368488431 0 -0.34416595308908787 0.4201649666391038 0 -0.33222228257625841 0.42182980366284889 0 -0.32781852823113528 0.41048357368488431 0 -0.32818704197018073 0.42911882843884191 0 -0.32031807113964089 0.44179074142891428 0 -0.33698041715268262 0.44036666775777961 0 -0.35153262604212798 0.43391373876458822 0 -0.33916289668576682 0.42935694682356729 0 -0.33698041715268262 0.44036666775777961 0 -0.34416595308908787 0.4201649666391038 0 -0.33222228257625841 0.42182980366284889 0 -0.33916289668576682 0.42935694682356729 0 -0.33222228257625841 0.42182980366284889 0 -0.33916289668576682 0.42935694682356729 0 -0.32818704197018073 0.42911882843884191 0 -0.33916289668576682 0.42935694682356729 0 -0.32818704197018073 0.42911882843884191 0 -0.33698041715268262 0.44036666775777961 0 -0.31732261438068338 0.43022704651363441 0 -0.30434933919719159 0.43650268894173683 0 -0.32031807113964089 0.44179074142891428 0 -0.32818704197018073 0.42911882843884191 0 -0.31732261438068338 0.43022704651363441 0 -0.32031807113964089 0.44179074142891428 0 -0.33222228257625841 0.42182980366284889 0 -0.32818704197018073 0.42911882843884191 0 -0.3217769929051234 0.42002470272784642 0 -0.32818704197018073 0.42911882843884191 0 -0.31732261438068338 0.43022704651363441 0 -0.3217769929051234 0.42002470272784642 0 -0.31732261438068338 0.43022704651363441 0 -0.3217769929051234 0.42002470272784642 0 -0.30994020654255161 0.42106051095549568 0 -0.32781852823113528 0.41048357368488431 0 -0.31563451384446489 0.41229361688898508 0 -0.31147110337318112 0.40080218073066748 0 -0.32781852823113528 0.41048357368488431 0 -0.3217769929051234 0.42002470272784642 0 -0.31563451384446489 0.41229361688898508 0 -0.33222228257625841 0.42182980366284889 0 -0.32781852823113528 0.41048357368488431 0 -0.3217769929051234 0.42002470272784642 0 -0.3217769929051234 0.42002470272784642 0 -0.31563451384446489 0.41229361688898508 0 -0.30994020654255161 0.42106051095549568 0 -0.33715400831330722 0.40707824058337011 0 -0.3152189140504148 0.39506534614138289 0 -0.33715400831330722 0.40707824058337011 0 -0.32781852823113528 0.41048357368488431 0 -0.3152189140504148 0.39506534614138289 0 -0.33715400831330722 0.40707824058337011 0 -0.32508557454182591 0.38455434860482929 0 -0.31875679912441179 0.38849994470252203 0 -0.33715400831330722 0.40707824058337011 0 -0.3152189140504148 0.39506534614138289 0 -0.31875679912441179 0.38849994470252203 0 -0.32781852823113528 0.41048357368488431 0 -0.3152189140504148 0.39506534614138289 0 -0.31147110337318112 0.40080218073066748 0 -0.32781852823113528 0.41048357368488431 0 -0.31147110337318112 0.40080218073066748 0 -0.31288845346032662 0.39310251420411629 0 -0.3152189140504148 0.39506534614138289 0 -0.31875679912441179 0.38849994470252203 0 -0.33715400831330722 0.40707824058337011 0 -0.32508557454182591 0.38455434860482929 0 -0.33715400831330722 0.40707824058337011 0 -0.33734005542656192 0.39231795544989417 0 -0.32508557454182591 0.38455434860482929 0 -0.34497988133526097 0.38916842705583582 0 -0.33734005542656192 0.39231795544989417 0 -0.34215553373812141 0.3984921127833938 0 -0.3462015082832704 0.40537046151802641 0 -0.33715400831330722 0.40707824058337011 0 -0.34215553373812141 0.3984921127833938 0 -0.33715400831330722 0.40707824058337011 0 -0.33734005542656192 0.39231795544989417 0 -0.34215553373812141 0.3984921127833938 0 -0.34497988133526097 0.38916842705583582 0 -0.34604436952760581 0.37701710373929659 0 -0.33732527920429389 0.38229664822204212 0 -0.33578928298030081 0.369789517109535 0 -0.34604436952760581 0.37701710373929659 0 -0.33732527920429389 0.38229664822204212 0 -0.34497988133526097 0.38916842705583582 0 -0.33734005542656192 0.39231795544989417 0 -0.33732527920429389 0.38229664822204212 0 -0.33734005542656192 0.39231795544989417 0 -0.33732527920429389 0.38229664822204212 0 -0.32508557454182591 0.38455434860482929 0 -0.33578928298030081 0.369789517109535 0 -0.33732527920429389 0.38229664822204212 0 -0.32508557454182591 0.38455434860482929 0 -0.32508557454182591 0.38455434860482929 0 -0.31276237029134663 0.38541727017212563 0 -0.30787229497093271 0.37703404077438157 0 -0.32508557454182591 0.38455434860482929 0 -0.31875679912441179 0.38849994470252203 0 -0.31276237029134663 0.38541727017212563 0 -0.31288845346032662 0.39310251420411629 0 -0.31875679912441179 0.38849994470252203 0 -0.31276237029134663 0.38541727017212563 0 -0.31276237029134663 0.38541727017212563 0 -0.30787229497093271 0.37703404077438157 0 -0.30455388352561341 0.38262228122321379 0 -0.31288845346032662 0.39310251420411629 0 -0.30455388352561341 0.38262228122321379 0 -0.29070730418215679 0.38047550265592278 0 -0.31288845346032662 0.39310251420411629 0 -0.29070730418215679 0.38047550265592278 0 -0.3152189140504148 0.39506534614138289 0 -0.30306790938408451 0.39121984794971609 0 -0.29328381978752222 0.38305245169939628 0 -0.31288845346032662 0.39310251420411629 0 -0.29070730418215679 0.38047550265592278 0 -0.29328381978752222 0.38305245169939628 0 -0.31288845346032662 0.39310251420411629 0 -0.3152189140504148 0.39506534614138289 0 -0.29328381978752222 0.38305245169939628 0 -0.3152189140504148 0.39506534614138289 0 -0.29328381978752222 0.38305245169939628 0 -0.31288845346032662 0.39310251420411629 0 -0.31276237029134663 0.38541727017212563 0 -0.30455388352561341 0.38262228122321379 0 -0.30306790938408451 0.39121984794971609 0 -0.29328381978752222 0.38305245169939628 0 -0.29622575158852121 0.39007920483142711 0 -0.30455388352561341 0.38262228122321379 0 -0.29853899472330409 0.37708207830952312 0 -0.29070730418215679 0.38047550265592278 0 -0.30787229497093271 0.37703404077438157 0 -0.30455388352561341 0.38262228122321379 0 -0.29853899472330409 0.37708207830952312 0 -0.31147110337318112 0.40080218073066748 0 -0.2987823194991584 0.40246363219560372 0 -0.3057293667585686 0.4115848784792398 0 -0.3152189140504148 0.39506534614138289 0 -0.30814377843727547 0.39618486108993362 0 -0.30306790938408451 0.39121984794971609 0 -0.31147110337318112 0.40080218073066748 0 -0.30814377843727547 0.39618486108993362 0 -0.30342960116314338 0.39731306347936912 0 -0.30814377843727547 0.39618486108993362 0 -0.30306790938408451 0.39121984794971609 0 -0.30342960116314338 0.39731306347936912 0 -0.3152189140504148 0.39506534614138289 0 -0.31147110337318112 0.40080218073066748 0 -0.30814377843727547 0.39618486108993362 0 -0.29916564467533141 0.39452503404425621 0 -0.30342960116314338 0.39731306347936912 0 -0.2987823194991584 0.40246363219560372 0 -0.29916564467533141 0.39452503404425621 0 -0.2987823194991584 0.40246363219560372 0 -0.29297091266694142 0.39365123526653212 0 -0.30306790938408451 0.39121984794971609 0 -0.29916564467533141 0.39452503404425621 0 -0.30342960116314338 0.39731306347936912 0 -0.30306790938408451 0.39121984794971609 0 -0.29916564467533141 0.39452503404425621 0 -0.29622575158852121 0.39007920483142711 0 -0.31147110337318112 0.40080218073066748 0 -0.30342960116314338 0.39731306347936912 0 -0.2987823194991584 0.40246363219560372 0 -0.2987823194991584 0.40246363219560372 0 -0.29297091266694142 0.39365123526653212 0 -0.28550264426595118 0.40056769330482161 0 -0.29916564467533141 0.39452503404425621 0 -0.29297091266694142 0.39365123526653212 0 -0.29622575158852121 0.39007920483142711 0 -0.29297091266694142 0.39365123526653212 0 -0.28550264426595118 0.40056769330482161 0 -0.28470007675820191 0.38868367322182362 0 -0.29117160180321439 0.37154296074711968 0 -0.29853899472330409 0.37708207830952312 0 -0.29070730418215679 0.38047550265592278 0 -0.29070730418215679 0.38047550265592278 0 -0.29328381978752222 0.38305245169939628 0 -0.2892953255923098 0.38420981877388471 0 -0.29297091266694142 0.39365123526653212 0 -0.2912951772786993 0.38793527675861278 0 -0.28470007675820191 0.38868367322182362 0 -0.29297091266694142 0.39365123526653212 0 -0.29622575158852121 0.39007920483142711 0 -0.2912951772786993 0.38793527675861278 0 -0.29328381978752222 0.38305245169939628 0 -0.29622575158852121 0.39007920483142711 0 -0.2912951772786993 0.38793527675861278 0 -0.29328381978752222 0.38305245169939628 0 -0.2912951772786993 0.38793527675861278 0 -0.2892953255923098 0.38420981877388471 0 -0.28611199853173508 0.3832151874287329 0 -0.28470007675820191 0.38868367322182362 0 -0.2797452875942722 0.37949175506330052 0 -0.2892953255923098 0.38420981877388471 0 -0.28611199853173508 0.3832151874287329 0 -0.28470007675820191 0.38868367322182362 0 -0.2912951772786993 0.38793527675861278 0 -0.2892953255923098 0.38420981877388471 0 -0.28470007675820191 0.38868367322182362 0 -0.29070730418215679 0.38047550265592278 0 -0.28611199853173508 0.3832151874287329 0 -0.2797452875942722 0.37949175506330052 0 -0.29070730418215679 0.38047550265592278 0 -0.2892953255923098 0.38420981877388471 0 -0.28611199853173508 0.3832151874287329 0 -0.26852615490398701 0.36784849110772933 0 -0.29070730418215679 0.38047550265592278 0 -0.2797452875942722 0.37949175506330052 0 -0.26852615490398701 0.36784849110772933 0 -0.2797452875942722 0.37949175506330052 0 -0.27156414370034998 0.38766508021038348 0 -0.28470007675820191 0.38868367322182362 0 -0.2797452875942722 0.37949175506330052 0 -0.27156414370034998 0.38766508021038348 0 -0.28550264426595118 0.40056769330482161 0 -0.27156414370034998 0.38766508021038348 0 -0.27120686330064148 0.40930798386978567 0 -0.28550264426595118 0.40056769330482161 0 -0.28470007675820191 0.38868367322182362 0 -0.27156414370034998 0.38766508021038348 0 -0.27120686330064148 0.40930798386978567 0 -0.24959503606779609 0.39731151611412452 0 -0.27156414370034998 0.38766508021038348 0 -0.27120686330064148 0.40930798386978567 0 -0.24959503606779609 0.39731151611412452 0 -0.25182284239910208 0.37496965679306948 0 -0.26852615490398701 0.36784849110772933 0 -0.27156414370034998 0.38766508021038348 0 -0.25182284239910208 0.37496965679306948 0 -0.27156414370034998 0.38766508021038348 0 -0.24959503606779609 0.39731151611412452 0 -0.2709888351129518 0.43466726602488859 0 -0.25518496522775569 0.45020258095047289 0 -0.24807017279911869 0.4246869967332732 0 -0.27120686330064148 0.40930798386978567 0 -0.2709888351129518 0.43466726602488859 0 -0.24807017279911869 0.4246869967332732 0 -0.27120686330064148 0.40930798386978567 0 -0.24807017279911869 0.4246869967332732 0 -0.24959503606779609 0.39731151611412452 0 -0.27120686330064148 0.40930798386978567 0 -0.2709888351129518 0.43466726602488859 0 -0.2928186905334868 0.42130445162544677 0 -0.2709888351129518 0.43466726602488859 0 -0.2928186905334868 0.42130445162544677 0 -0.28835624284392719 0.44162524055372682 0 -0.2928186905334868 0.42130445162544677 0 -0.30434933919719159 0.43650268894173683 0 -0.28835624284392719 0.44162524055372682 0 -0.2987823194991584 0.40246363219560372 0 -0.28550264426595118 0.40056769330482161 0 -0.2928186905334868 0.42130445162544677 0 -0.27120686330064148 0.40930798386978567 0 -0.2928186905334868 0.42130445162544677 0 -0.28550264426595118 0.40056769330482161 0 -0.27120686330064148 0.40930798386978567 0 -0.2928186905334868 0.42130445162544677 0 -0.2987823194991584 0.40246363219560372 0 -0.2928186905334868 0.42130445162544677 0 -0.3057293667585686 0.4115848784792398 0 -0.2928186905334868 0.42130445162544677 0 -0.30994020654255161 0.42106051095549568 0 -0.3057293667585686 0.4115848784792398 0 -0.31563451384446489 0.41229361688898508 0 -0.30994020654255161 0.42106051095549568 0 -0.3057293667585686 0.4115848784792398 0 -0.31563451384446489 0.41229361688898508 0 -0.31147110337318112 0.40080218073066748 0 -0.3057293667585686 0.4115848784792398 0 -0.2928186905334868 0.42130445162544677 0 -0.30994020654255161 0.42106051095549568 0 -0.30434933919719159 0.43650268894173683 0 -0.31732261438068338 0.43022704651363441 0 -0.30994020654255161 0.42106051095549568 0 -0.30434933919719159 0.43650268894173683 0 -0.30434933919719159 0.43650268894173683 0 -0.29828968505444658 0.45650117841074678 0 -0.28835624284392719 0.44162524055372682 0 -0.30434933919719159 0.43650268894173683 0 -0.29828968505444658 0.45650117841074678 0 -0.31389932035037482 0.4551170486588702 0 -0.29828968505444658 0.45650117841074678 0 -0.29367776304669152 0.47658939996438732 0 -0.31611100788996133 0.47140013373736378 0 -0.29828968505444658 0.45650117841074678 0 -0.31611100788996133 0.47140013373736378 0 -0.31389932035037482 0.4551170486588702 0 -0.29828968505444658 0.45650117841074678 0 -0.27533466432155951 0.45915061776581501 0 -0.29367776304669152 0.47658939996438732 0 -0.29828968505444658 0.45650117841074678 0 -0.28835624284392719 0.44162524055372682 0 -0.27533466432155951 0.45915061776581501 0 -0.2709888351129518 0.43466726602488859 0 -0.28835624284392719 0.44162524055372682 0 -0.27533466432155951 0.45915061776581501 0 -0.2709888351129518 0.43466726602488859 0 -0.27533466432155951 0.45915061776581501 0 -0.25518496522775569 0.45020258095047289 0 -0.27533466432155951 0.45915061776581501 0 -0.25518496522775569 0.45020258095047289 0 -0.25133563139181658 0.47492646442916309 0 -0.26400966914620139 0.5 0 -0.25133563139181658 0.47492646442916309 0 -0.27529197008017009 0.48213329643187308 0 -0.26400966914620139 0.5 0 -0.25133563139181658 0.47492646442916309 0 -0.23591721579782141 0.5 0 -0.27533466432155951 0.45915061776581501 0 -0.25133563139181658 0.47492646442916309 0 -0.27529197008017009 0.48213329643187308 0 -0.26400966914620139 0.5 0 -0.27529197008017009 0.48213329643187308 0 -0.29210212249458128 0.5 0 -0.27529197008017009 0.48213329643187308 0 -0.29210212249458128 0.5 0 -0.29367776304669152 0.47658939996438732 0 -0.27533466432155951 0.45915061776581501 0 -0.27529197008017009 0.48213329643187308 0 -0.29367776304669152 0.47658939996438732 0 -0.29367776304669152 0.47658939996438732 0 -0.32019457584296118 0.5 0 -0.31611100788996133 0.47140013373736378 0 -0.29210212249458128 0.5 0 -0.29367776304669152 0.47658939996438732 0 -0.32019457584296118 0.5 0 -0.32019457584296118 0.5 0 -0.33555493154232002 0.48209813181120809 0 -0.31611100788996133 0.47140013373736378 0 -0.32019457584296118 0.5 0 -0.33555493154232002 0.48209813181120809 0 -0.34828702919134119 0.50000000000000144 0 -0.33555493154232002 0.48209813181120809 0 -0.33223002838820292 0.46459770810850709 0 -0.34577182237806198 0.47197606703724931 0 -0.33555493154232002 0.48209813181120809 0 -0.31611100788996133 0.47140013373736378 0 -0.33223002838820292 0.46459770810850709 0 -0.31389932035037482 0.4551170486588702 0 -0.32905093709809219 0.45100181669037182 0 -0.33223002838820292 0.46459770810850709 0 -0.31611100788996133 0.47140013373736378 0 -0.31389932035037482 0.4551170486588702 0 -0.33223002838820292 0.46459770810850709 0 -0.30434933919719159 0.43650268894173683 0 -0.31389932035037482 0.4551170486588702 0 -0.32031807113964089 0.44179074142891428 0 -0.31389932035037482 0.4551170486588702 0 -0.32031807113964089 0.44179074142891428 0 -0.32905093709809219 0.45100181669037182 0 -0.32031807113964089 0.44179074142891428 0 -0.32905093709809219 0.45100181669037182 0 -0.33698041715268262 0.44036666775777961 0 -0.32905093709809219 0.45100181669037182 0 -0.3418268484595598 0.45313691749778762 0 -0.33698041715268262 0.44036666775777961 0 -0.3418268484595598 0.45313691749778762 0 -0.33698041715268262 0.44036666775777961 0 -0.34730979766238518 0.44376995872755659 0 -0.32905093709809219 0.45100181669037182 0 -0.3418268484595598 0.45313691749778762 0 -0.33223002838820292 0.46459770810850709 0 -0.3418268484595598 0.45313691749778762 0 -0.33223002838820292 0.46459770810850709 0 -0.34668910871274411 0.4613105592093758 0 -0.33223002838820292 0.46459770810850709 0 -0.34668910871274411 0.4613105592093758 0 -0.34577182237806198 0.47197606703724931 0 -0.3418268484595598 0.45313691749778762 0 -0.34668910871274411 0.4613105592093758 0 -0.35889929899516909 0.44766251089007192 0 -0.34668910871274411 0.4613105592093758 0 -0.35501585988112377 0.46681481818130588 0 -0.34577182237806198 0.47197606703724931 0 -0.35501585988112377 0.46681481818130588 0 -0.35889929899516909 0.44766251089007192 0 -0.34668910871274411 0.4613105592093758 0 -0.35501585988112377 0.46681481818130588 0 -0.35889929899516909 0.44766251089007192 0 -0.3418268484595598 0.45313691749778762 0 -0.34730979766238518 0.44376995872755659 0 -0.35889929899516909 0.44766251089007192 0 -0.35153262604212798 0.43391373876458822 0 -0.33698041715268262 0.44036666775777961 0 -0.34730979766238518 0.44376995872755659 0 -0.35153262604212798 0.43391373876458822 0 -0.35889929899516909 0.44766251089007192 0 -0.35153262604212798 0.43391373876458822 0 -0.34730979766238518 0.44376995872755659 0 -0.35889929899516909 0.44766251089007192 0 -0.37613699520865612 0.43909909385515172 0 -0.36229755985309381 0.43090300100836298 0 -0.35889929899516909 0.44766251089007192 0 -0.36229755985309381 0.43090300100836298 0 -0.35889929899516909 0.44766251089007192 0 -0.37613699520865612 0.43909909385515172 0 -0.35889929899516909 0.44766251089007192 0 -0.37272917041155668 0.44869810712959818 0 -0.35889929899516909 0.44766251089007192 0 -0.37272917041155668 0.44869810712959818 0 -0.36590395687818073 0.46073563707123322 0 -0.35501585988112377 0.46681481818130588 0 -0.35889929899516909 0.44766251089007192 0 -0.36590395687818073 0.46073563707123322 0 -0.35501585988112377 0.46681481818130588 0 -0.36590395687818073 0.46073563707123322 0 -0.36345759787072701 0.47716390685690191 0 -0.35501585988112377 0.46681481818130588 0 -0.36590395687818073 0.46073563707123322 0 -0.35889929899516909 0.44766251089007192 0 -0.36590395687818073 0.46073563707123322 0 -0.37642299515177619 0.480367818535617 0 -0.36590395687818073 0.46073563707123322 0 -0.37642299515177619 0.480367818535617 0 -0.36590395687818073 0.46073563707123322 0 -0.36345759787072701 0.47716390685690191 0 -0.37642299515177619 0.480367818535617 0 -0.36345759787072701 0.47716390685690191 0 -0.36761453130835647 0.5 0 -0.36345759787072701 0.47716390685690191 0 -0.36761453130835647 0.5 0 -0.35165144453623232 0.48340740909065361 0 -0.33555493154232002 0.48209813181120809 0 -0.34828702919134119 0.50000000000000144 0 -0.35165144453623232 0.48340740909065361 0 -0.36761453130835647 0.5 0 -0.34828702919134119 0.50000000000000144 0 -0.35165144453623232 0.48340740909065361 0 -0.34828702919134119 0.50000000000000144 0 -0.35165144453623232 0.48340740909065361 0 -0.33555493154232002 0.48209813181120809 0 -0.35165144453623232 0.48340740909065361 0 -0.34577182237806198 0.47197606703724931 0 -0.35501585988112377 0.46681481818130588 0 -0.36345759787072701 0.47716390685690191 0 -0.35165144453623232 0.48340740909065361 0 -0.35501585988112377 0.46681481818130588 0 -0.35165144453623232 0.48340740909065361 0 -0.34577182237806198 0.47197606703724931 0 -0.35501585988112377 0.46681481818130588 0 -0.35165144453623232 0.48340740909065361 0 -0.35501585988112377 0.46681481818130588 0 -0.34577182237806198 0.47197606703724931 0 -0.15265211297275691 0.47984568498216668 0 -0.13430194675397261 0.48241297023048108 0 -0.13747552739470889 0.46384643373045009 0 -0.15265211297275691 0.47984568498216668 0 -0.13747552739470889 0.46384643373045009 0 -0.15265211297275691 0.47984568498216668 0 -0.13747552739470889 0.46384643373045009 0 -0.15559874170619439 0.46842994178923741 0 -0.15265211297275691 0.47984568498216668 0 -0.14347107213314289 0.49056466380316188 0 -0.13430194675397261 0.48241297023048108 0 -0.15265211297275691 0.47984568498216668 0 -0.14347107213314289 0.49056466380316188 0 -0.15633704401222531 0.5 0 -0.14347107213314289 0.49056466380316188 0 -0.13059318479361701 0.5 0 -0.15633704401222531 0.5 0 -0.14347107213314289 0.49056466380316188 0 -0.13059318479361701 0.5 0 -0.13430194675397261 0.48241297023048108 0 -0.13059318479361701 0.5 0 -0.13430194675397261 0.48241297023048108 0 -0.1169994795981979 0.48717377771602211 0 -0.13430194675397261 0.48241297023048108 0 -0.13747552739470889 0.46384643373045009 0 -0.1225507354705023 0.47128646358429888 0 -0.13747552739470889 0.46384643373045009 0 -0.132463984414837 0.44753567170505382 0 -0.13970269436204699 0.45213533814098228 0 -0.13747552739470889 0.46384643373045009 0 -0.122298941816661 0.44784718247873362 0 -0.12395304356163669 0.45919870250019101 0 -0.13747552739470889 0.46384643373045009 0 -0.122298941816661 0.44784718247873362 0 -0.13747552739470889 0.46384643373045009 0 -0.12395304356163669 0.45919870250019101 0 -0.1225507354705023 0.47128646358429888 0 -0.13747552739470889 0.46384643373045009 0 -0.132463984414837 0.44753567170505382 0 -0.122298941816661 0.44784718247873362 0 -0.1307498339847335 0.43768509305413422 0 -0.12665196774111001 0.44217415169062152 0 -0.12109511074820831 0.43562865952456448 0 -0.1307498339847335 0.43768509305413422 0 -0.12665196774111001 0.44217415169062152 0 -0.132463984414837 0.44753567170505382 0 -0.12665196774111001 0.44217415169062152 0 -0.132463984414837 0.44753567170505382 0 -0.122298941816661 0.44784718247873362 0 -0.132463984414837 0.44753567170505382 0 -0.13970269436204699 0.45213533814098228 0 -0.1409347908454992 0.44605637836696188 0 -0.1307498339847335 0.43768509305413422 0 -0.132463984414837 0.44753567170505382 0 -0.13794657077147751 0.44020549074120929 0 -0.132463984414837 0.44753567170505382 0 -0.13794657077147751 0.44020549074120929 0 -0.1409347908454992 0.44605637836696188 0 -0.1465950840034243 0.44126735060624661 0 -0.15562841990333981 0.45664007610958463 0 -0.15264776379393019 0.4298146202764096 0 -0.15562841990333981 0.45664007610958463 0 -0.15785726440106901 0.43755337691654439 0 -0.15264776379393019 0.4298146202764096 0 -0.15562841990333981 0.45664007610958463 0 -0.15264776379393019 0.4298146202764096 0 -0.13794657077147751 0.44020549074120929 0 -0.1465950840034243 0.44126735060624661 0 -0.1409347908454992 0.44605637836696188 0 -0.13794657077147751 0.44020549074120929 0 -0.1465950840034243 0.44126735060624661 0 -0.14030550951066981 0.43154331758783832 0 -0.1465950840034243 0.44126735060624661 0 -0.1409347908454992 0.44605637836696188 0 -0.1469292977077255 0.45133356603066932 0 -0.13970269436204699 0.45213533814098228 0 -0.1409347908454992 0.44605637836696188 0 -0.1469292977077255 0.45133356603066932 0 -0.1465950840034243 0.44126735060624661 0 -0.1469292977077255 0.45133356603066932 0 -0.15562841990333981 0.45664007610958463 0 -0.13747552739470889 0.46384643373045009 0 -0.15562841990333981 0.45664007610958463 0 -0.15559874170619439 0.46842994178923741 0 -0.13747552739470889 0.46384643373045009 0 -0.1469292977077255 0.45133356603066932 0 -0.15562841990333981 0.45664007610958463 0 -0.13747552739470889 0.46384643373045009 0 -0.13970269436204699 0.45213533814098228 0 -0.1469292977077255 0.45133356603066932 0 -0.15562841990333981 0.45664007610958463 0 -0.15559874170619439 0.46842994178923741 0 -0.1672415912662171 0.46657363694834553 0 -0.15562841990333981 0.45664007610958463 0 -0.1672415912662171 0.46657363694834553 0 -0.1676331591433875 0.44847323772215958 0 -0.15785726440106901 0.43755337691654439 0 -0.1676331591433875 0.44847323772215958 0 -0.1746255647054985 0.43275974049356458 0 -0.15562841990333981 0.45664007610958463 0 -0.15785726440106901 0.43755337691654439 0 -0.1676331591433875 0.44847323772215958 0 -0.1676331591433875 0.44847323772215958 0 -0.18281295544081311 0.44883935814275849 0 -0.1746255647054985 0.43275974049356458 0 -0.18281295544081311 0.44883935814275849 0 -0.175968041668013 0.47376118515559978 0 -0.1672415912662171 0.46657363694834553 0 -0.18281295544081311 0.44883935814275849 0 -0.175968041668013 0.47376118515559978 0 -0.18281295544081311 0.44883935814275849 0 -0.175968041668013 0.47376118515559978 0 -0.19714946869932151 0.46791628605248292 0 -0.1672415912662171 0.46657363694834553 0 -0.1676331591433875 0.44847323772215958 0 -0.18281295544081311 0.44883935814275849 0 -0.175968041668013 0.47376118515559978 0 -0.17026166454788461 0.49453768405365639 0 -0.175968041668013 0.47376118515559978 0 -0.17936494119945981 0.48586605490043328 0 -0.19189640205872741 0.48688059257779959 0 -0.175968041668013 0.47376118515559978 0 -0.19189640205872741 0.48688059257779959 0 -0.175968041668013 0.47376118515559978 0 -0.16499625483292191 0.48169852340906649 0 -0.17026166454788461 0.49453768405365639 0 -0.1672415912662171 0.46657363694834553 0 -0.175968041668013 0.47376118515559978 0 -0.16499625483292191 0.48169852340906649 0 -0.1672415912662171 0.46657363694834553 0 -0.175968041668013 0.47376118515559978 0 -0.15265211297275691 0.47984568498216668 0 -0.15559874170619439 0.46842994178923741 0 -0.16499625483292191 0.48169852340906649 0 -0.15559874170619439 0.46842994178923741 0 -0.1672415912662171 0.46657363694834553 0 -0.16499625483292191 0.48169852340906649 0 -0.15633704401222531 0.5 0 -0.17026166454788461 0.49453768405365639 0 -0.18208090323083331 0.5 0 -0.15265211297275691 0.47984568498216668 0 -0.16499625483292191 0.48169852340906649 0 -0.15633704401222531 0.5 0 -0.16499625483292191 0.48169852340906649 0 -0.15633704401222531 0.5 0 -0.17026166454788461 0.49453768405365639 0 -0.17026166454788461 0.49453768405365639 0 -0.17936494119945981 0.48586605490043328 0 -0.18208090323083331 0.5 0 -0.175968041668013 0.47376118515559978 0 -0.17026166454788461 0.49453768405365639 0 -0.17936494119945981 0.48586605490043328 0 -0.17936494119945981 0.48586605490043328 0 -0.18208090323083331 0.5 0 -0.19189640205872741 0.48688059257779959 0 -0.18208090323083331 0.5 0 -0.19189640205872741 0.48688059257779959 0 -0.20782476244944151 0.49999999999999961 0 -0.19189640205872741 0.48688059257779959 0 -0.20782476244944151 0.49999999999999961 0 -0.175968041668013 0.47376118515559978 0 -0.19189640205872741 0.48688059257779959 0 -0.19714946869932151 0.46791628605248292 0 -0.19189640205872741 0.48688059257779959 0 -0.21375736159005651 0.48332425195768258 0 -0.19714946869932151 0.46791628605248292 0 -0.21375736159005651 0.48332425195768258 0 -0.21673886819483859 0.46555398361810868 0 -0.19714946869932151 0.46791628605248292 0 -0.19189640205872741 0.48688059257779959 0 -0.21375736159005651 0.48332425195768258 0 -0.20782476244944151 0.49999999999999961 0 -0.21375736159005651 0.48332425195768258 0 -0.23204683190571521 0.47875537198621088 0 -0.23591721579782141 0.5 0 -0.21375736159005651 0.48332425195768258 0 -0.20782476244944151 0.49999999999999961 0 -0.23591721579782141 0.5 0 -0.21375736159005651 0.48332425195768258 0 -0.23204683190571521 0.47875537198621088 0 -0.21673886819483859 0.46555398361810868 0 -0.23204683190571521 0.47875537198621088 0 -0.2340212723654376 0.46265366002587027 0 -0.21673886819483859 0.46555398361810868 0 -0.25133563139181658 0.47492646442916309 0 -0.23204683190571521 0.47875537198621088 0 -0.2340212723654376 0.46265366002587027 0 -0.25133563139181658 0.47492646442916309 0 -0.23204683190571521 0.47875537198621088 0 -0.23591721579782141 0.5 0 -0.25518496522775569 0.45020258095047289 0 -0.23609632476257289 0.44522803518139198 0 -0.2340212723654376 0.46265366002587027 0 -0.25518496522775569 0.45020258095047289 0 -0.23609632476257289 0.44522803518139198 0 -0.24807017279911869 0.4246869967332732 0 -0.25518496522775569 0.45020258095047289 0 -0.25133563139181658 0.47492646442916309 0 -0.2340212723654376 0.46265366002587027 0 -0.2340212723654376 0.46265366002587027 0 -0.22315382452829799 0.4510080217706236 0 -0.21673886819483859 0.46555398361810868 0 -0.23609632476257289 0.44522803518139198 0 -0.22315382452829799 0.4510080217706236 0 -0.22289847750385411 0.4298172581599532 0 -0.23609632476257289 0.44522803518139198 0 -0.2340212723654376 0.46265366002587027 0 -0.22315382452829799 0.4510080217706236 0 -0.22315382452829799 0.4510080217706236 0 -0.2074602817437351 0.4489290236665428 0 -0.22289847750385411 0.4298172581599532 0 -0.22315382452829799 0.4510080217706236 0 -0.2074602817437351 0.4489290236665428 0 -0.21673886819483859 0.46555398361810868 0 -0.2074602817437351 0.4489290236665428 0 -0.21673886819483859 0.46555398361810868 0 -0.19714946869932151 0.46791628605248292 0 -0.18281295544081311 0.44883935814275849 0 -0.2074602817437351 0.4489290236665428 0 -0.19714946869932151 0.46791628605248292 0 -0.18281295544081311 0.44883935814275849 0 -0.2074602817437351 0.4489290236665428 0 -0.20547722393483389 0.43138015361235948 0 -0.18281295544081311 0.44883935814275849 0 -0.1896578692136133 0.42391753112991731 0 -0.20547722393483389 0.43138015361235948 0 -0.1896578692136133 0.42391753112991731 0 -0.20970063024513519 0.41440648113851442 0 -0.20547722393483389 0.43138015361235948 0 -0.1896578692136133 0.42391753112991731 0 -0.19650278298641541 0.39899570411707641 0 -0.1896578692136133 0.42391753112991731 0 -0.20970063024513519 0.41440648113851442 0 -0.19650278298641541 0.39899570411707641 0 -0.20970063024513519 0.41440648113851442 0 -0.19650278298641541 0.39899570411707641 0 -0.20970063024513519 0.41440648113851442 0 -0.22906209804132091 0.40628365969712399 0 -0.21229493205633931 0.40063802405702759 0 -0.2074602817437351 0.4489290236665428 0 -0.20547722393483389 0.43138015361235948 0 -0.22289847750385411 0.4298172581599532 0 -0.20970063024513519 0.41440648113851442 0 -0.20547722393483389 0.43138015361235948 0 -0.22289847750385411 0.4298172581599532 0 -0.20970063024513519 0.41440648113851442 0 -0.22289847750385411 0.4298172581599532 0 -0.23609632476257289 0.44522803518139198 0 -0.22289847750385411 0.4298172581599532 0 -0.22289847750385411 0.4298172581599532 0 -0.22906209804132091 0.40628365969712399 0 -0.24807017279911869 0.4246869967332732 0 -0.20970063024513519 0.41440648113851442 0 -0.22289847750385411 0.4298172581599532 0 -0.22906209804132091 0.40628365969712399 0 -0.22906209804132091 0.40628365969712399 0 -0.24807017279911869 0.4246869967332732 0 -0.24959503606779609 0.39731151611412452 0 -0.23609632476257289 0.44522803518139198 0 -0.22289847750385411 0.4298172581599532 0 -0.24807017279911869 0.4246869967332732 0 -0.25182284239910208 0.37496965679306948 0 -0.24080496398569071 0.37504896525812098 0 -0.24959503606779609 0.39731151611412452 0 -0.24080496398569071 0.37504896525812098 0 -0.24959503606779609 0.39731151611412452 0 -0.2279832088349506 0.38531504835846331 0 -0.24959503606779609 0.39731151611412452 0 -0.2279832088349506 0.38531504835846331 0 -0.22906209804132091 0.40628365969712399 0 -0.24959503606779609 0.39731151611412452 0 -0.2279832088349506 0.38531504835846331 0 -0.22906209804132091 0.40628365969712399 0 -0.22102081017827421 0.3955726601995932 0 -0.21229493205633931 0.40063802405702759 0 -0.22906209804132091 0.40628365969712399 0 -0.22102081017827421 0.3955726601995932 0 -0.2279832088349506 0.38531504835846331 0 -0.2279832088349506 0.38531504835846331 0 -0.23160440219217321 0.37743974560876709 0 -0.20671669589684011 0.37286136949259302 0 -0.23160440219217321 0.37743974560876709 0 -0.20671669589684011 0.37286136949259302 0 -0.22102081017827421 0.3955726601995932 0 -0.2279832088349506 0.38531504835846331 0 -0.21858966960632159 0.38785769975747503 0 -0.24080496398569071 0.37504896525812098 0 -0.2279832088349506 0.38531504835846331 0 -0.23160440219217321 0.37743974560876709 0 -0.21858966960632159 0.38785769975747503 0 -0.2117275690134624 0.38824041511800023 0 -0.20496826091030709 0.37253972502732891 0 -0.2279832088349506 0.38531504835846331 0 -0.20671669589684011 0.37286136949259302 0 -0.20496826091030709 0.37253972502732891 0 -0.2279832088349506 0.38531504835846331 0 -0.20496826091030709 0.37253972502732891 0 -0.2117275690134624 0.38824041511800023 0 -0.20526603114802061 0.39319256802175989 0 -0.20496826091030709 0.37253972502732891 0 -0.2279832088349506 0.38531504835846331 0 -0.21858966960632159 0.38785769975747503 0 -0.20496826091030709 0.37253972502732891 0 -0.21858966960632159 0.38785769975747503 0 -0.2117275690134624 0.38824041511800023 0 -0.2125898105148219 0.39393719961835072 0 -0.21229493205633931 0.40063802405702759 0 -0.20526603114802061 0.39319256802175989 0 -0.19650278298641541 0.39899570411707641 0 -0.20970063024513519 0.41440648113851442 0 -0.21229493205633931 0.40063802405702759 0 -0.19650278298641541 0.39899570411707641 0 -0.22102081017827421 0.3955726601995932 0 -0.21229493205633931 0.40063802405702759 0 -0.2125898105148219 0.39393719961835072 0 -0.22102081017827421 0.3955726601995932 0 -0.21858966960632159 0.38785769975747503 0 -0.2125898105148219 0.39393719961835072 0 -0.2117275690134624 0.38824041511800023 0 -0.2125898105148219 0.39393719961835072 0 -0.20526603114802061 0.39319256802175989 0 -0.21229493205633931 0.40063802405702759 0 -0.2125898105148219 0.39393719961835072 0 -0.20526603114802061 0.39319256802175989 0 -0.19650278298641541 0.39899570411707641 0 -0.19144174633125541 0.39308606553276199 0 -0.17464950536616131 0.41531972122465249 0 -0.20526603114802061 0.39319256802175989 0 -0.19650278298641541 0.39899570411707641 0 -0.1974221731652622 0.39564827217635168 0 -0.20526603114802061 0.39319256802175989 0 -0.1974221731652622 0.39564827217635168 0 -0.19144174633125541 0.39308606553276199 0 -0.19650278298641541 0.39899570411707641 0 -0.1974221731652622 0.39564827217635168 0 -0.19650278298641541 0.39899570411707641 0 -0.1974221731652622 0.39564827217635168 0 -0.19144174633125541 0.39308606553276199 0 -0.19650278298641541 0.39899570411707641 0 -0.19144174633125541 0.39308606553276199 0 -0.20526603114802061 0.39319256802175989 0 -0.19144174633125541 0.39308606553276199 0 -0.20496826091030709 0.37253972502732891 0 -0.19144174633125541 0.39308606553276199 0 -0.20496826091030709 0.37253972502732891 0 -0.19144174633125541 0.39308606553276199 0 -0.195167100369181 0.37830450832048129 0 -0.20496826091030709 0.37253972502732891 0 -0.19144174633125541 0.39308606553276199 0 -0.195167100369181 0.37830450832048129 0 -0.1878316179084282 0.37912671641195728 0 -0.195167100369181 0.37830450832048129 0 -0.1878316179084282 0.37912671641195728 0 -0.18819825675641019 0.36945469237806688 0 -0.17651936817686589 0.37566159941651928 0 -0.17147516220972481 0.38622171172405589 0 -0.17746643349988331 0.39285526360617012 0 -0.19144174633125541 0.39308606553276199 0 -0.1878316179084282 0.37912671641195728 0 -0.17651936817686589 0.37566159941651928 0 -0.19144174633125541 0.39308606553276199 0 -0.17651936817686589 0.37566159941651928 0 -0.17746643349988331 0.39285526360617012 0 -0.19144174633125541 0.39308606553276199 0 -0.17651936817686589 0.37566159941651928 0 -0.17147516220972481 0.38622171172405589 0 -0.1617087119878175 0.38219890732045869 0 -0.1662886449494394 0.39858252474940109 0 -0.17651936817686589 0.37566159941651928 0 -0.17147516220972481 0.38622171172405589 0 -0.1617087119878175 0.38219890732045869 0 -0.1662886449494394 0.39858252474940109 0 -0.16022205723902411 0.4168518815220485 0 -0.14966710768452049 0.40298916444323463 0 -0.1617087119878175 0.38219890732045869 0 -0.1662886449494394 0.39858252474940109 0 -0.14966710768452049 0.40298916444323463 0 -0.17147516220972481 0.38622171172405589 0 -0.1662886449494394 0.39858252474940109 0 -0.17746643349988331 0.39285526360617012 0 -0.19144174633125541 0.39308606553276199 0 -0.17746643349988331 0.39285526360617012 0 -0.17464950536616131 0.41531972122465249 0 -0.1662886449494394 0.39858252474940109 0 -0.17746643349988331 0.39285526360617012 0 -0.17464950536616131 0.41531972122465249 0 -0.19144174633125541 0.39308606553276199 0 -0.17464950536616131 0.41531972122465249 0 -0.1896578692136133 0.42391753112991731 0 -0.19650278298641541 0.39899570411707641 0 -0.17464950536616131 0.41531972122465249 0 -0.18281295544081311 0.44883935814275849 0 -0.1896578692136133 0.42391753112991731 0 -0.1746255647054985 0.43275974049356458 0 -0.1896578692136133 0.42391753112991731 0 -0.17464950536616131 0.41531972122465249 0 -0.1746255647054985 0.43275974049356458 0 -0.18281295544081311 0.44883935814275849 0 -0.1896578692136133 0.42391753112991731 0 -0.15785726440106901 0.43755337691654439 0 -0.16022205723902411 0.4168518815220485 0 -0.15264776379393019 0.4298146202764096 0 -0.15785726440106901 0.43755337691654439 0 -0.17464950536616131 0.41531972122465249 0 -0.15785726440106901 0.43755337691654439 0 -0.17464950536616131 0.41531972122465249 0 -0.16022205723902411 0.4168518815220485 0 -0.15785726440106901 0.43755337691654439 0 -0.17464950536616131 0.41531972122465249 0 -0.1746255647054985 0.43275974049356458 0 -0.1662886449494394 0.39858252474940109 0 -0.17464950536616131 0.41531972122465249 0 -0.16022205723902411 0.4168518815220485 0 -0.15264776379393019 0.4298146202764096 0 -0.14966710768452049 0.40298916444323463 0 -0.15264776379393019 0.4298146202764096 0 -0.1392250283783377 0.41795567766486402 0 -0.14966710768452049 0.40298916444323463 0 -0.16022205723902411 0.4168518815220485 0 -0.15264776379393019 0.4298146202764096 0 -0.14966710768452049 0.40298916444323463 0 -0.15264776379393019 0.4298146202764096 0 -0.14030550951066981 0.43154331758783832 0 -0.1392250283783377 0.41795567766486402 0 -0.1465950840034243 0.44126735060624661 0 -0.15264776379393019 0.4298146202764096 0 -0.14030550951066981 0.43154331758783832 0 -0.1307498339847335 0.43768509305413422 0 -0.13794657077147751 0.44020549074120929 0 -0.14030550951066981 0.43154331758783832 0 -0.1307498339847335 0.43768509305413422 0 -0.14030550951066981 0.43154331758783832 0 -0.12913489323789129 0.42714943008194067 0 -0.14030550951066981 0.43154331758783832 0 -0.12913489323789129 0.42714943008194067 0 -0.1392250283783377 0.41795567766486402 0 -0.1307498339847335 0.43768509305413422 0 -0.12913489323789129 0.42714943008194067 0 -0.12109511074820831 0.43562865952456448 0 -0.1392250283783377 0.41795567766486402 0 -0.12759898458538449 0.40317141248719779 0 -0.14966710768452049 0.40298916444323463 0 -0.12913489323789129 0.42714943008194067 0 -0.1392250283783377 0.41795567766486402 0 -0.1248681165373486 0.41536467979602459 0 -0.1392250283783377 0.41795567766486402 0 -0.12759898458538449 0.40317141248719779 0 -0.1248681165373486 0.41536467979602459 0 -0.12759898458538449 0.40317141248719779 0 -0.1295701617381706 0.38293919674623339 0 -0.14966710768452049 0.40298916444323463 0 -0.1295701617381706 0.38293919674623339 0 -0.1466864515751127 0.37616370861005949 0 -0.1295701617381706 0.38293919674623339 0 -0.1466864515751127 0.37616370861005949 0 -0.13594070032146741 0.37253126829786892 0 -0.1466864515751127 0.37616370861005949 0 -0.14966710768452049 0.40298916444323463 0 -0.1295701617381706 0.38293919674623339 0 -0.1466864515751127 0.37616370861005949 0 -0.14966710768452049 0.40298916444323463 0 -0.1617087119878175 0.38219890732045869 0 -0.1466864515751127 0.37616370861005949 0 -0.14966710768452049 0.40298916444323463 0 -0.14266882171832529 0.35156415323442181 0 -0.1527205183088243 0.34353762572902541 0 -0.157601823481472 0.3534774261881703 0 -0.14266882171832529 0.35156415323442181 0 -0.1514692722446343 0.36269797870326881 0 -0.157601823481472 0.3534774261881703 0 -0.1466864515751127 0.37616370861005949 0 -0.14637680743537171 0.37337695801231269 0 -0.17142825260251299 0.36636965972880581 0 -0.14637680743537171 0.37337695801231269 0 -0.14164535240799569 0.36424044454525312 0 -0.13594070032146741 0.37253126829786892 0 -0.1466864515751127 0.37616370861005949 0 -0.14637680743537171 0.37337695801231269 0 -0.13594070032146741 0.37253126829786892 0 -0.1466864515751127 0.37616370861005949 0 -0.14637680743537171 0.37337695801231269 0 -0.14266882171832529 0.35156415323442181 0 -0.1514692722446343 0.36269797870326881 0 -0.14164535240799569 0.36424044454525312 0 -0.1514692722446343 0.36269797870326881 0 -0.14637680743537171 0.37337695801231269 0 -0.14164535240799569 0.36424044454525312 0 -0.14164535240799569 0.36424044454525312 0 -0.13594070032146741 0.37253126829786892 0 -0.13216171515812411 0.35971587461028698 0 -0.1295701617381706 0.38293919674623339 0 -0.13594070032146741 0.37253126829786892 0 -0.12568769255360029 0.36815307557729582 0 -0.13594070032146741 0.37253126829786892 0 -0.12568769255360029 0.36815307557729582 0 -0.13216171515812411 0.35971587461028698 0 -0.13216171515812411 0.35971587461028698 0 -0.12830973963933351 0.3461500861297368 0 -0.1171826894748457 0.35234436687975762 0 -0.14266882171832529 0.35156415323442181 0 -0.14164535240799569 0.36424044454525312 0 -0.13216171515812411 0.35971587461028698 0 -0.14266882171832529 0.35156415323442181 0 -0.13216171515812411 0.35971587461028698 0 -0.12830973963933351 0.3461500861297368 0 -0.14266882171832529 0.35156415323442181 0 -0.12830973963933351 0.3461500861297368 0 -0.13313333021521651 0.32991703897271768 0 -0.13313333021521651 0.32991703897271768 0 -0.15151224571844829 0.31564709061656582 0 -0.13015672938023479 0.30575434878206598 0 -0.13313333021521651 0.32991703897271768 0 -0.15151224571844829 0.31564709061656582 0 -0.1527205183088243 0.34353762572902541 0 -0.14266882171832529 0.35156415323442181 0 -0.13313333021521651 0.32991703897271768 0 -0.1527205183088243 0.34353762572902541 0 -0.15151224571844829 0.31564709061656582 0 -0.1527205183088243 0.34353762572902541 0 -0.16561752219612499 0.3386908852490253 0 -0.15151224571844829 0.31564709061656582 0 -0.17448904820026939 0.32892628110333838 0 -0.15151224571844829 0.31564709061656582 0 -0.16561752219612499 0.3386908852490253 0 -0.17448904820026939 0.32892628110333838 0 -0.15151224571844829 0.31564709061656582 0 -0.17448904820026939 0.32892628110333838 0 -0.17489300172595981 0.30970226238793003 0 -0.17448904820026939 0.32892628110333838 0 -0.18909290852124849 0.32290901008418482 0 -0.17489300172595981 0.30970226238793003 0 -0.18909290852124849 0.32290901008418482 0 -0.19567339875991269 0.31036835701374749 0 -0.17489300172595981 0.30970226238793003 0 -0.17448904820026939 0.32892628110333838 0 -0.1974658506820906 0.342205471590111 0 -0.17448904820026939 0.32892628110333838 0 -0.18158219490261521 0.34655724369540691 0 -0.1974658506820906 0.342205471590111 0 -0.17448904820026939 0.32892628110333838 0 -0.1974658506820906 0.342205471590111 0 -0.18909290852124849 0.32290901008418482 0 -0.16561752219612499 0.3386908852490253 0 -0.17448904820026939 0.32892628110333838 0 -0.18158219490261521 0.34655724369540691 0 -0.16561752219612499 0.3386908852490253 0 -0.18158219490261521 0.34655724369540691 0 -0.16861928578714289 0.35236284209566998 0 -0.18158219490261521 0.34655724369540691 0 -0.16861928578714289 0.35236284209566998 0 -0.18451805326546081 0.36118805846231578 0 -0.16861928578714289 0.35236284209566998 0 -0.18451805326546081 0.36118805846231578 0 -0.1527205183088243 0.34353762572902541 0 -0.16861928578714289 0.35236284209566998 0 -0.157601823481472 0.3534774261881703 0 -0.1527205183088243 0.34353762572902541 0 -0.16861928578714289 0.35236284209566998 0 -0.1527205183088243 0.34353762572902541 0 -0.16561752219612499 0.3386908852490253 0 -0.16861928578714289 0.35236284209566998 0 -0.16861928578714289 0.35236284209566998 0 -0.157601823481472 0.3534774261881703 0 -0.17142825260251299 0.36636965972880581 0 -0.1514692722446343 0.36269797870326881 0 -0.17142825260251299 0.36636965972880581 0 -0.1514692722446343 0.36269797870326881 0 -0.157601823481472 0.3534774261881703 0 -0.17142825260251299 0.36636965972880581 0 -0.1514692722446343 0.36269797870326881 0 -0.14637680743537171 0.37337695801231269 0 -0.17142825260251299 0.36636965972880581 0 -0.1617087119878175 0.38219890732045869 0 -0.1466864515751127 0.37616370861005949 0 -0.17142825260251299 0.36636965972880581 0 -0.17651936817686589 0.37566159941651928 0 -0.1617087119878175 0.38219890732045869 0 -0.17142825260251299 0.36636965972880581 0 -0.1466864515751127 0.37616370861005949 0 -0.17142825260251299 0.36636965972880581 0 -0.17142825260251299 0.36636965972880581 0 -0.18819825675641019 0.36945469237806688 0 -0.17142825260251299 0.36636965972880581 0 -0.18451805326546081 0.36118805846231578 0 -0.18819825675641019 0.36945469237806688 0 -0.17651936817686589 0.37566159941651928 0 -0.17142825260251299 0.36636965972880581 0 -0.18819825675641019 0.36945469237806688 0 -0.16861928578714289 0.35236284209566998 0 -0.17142825260251299 0.36636965972880581 0 -0.18451805326546081 0.36118805846231578 0 -0.17142825260251299 0.36636965972880581 0 -0.18451805326546081 0.36118805846231578 0 -0.1878316179084282 0.37912671641195728 0 -0.17651936817686589 0.37566159941651928 0 -0.18819825675641019 0.36945469237806688 0 -0.18451805326546081 0.36118805846231578 0 -0.20159113038146151 0.36276042180205498 0 -0.20496826091030709 0.37253972502732891 0 -0.18451805326546081 0.36118805846231578 0 -0.18819825675641019 0.36945469237806688 0 -0.20496826091030709 0.37253972502732891 0 -0.18451805326546081 0.36118805846231578 0 -0.20159113038146151 0.36276042180205498 0 -0.1988422269884785 0.35551783027353617 0 -0.18451805326546081 0.36118805846231578 0 -0.20496826091030709 0.37253972502732891 0 -0.195167100369181 0.37830450832048129 0 -0.18819825675641019 0.36945469237806688 0 -0.20496826091030709 0.37253972502732891 0 -0.18819825675641019 0.36945469237806688 0 -0.20496826091030709 0.37253972502732891 0 -0.1988422269884785 0.35551783027353617 0 -0.20821268145672989 0.35791512860768793 0 -0.1974658506820906 0.342205471590111 0 -0.18158219490261521 0.34655724369540691 0 -0.18451805326546081 0.36118805846231578 0 -0.1988422269884785 0.35551783027353617 0 -0.18158219490261521 0.34655724369540691 0 -0.1988422269884785 0.35551783027353617 0 -0.1974658506820906 0.342205471590111 0 -0.18451805326546081 0.36118805846231578 0 -0.1988422269884785 0.35551783027353617 0 -0.20159113038146151 0.36276042180205498 0 -0.1988422269884785 0.35551783027353617 0 -0.20821268145672989 0.35791512860768793 0 -0.20821268145672989 0.35791512860768793 0 -0.2204426531639119 0.35548466207688367 0 -0.1974658506820906 0.342205471590111 0 -0.2204426531639119 0.35548466207688367 0 -0.1974658506820906 0.342205471590111 0 -0.2204426531639119 0.35548466207688367 0 -0.21896646906233 0.34488598531708109 0 -0.1974658506820906 0.342205471590111 0 -0.20821268145672989 0.35791512860768793 0 -0.21669580801476471 0.36249235541415747 0 -0.2204426531639119 0.35548466207688367 0 -0.20671669589684011 0.37286136949259302 0 -0.21764261693239789 0.36825054000802798 0 -0.22601007317465879 0.37364315378659152 0 -0.20159113038146151 0.36276042180205498 0 -0.20496826091030709 0.37253972502732891 0 -0.21141442928633039 0.36664136663940761 0 -0.20671669589684011 0.37286136949259302 0 -0.21141442928633039 0.36664136663940761 0 -0.20671669589684011 0.37286136949259302 0 -0.20496826091030709 0.37253972502732891 0 -0.21141442928633039 0.36664136663940761 0 -0.20671669589684011 0.37286136949259302 0 -0.20496826091030709 0.37253972502732891 0 -0.20159113038146151 0.36276042180205498 0 -0.20821268145672989 0.35791512860768793 0 -0.21141442928633039 0.36664136663940761 0 -0.20821268145672989 0.35791512860768793 0 -0.21141442928633039 0.36664136663940761 0 -0.21669580801476471 0.36249235541415747 0 -0.21141442928633039 0.36664136663940761 0 -0.21669580801476471 0.36249235541415747 0 -0.21764261693239789 0.36825054000802798 0 -0.20671669589684011 0.37286136949259302 0 -0.21141442928633039 0.36664136663940761 0 -0.21764261693239789 0.36825054000802798 0 -0.23160440219217321 0.37743974560876709 0 -0.20671669589684011 0.37286136949259302 0 -0.22601007317465879 0.37364315378659152 0 -0.21764261693239789 0.36825054000802798 0 -0.22601007317465879 0.37364315378659152 0 -0.2257666592344533 0.36417007973878007 0 -0.23160440219217321 0.37743974560876709 0 -0.22601007317465879 0.37364315378659152 0 -0.23198973446214929 0.36987628381968579 0 -0.22601007317465879 0.37364315378659152 0 -0.23198973446214929 0.36987628381968579 0 -0.2257666592344533 0.36417007973878007 0 -0.23390177121524999 0.36195366154257941 0 -0.2257666592344533 0.36417007973878007 0 -0.22967495102230201 0.35365068658084048 0 -0.23198973446214929 0.36987628381968579 0 -0.23390177121524999 0.36195366154257941 0 -0.2257666592344533 0.36417007973878007 0 -0.23198973446214929 0.36987628381968579 0 -0.23390177121524999 0.36195366154257941 0 -0.2371720930947416 0.36592300569940611 0 -0.21669580801476471 0.36249235541415747 0 -0.21764261693239789 0.36825054000802798 0 -0.2257666592344533 0.36417007973878007 0 -0.21669580801476471 0.36249235541415747 0 -0.2257666592344533 0.36417007973878007 0 -0.2204426531639119 0.35548466207688367 0 -0.2257666592344533 0.36417007973878007 0 -0.2204426531639119 0.35548466207688367 0 -0.22967495102230201 0.35365068658084048 0 -0.21896646906233 0.34488598531708109 0 -0.22967495102230201 0.35365068658084048 0 -0.22688419040859789 0.33973657754901199 0 -0.2204426531639119 0.35548466207688367 0 -0.21896646906233 0.34488598531708109 0 -0.22967495102230201 0.35365068658084048 0 -0.22967495102230201 0.35365068658084048 0 -0.23621708026014299 0.35525026277754912 0 -0.2347543792317531 0.34567913052946181 0 -0.22967495102230201 0.35365068658084048 0 -0.2347543792317531 0.34567913052946181 0 -0.22688419040859789 0.33973657754901199 0 -0.23390177121524999 0.36195366154257941 0 -0.22967495102230201 0.35365068658084048 0 -0.23621708026014299 0.35525026277754912 0 -0.24129669962091529 0.35234764207603581 0 -0.24634500562581699 0.35522147955953631 0 -0.2385664658395906 0.32717902618348449 0 -0.25184762069606181 0.32948502420814602 0 -0.24925566175548719 0.35427403632965981 0 -0.24634500562581699 0.35522147955953631 0 -0.23621708026014299 0.35525026277754912 0 -0.24129669962091529 0.35234764207603581 0 -0.24145760021049481 0.36262019315882832 0 -0.23621708026014299 0.35525026277754912 0 -0.24129669962091529 0.35234764207603581 0 -0.2347543792317531 0.34567913052946181 0 -0.24129669962091529 0.35234764207603581 0 -0.24634500562581699 0.35522147955953631 0 -0.24145760021049481 0.36262019315882832 0 -0.24129669962091529 0.35234764207603581 0 -0.24634500562581699 0.35522147955953631 0 -0.25182284239910208 0.37496965679306948 0 -0.24634500562581699 0.35522147955953631 0 -0.24145760021049481 0.36262019315882832 0 -0.25182284239910208 0.37496965679306948 0 -0.24634500562581699 0.35522147955953631 0 -0.25182284239910208 0.37496965679306948 0 -0.24080496398569071 0.37504896525812098 0 -0.24145760021049481 0.36262019315882832 0 -0.24080496398569071 0.37504896525812098 0 -0.23198973446214929 0.36987628381968579 0 -0.2371720930947416 0.36592300569940611 0 -0.24080496398569071 0.37504896525812098 0 -0.2371720930947416 0.36592300569940611 0 -0.24145760021049481 0.36262019315882832 0 -0.24080496398569071 0.37504896525812098 0 -0.23160440219217321 0.37743974560876709 0 -0.23198973446214929 0.36987628381968579 0 -0.23390177121524999 0.36195366154257941 0 -0.2371720930947416 0.36592300569940611 0 -0.24145760021049481 0.36262019315882832 0 -0.23390177121524999 0.36195366154257941 0 -0.23621708026014299 0.35525026277754912 0 -0.24145760021049481 0.36262019315882832 0 -0.2385664658395906 0.32717902618348449 0 -0.2307879260533654 0.29913657280743228 0 -0.2385664658395906 0.32717902618348449 0 -0.241317773374714 0.31431079850778892 0 -0.2307879260533654 0.29913657280743228 0 -0.25221460354684649 0.31745922199860271 0 -0.241317773374714 0.31431079850778892 0 -0.24984746391295079 0.30843565107058613 0 -0.25184762069606181 0.32948502420814602 0 -0.25221460354684649 0.31745922199860271 0 -0.241317773374714 0.31431079850778892 0 -0.25184762069606181 0.32948502420814602 0 -0.2385664658395906 0.32717902618348449 0 -0.241317773374714 0.31431079850778892 0 -0.25184762069606181 0.32948502420814602 0 -0.241317773374714 0.31431079850778892 0 -0.24634500562581699 0.35522147955953631 0 -0.2385664658395906 0.32717902618348449 0 -0.24129669962091529 0.35234764207603581 0 -0.2347543792317531 0.34567913052946181 0 -0.2385664658395906 0.32717902618348449 0 -0.25184762069606181 0.32948502420814602 0 -0.24634500562581699 0.35522147955953631 0 -0.2385664658395906 0.32717902618348449 0 -0.2347543792317531 0.34567913052946181 0 -0.2385664658395906 0.32717902618348449 0 -0.22688419040859789 0.33973657754901199 0 -0.2385664658395906 0.32717902618348449 0 -0.22688419040859789 0.33973657754901199 0 -0.22523228319514871 0.32811003691224122 0 -0.21896646906233 0.34488598531708109 0 -0.22688419040859789 0.33973657754901199 0 -0.21413259508258711 0.33402599179281839 0 -0.22688419040859789 0.33973657754901199 0 -0.22523228319514871 0.32811003691224122 0 -0.21413259508258711 0.33402599179281839 0 -0.2385664658395906 0.32717902618348449 0 -0.22561741003408711 0.31703151692126452 0 -0.2307879260533654 0.29913657280743228 0 -0.22523228319514871 0.32811003691224122 0 -0.22561741003408711 0.31703151692126452 0 -0.21542595582974969 0.32113326269223791 0 -0.2385664658395906 0.32717902618348449 0 -0.22523228319514871 0.32811003691224122 0 -0.22561741003408711 0.31703151692126452 0 -0.22561741003408711 0.31703151692126452 0 -0.21542595582974969 0.32113326269223791 0 -0.21832597234828929 0.30721255413599052 0 -0.21542595582974969 0.32113326269223791 0 -0.2075031217602514 0.30996190255031181 0 -0.21832597234828929 0.30721255413599052 0 -0.22523228319514871 0.32811003691224122 0 -0.21542595582974969 0.32113326269223791 0 -0.21413259508258711 0.33402599179281839 0 -0.21542595582974969 0.32113326269223791 0 -0.21413259508258711 0.33402599179281839 0 -0.2029432432380103 0.32334267832579688 0 -0.21542595582974969 0.32113326269223791 0 -0.2029432432380103 0.32334267832579688 0 -0.2075031217602514 0.30996190255031181 0 -0.21896646906233 0.34488598531708109 0 -0.21413259508258711 0.33402599179281839 0 -0.1974658506820906 0.342205471590111 0 -0.21413259508258711 0.33402599179281839 0 -0.1974658506820906 0.342205471590111 0 -0.2029432432380103 0.32334267832579688 0 -0.1974658506820906 0.342205471590111 0 -0.2029432432380103 0.32334267832579688 0 -0.18909290852124849 0.32290901008418482 0 -0.2029432432380103 0.32334267832579688 0 -0.18909290852124849 0.32290901008418482 0 -0.19567339875991269 0.31036835701374749 0 -0.2029432432380103 0.32334267832579688 0 -0.19567339875991269 0.31036835701374749 0 -0.2075031217602514 0.30996190255031181 0 -0.20181395487052389 0.29822765186018629 0 -0.19567339875991269 0.31036835701374749 0 -0.18585898263098341 0.29478354421809738 0 -0.20181395487052389 0.29822765186018629 0 -0.19567339875991269 0.31036835701374749 0 -0.2075031217602514 0.30996190255031181 0 -0.20181395487052389 0.29822765186018629 0 -0.19995212896080031 0.28419700110262203 0 -0.18585898263098341 0.29478354421809738 0 -0.19995212896080031 0.28419700110262203 0 -0.1863387009100084 0.27688532965625462 0 -0.18585898263098341 0.29478354421809738 0 -0.19995212896080031 0.28419700110262203 0 -0.2101489963232395 0.28978200648685443 0 -0.20943459683405191 0.28083608453519843 0 -0.20181395487052389 0.29822765186018629 0 -0.2101489963232395 0.28978200648685443 0 -0.21174710078795661 0.30027309978948469 0 -0.20181395487052389 0.29822765186018629 0 -0.19995212896080031 0.28419700110262203 0 -0.2101489963232395 0.28978200648685443 0 -0.2101489963232395 0.28978200648685443 0 -0.21174710078795661 0.30027309978948469 0 -0.21887431962432591 0.29573897005521188 0 -0.2101489963232395 0.28978200648685443 0 -0.21887431962432591 0.29573897005521188 0 -0.21947506270184461 0.28283396778624958 0 -0.2101489963232395 0.28978200648685443 0 -0.21947506270184461 0.28283396778624958 0 -0.20943459683405191 0.28083608453519843 0 -0.20181395487052389 0.29822765186018629 0 -0.2075031217602514 0.30996190255031181 0 -0.21174710078795661 0.30027309978948469 0 -0.21174710078795661 0.30027309978948469 0 -0.21832597234828929 0.30721255413599052 0 -0.21887431962432591 0.29573897005521188 0 -0.2075031217602514 0.30996190255031181 0 -0.21174710078795661 0.30027309978948469 0 -0.21832597234828929 0.30721255413599052 0 -0.22561741003408711 0.31703151692126452 0 -0.21832597234828929 0.30721255413599052 0 -0.2307879260533654 0.29913657280743228 0 -0.21832597234828929 0.30721255413599052 0 -0.2307879260533654 0.29913657280743228 0 -0.21887431962432591 0.29573897005521188 0 -0.2307879260533654 0.29913657280743228 0 -0.22617215281344141 0.28249622520592321 0 -0.21947506270184461 0.28283396778624958 0 -0.2307879260533654 0.29913657280743228 0 -0.21887431962432591 0.29573897005521188 0 -0.21947506270184461 0.28283396778624958 0 -0.2307879260533654 0.29913657280743228 0 -0.22617215281344141 0.28249622520592321 0 -0.23255297254558219 0.28491131901306221 0 -0.2307879260533654 0.29913657280743228 0 -0.22617215281344141 0.28249622520592321 0 -0.2307879260533654 0.29913657280743228 0 -0.21947506270184461 0.28283396778624958 0 -0.2307879260533654 0.29913657280743228 0 -0.23255297254558219 0.28491131901306221 0 -0.23669780800622409 0.29033053275266979 0 -0.241705346593975 0.29411829537336581 0 -0.23669780800622409 0.29033053275266979 0 -0.2461457009710625 0.28660185007912692 0 -0.2307879260533654 0.29913657280743228 0 -0.241705346593975 0.29411829537336581 0 -0.23669780800622409 0.29033053275266979 0 -0.23669780800622409 0.29033053275266979 0 -0.2461457009710625 0.28660185007912692 0 -0.24349492025683919 0.28000260571889207 0 -0.23255297254558219 0.28491131901306221 0 -0.23669780800622409 0.29033053275266979 0 -0.23678918607245031 0.28026808028607209 0 -0.23669780800622409 0.29033053275266979 0 -0.24349492025683919 0.28000260571889207 0 -0.23678918607245031 0.28026808028607209 0 -0.25015917674991622 0.28055509263042699 0 -0.2461457009710625 0.28660185007912692 0 -0.24349492025683919 0.28000260571889207 0 -0.25015917674991622 0.28055509263042699 0 -0.2523922020655654 0.28743196839307972 0 -0.2461457009710625 0.28660185007912692 0 -0.25002584089292512 0.29324001154297308 0 -0.241705346593975 0.29411829537336581 0 -0.2448694570462977 0.30128250968462711 0 -0.25002584089292512 0.29324001154297308 0 -0.241705346593975 0.29411829537336581 0 -0.2461457009710625 0.28660185007912692 0 -0.25002584089292512 0.29324001154297308 0 -0.2523922020655654 0.28743196839307972 0 -0.2461457009710625 0.28660185007912692 0 -0.25227733084084702 0.30037690198906042 0 -0.2448694570462977 0.30128250968462711 0 -0.24984746391295079 0.30843565107058613 0 -0.25227733084084702 0.30037690198906042 0 -0.25002584089292512 0.29324001154297308 0 -0.2448694570462977 0.30128250968462711 0 -0.241317773374714 0.31431079850778892 0 -0.2448694570462977 0.30128250968462711 0 -0.24984746391295079 0.30843565107058613 0 -0.241317773374714 0.31431079850778892 0 -0.2307879260533654 0.29913657280743228 0 -0.241317773374714 0.31431079850778892 0 -0.2307879260533654 0.29913657280743228 0 -0.2448694570462977 0.30128250968462711 0 -0.2307879260533654 0.29913657280743228 0 -0.241705346593975 0.29411829537336581 0 -0.2448694570462977 0.30128250968462711 0 -0.25768378580886803 0.26017067753966372 0 -0.23937173939900569 0.25000892240791589 0 -0.25768378580886803 0.26017067753966372 0 -0.2453852920754056 0.26435655690198262 0 -0.23937173939900569 0.25000892240791589 0 -0.2453852920754056 0.26435655690198262 0 -0.23348510405799891 0.26024160060393797 0 -0.23937173939900569 0.25000892240791589 0 -0.2453852920754056 0.26435655690198262 0 -0.23883412698910569 0.26871563705222717 0 -0.23348510405799891 0.26024160060393797 0 -0.2453852920754056 0.26435655690198262 0 -0.2462921380449441 0.2736975972161475 0 -0.23883412698910569 0.26871563705222717 0 -0.25664485815251131 0.27330490659200379 0 -0.2453852920754056 0.26435655690198262 0 -0.2462921380449441 0.2736975972161475 0 -0.25015917674991622 0.28055509263042699 0 -0.2462921380449441 0.2736975972161475 0 -0.24349492025683919 0.28000260571889207 0 -0.2462921380449441 0.2736975972161475 0 -0.24349492025683919 0.28000260571889207 0 -0.23989692164957341 0.27501021543347848 0 -0.23989692164957341 0.27501021543347848 0 -0.23678918607245031 0.28026808028607209 0 -0.23136150952170989 0.27410008709021899 0 -0.24349492025683919 0.28000260571889207 0 -0.23989692164957341 0.27501021543347848 0 -0.23678918607245031 0.28026808028607209 0 -0.23883412698910569 0.26871563705222717 0 -0.23136150952170989 0.27410008709021899 0 -0.23348510405799891 0.26024160060393797 0 -0.23989692164957341 0.27501021543347848 0 -0.23883412698910569 0.26871563705222717 0 -0.23136150952170989 0.27410008709021899 0 -0.2462921380449441 0.2736975972161475 0 -0.23989692164957341 0.27501021543347848 0 -0.23883412698910569 0.26871563705222717 0 -0.23136150952170989 0.27410008709021899 0 -0.22213017517067371 0.26891503715575332 0 -0.23348510405799891 0.26024160060393797 0 -0.23255297254558219 0.28491131901306221 0 -0.23678918607245031 0.28026808028607209 0 -0.23136150952170989 0.27410008709021899 0 -0.22617215281344141 0.28249622520592321 0 -0.23255297254558219 0.28491131901306221 0 -0.23136150952170989 0.27410008709021899 0 -0.22617215281344141 0.28249622520592321 0 -0.21947506270184461 0.28283396778624958 0 -0.22213017517067371 0.26891503715575332 0 -0.22617215281344141 0.28249622520592321 0 -0.23136150952170989 0.27410008709021899 0 -0.22213017517067371 0.26891503715575332 0 -0.22213017517067371 0.26891503715575332 0 -0.23348510405799891 0.26024160060393797 0 -0.22434868323342591 0.25287719570877248 0 -0.22213017517067371 0.26891503715575332 0 -0.22434868323342591 0.25287719570877248 0 -0.2122134260157022 0.25346492237249812 0 -0.23348510405799891 0.26024160060393797 0 -0.22434868323342591 0.25287719570877248 0 -0.23937173939900569 0.25000892240791589 0 -0.2122134260157022 0.25346492237249812 0 -0.2081621993503231 0.26653136276506761 0 -0.20004969132505351 0.2485023636020027 0 -0.22213017517067371 0.26891503715575332 0 -0.2122134260157022 0.25346492237249812 0 -0.2081621993503231 0.26653136276506761 0 -0.21947506270184461 0.28283396778624958 0 -0.22213017517067371 0.26891503715575332 0 -0.2081621993503231 0.26653136276506761 0 -0.21947506270184461 0.28283396778624958 0 -0.2081621993503231 0.26653136276506761 0 -0.21947506270184461 0.28283396778624958 0 -0.2081621993503231 0.26653136276506761 0 -0.20943459683405191 0.28083608453519843 0 -0.19995212896080031 0.28419700110262203 0 -0.2081621993503231 0.26653136276506761 0 -0.20943459683405191 0.28083608453519843 0 -0.2081621993503231 0.26653136276506761 0 -0.18791388583343391 0.25901304589080842 0 -0.1863387009100084 0.27688532965625462 0 -0.19995212896080031 0.28419700110262203 0 -0.2081621993503231 0.26653136276506761 0 -0.1863387009100084 0.27688532965625462 0 -0.2081621993503231 0.26653136276506761 0 -0.18791388583343391 0.25901304589080842 0 -0.20004969132505351 0.2485023636020027 0 -0.18791388583343391 0.25901304589080842 0 -0.16814614111586151 0.2521838310994724 0 -0.17188947605980451 0.26858926600654193 0 -0.18791388583343391 0.25901304589080842 0 -0.16814614111586151 0.2521838310994724 0 -0.18624064126421089 0.23967134727906891 0 -0.16814614111586151 0.2521838310994724 0 -0.17188947605980451 0.26858926600654193 0 -0.1478754683942235 0.26686285460477921 0 -0.17188947605980451 0.26858926600654193 0 -0.1642555326247051 0.28819775795439051 0 -0.1478754683942235 0.26686285460477921 0 -0.17188947605980451 0.26858926600654193 0 -0.1863387009100084 0.27688532965625462 0 -0.1642555326247051 0.28819775795439051 0 -0.18791388583343391 0.25901304589080842 0 -0.17188947605980451 0.26858926600654193 0 -0.1863387009100084 0.27688532965625462 0 -0.1863387009100084 0.27688532965625462 0 -0.18585898263098341 0.29478354421809738 0 -0.1642555326247051 0.28819775795439051 0 -0.18585898263098341 0.29478354421809738 0 -0.17489300172595981 0.30970226238793003 0 -0.1642555326247051 0.28819775795439051 0 -0.19567339875991269 0.31036835701374749 0 -0.18585898263098341 0.29478354421809738 0 -0.17489300172595981 0.30970226238793003 0 -0.15151224571844829 0.31564709061656582 0 -0.17489300172595981 0.30970226238793003 0 -0.1642555326247051 0.28819775795439051 0 -0.15151224571844829 0.31564709061656582 0 -0.1642555326247051 0.28819775795439051 0 -0.13987627080168169 0.28392268627230149 0 -0.15151224571844829 0.31564709061656582 0 -0.13015672938023479 0.30575434878206598 0 -0.13987627080168169 0.28392268627230149 0 -0.13015672938023479 0.30575434878206598 0 -0.13987627080168169 0.28392268627230149 0 -0.1162034925783926 0.2880112149255537 0 -0.13987627080168169 0.28392268627230149 0 -0.12615666215155311 0.27299581648130761 0 -0.1162034925783926 0.2880112149255537 0 -0.13987627080168169 0.28392268627230149 0 -0.12615666215155311 0.27299581648130761 0 -0.1478754683942235 0.26686285460477921 0 -0.1478754683942235 0.26686285460477921 0 -0.1200650727569653 0.25654842508966841 0 -0.1447391232489933 0.24560219932977209 0 -0.1200650727569653 0.25654842508966841 0 -0.1447391232489933 0.24560219932977209 0 -0.12615666215155311 0.27299581648130761 0 -0.1478754683942235 0.26686285460477921 0 -0.1200650727569653 0.25654842508966841 0 -0.16814614111586151 0.2521838310994724 0 -0.1478754683942235 0.26686285460477921 0 -0.1447391232489933 0.24560219932977209 0 -0.1642555326247051 0.28819775795439051 0 -0.13987627080168169 0.28392268627230149 0 -0.1478754683942235 0.26686285460477921 0 -0.095391022264937397 0.26749465084956481 0 -0.1162034925783926 0.2880112149255537 0 -0.094052710900202063 0.28745753550443143 0 -0.095391022264937397 0.26749465084956481 0 -0.1200650727569653 0.25654842508966841 0 -0.095391022264937397 0.26749465084956481 0 -0.1200650727569653 0.25654842508966841 0 -0.1000211183564635 0.24910540585133639 0 -0.12615666215155311 0.27299581648130761 0 -0.095391022264937397 0.26749465084956481 0 -0.1162034925783926 0.2880112149255537 0 -0.12615666215155311 0.27299581648130761 0 -0.095391022264937397 0.26749465084956481 0 -0.1200650727569653 0.25654842508966841 0 -0.13015672938023479 0.30575434878206598 0 -0.1162034925783926 0.2880112149255537 0 -0.110058307587435 0.31127371312319108 0 -0.110058307587435 0.31127371312319108 0 -0.094052710900202063 0.28745753550443143 0 -0.083400322711511266 0.30448217569262792 0 -0.1162034925783926 0.2880112149255537 0 -0.110058307587435 0.31127371312319108 0 -0.094052710900202063 0.28745753550443143 0 -0.094052710900202063 0.28745753550443143 0 -0.083400322711511266 0.30448217569262792 0 -0.070716971772909476 0.27844087660946099 0 -0.083400322711511266 0.30448217569262792 0 -0.06317578738175493 0.30251869533136772 0 -0.073441460082124946 0.32540379706685152 0 -0.083400322711511266 0.30448217569262792 0 -0.06317578738175493 0.30251869533136772 0 -0.070716971772909476 0.27844087660946099 0 -0.095391022264937397 0.26749465084956481 0 -0.094052710900202063 0.28745753550443143 0 -0.070716971772909476 0.27844087660946099 0 -0.095391022264937397 0.26749465084956481 0 -0.070716971772909476 0.27844087660946099 0 -0.095391022264937397 0.26749465084956481 0 -0.070716971772909476 0.27844087660946099 0 -0.076858009621886367 0.2482388650172308 0 -0.095391022264937397 0.26749465084956481 0 -0.1000211183564635 0.24910540585133639 0 -0.076858009621886367 0.2482388650172308 0 -0.058128604213958802 0.26410376382122269 0 -0.076858009621886367 0.2482388650172308 0 -0.058125444104681893 0.24600468991723079 0 -0.070716971772909476 0.27844087660946099 0 -0.058128604213958802 0.26410376382122269 0 -0.076858009621886367 0.2482388650172308 0 -0.058128604213958802 0.26410376382122269 0 -0.038899674289434687 0.2584472851928335 0 -0.058125444104681893 0.24600468991723079 0 -0.058128604213958802 0.26410376382122269 0 -0.038899674289434687 0.2584472851928335 0 -0.046042921280881548 0.28938710236935739 0 -0.070716971772909476 0.27844087660946099 0 -0.058128604213958802 0.26410376382122269 0 -0.046042921280881548 0.28938710236935739 0 -0.038899674289434687 0.2584472851928335 0 -0.024469926588574501 0.27345451070547089 0 -0.046042921280881548 0.28938710236935739 0 -0.038899674289434687 0.2584472851928335 0 -0.018000355716265092 0.25741728106819378 0 -0.024469926588574501 0.27345451070547089 0 -0.038899674289434687 0.2584472851928335 0 -0.018000355716265092 0.25741728106819378 0 -0.02627617770287325 0.24201379537057099 0 -0.018000355716265092 0.25741728106819378 0 -0.024469926588574501 0.27345451070547089 0 -0.0068905671122931923 0.27148047605306702 0 -0.024469926588574501 0.27345451070547089 0 -0.0068905671122931923 0.27148047605306702 0 -0.0096305683164936706 0.28565788856963842 0 -0.0068905671122931923 0.27148047605306702 0 -0.0096305683164936706 0.28565788856963842 0 0.0034611098733089872 0.28494369545047238 0 -0.018000355716265092 0.25741728106819378 0 -0.0068905671122931923 0.27148047605306702 0 -0.00045229697026904348 0.25795292580345919 0 -0.018000355716265092 0.25741728106819378 0 -0.00045229697026904348 0.25795292580345919 0 -0.009410176840658601 0.24322056435945061 0 -0.02136887078885363 0.30033332812925367 0 -0.0037405759101894749 0.32486350281032239 0 0.001533996037670159 0.29940650260914209 0 -0.0096305683164936706 0.28565788856963842 0 -0.02136887078885363 0.30033332812925367 0 0.001533996037670159 0.29940650260914209 0 -0.0096305683164936706 0.28565788856963842 0 0.0034611098733089872 0.28494369545047238 0 0.001533996037670159 0.29940650260914209 0 -0.024469926588574501 0.27345451070547089 0 -0.0096305683164936706 0.28565788856963842 0 -0.02136887078885363 0.30033332812925367 0 -0.024469926588574501 0.27345451070547089 0 -0.02136887078885363 0.30033332812925367 0 -0.046042921280881548 0.28938710236935739 0 -0.02136887078885363 0.30033332812925367 0 -0.046042921280881548 0.28938710236935739 0 -0.047698783096894223 0.31435903374308971 0 -0.02136887078885363 0.30033332812925367 0 -0.046042921280881548 0.28938710236935739 0 -0.06317578738175493 0.30251869533136772 0 -0.070716971772909476 0.27844087660946099 0 -0.046042921280881548 0.28938710236935739 0 -0.070716971772909476 0.27844087660946099 0 -0.046042921280881548 0.28938710236935739 0 -0.06317578738175493 0.30251869533136772 0 -0.046042921280881548 0.28938710236935739 0 -0.047698783096894223 0.31435903374308971 0 -0.06317578738175493 0.30251869533136772 0 -0.047698783096894223 0.31435903374308971 0 -0.073441460082124946 0.32540379706685152 0 -0.047698783096894223 0.31435903374308971 0 -0.055896270736539327 0.33360214965434459 0 -0.073441460082124946 0.32540379706685152 0 -0.055896270736539327 0.33360214965434459 0 -0.029032339091940449 0.32792858191182761 0 -0.041798122203174248 0.34615053775984839 0 -0.047698783096894223 0.31435903374308971 0 -0.055896270736539327 0.33360214965434459 0 -0.029032339091940449 0.32792858191182761 0 -0.02136887078885363 0.30033332812925367 0 -0.047698783096894223 0.31435903374308971 0 -0.029032339091940449 0.32792858191182761 0 -0.02136887078885363 0.30033332812925367 0 -0.029032339091940449 0.32792858191182761 0 -0.0037405759101894749 0.32486350281032239 0 -0.029032339091940449 0.32792858191182761 0 -0.0037405759101894749 0.32486350281032239 0 -0.015829856436659781 0.34866010042613732 0 -0.029032339091940449 0.32792858191182761 0 -0.015829856436659781 0.34866010042613732 0 -0.041798122203174248 0.34615053775984839 0 -0.0037405759101894749 0.32486350281032239 0 -0.015829856436659781 0.34866010042613732 0 0.0032870183029002601 0.34063277615122461 0 -0.015829856436659781 0.34866010042613732 0 -0.0086778301900626732 0.37529690039191538 0 -0.015829856436659781 0.34866010042613732 0 -0.0086778301900626732 0.37529690039191538 0 0.01045091256259899 0.3581436725760091 0 -0.015829856436659781 0.34866010042613732 0 0.01045091256259899 0.3581436725760091 0 0.0032870183029002601 0.34063277615122461 0 -0.015829856436659781 0.34866010042613732 0 -0.035788408944294553 0.36457502268037378 0 -0.041798122203174248 0.34615053775984839 0 -0.015829856436659781 0.34866010042613732 0 -0.035788408944294553 0.36457502268037378 0 -0.0086778301900626732 0.37529690039191538 0 -0.035788408944294553 0.36457502268037378 0 -0.032262043459462611 0.38413031888725468 0 -0.0086778301900626732 0.37529690039191538 0 -0.035788408944294553 0.36457502268037378 0 -0.054045320810965983 0.37589378916152522 0 -0.032262043459462611 0.38413031888725468 0 -0.035788408944294553 0.36457502268037378 0 -0.041798122203174248 0.34615053775984839 0 -0.062117280565442051 0.35731848945556199 0 -0.055896270736539327 0.33360214965434459 0 -0.041798122203174248 0.34615053775984839 0 -0.062117280565442051 0.35731848945556199 0 -0.035788408944294553 0.36457502268037378 0 -0.062117280565442051 0.35731848945556199 0 -0.054045320810965983 0.37589378916152522 0 -0.062117280565442051 0.35731848945556199 0 -0.073343956540823402 0.37427212687350608 0 -0.054045320810965983 0.37589378916152522 0 -0.062117280565442051 0.35731848945556199 0 -0.073343956540823402 0.37427212687350608 0 -0.083644330723951804 0.36138377432147251 0 -0.083644330723951804 0.36138377432147251 0 -0.10125747573726759 0.35982137484126908 0 -0.09556724509345732 0.37674832644210771 0 -0.073343956540823402 0.37427212687350608 0 -0.083644330723951804 0.36138377432147251 0 -0.09556724509345732 0.37674832644210771 0 -0.083644330723951804 0.36138377432147251 0 -0.077222478418545321 0.34425603037108699 0 -0.095857177572965316 0.33995898961547238 0 -0.083644330723951804 0.36138377432147251 0 -0.095857177572965316 0.33995898961547238 0 -0.10125747573726759 0.35982137484126908 0 -0.062117280565442051 0.35731848945556199 0 -0.083644330723951804 0.36138377432147251 0 -0.077222478418545321 0.34425603037108699 0 -0.055896270736539327 0.33360214965434459 0 -0.062117280565442051 0.35731848945556199 0 -0.077222478418545321 0.34425603037108699 0 -0.055896270736539327 0.33360214965434459 0 -0.077222478418545321 0.34425603037108699 0 -0.073441460082124946 0.32540379706685152 0 -0.083400322711511266 0.30448217569262792 0 -0.073441460082124946 0.32540379706685152 0 -0.09141107281269889 0.32207798881341559 0 -0.073441460082124946 0.32540379706685152 0 -0.09141107281269889 0.32207798881341559 0 -0.095857177572965316 0.33995898961547238 0 -0.077222478418545321 0.34425603037108699 0 -0.073441460082124946 0.32540379706685152 0 -0.095857177572965316 0.33995898961547238 0 -0.095857177572965316 0.33995898961547238 0 -0.1131221404848019 0.33478380142651298 0 -0.1171826894748457 0.35234436687975762 0 -0.09141107281269889 0.32207798881341559 0 -0.095857177572965316 0.33995898961547238 0 -0.1131221404848019 0.33478380142651298 0 -0.110058307587435 0.31127371312319108 0 -0.083400322711511266 0.30448217569262792 0 -0.09141107281269889 0.32207798881341559 0 -0.110058307587435 0.31127371312319108 0 -0.09141107281269889 0.32207798881341559 0 -0.1131221404848019 0.33478380142651298 0 -0.13313333021521651 0.32991703897271768 0 -0.110058307587435 0.31127371312319108 0 -0.1131221404848019 0.33478380142651298 0 -0.13313333021521651 0.32991703897271768 0 -0.13015672938023479 0.30575434878206598 0 -0.110058307587435 0.31127371312319108 0 -0.12830973963933351 0.3461500861297368 0 -0.13313333021521651 0.32991703897271768 0 -0.1131221404848019 0.33478380142651298 0 -0.12830973963933351 0.3461500861297368 0 -0.1131221404848019 0.33478380142651298 0 -0.1171826894748457 0.35234436687975762 0 -0.12568769255360029 0.36815307557729582 0 -0.1171826894748457 0.35234436687975762 0 -0.11481828068803671 0.37102952588108179 0 -0.1171826894748457 0.35234436687975762 0 -0.11481828068803671 0.37102952588108179 0 -0.1171826894748457 0.35234436687975762 0 -0.11481828068803671 0.37102952588108179 0 -0.10125747573726759 0.35982137484126908 0 -0.12568769255360029 0.36815307557729582 0 -0.13216171515812411 0.35971587461028698 0 -0.1171826894748457 0.35234436687975762 0 -0.1295701617381706 0.38293919674623339 0 -0.12568769255360029 0.36815307557729582 0 -0.11481828068803671 0.37102952588108179 0 -0.11481828068803671 0.37102952588108179 0 -0.10125747573726759 0.35982137484126908 0 -0.09556724509345732 0.37674832644210771 0 -0.095857177572965316 0.33995898961547238 0 -0.1171826894748457 0.35234436687975762 0 -0.10125747573726759 0.35982137484126908 0 -0.095987698795940379 0.39623282412787958 0 -0.11245387190122801 0.38971468488240618 0 -0.095987698795940379 0.39623282412787958 0 -0.11245387190122801 0.38971468488240618 0 -0.1097881140699208 0.41078130805471158 0 -0.095987698795940379 0.39623282412787958 0 -0.09556724509345732 0.37674832644210771 0 -0.11245387190122801 0.38971468488240618 0 -0.11481828068803671 0.37102952588108179 0 -0.09556724509345732 0.37674832644210771 0 -0.11245387190122801 0.38971468488240618 0 -0.1295701617381706 0.38293919674623339 0 -0.11481828068803671 0.37102952588108179 0 -0.11245387190122801 0.38971468488240618 0 -0.1295701617381706 0.38293919674623339 0 -0.11245387190122801 0.38971468488240618 0 -0.11481828068803671 0.37102952588108179 0 -0.11245387190122801 0.38971468488240618 0 -0.11245387190122801 0.38971468488240618 0 -0.1097881140699208 0.41078130805471158 0 -0.12759898458538449 0.40317141248719779 0 -0.1295701617381706 0.38293919674623339 0 -0.11245387190122801 0.38971468488240618 0 -0.12759898458538449 0.40317141248719779 0 -0.11245387190122801 0.38971468488240618 0 -0.1097881140699208 0.41078130805471158 0 -0.12759898458538449 0.40317141248719779 0 -0.1248681165373486 0.41536467979602459 0 -0.1097881140699208 0.41078130805471158 0 -0.1248681165373486 0.41536467979602459 0 -0.1097881140699208 0.41078130805471158 0 -0.11840601960695291 0.42401115440399417 0 -0.1097881140699208 0.41078130805471158 0 -0.11840601960695291 0.42401115440399417 0 -0.10712235623861339 0.43184793122701681 0 -0.12913489323789129 0.42714943008194067 0 -0.1248681165373486 0.41536467979602459 0 -0.11840601960695291 0.42401115440399417 0 -0.12913489323789129 0.42714943008194067 0 -0.12109511074820831 0.43562865952456448 0 -0.11840601960695291 0.42401115440399417 0 -0.12109511074820831 0.43562865952456448 0 -0.11840601960695291 0.42401115440399417 0 -0.10712235623861339 0.43184793122701681 0 -0.10712235623861339 0.43184793122701681 0 -0.091866624328603236 0.42039299564051791 0 -0.087995310567627882 0.44454313092749248 0 -0.10712235623861339 0.43184793122701681 0 -0.093321940964632727 0.41729944730018381 0 -0.10712235623861339 0.43184793122701681 0 -0.093321940964632727 0.41729944730018381 0 -0.091866624328603236 0.42039299564051791 0 -0.1097881140699208 0.41078130805471158 0 -0.10712235623861339 0.43184793122701681 0 -0.095987698795940379 0.39623282412787958 0 -0.1097881140699208 0.41078130805471158 0 -0.093321940964632727 0.41729944730018381 0 -0.1097881140699208 0.41078130805471158 0 -0.10712235623861339 0.43184793122701681 0 -0.093321940964632727 0.41729944730018381 0 -0.093321940964632727 0.41729944730018381 0 -0.079521525690651962 0.40275096337335092 0 -0.093321940964632727 0.41729944730018381 0 -0.091866624328603236 0.42039299564051791 0 -0.082251785866737787 0.41398073822394482 0 -0.091866624328603236 0.42039299564051791 0 -0.082251785866737787 0.41398073822394482 0 -0.082694274508468932 0.42216066851593542 0 -0.082251785866737787 0.41398073822394482 0 -0.082694274508468932 0.42216066851593542 0 -0.073918609462529122 0.42337391657442891 0 -0.093321940964632727 0.41729944730018381 0 -0.082251785866737787 0.41398073822394482 0 -0.079521525690651962 0.40275096337335092 0 -0.091866624328603236 0.42039299564051791 0 -0.087995310567627882 0.44454313092749248 0 -0.091866624328603236 0.42039299564051791 0 -0.082740078376005555 0.43089502362484983 0 -0.087995310567627882 0.44454313092749248 0 -0.091866624328603236 0.42039299564051791 0 -0.082694274508468932 0.42216066851593542 0 -0.082740078376005555 0.43089502362484983 0 -0.082694274508468932 0.42216066851593542 0 -0.082740078376005555 0.43089502362484983 0 -0.073918609462529122 0.42337391657442891 0 -0.073918609462529122 0.42337391657442891 0 -0.058028022297423043 0.42448981426279719 0 -0.066814092203816372 0.43972775186504742 0 -0.082740078376005555 0.43089502362484983 0 -0.073918609462529122 0.42337391657442891 0 -0.066814092203816372 0.43972775186504742 0 -0.082251785866737787 0.41398073822394482 0 -0.063996608029364285 0.40889650638712483 0 -0.079521525690651962 0.40275096337335092 0 -0.082251785866737787 0.41398073822394482 0 -0.073918609462529122 0.42337391657442891 0 -0.063996608029364285 0.40889650638712483 0 -0.073918609462529122 0.42337391657442891 0 -0.063996608029364285 0.40889650638712483 0 -0.058028022297423043 0.42448981426279719 0 -0.063996608029364285 0.40889650638712483 0 -0.079521525690651962 0.40275096337335092 0 -0.06678342325080916 0.38932237626743782 0 -0.079521525690651962 0.40275096337335092 0 -0.082095312455745154 0.38776803087242928 0 -0.06678342325080916 0.38932237626743782 0 -0.079521525690651962 0.40275096337335092 0 -0.06678342325080916 0.38932237626743782 0 -0.063996608029364285 0.40889650638712483 0 -0.079521525690651962 0.40275096337335092 0 -0.095987698795940379 0.39623282412787958 0 -0.079521525690651962 0.40275096337335092 0 -0.095987698795940379 0.39623282412787958 0 -0.079521525690651962 0.40275096337335092 0 -0.082095312455745154 0.38776803087242928 0 -0.095987698795940379 0.39623282412787958 0 -0.093321940964632727 0.41729944730018381 0 -0.079521525690651962 0.40275096337335092 0 -0.073343956540823402 0.37427212687350608 0 -0.09556724509345732 0.37674832644210771 0 -0.082095312455745154 0.38776803087242928 0 -0.095987698795940379 0.39623282412787958 0 -0.09556724509345732 0.37674832644210771 0 -0.082095312455745154 0.38776803087242928 0 -0.073343956540823402 0.37427212687350608 0 -0.06678342325080916 0.38932237626743782 0 -0.054045320810965983 0.37589378916152522 0 -0.073343956540823402 0.37427212687350608 0 -0.082095312455745154 0.38776803087242928 0 -0.06678342325080916 0.38932237626743782 0 -0.06678342325080916 0.38932237626743782 0 -0.054045320810965983 0.37589378916152522 0 -0.06678342325080916 0.38932237626743782 0 -0.054045320810965983 0.37589378916152522 0 -0.051501510936551607 0.39227000045987048 0 -0.063996608029364285 0.40889650638712483 0 -0.051501510936551607 0.39227000045987048 0 -0.041009346331524761 0.40496281412433238 0 -0.063996608029364285 0.40889650638712483 0 -0.06678342325080916 0.38932237626743782 0 -0.051501510936551607 0.39227000045987048 0 -0.051501510936551607 0.39227000045987048 0 -0.041009346331524761 0.40496281412433238 0 -0.032262043459462611 0.38413031888725468 0 -0.054045320810965983 0.37589378916152522 0 -0.051501510936551607 0.39227000045987048 0 -0.032262043459462611 0.38413031888725468 0 -0.032262043459462611 0.38413031888725468 0 -0.01972373283242353 0.3964738495063086 0 -0.0086778301900626732 0.37529690039191538 0 -0.041009346331524761 0.40496281412433238 0 -0.01972373283242353 0.3964738495063086 0 -0.024108089902526331 0.41383353059285699 0 -0.041009346331524761 0.40496281412433238 0 -0.032262043459462611 0.38413031888725468 0 -0.01972373283242353 0.3964738495063086 0 -0.01972373283242353 0.3964738495063086 0 -0.0015258039434690831 0.40193370035769449 0 -0.024108089902526331 0.41383353059285699 0 -0.01972373283242353 0.3964738495063086 0 -0.0015258039434690831 0.40193370035769449 0 -0.0086778301900626732 0.37529690039191538 0 -0.0015258039434690831 0.40193370035769449 0 -0.0086778301900626732 0.37529690039191538 0 0.0075283452960494364 0.38165158931583287 0 -0.0015258039434690831 0.40193370035769449 0 -0.0086778301900626732 0.37529690039191538 0 -0.0022754738389305991 0.41895959912876468 0 -0.01440252082847761 0.44597306608584297 0 -0.0055650288785485703 0.43670133584639043 0 -0.0022754738389305991 0.41895959912876468 0 -0.01440252082847761 0.44597306608584297 0 -0.0022754738389305991 0.41895959912876468 0 -0.016142301810054029 0.42896322653769792 0 -0.01440252082847761 0.44597306608584297 0 -0.0012695274607281511 0.43420893568606522 0 -0.0055650288785485703 0.43670133584639043 0 -0.0022754738389305991 0.41895959912876468 0 -0.0012695274607281511 0.43420893568606522 0 -0.0022754738389305991 0.41895959912876468 0 0.0013592154495942919 0.42753915636897422 0 -0.0015258039434690831 0.40193370035769449 0 -0.0110129173737451 0.41592251415425341 0 -0.024108089902526331 0.41383353059285699 0 -0.0015258039434690831 0.40193370035769449 0 -0.024108089902526331 0.41383353059285699 0 -0.0015258039434690831 0.40193370035769449 0 -0.0022754738389305991 0.41895959912876468 0 0.00293157014834568 0.41853461567350481 0 -0.0015258039434690831 0.40193370035769449 0 -0.0022754738389305991 0.41895959912876468 0 -0.0110129173737451 0.41592251415425341 0 -0.0022754738389305991 0.41895959912876468 0 -0.0110129173737451 0.41592251415425341 0 -0.016142301810054029 0.42896322653769792 0 -0.0110129173737451 0.41592251415425341 0 -0.024108089902526331 0.41383353059285699 0 -0.016142301810054029 0.42896322653769792 0 -0.024108089902526331 0.41383353059285699 0 -0.025747852515111351 0.43007624833453739 0 -0.035156827764763407 0.43007791253975941 0 -0.024108089902526331 0.41383353059285699 0 -0.016142301810054029 0.42896322653769792 0 -0.025747852515111351 0.43007624833453739 0 -0.016142301810054029 0.42896322653769792 0 -0.025747852515111351 0.43007624833453739 0 -0.022320211770270899 0.43854729389142832 0 -0.025747852515111351 0.43007624833453739 0 -0.035156827764763407 0.43007791253975941 0 -0.031011831327942069 0.4389592781109446 0 -0.025747852515111351 0.43007624833453739 0 -0.031011831327942069 0.4389592781109446 0 -0.022320211770270899 0.43854729389142832 0 -0.024108089902526331 0.41383353059285699 0 -0.035156827764763407 0.43007791253975941 0 -0.046690375861583207 0.42573336082802021 0 -0.035156827764763407 0.43007791253975941 0 -0.037956338857574351 0.43721055215260929 0 -0.031011831327942069 0.4389592781109446 0 -0.035156827764763407 0.43007791253975941 0 -0.046690375861583207 0.42573336082802021 0 -0.045632873840004869 0.43491237280260259 0 -0.035156827764763407 0.43007791253975941 0 -0.037956338857574351 0.43721055215260929 0 -0.045632873840004869 0.43491237280260259 0 -0.041009346331524761 0.40496281412433238 0 -0.024108089902526331 0.41383353059285699 0 -0.046690375861583207 0.42573336082802021 0 -0.041009346331524761 0.40496281412433238 0 -0.046690375861583207 0.42573336082802021 0 -0.051115574387240389 0.41429497711955943 0 -0.024108089902526331 0.41383353059285699 0 -0.046690375861583207 0.42573336082802021 0 -0.063996608029364285 0.40889650638712483 0 -0.041009346331524761 0.40496281412433238 0 -0.051115574387240389 0.41429497711955943 0 -0.046690375861583207 0.42573336082802021 0 -0.051115574387240389 0.41429497711955943 0 -0.058028022297423043 0.42448981426279719 0 -0.063996608029364285 0.40889650638712483 0 -0.051115574387240389 0.41429497711955943 0 -0.058028022297423043 0.42448981426279719 0 -0.045632873840004869 0.43491237280260259 0 -0.058028022297423043 0.42448981426279719 0 -0.066814092203816372 0.43972775186504742 0 -0.045632873840004869 0.43491237280260259 0 -0.066814092203816372 0.43972775186504742 0 -0.046690375861583207 0.42573336082802021 0 -0.045632873840004869 0.43491237280260259 0 -0.058028022297423043 0.42448981426279719 0 -0.052147736302853957 0.4481105074578256 0 -0.064811480324659082 0.46096625141121322 0 -0.066814092203816372 0.43972775186504742 0 -0.045632873840004869 0.43491237280260259 0 -0.052147736302853957 0.4481105074578256 0 -0.066814092203816372 0.43972775186504742 0 -0.043456412648202408 0.4600535160531341 0 -0.048768827694778638 0.47935787860093421 0 -0.064811480324659082 0.46096625141121322 0 -0.052147736302853957 0.4481105074578256 0 -0.043456412648202408 0.4600535160531341 0 -0.064811480324659082 0.46096625141121322 0 -0.043456412648202408 0.4600535160531341 0 -0.029151016361737472 0.45022778388173618 0 -0.026529567818024589 0.47298653304292132 0 -0.045632873840004869 0.43491237280260259 0 -0.052147736302853957 0.4481105074578256 0 -0.040023822497587062 0.44489264515713062 0 -0.037956338857574351 0.43721055215260929 0 -0.045632873840004869 0.43491237280260259 0 -0.040023822497587062 0.44489264515713062 0 -0.052147736302853957 0.4481105074578256 0 -0.043456412648202408 0.4600535160531341 0 -0.040023822497587062 0.44489264515713062 0 -0.043456412648202408 0.4600535160531341 0 -0.040023822497587062 0.44489264515713062 0 -0.029151016361737472 0.45022778388173618 0 -0.037956338857574351 0.43721055215260929 0 -0.040023822497587062 0.44489264515713062 0 -0.031011831327942069 0.4389592781109446 0 -0.040023822497587062 0.44489264515713062 0 -0.031011831327942069 0.4389592781109446 0 -0.029151016361737472 0.45022778388173618 0 -0.031011831327942069 0.4389592781109446 0 -0.022320211770270899 0.43854729389142832 0 -0.029151016361737472 0.45022778388173618 0 -0.016142301810054029 0.42896322653769792 0 -0.022320211770270899 0.43854729389142832 0 -0.01440252082847761 0.44597306608584297 0 -0.022320211770270899 0.43854729389142832 0 -0.029151016361737472 0.45022778388173618 0 -0.01440252082847761 0.44597306608584297 0 -0.01203550071017164 0.46280032528659359 0 -0.01440252082847761 0.44597306608584297 0 -0.026529567818024589 0.47298653304292132 0 -0.01440252082847761 0.44597306608584297 0 -0.026529567818024589 0.47298653304292132 0 -0.029151016361737472 0.45022778388173618 0 -0.01440252082847761 0.44597306608584297 0 -0.026529567818024589 0.47298653304292132 0 -0.01203550071017164 0.46280032528659359 0 -0.0082452211601242182 0.45311336726702262 0 -0.01440252082847761 0.44597306608584297 0 -0.01203550071017164 0.46280032528659359 0 -0.002230269715789707 0.45601633521076501 0 0.00016464839372705691 0.46418205686900887 0 -0.01203550071017164 0.46280032528659359 0 -0.00056998108065278003 0.47476596695973361 0 0.00016464839372705691 0.46418205686900887 0 -0.01203550071017164 0.46280032528659359 0 -0.002230269715789707 0.45601633521076501 0 -0.0082452211601242182 0.45311336726702262 0 -0.002230269715789707 0.45601633521076501 0 -0.0043125933860579183 0.44766374248488883 0 -0.0082452211601242182 0.45311336726702262 0 -0.002230269715789707 0.45601633521076501 0 -0.0043125933860579183 0.44766374248488883 0 0.0048859042289793294 0.44940989014404831 0 -0.0012695274607281511 0.43420893568606522 0 -0.0055650288785485703 0.43670133584639043 0 -0.0043125933860579183 0.44766374248488883 0 -0.0055650288785485703 0.43670133584639043 0 -0.0043125933860579183 0.44766374248488883 0 -0.01440252082847761 0.44597306608584297 0 -0.0043125933860579183 0.44766374248488883 0 -0.0082452211601242182 0.45311336726702262 0 -0.01440252082847761 0.44597306608584297 0 -0.0091953996660012471 0.5 0 -0.004868410150129664 0.48756987397218537 0 -0.02142029608989731 0.48877626550080522 0 -0.0091953996660012471 0.5 0 -0.004868410150129664 0.48756987397218537 0 0.0055422051903820033 0.49562282123202211 0 -0.01203550071017164 0.46280032528659359 0 -0.00056998108065278003 0.47476596695973361 0 -0.026529567818024589 0.47298653304292132 0 -0.004868410150129664 0.48756987397218537 0 -0.00056998108065278003 0.47476596695973361 0 -0.026529567818024589 0.47298653304292132 0 -0.004868410150129664 0.48756987397218537 0 -0.026529567818024589 0.47298653304292132 0 -0.02142029608989731 0.48877626550080522 0 -0.0091953996660012471 0.5 0 -0.02142029608989731 0.48877626550080522 0 -0.038656614807571342 0.49999999999999961 0 -0.026529567818024589 0.47298653304292132 0 -0.02142029608989731 0.48877626550080522 0 -0.038656614807571342 0.49999999999999961 0 -0.026529567818024589 0.47298653304292132 0 -0.038656614807571342 0.49999999999999961 0 -0.026529567818024589 0.47298653304292132 0 -0.038656614807571342 0.49999999999999961 0 -0.048768827694778638 0.47935787860093421 0 -0.043456412648202408 0.4600535160531341 0 -0.026529567818024589 0.47298653304292132 0 -0.048768827694778638 0.47935787860093421 0 -0.048768827694778638 0.47935787860093421 0 -0.067023440683967442 0.48251913909517891 0 -0.064811480324659082 0.46096625141121322 0 -0.038656614807571342 0.49999999999999961 0 -0.048768827694778638 0.47935787860093421 0 -0.058881040581985962 0.5 0 -0.048768827694778638 0.47935787860093421 0 -0.058881040581985962 0.5 0 -0.067023440683967442 0.48251913909517891 0 -0.058881040581985962 0.5 0 -0.079105466356400672 0.50000000000000078 0 -0.067023440683967442 0.48251913909517891 0 -0.079105466356400672 0.50000000000000078 0 -0.083550388462012792 0.47227156546374638 0 -0.067023440683967442 0.48251913909517891 0 -0.079105466356400672 0.50000000000000078 0 -0.083550388462012792 0.47227156546374638 0 -0.079105466356400672 0.50000000000000078 0 -0.083550388462012792 0.47227156546374638 0 -0.094693574742992531 0.48676415415472002 0 -0.079105466356400672 0.50000000000000078 0 -0.094693574742992531 0.48676415415472002 0 -0.10484932557500889 0.5 0 -0.083550388462012792 0.47227156546374638 0 -0.094693574742992531 0.48676415415472002 0 -0.1020547431687953 0.47189564061425082 0 -0.083550388462012792 0.47227156546374638 0 -0.067023440683967442 0.48251913909517891 0 -0.064811480324659082 0.46096625141121322 0 -0.066814092203816372 0.43972775186504742 0 -0.087995310567627882 0.44454313092749248 0 -0.064811480324659082 0.46096625141121322 0 -0.066814092203816372 0.43972775186504742 0 -0.087995310567627882 0.44454313092749248 0 -0.082740078376005555 0.43089502362484983 0 -0.066814092203816372 0.43972775186504742 0 -0.087995310567627882 0.44454313092749248 0 -0.083550388462012792 0.47227156546374638 0 -0.087995310567627882 0.44454313092749248 0 -0.094656605530604232 0.45928131329338451 0 -0.083550388462012792 0.47227156546374638 0 -0.064811480324659082 0.46096625141121322 0 -0.087995310567627882 0.44454313092749248 0 -0.083550388462012792 0.47227156546374638 0 -0.087995310567627882 0.44454313092749248 0 -0.083550388462012792 0.47227156546374638 0 -0.094656605530604232 0.45928131329338451 0 -0.1020547431687953 0.47189564061425082 0 -0.1050259799239809 0.44841491616804829 0 -0.1020547431687953 0.47189564061425082 0 -0.094656605530604232 0.45928131329338451 0 -0.1050259799239809 0.44841491616804829 0 -0.1020547431687953 0.47189564061425082 0 -0.1050259799239809 0.44841491616804829 0 -0.1148332131465146 0.46054941509033231 0 -0.1020547431687953 0.47189564061425082 0 -0.10712235623861339 0.43184793122701681 0 -0.087995310567627882 0.44454313092749248 0 -0.1050259799239809 0.44841491616804829 0 -0.087995310567627882 0.44454313092749248 0 -0.094656605530604232 0.45928131329338451 0 -0.1050259799239809 0.44841491616804829 0 -0.087995310567627882 0.44454313092749248 0 -0.1050259799239809 0.44841491616804829 0 -0.10712235623861339 0.43184793122701681 0 -0.1050259799239809 0.44841491616804829 0 -0.12109511074820831 0.43562865952456448 0 -0.10712235623861339 0.43184793122701681 0 -0.122298941816661 0.44784718247873362 0 -0.10712235623861339 0.43184793122701681 0 -0.122298941816661 0.44784718247873362 0 -0.1050259799239809 0.44841491616804829 0 -0.1205815636076578 0.45195135258487251 0 -0.122298941816661 0.44784718247873362 0 -0.10712235623861339 0.43184793122701681 0 -0.1050259799239809 0.44841491616804829 0 -0.122298941816661 0.44784718247873362 0 -0.1050259799239809 0.44841491616804829 0 -0.1205815636076578 0.45195135258487251 0 -0.1205815636076578 0.45195135258487251 0 -0.122298941816661 0.44784718247873362 0 -0.12395304356163669 0.45919870250019101 0 -0.12665196774111001 0.44217415169062152 0 -0.12109511074820831 0.43562865952456448 0 -0.122298941816661 0.44784718247873362 0 -0.1148332131465146 0.46054941509033231 0 -0.1225507354705023 0.47128646358429888 0 -0.1020547431687953 0.47189564061425082 0 -0.1050259799239809 0.44841491616804829 0 -0.1205815636076578 0.45195135258487251 0 -0.1148332131465146 0.46054941509033231 0 -0.1205815636076578 0.45195135258487251 0 -0.1148332131465146 0.46054941509033231 0 -0.12395304356163669 0.45919870250019101 0 -0.1148332131465146 0.46054941509033231 0 -0.12395304356163669 0.45919870250019101 0 -0.1225507354705023 0.47128646358429888 0 -0.13430194675397261 0.48241297023048108 0 -0.1225507354705023 0.47128646358429888 0 -0.1169994795981979 0.48717377771602211 0 -0.1225507354705023 0.47128646358429888 0 -0.1169994795981979 0.48717377771602211 0 -0.1020547431687953 0.47189564061425082 0 -0.13059318479361701 0.5 0 -0.1169994795981979 0.48717377771602211 0 -0.10484932557500889 0.5 0 -0.1169994795981979 0.48717377771602211 0 -0.094693574742992531 0.48676415415472002 0 -0.10484932557500889 0.5 0 -0.1169994795981979 0.48717377771602211 0 -0.094693574742992531 0.48676415415472002 0 -0.1020547431687953 0.47189564061425082 0 -0.16932630887825079 0.090254487428575697 0 -0.1527247203613708 0.099791309772028686 0 -0.1556476987439146 0.085531050941782302 0 -0.16932630887825079 0.090254487428575697 0 -0.15735411268418581 0.069495033819761173 0 -0.1556476987439146 0.085531050941782302 0 -0.16932630887825079 0.090254487428575697 0 -0.15735411268418581 0.069495033819761173 0 -0.17290579426657979 0.066380990371400259 0 -0.15735411268418581 0.069495033819761173 0 -0.17290579426657979 0.066380990371400259 0 -0.15056401392423929 0.052987007549043577 0 -0.17290579426657979 0.066380990371400259 0 -0.18471020849144179 0.087073097701359847 0 -0.19489078129344239 0.075108920114566172 0 -0.17290579426657979 0.066380990371400259 0 -0.18199136212666159 0.055831948938470127 0 -0.19489078129344239 0.075108920114566172 0 -0.16932630887825079 0.090254487428575697 0 -0.17290579426657979 0.066380990371400259 0 -0.18471020849144179 0.087073097701359847 0 -0.16932630887825079 0.090254487428575697 0 -0.18471020849144179 0.087073097701359847 0 -0.1800631522851123 0.1016663216030133 0 -0.18471020849144179 0.087073097701359847 0 -0.1800631522851123 0.1016663216030133 0 -0.19520732703250901 0.098760531561705528 0 -0.1800631522851123 0.1016663216030133 0 -0.18578595734136599 0.11504729894011261 0 -0.19520732703250901 0.098760531561705528 0 -0.1800631522851123 0.1016663216030133 0 -0.18578595734136599 0.11504729894011261 0 -0.16528595968199389 0.11719619238331271 0 -0.18578595734136599 0.11504729894011261 0 -0.16528595968199389 0.11719619238331271 0 -0.17437706766958269 0.13573944841704291 0 -0.18578595734136599 0.11504729894011261 0 -0.16528595968199389 0.11719619238331271 0 -0.16932630887825079 0.090254487428575697 0 -0.16528595968199389 0.11719619238331271 0 -0.1527247203613708 0.099791309772028686 0 -0.16932630887825079 0.090254487428575697 0 -0.1800631522851123 0.1016663216030133 0 -0.16528595968199389 0.11719619238331271 0 -0.1527247203613708 0.099791309772028686 0 -0.13663998307212721 0.105909267868148 0 -0.14318565305185099 0.082583372746763653 0 -0.1527247203613708 0.099791309772028686 0 -0.14478596202262181 0.11934508582651281 0 -0.13663998307212721 0.105909267868148 0 -0.16528595968199389 0.11719619238331271 0 -0.14478596202262181 0.11934508582651281 0 -0.16528595968199389 0.11719619238331271 0 -0.1527247203613708 0.099791309772028686 0 -0.14478596202262181 0.11934508582651281 0 -0.16528595968199389 0.11719619238331271 0 -0.14478596202262181 0.11934508582651281 0 -0.15774333742793059 0.1302126887094634 0 -0.14478596202262181 0.11934508582651281 0 -0.12428596436324971 0.12149397926971151 0 -0.14478596202262181 0.11934508582651281 0 -0.13663998307212721 0.105909267868148 0 -0.12428596436324971 0.12149397926971151 0 -0.13663998307212721 0.105909267868148 0 -0.1213181017677934 0.1093903784047619 0 -0.12428596436324971 0.12149397926971151 0 -0.13663998307212721 0.105909267868148 0 -0.1264769540869648 0.091960025661460235 0 -0.1213181017677934 0.1093903784047619 0 -0.1264769540869648 0.091960025661460235 0 -0.14318565305185099 0.082583372746763653 0 -0.12784063447554311 0.074775983035647059 0 -0.13663998307212721 0.105909267868148 0 -0.1264769540869648 0.091960025661460235 0 -0.14318565305185099 0.082583372746763653 0 -0.15735411268418581 0.069495033819761173 0 -0.1556476987439146 0.085531050941782302 0 -0.14318565305185099 0.082583372746763653 0 -0.1527247203613708 0.099791309772028686 0 -0.1556476987439146 0.085531050941782302 0 -0.14318565305185099 0.082583372746763653 0 -0.14318565305185099 0.082583372746763653 0 -0.13908378100454949 0.063310792189838927 0 -0.15735411268418581 0.069495033819761173 0 -0.14318565305185099 0.082583372746763653 0 -0.13908378100454949 0.063310792189838927 0 -0.14318565305185099 0.082583372746763653 0 -0.13908378100454949 0.063310792189838927 0 -0.12784063447554311 0.074775983035647059 0 -0.13908378100454949 0.063310792189838927 0 -0.12784063447554311 0.074775983035647059 0 -0.12616165157235179 0.060337080632980537 0 -0.13908378100454949 0.063310792189838927 0 -0.12616165157235179 0.060337080632980537 0 -0.13498190895725001 0.044038211632913868 0 -0.13908378100454949 0.063310792189838927 0 -0.13498190895725001 0.044038211632913868 0 -0.13464416500125251 0.042451327028881811 0 -0.1216384926838467 0.042233750192079852 0 -0.13498190895725001 0.044038211632913868 0 -0.13464416500125251 0.042451327028881811 0 -0.1216384926838467 0.042233750192079852 0 -0.13464416500125251 0.042451327028881811 0 -0.13920714872745629 0.042527662918430402 0 -0.1414997753215014 0.030638602760598582 0 -0.13498190895725001 0.044038211632913868 0 -0.13464416500125251 0.042451327028881811 0 -0.13920714872745629 0.042527662918430402 0 -0.13498190895725001 0.044038211632913868 0 -0.13464416500125251 0.042451327028881811 0 -0.13464416500125251 0.042451327028881811 0 -0.13920714872745629 0.042527662918430402 0 -0.13498190895725001 0.044038211632913868 0 -0.13920714872745629 0.042527662918430402 0 -0.13920714872745629 0.042527662918430402 0 -0.16226438274878971 0.042913396152461862 0 -0.13920714872745629 0.042527662918430402 0 -0.1490255857961103 0.039017512418365069 0 -0.13498190895725001 0.044038211632913868 0 -0.13920714872745629 0.042527662918430402 0 -0.15056401392423929 0.052987007549043577 0 -0.13920714872745629 0.042527662918430402 0 -0.1490255857961103 0.039017512418365069 0 -0.16226438274878971 0.042913396152461862 0 -0.13920714872745629 0.042527662918430402 0 -0.15056401392423929 0.052987007549043577 0 -0.16226438274878971 0.042913396152461862 0 -0.13920714872745629 0.042527662918430402 0 -0.1490255857961103 0.039017512418365069 0 -0.1414997753215014 0.030638602760598582 0 -0.1490255857961103 0.039017512418365069 0 -0.1414997753215014 0.030638602760598582 0 -0.15224649340773239 0.028884693790306119 0 -0.1490255857961103 0.039017512418365069 0 -0.15224649340773239 0.028884693790306119 0 -0.16226438274878971 0.042913396152461862 0 -0.15735411268418581 0.069495033819761173 0 -0.13908378100454949 0.063310792189838927 0 -0.15056401392423929 0.052987007549043577 0 -0.13908378100454949 0.063310792189838927 0 -0.13498190895725001 0.044038211632913868 0 -0.15056401392423929 0.052987007549043577 0 -0.1231592389501604 -0.01151041530668794 0 -0.12890170197570541 0.015470455861097149 0 -0.1438800315568145 0.0067594329243729767 0 -0.12890170197570541 0.015470455861097149 0 -0.1462257652850445 0.02135649329836177 0 -0.1438800315568145 0.0067594329243729767 0 -0.1231592389501604 -0.01151041530668794 0 -0.12890170197570541 0.015470455861097149 0 -0.12890170197570541 0.015470455861097149 0 -0.1414997753215014 0.030638602760598582 0 -0.1462257652850445 0.02135649329836177 0 -0.13464416500125251 0.042451327028881811 0 -0.12890170197570541 0.015470455861097149 0 -0.1176555940818048 0.026785626080231089 0 -0.13464416500125251 0.042451327028881811 0 -0.12890170197570541 0.015470455861097149 0 -0.13464416500125251 0.042451327028881811 0 -0.12890170197570541 0.015470455861097149 0 -0.1414997753215014 0.030638602760598582 0 -0.1462257652850445 0.02135649329836177 0 -0.1438800315568145 0.0067594329243729767 0 -0.1646008241634685 0.02502928115543401 0 -0.15224649340773239 0.028884693790306119 0 -0.1462257652850445 0.02135649329836177 0 -0.1646008241634685 0.02502928115543401 0 -0.1438800315568145 0.0067594329243729767 0 -0.1646008241634685 0.02502928115543401 0 -0.1414997753215014 0.030638602760598582 0 -0.15224649340773239 0.028884693790306119 0 -0.1462257652850445 0.02135649329836177 0 -0.14987877517658249 -0.01008769233691054 0 -0.1438800315568145 0.0067594329243729767 0 -0.17107803706591429 0.0042598912221591193 0 -0.1438800315568145 0.0067594329243729767 0 -0.17107803706591429 0.0042598912221591193 0 -0.1646008241634685 0.02502928115543401 0 -0.1646008241634685 0.02502928115543401 0 -0.18532161677012321 0.043299129386494523 0 -0.19413622663648189 0.018730231793931171 0 -0.17107803706591429 0.0042598912221591193 0 -0.1646008241634685 0.02502928115543401 0 -0.19413622663648189 0.018730231793931171 0 -0.19380535654774361 -0.0059916640098042553 0 -0.17107803706591429 0.0042598912221591193 0 -0.19413622663648189 0.018730231793931171 0 -0.17290579426657979 0.066380990371400259 0 -0.15056401392423929 0.052987007549043577 0 -0.16226438274878971 0.042913396152461862 0 -0.1646008241634685 0.02502928115543401 0 -0.16226438274878971 0.042913396152461862 0 -0.18532161677012321 0.043299129386494523 0 -0.15224649340773239 0.028884693790306119 0 -0.1646008241634685 0.02502928115543401 0 -0.16226438274878971 0.042913396152461862 0 -0.1646008241634685 0.02502928115543401 0 -0.18532161677012321 0.043299129386494523 0 -0.16226438274878971 0.042913396152461862 0 -0.18532161677012321 0.043299129386494523 0 -0.17290579426657979 0.066380990371400259 0 -0.16226438274878971 0.042913396152461862 0 -0.18199136212666159 0.055831948938470127 0 -0.16226438274878971 0.042913396152461862 0 -0.18532161677012321 0.043299129386494523 0 -0.18199136212666159 0.055831948938470127 0 -0.18532161677012321 0.043299129386494523 0 -0.18199136212666159 0.055831948938470127 0 -0.1945742355543745 0.051457308667426767 0 -0.18199136212666159 0.055831948938470127 0 -0.1945742355543745 0.051457308667426767 0 -0.19489078129344239 0.075108920114566172 0 -0.20042647768279079 0.054902549167337812 0 -0.1945742355543745 0.051457308667426767 0 -0.21282610245419431 0.067550266331903974 0 -0.20042647768279079 0.054902549167337812 0 -0.1945742355543745 0.051457308667426767 0 -0.20477003795777909 0.043624489418603217 0 -0.1945742355543745 0.051457308667426767 0 -0.19446709672521939 0.043452127597666618 0 -0.18532161677012321 0.043299129386494523 0 -0.1945742355543745 0.051457308667426767 0 -0.18532161677012321 0.043299129386494523 0 -0.19446709672521939 0.043452127597666618 0 -0.19413622663648189 0.018730231793931171 0 -0.18532161677012321 0.043299129386494523 0 -0.1945742355543745 0.051457308667426767 0 -0.19446709672521939 0.043452127597666618 0 -0.18532161677012321 0.043299129386494523 0 -0.19446709672521939 0.043452127597666618 0 -0.19446709672521939 0.043452127597666618 0 -0.20477003795777909 0.043624489418603217 0 -0.20488729312020251 0.028856108783723921 0 -0.19446709672521939 0.043452127597666618 0 -0.20477003795777909 0.043624489418603217 0 -0.1945742355543745 0.051457308667426767 0 -0.19446709672521939 0.043452127597666618 0 -0.20477003795777909 0.043624489418603217 0 -0.20042647768279079 0.054902549167337812 0 -0.2184215455257055 0.034767354606215523 0 -0.20042647768279079 0.054902549167337812 0 -0.20477003795777909 0.043624489418603217 0 -0.2184215455257055 0.034767354606215523 0 -0.20042647768279079 0.054902549167337812 0 -0.2184215455257055 0.034767354606215523 0 -0.21613246675241771 0.046158688988357517 0 -0.20477003795777909 0.043624489418603217 0 -0.2184215455257055 0.034767354606215523 0 -0.20488729312020251 0.028856108783723921 0 -0.20042647768279079 0.054902549167337812 0 -0.21613246675241771 0.046158688988357517 0 -0.2121672819223154 0.057121767307666688 0 -0.21613246675241771 0.046158688988357517 0 -0.2121672819223154 0.057121767307666688 0 -0.2236052180532169 0.064900956492368322 0 -0.1945742355543745 0.051457308667426767 0 -0.21282610245419431 0.067550266331903974 0 -0.20042647768279079 0.054902549167337812 0 -0.2121672819223154 0.057121767307666688 0 -0.21282610245419431 0.067550266331903974 0 -0.19380535654774361 -0.0059916640098042553 0 -0.19413622663648189 0.018730231793931171 0 -0.19380535654774361 -0.0059916640098042553 0 -0.19413622663648189 0.018730231793931171 0 -0.20634245682441041 0.0072878254295738404 0 -0.19446709672521939 0.043452127597666618 0 -0.19413622663648189 0.018730231793931171 0 -0.19413622663648189 0.018730231793931171 0 -0.20488729312020251 0.028856108783723921 0 -0.20634245682441041 0.0072878254295738404 0 -0.19446709672521939 0.043452127597666618 0 -0.19413622663648189 0.018730231793931171 0 -0.20488729312020251 0.028856108783723921 0 -0.21736523960918919 0.017050279470914469 0 -0.20488729312020251 0.028856108783723921 0 -0.20634245682441041 0.0072878254295738404 0 -0.2184215455257055 0.034767354606215523 0 -0.21736523960918919 0.017050279470914469 0 -0.20488729312020251 0.028856108783723921 0 -0.21736523960918919 0.017050279470914469 0 -0.20634245682441041 0.0072878254295738404 0 -0.22160413220632469 0.00074689388804805002 0 -0.21736523960918919 0.017050279470914469 0 -0.22160413220632469 0.00074689388804805002 0 -0.23641661336861999 0.01463216004509341 0 -0.23808270299121401 -0.0090090400044546739 0 -0.22160413220632469 0.00074689388804805002 0 -0.23641661336861999 0.01463216004509341 0 -0.2184215455257055 0.034767354606215523 0 -0.21736523960918919 0.017050279470914469 0 -0.23641661336861999 0.01463216004509341 0 -0.2184215455257055 0.034767354606215523 0 -0.23641661336861999 0.01463216004509341 0 -0.2184215455257055 0.034767354606215523 0 -0.23641661336861999 0.01463216004509341 0 -0.23314585246353561 0.039122333976753187 0 -0.25217160470833527 0.013394340926445741 0 -0.2460635779772137 0.02840502717849459 0 -0.23641661336861999 0.01463216004509341 0 -0.2460635779772137 0.02840502717849459 0 -0.23641661336861999 0.01463216004509341 0 -0.23314585246353561 0.039122333976753187 0 -0.23808270299121401 -0.0090090400044546739 0 -0.25441168121153462 -0.0055030345160287097 0 -0.23641661336861999 0.01463216004509341 0 -0.25441168121153462 -0.0055030345160287097 0 -0.23641661336861999 0.01463216004509341 0 -0.25441168121153462 -0.0055030345160287097 0 -0.25217160470833527 0.013394340926445741 0 -0.23641661336861999 0.01463216004509341 0 -0.21613246675241771 0.046158688988357517 0 -0.2236052180532169 0.064900956492368322 0 -0.22409106705576731 0.051523217870109557 0 -0.24555286837217591 0.06801167056802887 0 -0.2236052180532169 0.064900956492368322 0 -0.22409106705576731 0.051523217870109557 0 -0.23314585246353561 0.039122333976753187 0 -0.24083406165951141 0.05100544580880674 0 -0.21613246675241771 0.046158688988357517 0 -0.22409106705576731 0.051523217870109557 0 -0.2236052180532169 0.064900956492368322 0 -0.2184215455257055 0.034767354606215523 0 -0.21613246675241771 0.046158688988357517 0 -0.22294773294935649 0.042892898860358949 0 -0.21613246675241771 0.046158688988357517 0 -0.22409106705576731 0.051523217870109557 0 -0.22294773294935649 0.042892898860358949 0 -0.2184215455257055 0.034767354606215523 0 -0.22294773294935649 0.042892898860358949 0 -0.23314585246353561 0.039122333976753187 0 -0.22409106705576731 0.051523217870109557 0 -0.22294773294935649 0.042892898860358949 0 -0.23314585246353561 0.039122333976753187 0 -0.23314585246353561 0.039122333976753187 0 -0.24758745507599511 0.041584625118578369 0 -0.24083406165951141 0.05100544580880674 0 -0.2460635779772137 0.02840502717849459 0 -0.23314585246353561 0.039122333976753187 0 -0.24758745507599511 0.041584625118578369 0 -0.22409106705576731 0.051523217870109557 0 -0.24555286837217591 0.06801167056802887 0 -0.25699905901234332 0.05157453444368805 0 -0.24083406165951141 0.05100544580880674 0 -0.24555286837217591 0.06801167056802887 0 -0.25699905901234332 0.05157453444368805 0 -0.24758745507599511 0.041584625118578369 0 -0.24083406165951141 0.05100544580880674 0 -0.22409106705576731 0.051523217870109557 0 -0.24083406165951141 0.05100544580880674 0 -0.24555286837217591 0.06801167056802887 0 -0.25155491262517238 0.10169806643903311 0 -0.24893571653906521 0.091804982588433129 0 -0.23107796935401589 0.083643223996379246 0 -0.25092365096646307 0.083232766792401561 0 -0.24893571653906521 0.091804982588433129 0 -0.23107796935401589 0.083643223996379246 0 -0.25155491262517238 0.10169806643903311 0 -0.23107796935401589 0.083643223996379246 0 -0.25092365096646307 0.083232766792401561 0 -0.24555286837217591 0.06801167056802887 0 -0.23107796935401589 0.083643223996379246 0 -0.23107796935401589 0.083643223996379246 0 -0.21206435335067431 0.087665247270608287 0 -0.22428736280226319 0.096323215944681323 0 -0.23107796935401589 0.083643223996379246 0 -0.22428736280226319 0.096323215944681323 0 -0.23709410665850589 0.09873218523205457 0 -0.23107796935401589 0.083643223996379246 0 -0.23709410665850589 0.09873218523205457 0 -0.23107796935401589 0.083643223996379246 0 -0.2236052180532169 0.064900956492368322 0 -0.21282610245419431 0.067550266331903974 0 -0.24555286837217591 0.06801167056802887 0 -0.23107796935401589 0.083643223996379246 0 -0.2236052180532169 0.064900956492368322 0 -0.23107796935401589 0.083643223996379246 0 -0.21282610245419431 0.067550266331903974 0 -0.23107796935401589 0.083643223996379246 0 -0.2236052180532169 0.064900956492368322 0 -0.21282610245419431 0.067550266331903974 0 -0.21206435335067431 0.087665247270608287 0 -0.19489078129344239 0.075108920114566172 0 -0.2121672819223154 0.057121767307666688 0 -0.2236052180532169 0.064900956492368322 0 -0.21282610245419431 0.067550266331903974 0 -0.23107796935401589 0.083643223996379246 0 -0.21282610245419431 0.067550266331903974 0 -0.21206435335067431 0.087665247270608287 0 -0.18471020849144179 0.087073097701359847 0 -0.19489078129344239 0.075108920114566172 0 -0.19520732703250901 0.098760531561705528 0 -0.19489078129344239 0.075108920114566172 0 -0.19520732703250901 0.098760531561705528 0 -0.21206435335067431 0.087665247270608287 0 -0.19489078129344239 0.075108920114566172 0 -0.19520732703250901 0.098760531561705528 0 -0.1945742355543745 0.051457308667426767 0 -0.19489078129344239 0.075108920114566172 0 -0.1945742355543745 0.051457308667426767 0 -0.21282610245419431 0.067550266331903974 0 -0.19489078129344239 0.075108920114566172 0 -0.18578595734136599 0.11504729894011261 0 -0.20187161438030371 0.1157000723221643 0 -0.19520732703250901 0.098760531561705528 0 -0.18578595734136599 0.11504729894011261 0 -0.20187161438030371 0.1157000723221643 0 -0.19236691300772721 0.1343727488242325 0 -0.21206435335067431 0.087665247270608287 0 -0.19520732703250901 0.098760531561705528 0 -0.21433567901956349 0.10573866322649909 0 -0.20187161438030371 0.1157000723221643 0 -0.19520732703250901 0.098760531561705528 0 -0.21433567901956349 0.10573866322649909 0 -0.21206435335067431 0.087665247270608287 0 -0.21433567901956349 0.10573866322649909 0 -0.22428736280226319 0.096323215944681323 0 -0.20187161438030371 0.1157000723221643 0 -0.21433567901956349 0.10573866322649909 0 -0.2161944328309342 0.1217378127708612 0 -0.20187161438030371 0.1157000723221643 0 -0.2161944328309342 0.1217378127708612 0 -0.20687790530037861 0.13006233669644149 0 -0.2280123945178841 0.1112767802478755 0 -0.24311024396299349 0.1138211464677308 0 -0.23043129815573979 0.13202291149242801 0 -0.21433567901956349 0.10573866322649909 0 -0.2161944328309342 0.1217378127708612 0 -0.2280123945178841 0.1112767802478755 0 -0.2161944328309342 0.1217378127708612 0 -0.2280123945178841 0.1112767802478755 0 -0.23043129815573979 0.13202291149242801 0 -0.21433567901956349 0.10573866322649909 0 -0.2280123945178841 0.1112767802478755 0 -0.22428736280226319 0.096323215944681323 0 -0.2280123945178841 0.1112767802478755 0 -0.22428736280226319 0.096323215944681323 0 -0.23709410665850589 0.09873218523205457 0 -0.25155491262517238 0.10169806643903311 0 -0.23107796935401589 0.083643223996379246 0 -0.23709410665850589 0.09873218523205457 0 -0.2280123945178841 0.1112767802478755 0 -0.23709410665850589 0.09873218523205457 0 -0.24311024396299349 0.1138211464677308 0 -0.23709410665850589 0.09873218523205457 0 -0.24311024396299349 0.1138211464677308 0 -0.25155491262517238 0.10169806643903311 0 -0.23709410665850589 0.09873218523205457 0 -0.24311024396299349 0.1138211464677308 0 -0.25155491262517238 0.10169806643903311 0 -0.24311024396299349 0.1138211464677308 0 -0.25155491262517238 0.10169806643903311 0 -0.24311024396299349 0.1138211464677308 0 -0.2496318767403515 0.1107202465847851 0 -0.24311024396299349 0.1138211464677308 0 -0.24534820520282771 0.1194341351157084 0 -0.23043129815573979 0.13202291149242801 0 -0.24311024396299349 0.1138211464677308 0 -0.23043129815573979 0.13202291149242801 0 -0.2496318767403515 0.1107202465847851 0 -0.24534820520282771 0.1194341351157084 0 -0.24311024396299349 0.1138211464677308 0 -0.2496318767403515 0.1107202465847851 0 -0.24534820520282771 0.1194341351157084 0 -0.24311024396299349 0.1138211464677308 0 -0.24534820520282771 0.1194341351157084 0 -0.25097174827458302 0.1335384381131707 0 -0.24534820520282771 0.1194341351157084 0 -0.25097174827458302 0.1335384381131707 0 -0.24534820520282771 0.1194341351157084 0 -0.23799046829629189 0.13440131891627849 0 -0.25659529134633818 0.147642741110633 0 -0.25097174827458302 0.1335384381131707 0 -0.23799046829629189 0.13440131891627849 0 -0.24534820520282771 0.1194341351157084 0 -0.23799046829629189 0.13440131891627849 0 -0.24534820520282771 0.1194341351157084 0 -0.23799046829629189 0.13440131891627849 0 -0.23043129815573979 0.13202291149242801 0 -0.23799046829629189 0.13440131891627849 0 -0.23043129815573979 0.13202291149242801 0 -0.23063273138975801 0.1493685027168494 0 -0.23043129815573979 0.13202291149242801 0 -0.21563770561173601 0.1356261126397586 0 -0.21775235234848939 0.15022467651712759 0 -0.2161944328309342 0.1217378127708612 0 -0.23043129815573979 0.13202291149242801 0 -0.21563770561173601 0.1356261126397586 0 -0.23043129815573979 0.13202291149242801 0 -0.21775235234848939 0.15022467651712759 0 -0.23043129815573979 0.13202291149242801 0 -0.23063273138975801 0.1493685027168494 0 -0.21775235234848939 0.15022467651712759 0 -0.22410273169939821 0.15487804068602409 0 -0.23063273138975801 0.1493685027168494 0 -0.21775235234848939 0.15022467651712759 0 -0.23063273138975801 0.1493685027168494 0 -0.21775235234848939 0.15022467651712759 0 -0.22410273169939821 0.15487804068602409 0 -0.2267856898831318 0.15719419396532919 0 -0.21988161187857291 0.15631681932921859 0 -0.22410273169939821 0.15487804068602409 0 -0.2267856898831318 0.15719419396532919 0 -0.22410273169939821 0.15487804068602409 0 -0.21988161187857291 0.15631681932921859 0 -0.21775235234848939 0.15022467651712759 0 -0.23799046829629189 0.13440131891627849 0 -0.23063273138975801 0.1493685027168494 0 -0.23063273138975801 0.1493685027168494 0 -0.24230168277068409 0.1592505047815353 0 -0.2267856898831318 0.15719419396532919 0 -0.23063273138975801 0.1493685027168494 0 -0.2267856898831318 0.15719419396532919 0 -0.22410273169939821 0.15487804068602409 0 -0.23063273138975801 0.1493685027168494 0 -0.2267856898831318 0.15719419396532919 0 -0.25659529134633818 0.147642741110633 0 -0.23063273138975801 0.1493685027168494 0 -0.24230168277068409 0.1592505047815353 0 -0.25659529134633818 0.147642741110633 0 -0.23799046829629189 0.13440131891627849 0 -0.23063273138975801 0.1493685027168494 0 -0.25659529134633818 0.147642741110633 0 -0.23063273138975801 0.1493685027168494 0 -0.24230168277068409 0.1592505047815353 0 -0.24598086708149211 0.17376507191802079 0 -0.2267856898831318 0.15719419396532919 0 -0.24598086708149211 0.17376507191802079 0 -0.2267856898831318 0.15719419396532919 0 -0.24598086708149211 0.17376507191802079 0 -0.23249264826705041 0.18162160188631249 0 -0.2267856898831318 0.15719419396532919 0 -0.24598086708149211 0.17376507191802079 0 -0.23249264826705041 0.18162160188631249 0 -0.24598086708149211 0.17376507191802079 0 -0.23249264826705041 0.18162160188631249 0 -0.24533270921762371 0.1881589659560638 0 -0.23249264826705041 0.18162160188631249 0 -0.2267856898831318 0.15719419396532919 0 -0.21588620133310421 0.17936604524687941 0 -0.23249264826705041 0.18162160188631249 0 -0.21588620133310421 0.17936604524687941 0 -0.2228068007490418 0.19555686074912759 0 -0.2267856898831318 0.15719419396532919 0 -0.21588620133310421 0.17936604524687941 0 -0.2267856898831318 0.15719419396532919 0 -0.21988161187857291 0.15631681932921859 0 -0.21432444962176969 0.16201846957298971 0 -0.2267856898831318 0.15719419396532919 0 -0.21432444962176969 0.16201846957298971 0 -0.21294568235437419 0.16992484424802859 0 -0.2030061006273978 0.17139424478430401 0 -0.21775235234848939 0.15022467651712759 0 -0.2267856898831318 0.15719419396532919 0 -0.21294568235437419 0.16992484424802859 0 -0.21588620133310421 0.17936604524687941 0 -0.19671797173653471 0.16074865803322869 0 -0.20286585368567769 0.16303337487360459 0 -0.21775235234848939 0.15022467651712759 0 -0.20286585368567769 0.16303337487360459 0 -0.2030061006273978 0.17139424478430401 0 -0.21775235234848939 0.15022467651712759 0 -0.21432444962176969 0.16201846957298971 0 -0.2030061006273978 0.17139424478430401 0 -0.21775235234848939 0.15022467651712759 0 -0.21432444962176969 0.16201846957298971 0 -0.21294568235437419 0.16992484424802859 0 -0.2030061006273978 0.17139424478430401 0 -0.21294568235437419 0.16992484424802859 0 -0.20814747225395519 0.17283271853450671 0 -0.2030061006273978 0.17139424478430401 0 -0.21294568235437419 0.16992484424802859 0 -0.21588620133310421 0.17936604524687941 0 -0.2080853074986472 0.1775788705318721 0 -0.2051204526938446 0.1739797921343256 0 -0.20152563226927089 0.18048709590645209 0 -0.2030061006273978 0.17139424478430401 0 -0.20814747225395519 0.17283271853450671 0 -0.2051204526938446 0.1739797921343256 0 -0.2080853074986472 0.1775788705318721 0 -0.21294568235437419 0.16992484424802859 0 -0.20814747225395519 0.17283271853450671 0 -0.2080853074986472 0.1775788705318721 0 -0.20814747225395519 0.17283271853450671 0 -0.2051204526938446 0.1739797921343256 0 -0.2030061006273978 0.17139424478430401 0 -0.2051204526938446 0.1739797921343256 0 -0.2080853074986472 0.1775788705318721 0 -0.20152563226927089 0.18048709590645209 0 -0.2080853074986472 0.1775788705318721 0 -0.20277364653395161 0.18746831009985501 0 -0.20152563226927089 0.18048709590645209 0 -0.21588620133310421 0.17936604524687941 0 -0.2080853074986472 0.1775788705318721 0 -0.20277364653395161 0.18746831009985501 0 -0.2030061006273978 0.17139424478430401 0 -0.18864265399251359 0.19201426198190361 0 -0.18403355999473289 0.18439931678386079 0 -0.2030061006273978 0.17139424478430401 0 -0.18864265399251359 0.19201426198190361 0 -0.2030061006273978 0.17139424478430401 0 -0.18403355999473289 0.18439931678386079 0 -0.19398699003028849 0.1697659201597578 0 -0.18557658608654379 0.16665226202435349 0 -0.18403355999473289 0.18439931678386079 0 -0.20152563226927089 0.18048709590645209 0 -0.2030061006273978 0.17139424478430401 0 -0.18864265399251359 0.19201426198190361 0 -0.2030061006273978 0.17139424478430401 0 -0.19398699003028849 0.1697659201597578 0 -0.18403355999473289 0.18439931678386079 0 -0.20277364653395161 0.18746831009985501 0 -0.20152563226927089 0.18048709590645209 0 -0.18864265399251359 0.19201426198190361 0 -0.19671797173653471 0.16074865803322869 0 -0.20286585368567769 0.16303337487360459 0 -0.19398699003028849 0.1697659201597578 0 -0.20286585368567769 0.16303337487360459 0 -0.2030061006273978 0.17139424478430401 0 -0.19398699003028849 0.1697659201597578 0 -0.19671797173653471 0.16074865803322869 0 -0.19398699003028849 0.1697659201597578 0 -0.18557658608654379 0.16665226202435349 0 -0.19671797173653471 0.16074865803322869 0 -0.18776853321361869 0.1522177359056201 0 -0.18557658608654379 0.16665226202435349 0 -0.18776853321361869 0.1522177359056201 0 -0.21775235234848939 0.15022467651712759 0 -0.19671797173653471 0.16074865803322869 0 -0.18776853321361869 0.1522177359056201 0 -0.21775235234848939 0.15022467651712759 0 -0.18776853321361869 0.1522177359056201 0 -0.19236691300772721 0.1343727488242325 0 -0.20408068189639 0.14050072211663611 0 -0.20187161438030371 0.1157000723221643 0 -0.19236691300772721 0.1343727488242325 0 -0.20687790530037861 0.13006233669644149 0 -0.19236691300772721 0.1343727488242325 0 -0.20408068189639 0.14050072211663611 0 -0.20687790530037861 0.13006233669644149 0 -0.20408068189639 0.14050072211663611 0 -0.20687790530037861 0.13006233669644149 0 -0.21563770561173601 0.1356261126397586 0 -0.2161944328309342 0.1217378127708612 0 -0.20687790530037861 0.13006233669644149 0 -0.21563770561173601 0.1356261126397586 0 -0.20408068189639 0.14050072211663611 0 -0.21563770561173601 0.1356261126397586 0 -0.21775235234848939 0.15022467651712759 0 -0.18776853321361869 0.1522177359056201 0 -0.20408068189639 0.14050072211663611 0 -0.21775235234848939 0.15022467651712759 0 -0.21988161187857291 0.15631681932921859 0 -0.21432444962176969 0.16201846957298971 0 -0.21775235234848939 0.15022467651712759 0 -0.23153447884361869 0.23873641724331329 0 -0.22289916584526739 0.22796722002280659 0 -0.21448135671449889 0.2407303788512544 0 -0.22434868323342591 0.25287719570877248 0 -0.23153447884361869 0.23873641724331329 0 -0.21448135671449889 0.2407303788512544 0 -0.22434868323342591 0.25287719570877248 0 -0.23153447884361869 0.23873641724331329 0 -0.23937173939900569 0.25000892240791589 0 -0.23153447884361869 0.23873641724331329 0 -0.23937173939900569 0.25000892240791589 0 -0.24931631970513429 0.23942659273292949 0 -0.25768378580886803 0.26017067753966372 0 -0.23937173939900569 0.25000892240791589 0 -0.24931631970513429 0.23942659273292949 0 -0.23153447884361869 0.23873641724331329 0 -0.24931631970513429 0.23942659273292949 0 -0.2409488536013992 0.21868250792619581 0 -0.24931631970513429 0.23942659273292949 0 -0.2409488536013992 0.21868250792619581 0 -0.25658993574280559 0.22669099971176829 0 -0.24931631970513429 0.23942659273292949 0 -0.2409488536013992 0.21868250792619581 0 -0.23153447884361869 0.23873641724331329 0 -0.22289916584526739 0.22796722002280659 0 -0.2409488536013992 0.21868250792619581 0 -0.22289916584526739 0.22796722002280659 0 -0.2409488536013992 0.21868250792619581 0 -0.21825188853167549 0.21298950263133179 0 -0.2409488536013992 0.21868250792619581 0 -0.24241655283030181 0.20226925745268409 0 -0.21825188853167549 0.21298950263133179 0 -0.24241655283030181 0.20226925745268409 0 -0.21825188853167549 0.21298950263133179 0 -0.24241655283030181 0.20226925745268409 0 -0.2228068007490418 0.19555686074912759 0 -0.21825188853167549 0.21298950263133179 0 -0.25906363908136698 0.2090991990882847 0 -0.2409488536013992 0.21868250792619581 0 -0.24241655283030181 0.20226925745268409 0 -0.23249264826705041 0.18162160188631249 0 -0.24241655283030181 0.20226925745268409 0 -0.24533270921762371 0.1881589659560638 0 -0.23249264826705041 0.18162160188631249 0 -0.24241655283030181 0.20226925745268409 0 -0.2228068007490418 0.19555686074912759 0 -0.21588620133310421 0.17936604524687941 0 -0.20277364653395161 0.18746831009985501 0 -0.2049867127830772 0.20153789652842979 0 -0.21588620133310421 0.17936604524687941 0 -0.2228068007490418 0.19555686074912759 0 -0.2049867127830772 0.20153789652842979 0 -0.21588620133310421 0.17936604524687941 0 -0.2049867127830772 0.20153789652842979 0 -0.20277364653395161 0.18746831009985501 0 -0.2049867127830772 0.20153789652842979 0 -0.19758618999961461 0.19547683597961679 0 -0.20277364653395161 0.18746831009985501 0 -0.18864265399251359 0.19201426198190361 0 -0.19758618999961461 0.19547683597961679 0 -0.18864265399251359 0.19201426198190361 0 -0.19758618999961461 0.19547683597961679 0 -0.19036537556857541 0.20730619405279899 0 -0.2049867127830772 0.20153789652842979 0 -0.19758618999961461 0.19547683597961679 0 -0.19036537556857541 0.20730619405279899 0 -0.2049867127830772 0.20153789652842979 0 -0.1940872242330495 0.2237097478099801 0 -0.2049867127830772 0.20153789652842979 0 -0.19036537556857541 0.20730619405279899 0 -0.1940872242330495 0.2237097478099801 0 -0.2049867127830772 0.20153789652842979 0 -0.21825188853167549 0.21298950263133179 0 -0.1940872242330495 0.2237097478099801 0 -0.21825188853167549 0.21298950263133179 0 -0.1940872242330495 0.2237097478099801 0 -0.2228068007490418 0.19555686074912759 0 -0.2049867127830772 0.20153789652842979 0 -0.21825188853167549 0.21298950263133179 0 -0.22289916584526739 0.22796722002280659 0 -0.21825188853167549 0.21298950263133179 0 -0.20927925153514501 0.22869729346193751 0 -0.21825188853167549 0.21298950263133179 0 -0.20927925153514501 0.22869729346193751 0 -0.1940872242330495 0.2237097478099801 0 -0.22289916584526739 0.22796722002280659 0 -0.20927925153514501 0.22869729346193751 0 -0.21448135671449889 0.2407303788512544 0 -0.1940872242330495 0.2237097478099801 0 -0.19966970003376289 0.2360214062397446 0 -0.18624064126421089 0.23967134727906891 0 -0.1940872242330495 0.2237097478099801 0 -0.18624064126421089 0.23967134727906891 0 -0.20927925153514501 0.22869729346193751 0 -0.1940872242330495 0.2237097478099801 0 -0.19966970003376289 0.2360214062397446 0 -0.18791388583343391 0.25901304589080842 0 -0.20004969132505351 0.2485023636020027 0 -0.18624064126421089 0.23967134727906891 0 -0.19966970003376289 0.2360214062397446 0 -0.20004969132505351 0.2485023636020027 0 -0.18624064126421089 0.23967134727906891 0 -0.2122134260157022 0.25346492237249812 0 -0.20004969132505351 0.2485023636020027 0 -0.21448135671449889 0.2407303788512544 0 -0.20927925153514501 0.22869729346193751 0 -0.19966970003376289 0.2360214062397446 0 -0.21448135671449889 0.2407303788512544 0 -0.19966970003376289 0.2360214062397446 0 -0.20004969132505351 0.2485023636020027 0 -0.21448135671449889 0.2407303788512544 0 -0.22434868323342591 0.25287719570877248 0 -0.2122134260157022 0.25346492237249812 0 -0.21448135671449889 0.2407303788512544 0 -0.16941317374102119 0.23465597356987569 0 -0.1447391232489933 0.24560219932977209 0 -0.16941317374102119 0.23465597356987569 0 -0.15907866849321689 0.22587219153559271 0 -0.1447391232489933 0.24560219932977209 0 -0.16814614111586151 0.2521838310994724 0 -0.16941317374102119 0.23465597356987569 0 -0.1447391232489933 0.24560219932977209 0 -0.16814614111586151 0.2521838310994724 0 -0.16941317374102119 0.23465597356987569 0 -0.18624064126421089 0.23967134727906891 0 -0.1940872242330495 0.2237097478099801 0 -0.16941317374102119 0.23465597356987569 0 -0.17427920735763069 0.2126342791795042 0 -0.1940872242330495 0.2237097478099801 0 -0.16941317374102119 0.23465597356987569 0 -0.1940872242330495 0.2237097478099801 0 -0.16941317374102119 0.23465597356987569 0 -0.18624064126421089 0.23967134727906891 0 -0.16941317374102119 0.23465597356987569 0 -0.15907866849321689 0.22587219153559271 0 -0.17427920735763069 0.2126342791795042 0 -0.160074114029889 0.21291224901200179 0 -0.1650610193620671 0.19740438878341629 0 -0.14608847872940101 0.2104094607829716 0 -0.160074114029889 0.21291224901200179 0 -0.17427920735763069 0.2126342791795042 0 -0.1650610193620671 0.19740438878341629 0 -0.15907866849321689 0.22587219153559271 0 -0.160074114029889 0.21291224901200179 0 -0.17427920735763069 0.2126342791795042 0 -0.18864265399251359 0.19201426198190361 0 -0.19036537556857541 0.20730619405279899 0 -0.17427920735763069 0.2126342791795042 0 -0.19036537556857541 0.20730619405279899 0 -0.1940872242330495 0.2237097478099801 0 -0.17427920735763069 0.2126342791795042 0 -0.1650610193620671 0.19740438878341629 0 -0.18403355999473289 0.18439931678386079 0 -0.16876563770639599 0.18257013005258671 0 -0.18864265399251359 0.19201426198190361 0 -0.17427920735763069 0.2126342791795042 0 -0.18864265399251359 0.19201426198190361 0 -0.17427920735763069 0.2126342791795042 0 -0.1650610193620671 0.19740438878341629 0 -0.1650610193620671 0.19740438878341629 0 -0.18403355999473289 0.18439931678386079 0 -0.18864265399251359 0.19201426198190361 0 -0.1650610193620671 0.19740438878341629 0 -0.18403355999473289 0.18439931678386079 0 -0.1650610193620671 0.19740438878341629 0 -0.15128965124133389 0.1967754593359464 0 -0.15583761074435351 0.18497148983389181 0 -0.1650610193620671 0.19740438878341629 0 -0.16876563770639599 0.18257013005258671 0 -0.15583761074435351 0.18497148983389181 0 -0.1406378501378624 0.18818059040465671 0 -0.14608847872940101 0.2104094607829716 0 -0.1650610193620671 0.19740438878341629 0 -0.15128965124133389 0.1967754593359464 0 -0.14608847872940101 0.2104094607829716 0 -0.15128965124133389 0.1967754593359464 0 -0.1406378501378624 0.18818059040465671 0 -0.14608847872940101 0.2104094607829716 0 -0.15128965124133389 0.1967754593359464 0 -0.1406378501378624 0.18818059040465671 0 -0.15583761074435351 0.18497148983389181 0 -0.1406378501378624 0.18818059040465671 0 -0.12940687414427701 0.20508160682215831 0 -0.1217629237691734 0.18061000490987189 0 -0.1406378501378624 0.18818059040465671 0 -0.12940687414427701 0.20508160682215831 0 -0.14608847872940101 0.2104094607829716 0 -0.14608847872940101 0.2104094607829716 0 -0.12835961704094409 0.2225620304989947 0 -0.12940687414427701 0.20508160682215831 0 -0.14608847872940101 0.2104094607829716 0 -0.12835961704094409 0.2225620304989947 0 -0.1650610193620671 0.19740438878341629 0 -0.14608847872940101 0.2104094607829716 0 -0.14608847872940101 0.2104094607829716 0 -0.14883266097737929 0.22160084365934549 0 -0.12835961704094409 0.2225620304989947 0 -0.14608847872940101 0.2104094607829716 0 -0.14883266097737929 0.22160084365934549 0 -0.160074114029889 0.21291224901200179 0 -0.14608847872940101 0.2104094607829716 0 -0.14883266097737929 0.22160084365934549 0 -0.15907866849321689 0.22587219153559271 0 -0.14176281804788299 0.23109210798496249 0 -0.1447391232489933 0.24560219932977209 0 -0.15907866849321689 0.22587219153559271 0 -0.14176281804788299 0.23109210798496249 0 -0.14883266097737929 0.22160084365934549 0 -0.15907866849321689 0.22587219153559271 0 -0.160074114029889 0.21291224901200179 0 -0.14883266097737929 0.22160084365934549 0 -0.14176281804788299 0.23109210798496249 0 -0.14883266097737929 0.22160084365934549 0 -0.12835961704094409 0.2225620304989947 0 -0.14176281804788299 0.23109210798496249 0 -0.12835961704094409 0.2225620304989947 0 -0.12780402047888129 0.23982327490110761 0 -0.1200650727569653 0.25654842508966841 0 -0.12780402047888129 0.23982327490110761 0 -0.1447391232489933 0.24560219932977209 0 -0.14176281804788299 0.23109210798496249 0 -0.12780402047888129 0.23982327490110761 0 -0.1447391232489933 0.24560219932977209 0 -0.1601302131421079 0.14328027603387791 0 -0.17437706766958269 0.13573944841704291 0 -0.1711438840022981 0.15779537472505051 0 -0.1601302131421079 0.14328027603387791 0 -0.1711438840022981 0.15779537472505051 0 -0.14988834269945039 0.15588395395993129 0 -0.16528595968199389 0.11719619238331271 0 -0.15774333742793059 0.1302126887094634 0 -0.17437706766958269 0.13573944841704291 0 -0.1601302131421079 0.14328027603387791 0 -0.15774333742793059 0.1302126887094634 0 -0.17437706766958269 0.13573944841704291 0 -0.18578595734136599 0.11504729894011261 0 -0.19236691300772721 0.1343727488242325 0 -0.17437706766958269 0.13573944841704291 0 -0.18776853321361869 0.1522177359056201 0 -0.17437706766958269 0.13573944841704291 0 -0.1711438840022981 0.15779537472505051 0 -0.18776853321361869 0.1522177359056201 0 -0.19236691300772721 0.1343727488242325 0 -0.17437706766958269 0.13573944841704291 0 -0.18776853321361869 0.1522177359056201 0 -0.18557658608654379 0.16665226202435349 0 -0.1711438840022981 0.15779537472505051 0 -0.18557658608654379 0.16665226202435349 0 -0.17454801374372439 0.1729178754059362 0 -0.1711438840022981 0.15779537472505051 0 -0.18557658608654379 0.16665226202435349 0 -0.18403355999473289 0.18439931678386079 0 -0.17454801374372439 0.1729178754059362 0 -0.18403355999473289 0.18439931678386079 0 -0.17454801374372439 0.1729178754059362 0 -0.16876563770639599 0.18257013005258671 0 -0.17454801374372439 0.1729178754059362 0 -0.16876563770639599 0.18257013005258671 0 -0.1619926283273648 0.17210633158311989 0 -0.16876563770639599 0.18257013005258671 0 -0.1619926283273648 0.17210633158311989 0 -0.15583761074435351 0.18497148983389181 0 -0.1619926283273648 0.17210633158311989 0 -0.1711438840022981 0.15779537472505051 0 -0.14988834269945039 0.15588395395993129 0 -0.17454801374372439 0.1729178754059362 0 -0.1619926283273648 0.17210633158311989 0 -0.1711438840022981 0.15779537472505051 0 -0.1483002012625072 0.17323973764217021 0 -0.1351872215463249 0.16595172002634151 0 -0.14988834269945039 0.15588395395993129 0 -0.1619926283273648 0.17210633158311989 0 -0.1483002012625072 0.17323973764217021 0 -0.14988834269945039 0.15588395395993129 0 -0.1406378501378624 0.18818059040465671 0 -0.1483002012625072 0.17323973764217021 0 -0.1351872215463249 0.16595172002634151 0 -0.1619926283273648 0.17210633158311989 0 -0.15583761074435351 0.18497148983389181 0 -0.1483002012625072 0.17323973764217021 0 -0.1406378501378624 0.18818059040465671 0 -0.15583761074435351 0.18497148983389181 0 -0.1483002012625072 0.17323973764217021 0 -0.1406378501378624 0.18818059040465671 0 -0.1351872215463249 0.16595172002634151 0 -0.1217629237691734 0.18061000490987189 0 -0.1406378501378624 0.18818059040465671 0 -0.1351872215463249 0.16595172002634151 0 -0.1351872215463249 0.16595172002634151 0 -0.1297365929547874 0.14372284964802651 0 -0.14988834269945039 0.15588395395993129 0 -0.1351872215463249 0.16595172002634151 0 -0.1297365929547874 0.14372284964802651 0 -0.1351872215463249 0.16595172002634151 0 -0.1297365929547874 0.14372284964802651 0 -0.11653844495345229 0.1541483935169842 0 -0.1601302131421079 0.14328027603387791 0 -0.14988834269945039 0.15588395395993129 0 -0.14413748462334661 0.1355024408865704 0 -0.1297365929547874 0.14372284964802651 0 -0.14988834269945039 0.15588395395993129 0 -0.14413748462334661 0.1355024408865704 0 -0.1601302131421079 0.14328027603387791 0 -0.15774333742793059 0.1302126887094634 0 -0.14413748462334661 0.1355024408865704 0 -0.14478596202262181 0.11934508582651281 0 -0.15774333742793059 0.1302126887094634 0 -0.14413748462334661 0.1355024408865704 0 -0.1297365929547874 0.14372284964802651 0 -0.12428596436324971 0.12149397926971151 0 -0.1297365929547874 0.14372284964802651 0 -0.14413748462334661 0.1355024408865704 0 -0.12428596436324971 0.12149397926971151 0 -0.14478596202262181 0.11934508582651281 0 -0.14413748462334661 0.1355024408865704 0 -0.12428596436324971 0.12149397926971151 0 -0.1166903092593479 0.13701797956449671 0 -0.10384790323617391 0.1426328287121395 0 -0.1090426407890762 0.1230918466756219 0 -0.1297365929547874 0.14372284964802651 0 -0.1166903092593479 0.13701797956449671 0 -0.12428596436324971 0.12149397926971151 0 -0.1166903092593479 0.13701797956449671 0 -0.12428596436324971 0.12149397926971151 0 -0.1090426407890762 0.1230918466756219 0 -0.10384790323617391 0.1426328287121395 0 -0.091779074236601324 0.13272338627698679 0 -0.1090426407890762 0.1230918466756219 0 -0.10384790323617391 0.1426328287121395 0 -0.11653844495345229 0.1541483935169842 0 -0.098690851663685089 0.15638447726972871 0 -0.10384790323617391 0.1426328287121395 0 -0.098690851663685089 0.15638447726972871 0 -0.085272729686500709 0.15074616099560109 0 -0.1166903092593479 0.13701797956449671 0 -0.10384790323617391 0.1426328287121395 0 -0.11653844495345229 0.1541483935169842 0 -0.1297365929547874 0.14372284964802651 0 -0.1166903092593479 0.13701797956449671 0 -0.11653844495345229 0.1541483935169842 0 -0.1351872215463249 0.16595172002634151 0 -0.11653844495345229 0.1541483935169842 0 -0.1217629237691734 0.18061000490987189 0 -0.11653844495345229 0.1541483935169842 0 -0.1217629237691734 0.18061000490987189 0 -0.1057425295272337 0.16869612805633691 0 -0.1217629237691734 0.18061000490987189 0 -0.10188697355126571 0.18432059664512679 0 -0.1057425295272337 0.16869612805633691 0 -0.10188697355126571 0.18432059664512679 0 -0.1057425295272337 0.16869612805633691 0 -0.085609858123310303 0.16962402033597759 0 -0.11653844495345229 0.1541483935169842 0 -0.1057425295272337 0.16869612805633691 0 -0.098690851663685089 0.15638447726972871 0 -0.1057425295272337 0.16869612805633691 0 -0.098690851663685089 0.15638447726972871 0 -0.085609858123310303 0.16962402033597759 0 -0.098690851663685089 0.15638447726972871 0 -0.085609858123310303 0.16962402033597759 0 -0.085272729686500709 0.15074616099560109 0 -0.085609858123310303 0.16962402033597759 0 -0.068284939042067352 0.16652294446964 0 -0.085272729686500709 0.15074616099560109 0 -0.085609858123310303 0.16962402033597759 0 -0.086474187029164415 0.18749859622177001 0 -0.064396955062547404 0.18536101898627641 0 -0.10188697355126571 0.18432059664512679 0 -0.085609858123310303 0.16962402033597759 0 -0.086474187029164415 0.18749859622177001 0 -0.085609858123310303 0.16962402033597759 0 -0.064396955062547404 0.18536101898627641 0 -0.068284939042067352 0.16652294446964 0 -0.068284939042067352 0.16652294446964 0 -0.066882263991817084 0.14983470803709509 0 -0.052915166008830651 0.16392052253527931 0 -0.068284939042067352 0.16652294446964 0 -0.066882263991817084 0.14983470803709509 0 -0.085272729686500709 0.15074616099560109 0 -0.066882263991817084 0.14983470803709509 0 -0.078907531041968015 0.13854880261099231 0 -0.085272729686500709 0.15074616099560109 0 -0.066882263991817084 0.14983470803709509 0 -0.06736328638198702 0.13239570911432461 0 -0.055931765650236782 0.1378247398590626 0 -0.06736328638198702 0.13239570911432461 0 -0.078907531041968015 0.13854880261099231 0 -0.081348980203036561 0.12185919610928971 0 -0.066882263991817084 0.14983470803709509 0 -0.06736328638198702 0.13239570911432461 0 -0.078907531041968015 0.13854880261099231 0 -0.06736328638198702 0.13239570911432461 0 -0.056321637274860628 0.1256360977897551 0 -0.066666355503714442 0.1194928112247006 0 -0.078907531041968015 0.13854880261099231 0 -0.091779074236601324 0.13272338627698679 0 -0.081348980203036561 0.12185919610928971 0 -0.10384790323617391 0.1426328287121395 0 -0.091779074236601324 0.13272338627698679 0 -0.085272729686500709 0.15074616099560109 0 -0.078907531041968015 0.13854880261099231 0 -0.091779074236601324 0.13272338627698679 0 -0.085272729686500709 0.15074616099560109 0 -0.1000211183564635 0.24910540585133639 0 -0.11063075535248711 0.2347146002150175 0 -0.09334189120775592 0.23383067957888859 0 -0.1200650727569653 0.25654842508966841 0 -0.12780402047888129 0.23982327490110761 0 -0.11063075535248711 0.2347146002150175 0 -0.1200650727569653 0.25654842508966841 0 -0.1000211183564635 0.24910540585133639 0 -0.11063075535248711 0.2347146002150175 0 -0.12835961704094409 0.2225620304989947 0 -0.11063075535248711 0.2347146002150175 0 -0.11618049091046841 0.21306079305166081 0 -0.12835961704094409 0.2225620304989947 0 -0.12780402047888129 0.23982327490110761 0 -0.11063075535248711 0.2347146002150175 0 -0.12835961704094409 0.2225620304989947 0 -0.11063075535248711 0.2347146002150175 0 -0.11063075535248711 0.2347146002150175 0 -0.099142438113948822 0.215094161283722 0 -0.11618049091046841 0.21306079305166081 0 -0.11063075535248711 0.2347146002150175 0 -0.099142438113948822 0.215094161283722 0 -0.09334189120775592 0.23383067957888859 0 -0.099142438113948822 0.215094161283722 0 -0.1113259679547564 0.19965194026954231 0 -0.096183191124974171 0.19843646837039861 0 -0.099142438113948822 0.215094161283722 0 -0.11618049091046841 0.21306079305166081 0 -0.1113259679547564 0.19965194026954231 0 -0.12940687414427701 0.20508160682215831 0 -0.12835961704094409 0.2225620304989947 0 -0.11618049091046841 0.21306079305166081 0 -0.12940687414427701 0.20508160682215831 0 -0.11618049091046841 0.21306079305166081 0 -0.1113259679547564 0.19965194026954231 0 -0.12940687414427701 0.20508160682215831 0 -0.1217629237691734 0.18061000490987189 0 -0.1113259679547564 0.19965194026954231 0 -0.1217629237691734 0.18061000490987189 0 -0.10188697355126571 0.18432059664512679 0 -0.1113259679547564 0.19965194026954231 0 -0.10188697355126571 0.18432059664512679 0 -0.1113259679547564 0.19965194026954231 0 -0.096183191124974171 0.19843646837039861 0 -0.10188697355126571 0.18432059664512679 0 -0.086474187029164415 0.18749859622177001 0 -0.096183191124974171 0.19843646837039861 0 -0.086474187029164415 0.18749859622177001 0 -0.096183191124974171 0.19843646837039861 0 -0.080159354148327699 0.20364876608186819 0 -0.064396955062547404 0.18536101898627641 0 -0.080159354148327699 0.20364876608186819 0 -0.062471401712302511 0.20868975613548241 0 -0.086474187029164415 0.18749859622177001 0 -0.064396955062547404 0.18536101898627641 0 -0.080159354148327699 0.20364876608186819 0 -0.080159354148327699 0.20364876608186819 0 -0.079261542806851062 0.22102123875498789 0 -0.062471401712302511 0.20868975613548241 0 -0.099142438113948822 0.215094161283722 0 -0.096183191124974171 0.19843646837039861 0 -0.080159354148327699 0.20364876608186819 0 -0.099142438113948822 0.215094161283722 0 -0.080159354148327699 0.20364876608186819 0 -0.079261542806851062 0.22102123875498789 0 -0.09334189120775592 0.23383067957888859 0 -0.079261542806851062 0.22102123875498789 0 -0.076858009621886367 0.2482388650172308 0 -0.099142438113948822 0.215094161283722 0 -0.09334189120775592 0.23383067957888859 0 -0.079261542806851062 0.22102123875498789 0 -0.079261542806851062 0.22102123875498789 0 -0.060227172772067392 0.22782647633180511 0 -0.062471401712302511 0.20868975613548241 0 -0.079261542806851062 0.22102123875498789 0 -0.076858009621886367 0.2482388650172308 0 -0.060227172772067392 0.22782647633180511 0 -0.076858009621886367 0.2482388650172308 0 -0.058125444104681893 0.24600468991723079 0 -0.060227172772067392 0.22782647633180511 0 -0.1000211183564635 0.24910540585133639 0 -0.09334189120775592 0.23383067957888859 0 -0.076858009621886367 0.2482388650172308 0 -0.043164225888924657 0.23581993684767691 0 -0.031296630384082709 0.22788403248973069 0 -0.02627617770287325 0.24201379537057099 0 -0.038899674289434687 0.2584472851928335 0 -0.043164225888924657 0.23581993684767691 0 -0.058125444104681893 0.24600468991723079 0 -0.038899674289434687 0.2584472851928335 0 -0.043164225888924657 0.23581993684767691 0 -0.02627617770287325 0.24201379537057099 0 -0.043164225888924657 0.23581993684767691 0 -0.058125444104681893 0.24600468991723079 0 -0.060227172772067392 0.22782647633180511 0 -0.043164225888924657 0.23581993684767691 0 -0.060227172772067392 0.22782647633180511 0 -0.043431247150020301 0.21579594569525351 0 -0.043164225888924657 0.23581993684767691 0 -0.031296630384082709 0.22788403248973069 0 -0.043431247150020301 0.21579594569525351 0 -0.031296630384082709 0.22788403248973069 0 -0.043431247150020301 0.21579594569525351 0 -0.02783379533968906 0.21576261626462739 0 -0.043431247150020301 0.21579594569525351 0 -0.047538380177680757 0.19930806252014119 0 -0.030949097451782322 0.1989641119691197 0 -0.043431247150020301 0.21579594569525351 0 -0.030949097451782322 0.1989641119691197 0 -0.02783379533968906 0.21576261626462739 0 -0.043431247150020301 0.21579594569525351 0 -0.062471401712302511 0.20868975613548241 0 -0.047538380177680757 0.19930806252014119 0 -0.060227172772067392 0.22782647633180511 0 -0.043431247150020301 0.21579594569525351 0 -0.062471401712302511 0.20868975613548241 0 -0.064396955062547404 0.18536101898627641 0 -0.062471401712302511 0.20868975613548241 0 -0.047538380177680757 0.19930806252014119 0 -0.064396955062547404 0.18536101898627641 0 -0.047538380177680757 0.19930806252014119 0 -0.046988042468333428 0.18398303306613639 0 -0.030949097451782322 0.1989641119691197 0 -0.046988042468333428 0.18398303306613639 0 -0.02932018179806729 0.1797135164588968 0 -0.047538380177680757 0.19930806252014119 0 -0.030949097451782322 0.1989641119691197 0 -0.046988042468333428 0.18398303306613639 0 -0.030949097451782322 0.1989641119691197 0 -0.019626142913709291 0.1881281194796845 0 -0.01341061996080067 0.19824877412901781 0 -0.030949097451782322 0.1989641119691197 0 -0.019626142913709291 0.1881281194796845 0 -0.02932018179806729 0.1797135164588968 0 -0.030949097451782322 0.1989641119691197 0 -0.01341061996080067 0.19824877412901781 0 -0.016330230888524741 0.21060820752694609 0 -0.019626142913709291 0.1881281194796845 0 -0.01341061996080067 0.19824877412901781 0 -0.0058823588514793756 0.18713004986792631 0 -0.0028689028022349751 0.19766052020999331 0 -0.01341061996080067 0.19824877412901781 0 -0.0058823588514793756 0.18713004986792631 0 -0.0028689028022349751 0.19766052020999331 0 -0.0058823588514793756 0.18713004986792631 0 0.0047849366889574953 0.19349205637821959 0 -0.0028689028022349751 0.19766052020999331 0 -0.01341061996080067 0.19824877412901781 0 -0.0055361644606871921 0.2072914226164464 0 -0.0028689028022349751 0.19766052020999331 0 -0.0055361644606871921 0.2072914226164464 0 0.0049951212873046158 0.20414898730819769 0 -0.01341061996080067 0.19824877412901781 0 -0.0055361644606871921 0.2072914226164464 0 -0.016330230888524741 0.21060820752694609 0 -0.0055361644606871921 0.2072914226164464 0 -0.0080852105368486478 0.21888759942834349 0 0.00073282988830796272 0.21488993564660239 0 -0.0055361644606871921 0.2072914226164464 0 -0.016330230888524741 0.21060820752694609 0 -0.0080852105368486478 0.21888759942834349 0 -0.030949097451782322 0.1989641119691197 0 -0.016330230888524741 0.21060820752694609 0 -0.02783379533968906 0.21576261626462739 0 -0.016330230888524741 0.21060820752694609 0 -0.02783379533968906 0.21576261626462739 0 -0.01697700351211678 0.22702045144369809 0 -0.031296630384082709 0.22788403248973069 0 -0.02783379533968906 0.21576261626462739 0 -0.01697700351211678 0.22702045144369809 0 -0.031296630384082709 0.22788403248973069 0 -0.01697700351211678 0.22702045144369809 0 -0.02627617770287325 0.24201379537057099 0 -0.01697700351211678 0.22702045144369809 0 -0.009410176840658601 0.24322056435945061 0 0.00081779036568457939 0.22857396347179651 0 -0.01697700351211678 0.22702045144369809 0 -0.0080852105368486478 0.21888759942834349 0 0.00081779036568457939 0.22857396347179651 0 -0.016330230888524741 0.21060820752694609 0 -0.01697700351211678 0.22702045144369809 0 -0.0080852105368486478 0.21888759942834349 0 -0.0080852105368486478 0.21888759942834349 0 0.00081779036568457939 0.22857396347179651 0 0.00073282988830796272 0.21488993564660239 0 -0.009410176840658601 0.24322056435945061 0 0.0030585758369763671 0.24538293665774921 0 0.00081779036568457939 0.22857396347179651 0 -0.00045229697026904348 0.25795292580345919 0 -0.009410176840658601 0.24322056435945061 0 0.0030585758369763671 0.24538293665774921 0 -0.01697700351211678 0.22702045144369809 0 -0.009410176840658601 0.24322056435945061 0 -0.02627617770287325 0.24201379537057099 0 -0.018000355716265092 0.25741728106819378 0 -0.009410176840658601 0.24322056435945061 0 -0.02627617770287325 0.24201379537057099 0 -0.040279150617135481 0.1311596336187722 0 -0.048812489985384247 0.15009755073536579 0 -0.02995423976938389 0.14753321456201399 0 -0.048812489985384247 0.15009755073536579 0 -0.03873742365468557 0.16654695008502179 0 -0.02995423976938389 0.14753321456201399 0 -0.040279150617135481 0.1311596336187722 0 -0.02995423976938389 0.14753321456201399 0 -0.025269695602097939 0.1268204096453639 0 -0.040279150617135481 0.1311596336187722 0 -0.02995423976938389 0.14753321456201399 0 -0.040279150617135481 0.1311596336187722 0 -0.048812489985384247 0.15009755073536579 0 -0.040279150617135481 0.1311596336187722 0 -0.055931765650236782 0.1378247398590626 0 -0.048812489985384247 0.15009755073536579 0 -0.040279150617135481 0.1311596336187722 0 -0.056321637274860628 0.1256360977897551 0 -0.055931765650236782 0.1378247398590626 0 -0.06736328638198702 0.13239570911432461 0 -0.056321637274860628 0.1256360977897551 0 -0.055931765650236782 0.1378247398590626 0 -0.066882263991817084 0.14983470803709509 0 -0.055931765650236782 0.1378247398590626 0 -0.048812489985384247 0.15009755073536579 0 -0.066882263991817084 0.14983470803709509 0 -0.048812489985384247 0.15009755073536579 0 -0.052915166008830651 0.16392052253527931 0 -0.064396955062547404 0.18536101898627641 0 -0.068284939042067352 0.16652294446964 0 -0.052915166008830651 0.16392052253527931 0 -0.064396955062547404 0.18536101898627641 0 -0.052915166008830651 0.16392052253527931 0 -0.046988042468333428 0.18398303306613639 0 -0.046988042468333428 0.18398303306613639 0 -0.03873742365468557 0.16654695008502179 0 -0.02932018179806729 0.1797135164588968 0 -0.052915166008830651 0.16392052253527931 0 -0.046988042468333428 0.18398303306613639 0 -0.03873742365468557 0.16654695008502179 0 -0.048812489985384247 0.15009755073536579 0 -0.052915166008830651 0.16392052253527931 0 -0.03873742365468557 0.16654695008502179 0 -0.03873742365468557 0.16654695008502179 0 -0.0196293289216313 0.16390679550525519 0 -0.02995423976938389 0.14753321456201399 0 -0.03873742365468557 0.16654695008502179 0 -0.0196293289216313 0.16390679550525519 0 -0.02932018179806729 0.1797135164588968 0 -0.0196293289216313 0.16390679550525519 0 -0.02932018179806729 0.1797135164588968 0 -0.01387835559757384 0.17544615768527189 0 -0.019626142913709291 0.1881281194796845 0 -0.02932018179806729 0.1797135164588968 0 -0.01387835559757384 0.17544615768527189 0 -0.019626142913709291 0.1881281194796845 0 -0.01387835559757384 0.17544615768527189 0 -0.0058823588514793756 0.18713004986792631 0 -0.01387835559757384 0.17544615768527189 0 -0.003776481264609602 0.17825945363558701 0 -0.0058823588514793756 0.18713004986792631 0 -0.01387835559757384 0.17544615768527189 0 -0.003776481264609602 0.17825945363558701 0 -0.00043937756093595721 0.16632191324053061 0 -0.003776481264609602 0.17825945363558701 0 -0.0058823588514793756 0.18713004986792631 0 0.0053637487760516524 0.184772136860261 0 -0.0196293289216313 0.16390679550525519 0 -0.00043937756093595721 0.16632191324053061 0 -0.0081948028869626779 0.15121960150640651 0 -0.0196293289216313 0.16390679550525519 0 -0.01387835559757384 0.17544615768527189 0 -0.00043937756093595721 0.16632191324053061 0 -0.00043937756093595721 0.16632191324053061 0 -0.0081948028869626779 0.15121960150640651 0 0.007349566227534461 0.15479089765464071 0 -0.0081948028869626779 0.15121960150640651 0 -0.01129870168380114 0.1340879280668987 0 0.0048032643864417586 0.14067686000910001 0 -0.0196293289216313 0.16390679550525519 0 -0.02995423976938389 0.14753321456201399 0 -0.0196293289216313 0.16390679550525519 0 -0.0081948028869626779 0.15121960150640651 0 -0.02995423976938389 0.14753321456201399 0 -0.0081948028869626779 0.15121960150640651 0 -0.02995423976938389 0.14753321456201399 0 -0.01129870168380114 0.1340879280668987 0 -0.02995423976938389 0.14753321456201399 0 -0.025269695602097939 0.1268204096453639 0 -0.01129870168380114 0.1340879280668987 0 -0.025269695602097939 0.1268204096453639 0 -0.01129870168380114 0.1340879280668987 0 -0.0072238578802305484 0.1142953266605153 0 -0.01129870168380114 0.1340879280668987 0 0.0045066700958542229 0.12758298615988009 0 0.0048032643864417586 0.14067686000910001 0 -0.01129870168380114 0.1340879280668987 0 -0.0072238578802305484 0.1142953266605153 0 0.0045066700958542229 0.12758298615988009 0 -0.0072238578802305484 0.1142953266605153 0 -0.01379330872441395 0.1012452821986803 0 0.003275387849536876 0.093466029536181411 0 -0.019608245817803859 0.085284992411933783 0 -0.031616519049157722 0.1119347801860909 0 -0.0072238578802305484 0.1142953266605153 0 -0.01379330872441395 0.1012452821986803 0 -0.031616519049157722 0.1119347801860909 0 -0.01379330872441395 0.1012452821986803 0 -0.019608245817803859 0.085284992411933783 0 -0.031616519049157722 0.1119347801860909 0 -0.019608245817803859 0.085284992411933783 0 -0.035870967245175467 0.092664670796908002 0 -0.031616519049157722 0.1119347801860909 0 -0.0072238578802305484 0.1142953266605153 0 -0.031616519049157722 0.1119347801860909 0 -0.025269695602097939 0.1268204096453639 0 -0.0072238578802305484 0.1142953266605153 0 -0.031616519049157722 0.1119347801860909 0 -0.01318292778871487 0.071025376682189681 0 -5.4945168057720336e-06 0.062173785531596408 0 0.0028323667073843371 0.076119067663737605 0 -0.01318292778871487 0.071025376682189681 0 -0.019608245817803859 0.085284992411933783 0 0.0028323667073843371 0.076119067663737605 0 -0.01379330872441395 0.1012452821986803 0 -0.019608245817803859 0.085284992411933783 0 0.003275387849536876 0.093466029536181411 0 -0.019608245817803859 0.085284992411933783 0 0.003275387849536876 0.093466029536181411 0 0.0028323667073843371 0.076119067663737605 0 -0.019608245817803859 0.085284992411933783 0 0.003275387849536876 0.093466029536181411 0 -0.019608245817803859 0.085284992411933783 0 -0.04268297844569318 0.077035636256130136 0 -0.01318292778871487 0.071025376682189681 0 -0.019608245817803859 0.085284992411933783 0 -0.01318292778871487 0.071025376682189681 0 -0.019608245817803859 0.085284992411933783 0 -0.03006649929817248 0.06355845952289009 0 -0.019608245817803859 0.085284992411933783 0 -0.03006649929817248 0.06355845952289009 0 -0.04268297844569318 0.077035636256130136 0 -0.03006649929817248 0.06355845952289009 0 -0.04268297844569318 0.077035636256130136 0 -0.05092248306698078 0.053720877609907791 0 -0.04268297844569318 0.077035636256130136 0 -0.035870967245175467 0.092664670796908002 0 -0.048082021529622793 0.096681178758004693 0 -0.019608245817803859 0.085284992411933783 0 -0.04268297844569318 0.077035636256130136 0 -0.035870967245175467 0.092664670796908002 0 -0.04268297844569318 0.077035636256130136 0 -0.048082021529622793 0.096681178758004693 0 -0.063458194205958302 0.094401549022710501 0 -0.04268297844569318 0.077035636256130136 0 -0.063458194205958302 0.094401549022710501 0 -0.065757711073582373 0.068786280100326141 0 -0.04268297844569318 0.077035636256130136 0 -0.065757711073582373 0.068786280100326141 0 -0.05092248306698078 0.053720877609907791 0 -0.04268297844569318 0.077035636256130136 0 -0.065757711073582373 0.068786280100326141 0 -0.040279150617135481 0.1311596336187722 0 -0.025269695602097939 0.1268204096453639 0 -0.031616519049157722 0.1119347801860909 0 -0.040279150617135481 0.1311596336187722 0 -0.031616519049157722 0.1119347801860909 0 -0.053752860615073061 0.10979258411006119 0 -0.040279150617135481 0.1311596336187722 0 -0.031616519049157722 0.1119347801860909 0 -0.031616519049157722 0.1119347801860909 0 -0.053752860615073061 0.10979258411006119 0 -0.031616519049157722 0.1119347801860909 0 -0.048082021529622793 0.096681178758004693 0 -0.053752860615073061 0.10979258411006119 0 -0.035870967245175467 0.092664670796908002 0 -0.031616519049157722 0.1119347801860909 0 -0.048082021529622793 0.096681178758004693 0 -0.048082021529622793 0.096681178758004693 0 -0.053752860615073061 0.10979258411006119 0 -0.063458194205958302 0.094401549022710501 0 -0.053752860615073061 0.10979258411006119 0 -0.063458194205958302 0.094401549022710501 0 -0.056321637274860628 0.1256360977897551 0 -0.053752860615073061 0.10979258411006119 0 -0.066666355503714442 0.1194928112247006 0 -0.040279150617135481 0.1311596336187722 0 -0.056321637274860628 0.1256360977897551 0 -0.053752860615073061 0.10979258411006119 0 -0.040279150617135481 0.1311596336187722 0 -0.053752860615073061 0.10979258411006119 0 -0.053752860615073061 0.10979258411006119 0 -0.066666355503714442 0.1194928112247006 0 -0.074545013043614897 0.1077804690000722 0 -0.066666355503714442 0.1194928112247006 0 -0.081348980203036561 0.12185919610928971 0 -0.074545013043614897 0.1077804690000722 0 -0.06736328638198702 0.13239570911432461 0 -0.066666355503714442 0.1194928112247006 0 -0.081348980203036561 0.12185919610928971 0 -0.081348980203036561 0.12185919610928971 0 -0.09648344778722219 0.11894476045122671 0 -0.095337165472156746 0.10576835389008279 0 -0.081348980203036561 0.12185919610928971 0 -0.074545013043614897 0.1077804690000722 0 -0.095337165472156746 0.10576835389008279 0 -0.091779074236601324 0.13272338627698679 0 -0.081348980203036561 0.12185919610928971 0 -0.09648344778722219 0.11894476045122671 0 -0.074545013043614897 0.1077804690000722 0 -0.0783060274143145 0.092201751604839233 0 -0.095337165472156746 0.10576835389008279 0 -0.074545013043614897 0.1077804690000722 0 -0.095337165472156746 0.10576835389008279 0 -0.053752860615073061 0.10979258411006119 0 -0.074545013043614897 0.1077804690000722 0 -0.063458194205958302 0.094401549022710501 0 -0.053752860615073061 0.10979258411006119 0 -0.074545013043614897 0.1077804690000722 0 -0.074545013043614897 0.1077804690000722 0 -0.063458194205958302 0.094401549022710501 0 -0.0783060274143145 0.092201751604839233 0 -0.063458194205958302 0.094401549022710501 0 -0.065757711073582373 0.068786280100326141 0 -0.0783060274143145 0.092201751604839233 0 -0.065757711073582373 0.068786280100326141 0 -0.089031204845747419 0.081431668823607542 0 -0.0783060274143145 0.092201751604839233 0 -0.065757711073582373 0.068786280100326141 0 -0.088832443701471586 0.060536923944522147 0 -0.065757711073582373 0.068786280100326141 0 -0.089031204845747419 0.081431668823607542 0 -0.088832443701471586 0.060536923944522147 0 -0.089031204845747419 0.081431668823607542 0 -0.1019181840372896 0.07237042281611912 0 -0.088832443701471586 0.060536923944522147 0 -0.089031204845747419 0.081431668823607542 0 -0.0783060274143145 0.092201751604839233 0 -0.095337165472156746 0.10576835389008279 0 -0.089031204845747419 0.081431668823607542 0 -0.10319640009999551 0.088173285500915313 0 -0.1019181840372896 0.07237042281611912 0 -0.10319640009999551 0.088173285500915313 0 -0.1019181840372896 0.07237042281611912 0 -0.11528942578556239 0.081970169455204661 0 -0.089031204845747419 0.081431668823607542 0 -0.10319640009999551 0.088173285500915313 0 -0.095337165472156746 0.10576835389008279 0 -0.1019181840372896 0.07237042281611912 0 -0.1168463413519793 0.068494457527634459 0 -0.1119071763293608 0.052287567788718139 0 -0.1019181840372896 0.07237042281611912 0 -0.1168463413519793 0.068494457527634459 0 -0.11528942578556239 0.081970169455204661 0 -0.12784063447554311 0.074775983035647059 0 -0.1168463413519793 0.068494457527634459 0 -0.11528942578556239 0.081970169455204661 0 -0.12784063447554311 0.074775983035647059 0 -0.12616165157235179 0.060337080632980537 0 -0.1168463413519793 0.068494457527634459 0 -0.1264769540869648 0.091960025661460235 0 -0.12784063447554311 0.074775983035647059 0 -0.11528942578556239 0.081970169455204661 0 -0.10319640009999551 0.088173285500915313 0 -0.11528942578556239 0.081970169455204661 0 -0.1125477960207598 0.09703495242884308 0 -0.1264769540869648 0.091960025661460235 0 -0.11528942578556239 0.081970169455204661 0 -0.1125477960207598 0.09703495242884308 0 -0.1264769540869648 0.091960025661460235 0 -0.1125477960207598 0.09703495242884308 0 -0.1213181017677934 0.1093903784047619 0 -0.1125477960207598 0.09703495242884308 0 -0.1213181017677934 0.1093903784047619 0 -0.10774744472502561 0.10931942350230341 0 -0.1213181017677934 0.1093903784047619 0 -0.12428596436324971 0.12149397926971151 0 -0.1213181017677934 0.1093903784047619 0 -0.12428596436324971 0.12149397926971151 0 -0.1090426407890762 0.1230918466756219 0 -0.12428596436324971 0.12149397926971151 0 -0.1090426407890762 0.1230918466756219 0 -0.1213181017677934 0.1093903784047619 0 -0.1090426407890762 0.1230918466756219 0 -0.10774744472502561 0.10931942350230341 0 -0.091779074236601324 0.13272338627698679 0 -0.1090426407890762 0.1230918466756219 0 -0.09648344778722219 0.11894476045122671 0 -0.1090426407890762 0.1230918466756219 0 -0.09648344778722219 0.11894476045122671 0 -0.10774744472502561 0.10931942350230341 0 -0.09648344778722219 0.11894476045122671 0 -0.095337165472156746 0.10576835389008279 0 -0.10774744472502561 0.10931942350230341 0 -0.1125477960207598 0.09703495242884308 0 -0.095337165472156746 0.10576835389008279 0 -0.10774744472502561 0.10931942350230341 0 -0.10319640009999551 0.088173285500915313 0 -0.1125477960207598 0.09703495242884308 0 -0.095337165472156746 0.10576835389008279 0 -0.10437996356352169 0.02022488953484505 0 -0.1176555940818048 0.026785626080231089 0 -0.1012337806616924 0.032857733700232102 0 -0.10437996356352169 0.02022488953484505 0 -0.1012337806616924 0.032857733700232102 0 -0.089913769620367012 0.021263165512794079 0 -0.10437996356352169 0.02022488953484505 0 -0.094987884996875799 0.0073395273471782464 0 -0.089913769620367012 0.021263165512794079 0 -0.1022364627064003 -0.0092294706397440755 0 -0.094987884996875799 0.0073395273471782464 0 -0.1107478437432257 0.0076006666536393543 0 -0.10437996356352169 0.02022488953484505 0 -0.094987884996875799 0.0073395273471782464 0 -0.1107478437432257 0.0076006666536393543 0 -0.1231592389501604 -0.01151041530668794 0 -0.12890170197570541 0.015470455861097149 0 -0.1107478437432257 0.0076006666536393543 0 -0.10437996356352169 0.02022488953484505 0 -0.1107478437432257 0.0076006666536393543 0 -0.1176555940818048 0.026785626080231089 0 -0.12890170197570541 0.015470455861097149 0 -0.1107478437432257 0.0076006666536393543 0 -0.1176555940818048 0.026785626080231089 0 -0.1176555940818048 0.026785626080231089 0 -0.1103927889546073 0.040882386711118712 0 -0.1012337806616924 0.032857733700232102 0 -0.13464416500125251 0.042451327028881811 0 -0.1176555940818048 0.026785626080231089 0 -0.1216384926838467 0.042233750192079852 0 -0.13498190895725001 0.044038211632913868 0 -0.1216384926838467 0.042233750192079852 0 -0.1119071763293608 0.052287567788718139 0 -0.1216384926838467 0.042233750192079852 0 -0.1103927889546073 0.040882386711118712 0 -0.1119071763293608 0.052287567788718139 0 -0.1176555940818048 0.026785626080231089 0 -0.1216384926838467 0.042233750192079852 0 -0.1103927889546073 0.040882386711118712 0 -0.13498190895725001 0.044038211632913868 0 -0.1119071763293608 0.052287567788718139 0 -0.12616165157235179 0.060337080632980537 0 -0.13498190895725001 0.044038211632913868 0 -0.1119071763293608 0.052287567788718139 0 -0.12616165157235179 0.060337080632980537 0 -0.1168463413519793 0.068494457527634459 0 -0.1119071763293608 0.052287567788718139 0 -0.1119071763293608 0.052287567788718139 0 -0.09777796342957748 0.048146718731587823 0 -0.088832443701471586 0.060536923944522147 0 -0.1119071763293608 0.052287567788718139 0 -0.088832443701471586 0.060536923944522147 0 -0.1019181840372896 0.07237042281611912 0 -0.1119071763293608 0.052287567788718139 0 -0.088832443701471586 0.060536923944522147 0 -0.1103927889546073 0.040882386711118712 0 -0.1119071763293608 0.052287567788718139 0 -0.09777796342957748 0.048146718731587823 0 -0.1103927889546073 0.040882386711118712 0 -0.09777796342957748 0.048146718731587823 0 -0.1012337806616924 0.032857733700232102 0 -0.09777796342957748 0.048146718731587823 0 -0.1012337806616924 0.032857733700232102 0 -0.086407135526898576 0.038793347099443633 0 -0.086407135526898576 0.038793347099443633 0 -0.088832443701471586 0.060536923944522147 0 -0.071386647718208018 0.046432578021054022 0 -0.09777796342957748 0.048146718731587823 0 -0.086407135526898576 0.038793347099443633 0 -0.088832443701471586 0.060536923944522147 0 -0.065757711073582373 0.068786280100326141 0 -0.071386647718208018 0.046432578021054022 0 -0.05092248306698078 0.053720877609907791 0 -0.065757711073582373 0.068786280100326141 0 -0.088832443701471586 0.060536923944522147 0 -0.071386647718208018 0.046432578021054022 0 -0.071386647718208018 0.046432578021054022 0 -0.075419488694953671 0.02685087021644508 0 -0.05793343393299008 0.033103534692547773 0 -0.086407135526898576 0.038793347099443633 0 -0.071386647718208018 0.046432578021054022 0 -0.075419488694953671 0.02685087021644508 0 -0.075419488694953671 0.02685087021644508 0 -0.078462057111030492 0.0076527769379092746 0 -0.062745540238797651 0.01480389328662406 0 -0.075419488694953671 0.02685087021644508 0 -0.062745540238797651 0.01480389328662406 0 -0.05793343393299008 0.033103534692547773 0 -0.075419488694953671 0.02685087021644508 0 -0.089913769620367012 0.021263165512794079 0 -0.078462057111030492 0.0076527769379092746 0 -0.1012337806616924 0.032857733700232102 0 -0.086407135526898576 0.038793347099443633 0 -0.089913769620367012 0.021263165512794079 0 -0.086407135526898576 0.038793347099443633 0 -0.075419488694953671 0.02685087021644508 0 -0.089913769620367012 0.021263165512794079 0 -0.086168345632243293 -0.0058649827448112217 0 -0.094987884996875799 0.0073395273471782464 0 -0.078462057111030492 0.0076527769379092746 0 -0.094987884996875799 0.0073395273471782464 0 -0.089913769620367012 0.021263165512794079 0 -0.078462057111030492 0.0076527769379092746 0 -0.060466491373628979 -0.0028009421811297751 0 -0.078462057111030492 0.0076527769379092746 0 -0.062745540238797651 0.01480389328662406 0 -0.060466491373628979 -0.0028009421811297751 0 -0.042516026620283989 -0.0011487078488288669 0 -0.052323226607043999 0.0070639686771983706 0 -0.060466491373628979 -0.0028009421811297751 0 -0.062745540238797651 0.01480389328662406 0 -0.052323226607043999 0.0070639686771983706 0 -0.052323226607043999 0.0070639686771983706 0 -0.04951640293274432 0.019836774295890629 0 -0.039041772128967388 0.012823086553396489 0 -0.062745540238797651 0.01480389328662406 0 -0.052323226607043999 0.0070639686771983706 0 -0.04951640293274432 0.019836774295890629 0 -0.062745540238797651 0.01480389328662406 0 -0.04951640293274432 0.019836774295890629 0 -0.05793343393299008 0.033103534692547773 0 -0.04951640293274432 0.019836774295890629 0 -0.05793343393299008 0.033103534692547773 0 -0.037610040946256043 0.036976214725365053 0 -0.04951640293274432 0.019836774295890629 0 -0.039041772128967388 0.012823086553396489 0 -0.037610040946256043 0.036976214725365053 0 -0.039041772128967388 0.012823086553396489 0 -0.037610040946256043 0.036976214725365053 0 -0.023657177189625581 0.01108024914205568 0 -0.042516026620283989 -0.0011487078488288669 0 -0.039041772128967388 0.012823086553396489 0 -0.023657177189625581 0.01108024914205568 0 -0.042516026620283989 -0.0011487078488288669 0 -0.052323226607043999 0.0070639686771983706 0 -0.039041772128967388 0.012823086553396489 0 -0.05092248306698078 0.053720877609907791 0 -0.05793343393299008 0.033103534692547773 0 -0.037610040946256043 0.036976214725365053 0 -0.071386647718208018 0.046432578021054022 0 -0.05092248306698078 0.053720877609907791 0 -0.05793343393299008 0.033103534692547773 0 -0.03006649929817248 0.06355845952289009 0 -0.05092248306698078 0.053720877609907791 0 -0.037610040946256043 0.036976214725365053 0 -0.03006649929817248 0.06355845952289009 0 -0.037610040946256043 0.036976214725365053 0 -0.01445012673707146 0.051601419794444707 0 -0.01318292778871487 0.071025376682189681 0 -0.03006649929817248 0.06355845952289009 0 -0.01445012673707146 0.051601419794444707 0 -0.037610040946256043 0.036976214725365053 0 -0.01445012673707146 0.051601419794444707 0 -0.0097604678939724257 0.028746178545437089 0 -0.037610040946256043 0.036976214725365053 0 -0.0097604678939724257 0.028746178545437089 0 -0.01445012673707146 0.051601419794444707 0 -0.0097604678939724257 0.028746178545437089 0 0.0058445188165981267 0.045896006704466953 0 -0.01318292778871487 0.071025376682189681 0 -0.01445012673707146 0.051601419794444707 0 -5.4945168057720336e-06 0.062173785531596408 0 -0.01445012673707146 0.051601419794444707 0 -5.4945168057720336e-06 0.062173785531596408 0 0.0058445188165981267 0.045896006704466953 0 -0.015120462510579869 -0.0097122517518174346 0 -0.023657177189625581 0.01108024914205568 0 -0.01117614572828979 0.0082338089042717985 0 -0.042516026620283989 -0.0011487078488288669 0 -0.015120462510579869 -0.0097122517518174346 0 -0.023657177189625581 0.01108024914205568 0 -0.037610040946256043 0.036976214725365053 0 -0.023657177189625581 0.01108024914205568 0 -0.0097604678939724257 0.028746178545437089 0 -0.023657177189625581 0.01108024914205568 0 -0.0097604678939724257 0.028746178545437089 0 -0.01117614572828979 0.0082338089042717985 0 -0.0097604678939724257 0.028746178545437089 0 -0.01117614572828979 0.0082338089042717985 0 0.0038335246810187419 0.0028210596814118639 0 -0.015120462510579869 -0.0097122517518174346 0 -0.01117614572828979 0.0082338089042717985 0 0.0038335246810187419 0.0028210596814118639 0 0.0038335246810187419 0.0028210596814118639 0 0.018089105158311192 0.020516142365509141 0 0.016380542671817849 -9.4010737341792714e-05 0 -0.0097604678939724257 0.028746178545437089 0 0.0038335246810187419 0.0028210596814118639 0 0.018089105158311192 0.020516142365509141 0 -0.0097604678939724257 0.028746178545437089 0 0.018089105158311192 0.020516142365509141 0 0.018089105158311192 0.020516142365509141 0 0.016380542671817849 -9.4010737341792714e-05 0 0.031324439248817088 -0.0054374493414821234 0 -5.4945168057720336e-06 0.062173785531596408 0 0.0058445188165981267 0.045896006704466953 0 0.018928696417775 0.06622705681314317 0 -0.0097604678939724257 0.028746178545437089 0 0.018089105158311192 0.020516142365509141 0 0.0058445188165981267 0.045896006704466953 0 0.018089105158311192 0.020516142365509141 0 0.026148840462279489 0.044563724115687722 0 0.035699645136581651 0.03000815060762967 0 0.018089105158311192 0.020516142365509141 0 0.0058445188165981267 0.045896006704466953 0 0.026148840462279489 0.044563724115687722 0 0.026148840462279489 0.044563724115687722 0 0.034582971205233168 0.058017941655503003 0 0.018928696417775 0.06622705681314317 0 0.0058445188165981267 0.045896006704466953 0 0.026148840462279489 0.044563724115687722 0 0.018928696417775 0.06622705681314317 0 0.026148840462279489 0.044563724115687722 0 0.034582971205233168 0.058017941655503003 0 0.043714435815018583 0.046912415627201512 0 0.034582971205233168 0.058017941655503003 0 0.043714435815018583 0.046912415627201512 0 0.048223122024893442 0.06124896968935712 0 0.043714435815018583 0.046912415627201512 0 0.05441792586860672 0.034831634460576598 0 0.035699645136581651 0.03000815060762967 0 0.026148840462279489 0.044563724115687722 0 0.043714435815018583 0.046912415627201512 0 0.035699645136581651 0.03000815060762967 0 0.043714435815018583 0.046912415627201512 0 0.05441792586860672 0.034831634460576598 0 0.06412567888014388 0.054428665289072593 0 0.043714435815018583 0.046912415627201512 0 0.048223122024893442 0.06124896968935712 0 0.06412567888014388 0.054428665289072593 0 0.018089105158311192 0.020516142365509141 0 0.045938678210594802 0.01228610618558118 0 0.031324439248817088 -0.0054374493414821234 0 0.018089105158311192 0.020516142365509141 0 0.045938678210594802 0.01228610618558118 0 0.035699645136581651 0.03000815060762967 0 0.05441792586860672 0.034831634460576598 0 0.045938678210594802 0.01228610618558118 0 0.035699645136581651 0.03000815060762967 0 0.018089105158311192 0.020516142365509141 0 0.045938678210594802 0.01228610618558118 0 0.05441792586860672 0.034831634460576598 0 0.045938678210594802 0.01228610618558118 0 0.069031699238729705 0.022091301778222019 0 0.045938678210594802 0.01228610618558118 0 0.073788251262878413 0.0040560700056532298 0 0.045938678210594802 0.01228610618558118 0 0.073788251262878413 0.0040560700056532298 0 0.059532994407347432 -0.0083949225991459733 0 0.045938678210594802 0.01228610618558118 0 0.073788251262878413 0.0040560700056532298 0 0.069031699238729705 0.022091301778222019 0 0.073788251262878413 0.0040560700056532298 0 0.087560611315197129 0.011325223796156971 0 0.069031699238729705 0.022091301778222019 0 0.073788251262878413 0.0040560700056532298 0 0.087560611315197129 0.011325223796156971 0 0.092203167308598344 -0.01393686192881549 0 0.087560611315197129 0.011325223796156971 0 0.09247345749509446 0.026102992256021501 0 0.069031699238729705 0.022091301778222019 0 0.09247345749509446 0.026102992256021501 0 0.069031699238729705 0.022091301778222019 0 0.078330574613779583 0.038738823242211867 0 0.05441792586860672 0.034831634460576598 0 0.069031699238729705 0.022091301778222019 0 0.078330574613779583 0.038738823242211867 0 0.05441792586860672 0.034831634460576598 0 0.06412567888014388 0.054428665289072593 0 0.078330574613779583 0.038738823242211867 0 0.06412567888014388 0.054428665289072593 0 0.087197384327834235 0.05621989450025535 0 0.07579451139985241 0.068617060847170508 0 0.06412567888014388 0.054428665289072593 0 0.087197384327834235 0.05621989450025535 0 0.078330574613779583 0.038738823242211867 0 0.087197384327834235 0.05621989450025535 0 0.078330574613779583 0.038738823242211867 0 0.10018325754210269 0.039811629286283443 0 0.09247345749509446 0.026102992256021501 0 0.078330574613779583 0.038738823242211867 0 0.10018325754210269 0.039811629286283443 0 0.087197384327834235 0.05621989450025535 0 0.10018325754210269 0.039811629286283443 0 0.10829685216164819 0.057009956350755432 0 0.10829685216164819 0.057009956350755432 0 0.1217668724929772 0.037069692192208473 0 0.10829685216164819 0.057009956350755432 0 0.1222879965447146 0.058325638298925522 0 0.1217668724929772 0.037069692192208473 0 0.10829685216164819 0.057009956350755432 0 0.1222879965447146 0.058325638298925522 0 0.1127817826693789 0.06867153590957624 0 0.10018325754210269 0.039811629286283443 0 0.10829685216164819 0.057009956350755432 0 0.1217668724929772 0.037069692192208473 0 0.1217668724929772 0.037069692192208473 0 0.1123566543533009 0.02299382906094246 0 0.12842307720111881 0.033870046662418503 0 0.10018325754210269 0.039811629286283443 0 0.1217668724929772 0.037069692192208473 0 0.1123566543533009 0.02299382906094246 0 0.1123566543533009 0.02299382906094246 0 0.1274552054474524 0.0077376294574659759 0 0.12842307720111881 0.033870046662418503 0 0.1217668724929772 0.037069692192208473 0 0.1123566543533009 0.02299382906094246 0 0.1123566543533009 0.02299382906094246 0 0.11566825232464489 0.0022947270128303768 0 0.1274552054474524 0.0077376294574659759 0 0.1123566543533009 0.02299382906094246 0 0.11566825232464489 0.0022947270128303768 0 0.1029464362136215 0.0089179659296784383 0 0.087560611315197129 0.011325223796156971 0 0.1029464362136215 0.0089179659296784383 0 0.092203167308598344 -0.01393686192881549 0 0.11566825232464489 0.0022947270128303768 0 0.1029464362136215 0.0089179659296784383 0 0.1090956319150638 -0.0097810016364484054 0 0.087560611315197129 0.011325223796156971 0 0.09247345749509446 0.026102992256021501 0 0.1029464362136215 0.0089179659296784383 0 0.09247345749509446 0.026102992256021501 0 0.10018325754210269 0.039811629286283443 0 0.1123566543533009 0.02299382906094246 0 0.09247345749509446 0.026102992256021501 0 0.1123566543533009 0.02299382906094246 0 0.1029464362136215 0.0089179659296784383 0 0.1123566543533009 0.02299382906094246 0 0.1029464362136215 0.0089179659296784383 0 0.0999590173553353 0.096886218513249453 0 0.098741113106340955 0.1102048138245128 0 0.1132778081699813 0.097516475499287394 0 0.1045001491070531 0.121160327763206 0 0.1180666309774392 0.1177391252782585 0 0.1043387537711581 0.13390325784038359 0 0.098741113106340955 0.1102048138245128 0 0.1045001491070531 0.121160327763206 0 0.1180666309774392 0.1177391252782585 0 0.098741113106340955 0.1102048138245128 0 0.1045001491070531 0.121160327763206 0 0.088975241377871397 0.1232983144918848 0 0.098741113106340955 0.1102048138245128 0 0.1244179337573105 0.1112433619353948 0 0.098741113106340955 0.1102048138245128 0 0.1180666309774392 0.1177391252782585 0 0.1244179337573105 0.1112433619353948 0 0.1180666309774392 0.1177391252782585 0 0.1244179337573105 0.1112433619353948 0 0.1244179337573105 0.1112433619353948 0 0.1132778081699813 0.097516475499287394 0 0.12532476775185619 0.098232396260053964 0 0.098741113106340955 0.1102048138245128 0 0.1244179337573105 0.1112433619353948 0 0.1132778081699813 0.097516475499287394 0 0.1132778081699813 0.097516475499287394 0 0.12524718484145689 0.087181621146692256 0 0.12532476775185619 0.098232396260053964 0 0.1132778081699813 0.097516475499287394 0 0.1064603366460263 0.082933100061346798 0 0.12524718484145689 0.087181621146692256 0 0.1064603366460263 0.082933100061346798 0 0.13156386179305879 0.068975715454841338 0 0.12524718484145689 0.087181621146692256 0 0.1127817826693789 0.06867153590957624 0 0.1064603366460263 0.082933100061346798 0 0.13156386179305879 0.068975715454841338 0 0.1222879965447146 0.058325638298925522 0 0.1127817826693789 0.06867153590957624 0 0.13156386179305879 0.068975715454841338 0 0.1064603366460263 0.082933100061346798 0 0.13156386179305879 0.068975715454841338 0 0.10829685216164819 0.057009956350755432 0 0.1127817826693789 0.06867153590957624 0 0.094826831830320396 0.076950220509303155 0 0.1127817826693789 0.06867153590957624 0 0.094826831830320396 0.076950220509303155 0 0.1064603366460263 0.082933100061346798 0 0.10829685216164819 0.057009956350755432 0 0.094826831830320396 0.076950220509303155 0 0.087197384327834235 0.05621989450025535 0 0.10829685216164819 0.057009956350755432 0 0.094826831830320396 0.076950220509303155 0 0.1064603366460263 0.082933100061346798 0 0.081356811498993375 0.096890484667851301 0 0.0999590173553353 0.096886218513249453 0 0.1064603366460263 0.082933100061346798 0 0.081356811498993375 0.096890484667851301 0 0.094826831830320396 0.076950220509303155 0 0.1064603366460263 0.082933100061346798 0 0.081356811498993375 0.096890484667851301 0 0.0999590173553353 0.096886218513249453 0 0.1132778081699813 0.097516475499287394 0 0.1064603366460263 0.082933100061346798 0 0.094826831830320396 0.076950220509303155 0 0.081356811498993375 0.096890484667851301 0 0.094826831830320396 0.076950220509303155 0 0.074730008773258666 0.082738990664882328 0 0.081356811498993375 0.096890484667851301 0 0.087197384327834235 0.05621989450025535 0 0.094826831830320396 0.076950220509303155 0 0.07579451139985241 0.068617060847170508 0 0.094826831830320396 0.076950220509303155 0 0.07579451139985241 0.068617060847170508 0 0.074730008773258666 0.082738990664882328 0 0.06412567888014388 0.054428665289072593 0 0.07579451139985241 0.068617060847170508 0 0.060524048303039653 0.073697270541428897 0 0.07579451139985241 0.068617060847170508 0 0.074730008773258666 0.082738990664882328 0 0.060524048303039653 0.073697270541428897 0 0.074730008773258666 0.082738990664882328 0 0.062730172185045702 0.089040383673567952 0 0.081356811498993375 0.096890484667851301 0 0.074730008773258666 0.082738990664882328 0 0.062730172185045702 0.089040383673567952 0 0.060524048303039653 0.073697270541428897 0 0.081356811498993375 0.096890484667851301 0 0.060212707486232107 0.1086464587845366 0 0.060140025097589561 0.099815350614570392 0 0.062730172185045702 0.089040383673567952 0 0.081356811498993375 0.096890484667851301 0 0.060140025097589561 0.099815350614570392 0 0.073064292455371382 0.1091662657136315 0 0.081356811498993375 0.096890484667851301 0 0.060212707486232107 0.1086464587845366 0 0.081356811498993375 0.096890484667851301 0 0.060212707486232107 0.1086464587845366 0 0.073064292455371382 0.1091662657136315 0 0.060212707486232107 0.1086464587845366 0 0.073064292455371382 0.1091662657136315 0 0.081356811498993375 0.096890484667851301 0 0.098741113106340955 0.1102048138245128 0 0.073064292455371382 0.1091662657136315 0 0.081356811498993375 0.096890484667851301 0 0.0999590173553353 0.096886218513249453 0 0.098741113106340955 0.1102048138245128 0 0.081356811498993375 0.096890484667851301 0 0.098741113106340955 0.1102048138245128 0 0.073064292455371382 0.1091662657136315 0 0.073064292455371382 0.1091662657136315 0 0.088975241377871397 0.1232983144918848 0 0.072676580737361315 0.12789375094927091 0 0.098741113106340955 0.1102048138245128 0 0.073064292455371382 0.1091662657136315 0 0.088975241377871397 0.1232983144918848 0 0.073064292455371382 0.1091662657136315 0 0.057711194835536862 0.1318941320910455 0 0.073064292455371382 0.1091662657136315 0 0.062859915119376372 0.1210775306243531 0 0.057711194835536862 0.1318941320910455 0 0.073064292455371382 0.1091662657136315 0 0.057711194835536862 0.1318941320910455 0 0.072676580737361315 0.12789375094927091 0 0.073064292455371382 0.1091662657136315 0 0.062859915119376372 0.1210775306243531 0 0.060212707486232107 0.1086464587845366 0 0.062859915119376372 0.1210775306243531 0 0.054415754078611392 0.11619208098947489 0 0.045099145649896498 0.1193587709751326 0 0.062859915119376372 0.1210775306243531 0 0.045099145649896498 0.1193587709751326 0 0.051505254883130312 0.12767828606226539 0 0.062859915119376372 0.1210775306243531 0 0.045099145649896498 0.1193587709751326 0 0.054415754078611392 0.11619208098947489 0 0.047217299804608481 0.115871814668559 0 0.060212707486232107 0.1086464587845366 0 0.050182018382937517 0.11099122364976841 0 0.047217299804608481 0.115871814668559 0 0.060212707486232107 0.1086464587845366 0 0.054415754078611392 0.11619208098947489 0 0.047217299804608481 0.115871814668559 0 0.045099145649896498 0.1193587709751326 0 0.047217299804608481 0.115871814668559 0 0.060212707486232107 0.1086464587845366 0 0.050182018382937517 0.11099122364976841 0 0.0485372123232529 0.1073812492714213 0 0.044797996933480001 0.1110614516307729 0 0.050182018382937517 0.11099122364976841 0 0.047217299804608481 0.115871814668559 0 0.044797996933480001 0.1110614516307729 0 0.050182018382937517 0.11099122364976841 0 0.047217299804608481 0.115871814668559 0 0.062859915119376372 0.1210775306243531 0 0.054415754078611392 0.11619208098947489 0 0.060212707486232107 0.1086464587845366 0 0.060212707486232107 0.1086464587845366 0 0.052074411899988252 0.108317289857363 0 0.060212707486232107 0.1086464587845366 0 0.060140025097589561 0.099815350614570392 0 0.052074411899988252 0.108317289857363 0 0.060140025097589561 0.099815350614570392 0 0.053864144564310129 0.094120004055395959 0 0.050601902950968267 0.10187748264870761 0 0.062730172185045702 0.089040383673567952 0 0.060140025097589561 0.099815350614570392 0 0.053864144564310129 0.094120004055395959 0 0.053864144564310129 0.094120004055395959 0 0.050601902950968267 0.10187748264870761 0 0.044909351635762748 0.096168672344993017 0 0.060140025097589561 0.099815350614570392 0 0.052074411899988252 0.108317289857363 0 0.050601902950968267 0.10187748264870761 0 0.050182018382937517 0.11099122364976841 0 0.060212707486232107 0.1086464587845366 0 0.052074411899988252 0.108317289857363 0 0.050601902950968267 0.10187748264870761 0 0.0485372123232529 0.1073812492714213 0 0.045029731448890463 0.1046587985704948 0 0.052074411899988252 0.108317289857363 0 0.050601902950968267 0.10187748264870761 0 0.0485372123232529 0.1073812492714213 0 0.050182018382937517 0.11099122364976841 0 0.052074411899988252 0.108317289857363 0 0.0485372123232529 0.1073812492714213 0 0.0485372123232529 0.1073812492714213 0 0.045029731448890463 0.1046587985704948 0 0.044797996933480001 0.1110614516307729 0 0.045029731448890463 0.1046587985704948 0 0.039947120760601723 0.10149235179475841 0 0.038822515326388259 0.1074316409650543 0 0.045029731448890463 0.1046587985704948 0 0.038822515326388259 0.1074316409650543 0 0.044797996933480001 0.1110614516307729 0 0.044909351635762748 0.096168672344993017 0 0.039947120760601723 0.10149235179475841 0 0.034188109310850208 0.09710913649489257 0 0.045029731448890463 0.1046587985704948 0 0.044909351635762748 0.096168672344993017 0 0.039947120760601723 0.10149235179475841 0 0.050601902950968267 0.10187748264870761 0 0.045029731448890463 0.1046587985704948 0 0.044909351635762748 0.096168672344993017 0 0.039947120760601723 0.10149235179475841 0 0.034188109310850208 0.09710913649489257 0 0.032408302160277513 0.10391749146686249 0 0.039947120760601723 0.10149235179475841 0 0.038822515326388259 0.1074316409650543 0 0.032408302160277513 0.10391749146686249 0 0.038822515326388259 0.1074316409650543 0 0.032408302160277513 0.10391749146686249 0 0.031810769787740813 0.1106499657970083 0 0.031810769787740813 0.1106499657970083 0 0.041561464457624112 0.11901641960936039 0 0.039806524754348593 0.1127343622233641 0 0.038822515326388259 0.1074316409650543 0 0.031810769787740813 0.1106499657970083 0 0.039806524754348593 0.1127343622233641 0 0.032419260865695472 0.12409942093830351 0 0.041561464457624112 0.11901641960936039 0 0.032419260865695472 0.12409942093830351 0 0.041561464457624112 0.11901641960936039 0 0.045099145649896498 0.1193587709751326 0 0.047217299804608481 0.115871814668559 0 0.041561464457624112 0.11901641960936039 0 0.047217299804608481 0.115871814668559 0 0.041561464457624112 0.11901641960936039 0 0.045099145649896498 0.1193587709751326 0 0.041561464457624112 0.11901641960936039 0 0.045099145649896498 0.1193587709751326 0 0.047217299804608481 0.115871814668559 0 0.045099145649896498 0.1193587709751326 0 0.047217299804608481 0.115871814668559 0 0.043345821487515153 0.1146710120330138 0 0.044797996933480001 0.1110614516307729 0 0.047217299804608481 0.115871814668559 0 0.041561464457624112 0.11901641960936039 0 0.043345821487515153 0.1146710120330138 0 0.043345821487515153 0.1146710120330138 0 0.044797996933480001 0.1110614516307729 0 0.039806524754348593 0.1127343622233641 0 0.038822515326388259 0.1074316409650543 0 0.044797996933480001 0.1110614516307729 0 0.039806524754348593 0.1127343622233641 0 0.041561464457624112 0.11901641960936039 0 0.043345821487515153 0.1146710120330138 0 0.039806524754348593 0.1127343622233641 0 0.048223122024893442 0.06124896968935712 0 0.06412567888014388 0.054428665289072593 0 0.060524048303039653 0.073697270541428897 0 0.048223122024893442 0.06124896968935712 0 0.060524048303039653 0.073697270541428897 0 0.046984838042533977 0.074564296852799694 0 0.060524048303039653 0.073697270541428897 0 0.046984838042533977 0.074564296852799694 0 0.050532038959618011 0.086278398086162514 0 0.062730172185045702 0.089040383673567952 0 0.060524048303039653 0.073697270541428897 0 0.050532038959618011 0.086278398086162514 0 0.062730172185045702 0.089040383673567952 0 0.053864144564310129 0.094120004055395959 0 0.050532038959618011 0.086278398086162514 0 0.053864144564310129 0.094120004055395959 0 0.044909351635762748 0.096168672344993017 0 0.050532038959618011 0.086278398086162514 0 0.044909351635762748 0.096168672344993017 0 0.050532038959618011 0.086278398086162514 0 0.037898717246545047 0.085664534941185241 0 0.034188109310850208 0.09710913649489257 0 0.037898717246545047 0.085664534941185241 0 0.026288346799255211 0.091153945830487595 0 0.044909351635762748 0.096168672344993017 0 0.034188109310850208 0.09710913649489257 0 0.037898717246545047 0.085664534941185241 0 0.037898717246545047 0.085664534941185241 0 0.035899761306199353 0.071137542032125495 0 0.02695646857497961 0.079500782161198491 0 0.046984838042533977 0.074564296852799694 0 0.050532038959618011 0.086278398086162514 0 0.037898717246545047 0.085664534941185241 0 0.046984838042533977 0.074564296852799694 0 0.037898717246545047 0.085664534941185241 0 0.035899761306199353 0.071137542032125495 0 0.048223122024893442 0.06124896968935712 0 0.046984838042533977 0.074564296852799694 0 0.035899761306199353 0.071137542032125495 0 0.034582971205233168 0.058017941655503003 0 0.048223122024893442 0.06124896968935712 0 0.035899761306199353 0.071137542032125495 0 0.018928696417775 0.06622705681314317 0 0.015766821105123431 0.083320831189050953 0 0.02695646857497961 0.079500782161198491 0 0.035899761306199353 0.071137542032125495 0 0.018928696417775 0.06622705681314317 0 0.02695646857497961 0.079500782161198491 0 0.034582971205233168 0.058017941655503003 0 0.035899761306199353 0.071137542032125495 0 0.018928696417775 0.06622705681314317 0 0.015766821105123431 0.083320831189050953 0 0.02695646857497961 0.079500782161198491 0 0.026288346799255211 0.091153945830487595 0 0.037898717246545047 0.085664534941185241 0 0.02695646857497961 0.079500782161198491 0 0.026288346799255211 0.091153945830487595 0 0.015766821105123431 0.083320831189050953 0 0.026288346799255211 0.091153945830487595 0 0.01528594102924084 0.095571762684825784 0 0.015766821105123431 0.083320831189050953 0 0.003275387849536876 0.093466029536181411 0 0.0028323667073843371 0.076119067663737605 0 0.015766821105123431 0.083320831189050953 0 0.003275387849536876 0.093466029536181411 0 0.01528594102924084 0.095571762684825784 0 -5.4945168057720336e-06 0.062173785531596408 0 0.018928696417775 0.06622705681314317 0 0.0028323667073843371 0.076119067663737605 0 0.018928696417775 0.06622705681314317 0 0.015766821105123431 0.083320831189050953 0 0.0028323667073843371 0.076119067663737605 0 0.041561464457624112 0.11901641960936039 0 0.017168803288696761 0.1166558731349378 0 0.032419260865695472 0.12409942093830351 0 0.041561464457624112 0.11901641960936039 0 0.017168803288696761 0.1166558731349378 0 0.031810769787740813 0.1106499657970083 0 0.041561464457624112 0.11901641960936039 0 0.017168803288696761 0.1166558731349378 0 0.032419260865695472 0.12409942093830351 0 0.017168803288696761 0.1166558731349378 0 0.01908384236816428 0.13219894292794901 0 0.031810769787740813 0.1106499657970083 0 0.017168803288696761 0.1166558731349378 0 0.02363563433149499 0.1032043447303254 0 0.032408302160277513 0.10391749146686249 0 0.031810769787740813 0.1106499657970083 0 0.02363563433149499 0.1032043447303254 0 0.034188109310850208 0.09710913649489257 0 0.032408302160277513 0.10391749146686249 0 0.02363563433149499 0.1032043447303254 0 0.034188109310850208 0.09710913649489257 0 0.026288346799255211 0.091153945830487595 0 0.02363563433149499 0.1032043447303254 0 0.02363563433149499 0.1032043447303254 0 0.010428381723747779 0.1046386673493571 0 0.01528594102924084 0.095571762684825784 0 0.026288346799255211 0.091153945830487595 0 0.02363563433149499 0.1032043447303254 0 0.01528594102924084 0.095571762684825784 0 0.017168803288696761 0.1166558731349378 0 0.02363563433149499 0.1032043447303254 0 0.010428381723747779 0.1046386673493571 0 -0.0072238578802305484 0.1142953266605153 0 0.003275387849536876 0.093466029536181411 0 0.010428381723747779 0.1046386673493571 0 0.003275387849536876 0.093466029536181411 0 0.010428381723747779 0.1046386673493571 0 0.01528594102924084 0.095571762684825784 0 -0.0072238578802305484 0.1142953266605153 0 0.017168803288696761 0.1166558731349378 0 0.0045066700958542229 0.12758298615988009 0 -0.0072238578802305484 0.1142953266605153 0 0.017168803288696761 0.1166558731349378 0 0.010428381723747779 0.1046386673493571 0 -0.0072238578802305484 0.1142953266605153 0 0.017168803288696761 0.1166558731349378 0 0.01908384236816428 0.13219894292794901 0 0.016339913481617591 0.1463595216854166 0 0.0048032643864417586 0.14067686000910001 0 0.0045066700958542229 0.12758298615988009 0 0.01908384236816428 0.13219894292794901 0 0.0048032643864417586 0.14067686000910001 0 0.017168803288696761 0.1166558731349378 0 0.0045066700958542229 0.12758298615988009 0 0.01908384236816428 0.13219894292794901 0 0.032419260865695472 0.12409942093830351 0 0.01908384236816428 0.13219894292794901 0 0.031854013358614409 0.14116322627017511 0 0.01908384236816428 0.13219894292794901 0 0.016339913481617591 0.1463595216854166 0 0.031854013358614409 0.14116322627017511 0 0.018608881067333029 0.1629676815652181 0 0.031854013358614409 0.14116322627017511 0 0.030645790621477261 0.14988535404309819 0 0.018608881067333029 0.1629676815652181 0 0.031854013358614409 0.14116322627017511 0 0.016339913481617591 0.1463595216854166 0 0.018608881067333029 0.1629676815652181 0 0.031854013358614409 0.14116322627017511 0 0.016339913481617591 0.1463595216854166 0 0.007349566227534461 0.15479089765464071 0 0.018608881067333029 0.1629676815652181 0 0.016339913481617591 0.1463595216854166 0 0.0048032643864417586 0.14067686000910001 0 0.007349566227534461 0.15479089765464071 0 -0.0081948028869626779 0.15121960150640651 0 0.0048032643864417586 0.14067686000910001 0 0.007349566227534461 0.15479089765464071 0 -0.00043937756093595721 0.16632191324053061 0 0.0053637487760516524 0.184772136860261 0 0.018608881067333029 0.1629676815652181 0 -0.00043937756093595721 0.16632191324053061 0 0.007349566227534461 0.15479089765464071 0 0.018608881067333029 0.1629676815652181 0 0.0053637487760516524 0.184772136860261 0 0.01212954022547773 0.18262073065197801 0 0.018608881067333029 0.1629676815652181 0 -0.003776481264609602 0.17825945363558701 0 -0.00043937756093595721 0.16632191324053061 0 0.0053637487760516524 0.184772136860261 0 0.0053637487760516524 0.184772136860261 0 0.018608881067333029 0.1629676815652181 0 0.01212954022547773 0.18262073065197801 0 0.018411826906390271 0.18735978875058731 0 0.01058911837576797 0.18921186388862549 0 0.0053637487760516524 0.184772136860261 0 0.01212954022547773 0.18262073065197801 0 0.01058911837576797 0.18921186388862549 0 0.01212954022547773 0.18262073065197801 0 0.018608881067333029 0.1629676815652181 0 0.031890426475278018 0.1781355570664811 0 0.01212954022547773 0.18262073065197801 0 0.018411826906390271 0.18735978875058731 0 0.031890426475278018 0.1781355570664811 0 0.01212954022547773 0.18262073065197801 0 0.031890426475278018 0.1781355570664811 0 0.018411826906390271 0.18735978875058731 0 0.031890426475278018 0.1781355570664811 0 0.023656977789674679 0.19144208045555119 0 0.018608881067333029 0.1629676815652181 0 0.030202735564495511 0.16221540183687369 0 0.031890426475278018 0.1781355570664811 0 0.030645790621477261 0.14988535404309819 0 0.018608881067333029 0.1629676815652181 0 0.030202735564495511 0.16221540183687369 0 0.041148551673277863 0.16176786876204069 0 0.031890426475278018 0.1781355570664811 0 0.051651312725078183 0.17365038348098341 0 0.030645790621477261 0.14988535404309819 0 0.030202735564495511 0.16221540183687369 0 0.041148551673277863 0.16176786876204069 0 0.030202735564495511 0.16221540183687369 0 0.041148551673277863 0.16176786876204069 0 0.031890426475278018 0.1781355570664811 0 0.041148551673277863 0.16176786876204069 0 0.051651312725078183 0.17365038348098341 0 0.031890426475278018 0.1781355570664811 0 0.051651312725078183 0.17365038348098341 0 0.031890426475278018 0.1781355570664811 0 0.051651312725078183 0.17365038348098341 0 0.0484443202489937 0.19071570132990431 0 0.051651312725078183 0.17365038348098341 0 0.066367642912453673 0.19030000629900631 0 0.06789155598237881 0.1779168231595131 0 0.051651312725078183 0.17365038348098341 0 0.066367642912453673 0.19030000629900631 0 0.051651312725078183 0.17365038348098341 0 0.0484443202489937 0.19071570132990431 0 0.066367642912453673 0.19030000629900631 0 0.041148551673277863 0.16176786876204069 0 0.052648091946705722 0.1613688886382566 0 0.050733839009107551 0.1532736967363092 0 0.041148551673277863 0.16176786876204069 0 0.051651312725078183 0.17365038348098341 0 0.052648091946705722 0.1613688886382566 0 0.051651312725078183 0.17365038348098341 0 0.052648091946705722 0.1613688886382566 0 0.062405934615306607 0.1620071894659075 0 0.052648091946705722 0.1613688886382566 0 0.062405934615306607 0.1620071894659075 0 0.060564960701842641 0.15317050765724549 0 0.060564960701842641 0.15317050765724549 0 0.050733839009107551 0.1532736967363092 0 0.054446075897820433 0.14282732949552271 0 0.052648091946705722 0.1613688886382566 0 0.060564960701842641 0.15317050765724549 0 0.050733839009107551 0.1532736967363092 0 0.050733839009107551 0.1532736967363092 0 0.054446075897820433 0.14282732949552271 0 0.044861514825891131 0.14723388912848059 0 0.054446075897820433 0.14282732949552271 0 0.047001047255706002 0.1398439005865301 0 0.044861514825891131 0.14723388912848059 0 0.060564960701842641 0.15317050765724549 0 0.054446075897820433 0.14282732949552271 0 0.066107524034792184 0.14114790216249129 0 0.054446075897820433 0.14282732949552271 0 0.057711194835536862 0.1318941320910455 0 0.066107524034792184 0.14114790216249129 0 0.062859915119376372 0.1210775306243531 0 0.057711194835536862 0.1318941320910455 0 0.051505254883130312 0.12767828606226539 0 0.045099145649896498 0.1193587709751326 0 0.051505254883130312 0.12767828606226539 0 0.044195650375637718 0.13366275423547991 0 0.057711194835536862 0.1318941320910455 0 0.051505254883130312 0.12767828606226539 0 0.050971844649566271 0.13518128049416869 0 0.051505254883130312 0.12767828606226539 0 0.050971844649566271 0.13518128049416869 0 0.044195650375637718 0.13366275423547991 0 0.054446075897820433 0.14282732949552271 0 0.057711194835536862 0.1318941320910455 0 0.050971844649566271 0.13518128049416869 0 0.054446075897820433 0.14282732949552271 0 0.050971844649566271 0.13518128049416869 0 0.047001047255706002 0.1398439005865301 0 0.050971844649566271 0.13518128049416869 0 0.047001047255706002 0.1398439005865301 0 0.044195650375637718 0.13366275423547991 0 0.047001047255706002 0.1398439005865301 0 0.044195650375637718 0.13366275423547991 0 0.040977903259533877 0.14167346776299841 0 0.045099145649896498 0.1193587709751326 0 0.044195650375637718 0.13366275423547991 0 0.031854013358614409 0.14116322627017511 0 0.032419260865695472 0.12409942093830351 0 0.045099145649896498 0.1193587709751326 0 0.031854013358614409 0.14116322627017511 0 0.045099145649896498 0.1193587709751326 0 0.031854013358614409 0.14116322627017511 0 0.044195650375637718 0.13366275423547991 0 0.031854013358614409 0.14116322627017511 0 0.040977903259533877 0.14167346776299841 0 0.030645790621477261 0.14988535404309819 0 0.031854013358614409 0.14116322627017511 0 0.03789755474775891 0.1483447611933586 0 0.031854013358614409 0.14116322627017511 0 0.03789755474775891 0.1483447611933586 0 0.040977903259533877 0.14167346776299841 0 0.030645790621477261 0.14988535404309819 0 0.041148551673277863 0.16176786876204069 0 0.03789755474775891 0.1483447611933586 0 0.030645790621477261 0.14988535404309819 0 0.041148551673277863 0.16176786876204069 0 0.041148551673277863 0.16176786876204069 0 0.03789755474775891 0.1483447611933586 0 0.044861514825891131 0.14723388912848059 0 0.041148551673277863 0.16176786876204069 0 0.050733839009107551 0.1532736967363092 0 0.044861514825891131 0.14723388912848059 0 0.047001047255706002 0.1398439005865301 0 0.044861514825891131 0.14723388912848059 0 0.040977903259533877 0.14167346776299841 0 0.03789755474775891 0.1483447611933586 0 0.044861514825891131 0.14723388912848059 0 0.040977903259533877 0.14167346776299841 0 0.025660629095610812 0.23697758840558361 0 0.031926606979727712 0.24884729636136671 0 0.015737155004729369 0.25340011108241312 0 0.025660629095610812 0.23697758840558361 0 0.012216062074806159 0.23815890954856811 0 0.015737155004729369 0.25340011108241312 0 0.025660629095610812 0.23697758840558361 0 0.031926606979727712 0.24884729636136671 0 0.0030585758369763671 0.24538293665774921 0 0.012216062074806159 0.23815890954856811 0 0.015737155004729369 0.25340011108241312 0 0.0030585758369763671 0.24538293665774921 0 0.012216062074806159 0.23815890954856811 0 0.00081779036568457939 0.22857396347179651 0 0.00081779036568457939 0.22857396347179651 0 0.018499943310276531 0.22704142552799769 0 0.011107721486225519 0.2152775864129938 0 0.012216062074806159 0.23815890954856811 0 0.00081779036568457939 0.22857396347179651 0 0.018499943310276531 0.22704142552799769 0 0.00081779036568457939 0.22857396347179651 0 0.011107721486225519 0.2152775864129938 0 0.00073282988830796272 0.21488993564660239 0 0.018499943310276531 0.22704142552799769 0 0.0208137577623408 0.21781064425649291 0 0.011107721486225519 0.2152775864129938 0 0.018499943310276531 0.22704142552799769 0 0.02871651595175119 0.22099370910664981 0 0.0208137577623408 0.21781064425649291 0 0.025660629095610812 0.23697758840558361 0 0.012216062074806159 0.23815890954856811 0 0.018499943310276531 0.22704142552799769 0 0.025660629095610812 0.23697758840558361 0 0.018499943310276531 0.22704142552799769 0 0.031880663497472247 0.22980965551213431 0 0.018499943310276531 0.22704142552799769 0 0.02871651595175119 0.22099370910664981 0 0.031880663497472247 0.22980965551213431 0 0.02871651595175119 0.22099370910664981 0 0.029181012944240789 0.2091677109783408 0 0.0208137577623408 0.21781064425649291 0 0.029181012944240789 0.2091677109783408 0 0.019102810188195509 0.20986268491931331 0 0.02199874058533155 0.20087951285775141 0 0.019102810188195509 0.20986268491931331 0 0.01359754455393582 0.20463722266309109 0 0.02199874058533155 0.20087951285775141 0 0.029181012944240789 0.2091677109783408 0 0.019102810188195509 0.20986268491931331 0 0.0208137577623408 0.21781064425649291 0 0.019102810188195509 0.20986268491931331 0 0.0208137577623408 0.21781064425649291 0 0.011107721486225519 0.2152775864129938 0 0.011107721486225519 0.2152775864129938 0 0.00073282988830796272 0.21488993564660239 0 0.0049951212873046158 0.20414898730819769 0 -0.0055361644606871921 0.2072914226164464 0 0.00073282988830796272 0.21488993564660239 0 0.0049951212873046158 0.20414898730819769 0 0.011107721486225519 0.2152775864129938 0 0.0049951212873046158 0.20414898730819769 0 0.01359754455393582 0.20463722266309109 0 0.019102810188195509 0.20986268491931331 0 0.011107721486225519 0.2152775864129938 0 0.01359754455393582 0.20463722266309109 0 0.0049951212873046158 0.20414898730819769 0 0.013793071665752939 0.19538871169030039 0 0.0047849366889574953 0.19349205637821959 0 0.0049951212873046158 0.20414898730819769 0 0.01359754455393582 0.20463722266309109 0 0.013793071665752939 0.19538871169030039 0 -0.0028689028022349751 0.19766052020999331 0 0.0049951212873046158 0.20414898730819769 0 0.0047849366889574953 0.19349205637821959 0 0.0053637487760516524 0.184772136860261 0 0.0047849366889574953 0.19349205637821959 0 0.01058911837576797 0.18921186388862549 0 -0.0058823588514793756 0.18713004986792631 0 0.0053637487760516524 0.184772136860261 0 0.0047849366889574953 0.19349205637821959 0 0.013793071665752939 0.19538871169030039 0 0.0047849366889574953 0.19349205637821959 0 0.01058911837576797 0.18921186388862549 0 0.018411826906390271 0.18735978875058731 0 0.013793071665752939 0.19538871169030039 0 0.01058911837576797 0.18921186388862549 0 0.031890426475278018 0.1781355570664811 0 0.023656977789674679 0.19144208045555119 0 0.03328805604584191 0.19527270183014089 0 0.018411826906390271 0.18735978875058731 0 0.013793071665752939 0.19538871169030039 0 0.023656977789674679 0.19144208045555119 0 0.01359754455393582 0.20463722266309109 0 0.013793071665752939 0.19538871169030039 0 0.02199874058533155 0.20087951285775141 0 0.013793071665752939 0.19538871169030039 0 0.02199874058533155 0.20087951285775141 0 0.023656977789674679 0.19144208045555119 0 0.02199874058533155 0.20087951285775141 0 0.023656977789674679 0.19144208045555119 0 0.03328805604584191 0.19527270183014089 0 0.029181012944240789 0.2091677109783408 0 0.02199874058533155 0.20087951285775141 0 0.03328805604584191 0.19527270183014089 0 0.031890426475278018 0.1781355570664811 0 0.03328805604584191 0.19527270183014089 0 0.0484443202489937 0.19071570132990431 0 0.03328805604584191 0.19527270183014089 0 0.0484443202489937 0.19071570132990431 0 0.043443334393042599 0.2063261211752965 0 0.0484443202489937 0.19071570132990431 0 0.059917884471532568 0.2032333594711507 0 0.043443334393042599 0.2063261211752965 0 0.0484443202489937 0.19071570132990431 0 0.059917884471532568 0.2032333594711507 0 0.066367642912453673 0.19030000629900631 0 0.059917884471532568 0.2032333594711507 0 0.053603577900333738 0.21414066936412299 0 0.043443334393042599 0.2063261211752965 0 0.059917884471532568 0.2032333594711507 0 0.053603577900333738 0.21414066936412299 0 0.065756331014511005 0.21507664981974359 0 0.053603577900333738 0.21414066936412299 0 0.057376846942089298 0.2225779946415242 0 0.065756331014511005 0.21507664981974359 0 0.053603577900333738 0.21414066936412299 0 0.044208349778401601 0.21638000715232039 0 0.043443334393042599 0.2063261211752965 0 0.053603577900333738 0.21414066936412299 0 0.044208349778401601 0.21638000715232039 0 0.048902305716274477 0.2237494376496891 0 0.044208349778401601 0.21638000715232039 0 0.036859394908858388 0.21520636483257349 0 0.038747761476855748 0.22316427575025999 0 0.044208349778401601 0.21638000715232039 0 0.043443334393042599 0.2063261211752965 0 0.036859394908858388 0.21520636483257349 0 0.029181012944240789 0.2091677109783408 0 0.03328805604584191 0.19527270183014089 0 0.043443334393042599 0.2063261211752965 0 0.029181012944240789 0.2091677109783408 0 0.043443334393042599 0.2063261211752965 0 0.036859394908858388 0.21520636483257349 0 0.02871651595175119 0.22099370910664981 0 0.029181012944240789 0.2091677109783408 0 0.036859394908858388 0.21520636483257349 0 0.02871651595175119 0.22099370910664981 0 0.038747761476855748 0.22316427575025999 0 0.031880663497472247 0.22980965551213431 0 0.02871651595175119 0.22099370910664981 0 0.036859394908858388 0.21520636483257349 0 0.038747761476855748 0.22316427575025999 0 0.031880663497472247 0.22980965551213431 0 0.044022610594166373 0.23201047831318919 0 0.037141491256447189 0.2384003119712243 0 0.038747761476855748 0.22316427575025999 0 0.031880663497472247 0.22980965551213431 0 0.044022610594166373 0.23201047831318919 0 0.044208349778401601 0.21638000715232039 0 0.038747761476855748 0.22316427575025999 0 0.048902305716274477 0.2237494376496891 0 0.038747761476855748 0.22316427575025999 0 0.044022610594166373 0.23201047831318919 0 0.048902305716274477 0.2237494376496891 0 0.048902305716274477 0.2237494376496891 0 0.057376846942089298 0.2225779946415242 0 0.055897890309120193 0.23101425475274689 0 0.053603577900333738 0.21414066936412299 0 0.048902305716274477 0.2237494376496891 0 0.057376846942089298 0.2225779946415242 0 0.057376846942089298 0.2225779946415242 0 0.055897890309120193 0.23101425475274689 0 0.066470994848373224 0.22486311745101531 0 0.055897890309120193 0.23101425475274689 0 0.062548898720300283 0.23716227268140611 0 0.066470994848373224 0.22486311745101531 0 0.044022610594166373 0.23201047831318919 0 0.048902305716274477 0.2237494376496891 0 0.055897890309120193 0.23101425475274689 0 0.044022610594166373 0.23201047831318919 0 0.055897890309120193 0.23101425475274689 0 0.057175485762615101 0.24174678009990461 0 0.055897890309120193 0.23101425475274689 0 0.057175485762615101 0.24174678009990461 0 0.062548898720300283 0.23716227268140611 0 0.057175485762615101 0.24174678009990461 0 0.031926606979727712 0.24884729636136671 0 0.044022610594166373 0.23201047831318919 0 0.057175485762615101 0.24174678009990461 0 0.037141491256447189 0.2384003119712243 0 0.057175485762615101 0.24174678009990461 0 0.037141491256447189 0.2384003119712243 0 0.031926606979727712 0.24884729636136671 0 0.025660629095610812 0.23697758840558361 0 0.031880663497472247 0.22980965551213431 0 0.037141491256447189 0.2384003119712243 0 0.025660629095610812 0.23697758840558361 0 0.037141491256447189 0.2384003119712243 0 0.031926606979727712 0.24884729636136671 0 0.082424364545502393 0.2346462638384427 0 0.075709362988111914 0.2549031265023331 0 0.091865538445326356 0.25786726132117188 0 0.057175485762615101 0.24174678009990461 0 0.082424364545502393 0.2346462638384427 0 0.075709362988111914 0.2549031265023331 0 0.057175485762615101 0.24174678009990461 0 0.082424364545502393 0.2346462638384427 0 0.062548898720300283 0.23716227268140611 0 0.082424364545502393 0.2346462638384427 0 0.062548898720300283 0.23716227268140611 0 0.088506764267415161 0.2314096175332839 0 0.057175485762615101 0.24174678009990461 0 0.082424364545502393 0.2346462638384427 0 0.062548898720300283 0.23716227268140611 0 0.078970404388550533 0.2257149251081623 0 0.088506764267415161 0.2314096175332839 0 0.062548898720300283 0.23716227268140611 0 0.088506764267415161 0.2314096175332839 0 0.062548898720300283 0.23716227268140611 0 0.066470994848373224 0.22486311745101531 0 0.078970404388550533 0.2257149251081623 0 0.066470994848373224 0.22486311745101531 0 0.076084708824908351 0.218695128873619 0 0.065756331014511005 0.21507664981974359 0 0.057376846942089298 0.2225779946415242 0 0.066470994848373224 0.22486311745101531 0 0.065756331014511005 0.21507664981974359 0 0.066470994848373224 0.22486311745101531 0 0.078970404388550533 0.2257149251081623 0 0.076084708824908351 0.218695128873619 0 0.078970404388550533 0.2257149251081623 0 0.0876771389854476 0.21776245070627401 0 0.076084708824908351 0.218695128873619 0 0.078970404388550533 0.2257149251081623 0 0.088730592091694885 0.22391743631748201 0 0.0876771389854476 0.21776245070627401 0 0.078970404388550533 0.2257149251081623 0 0.088506764267415161 0.2314096175332839 0 0.088730592091694885 0.22391743631748201 0 0.082424364545502393 0.2346462638384427 0 0.094055922461069197 0.23137522488119569 0 0.082424364545502393 0.2346462638384427 0 0.088506764267415161 0.2314096175332839 0 0.094055922461069197 0.23137522488119569 0 0.088730592091694885 0.22391743631748201 0 0.0876771389854476 0.21776245070627401 0 0.099768060725366273 0.22078275192220789 0 0.088506764267415161 0.2314096175332839 0 0.088730592091694885 0.22391743631748201 0 0.099768060725366273 0.22078275192220789 0 0.0876771389854476 0.21776245070627401 0 0.092385633476185225 0.20936781306367519 0 0.081083973099828899 0.20694962911702941 0 0.0876771389854476 0.21776245070627401 0 0.092385633476185225 0.20936781306367519 0 0.099768060725366273 0.22078275192220789 0 0.092385633476185225 0.20936781306367519 0 0.081083973099828899 0.20694962911702941 0 0.087994415387941421 0.19415208279322441 0 0.0876771389854476 0.21776245070627401 0 0.081083973099828899 0.20694962911702941 0 0.076084708824908351 0.218695128873619 0 0.059917884471532568 0.2032333594711507 0 0.081083973099828899 0.20694962911702941 0 0.065756331014511005 0.21507664981974359 0 0.081083973099828899 0.20694962911702941 0 0.076084708824908351 0.218695128873619 0 0.065756331014511005 0.21507664981974359 0 0.059917884471532568 0.2032333594711507 0 0.081083973099828899 0.20694962911702941 0 0.066367642912453673 0.19030000629900631 0 0.081083973099828899 0.20694962911702941 0 0.066367642912453673 0.19030000629900631 0 0.066367642912453673 0.19030000629900631 0 0.087994415387941421 0.19415208279322441 0 0.078227156871822065 0.1794386807956338 0 0.081083973099828899 0.20694962911702941 0 0.066367642912453673 0.19030000629900631 0 0.087994415387941421 0.19415208279322441 0 0.087994415387941421 0.19415208279322441 0 0.105889838888107 0.20642234857907241 0 0.1015945732624986 0.18605243600710081 0 0.1142346271182372 0.1935310953488564 0 0.105889838888107 0.20642234857907241 0 0.1015945732624986 0.18605243600710081 0 0.1142346271182372 0.1935310953488564 0 0.1015945732624986 0.18605243600710081 0 0.1112035707905985 0.18320334572689931 0 0.1142346271182372 0.1935310953488564 0 0.1112035707905985 0.18320334572689931 0 0.1223189794720482 0.186439011478234 0 0.1142346271182372 0.1935310953488564 0 0.1223189794720482 0.186439011478234 0 0.12622014118278729 0.19669023701224311 0 0.1142346271182372 0.1935310953488564 0 0.1184851400701229 0.20295188579773249 0 0.12622014118278729 0.19669023701224311 0 0.1184851400701229 0.20295188579773249 0 0.1272382028401417 0.20671964801652101 0 0.12622014118278729 0.19669023701224311 0 0.1142346271182372 0.1935310953488564 0 0.1184851400701229 0.20295188579773249 0 0.105889838888107 0.20642234857907241 0 0.1188428903213411 0.21139610003196929 0 0.11446462981453009 0.22565696238516161 0 0.1301594886221448 0.21434063978879969 0 0.1184851400701229 0.20295188579773249 0 0.1188428903213411 0.21139610003196929 0 0.105889838888107 0.20642234857907241 0 0.1188428903213411 0.21139610003196929 0 0.105889838888107 0.20642234857907241 0 0.11446462981453009 0.22565696238516161 0 0.1184851400701229 0.20295188579773249 0 0.1188428903213411 0.21139610003196929 0 0.1272382028401417 0.20671964801652101 0 0.092385633476185225 0.20936781306367519 0 0.087994415387941421 0.19415208279322441 0 0.105889838888107 0.20642234857907241 0 0.105889838888107 0.20642234857907241 0 0.099768060725366273 0.22078275192220789 0 0.11446462981453009 0.22565696238516161 0 0.092385633476185225 0.20936781306367519 0 0.105889838888107 0.20642234857907241 0 0.099768060725366273 0.22078275192220789 0 0.088506764267415161 0.2314096175332839 0 0.099768060725366273 0.22078275192220789 0 0.11446462981453009 0.22565696238516161 0 0.094055922461069197 0.23137522488119569 0 0.11446462981453009 0.22565696238516161 0 0.1077326591238164 0.2361673253340946 0 0.088506764267415161 0.2314096175332839 0 0.094055922461069197 0.23137522488119569 0 0.11446462981453009 0.22565696238516161 0 0.088506764267415161 0.2314096175332839 0 0.11446462981453009 0.22565696238516161 0 0.11446462981453009 0.22565696238516161 0 0.1249830071677395 0.23970666730875029 0 0.1077326591238164 0.2361673253340946 0 0.1249830071677395 0.23970666730875029 0 0.1077326591238164 0.2361673253340946 0 0.1070286098646317 0.24911961171667879 0 0.082424364545502393 0.2346462638384427 0 0.1070286098646317 0.24911961171667879 0 0.091865538445326356 0.25786726132117188 0 0.094055922461069197 0.23137522488119569 0 0.1077326591238164 0.2361673253340946 0 0.1070286098646317 0.24911961171667879 0 0.082424364545502393 0.2346462638384427 0 0.1070286098646317 0.24911961171667879 0 0.082424364545502393 0.2346462638384427 0 0.094055922461069197 0.23137522488119569 0 0.1070286098646317 0.24911961171667879 0 0.084488971827492487 0.1552086344096246 0 0.079401135753446636 0.1375337472912409 0 0.07184519628274523 0.1535679454906228 0 0.084488971827492487 0.1552086344096246 0 0.079401135753446636 0.1375337472912409 0 0.095128477118697721 0.14784069003938199 0 0.084488971827492487 0.1552086344096246 0 0.098988910115244327 0.16290606064387411 0 0.095128477118697721 0.14784069003938199 0 0.079401135753446636 0.1375337472912409 0 0.1043387537711581 0.13390325784038359 0 0.088975241377871397 0.1232983144918848 0 0.079401135753446636 0.1375337472912409 0 0.072676580737361315 0.12789375094927091 0 0.079401135753446636 0.1375337472912409 0 0.095128477118697721 0.14784069003938199 0 0.1043387537711581 0.13390325784038359 0 0.088975241377871397 0.1232983144918848 0 0.079401135753446636 0.1375337472912409 0 0.1043387537711581 0.13390325784038359 0 0.079401135753446636 0.1375337472912409 0 0.072676580737361315 0.12789375094927091 0 0.066107524034792184 0.14114790216249129 0 0.057711194835536862 0.1318941320910455 0 0.072676580737361315 0.12789375094927091 0 0.066107524034792184 0.14114790216249129 0 0.079401135753446636 0.1375337472912409 0 0.066107524034792184 0.14114790216249129 0 0.07184519628274523 0.1535679454906228 0 0.062405934615306607 0.1620071894659075 0 0.060564960701842641 0.15317050765724549 0 0.07184519628274523 0.1535679454906228 0 0.060564960701842641 0.15317050765724549 0 0.066107524034792184 0.14114790216249129 0 0.07184519628274523 0.1535679454906228 0 0.051651312725078183 0.17365038348098341 0 0.075320111420161304 0.16827822206242909 0 0.062405934615306607 0.1620071894659075 0 0.07184519628274523 0.1535679454906228 0 0.075320111420161304 0.16827822206242909 0 0.051651312725078183 0.17365038348098341 0 0.062405934615306607 0.1620071894659075 0 0.075320111420161304 0.16827822206242909 0 0.084488971827492487 0.1552086344096246 0 0.07184519628274523 0.1535679454906228 0 0.075320111420161304 0.16827822206242909 0 0.051651312725078183 0.17365038348098341 0 0.075320111420161304 0.16827822206242909 0 0.06789155598237881 0.1779168231595131 0 0.075320111420161304 0.16827822206242909 0 0.06789155598237881 0.1779168231595131 0 0.078227156871822065 0.1794386807956338 0 0.066367642912453673 0.19030000629900631 0 0.06789155598237881 0.1779168231595131 0 0.078227156871822065 0.1794386807956338 0 0.087994415387941421 0.19415208279322441 0 0.078227156871822065 0.1794386807956338 0 0.090412089204694471 0.1805336656910532 0 0.075320111420161304 0.16827822206242909 0 0.078227156871822065 0.1794386807956338 0 0.085685951813686212 0.16827327006789861 0 0.078227156871822065 0.1794386807956338 0 0.090412089204694471 0.1805336656910532 0 0.085685951813686212 0.16827327006789861 0 0.090412089204694471 0.1805336656910532 0 0.085685951813686212 0.16827327006789861 0 0.099043608393289129 0.1739820565908404 0 0.087994415387941421 0.19415208279322441 0 0.090412089204694471 0.1805336656910532 0 0.1015945732624986 0.18605243600710081 0 0.084488971827492487 0.1552086344096246 0 0.075320111420161304 0.16827822206242909 0 0.098988910115244327 0.16290606064387411 0 0.075320111420161304 0.16827822206242909 0 0.098988910115244327 0.16290606064387411 0 0.075320111420161304 0.16827822206242909 0 0.085685951813686212 0.16827327006789861 0 0.098988910115244327 0.16290606064387411 0 0.085685951813686212 0.16827327006789861 0 0.099043608393289129 0.1739820565908404 0 0.1121134076687188 0.1681877601004072 0 0.085685951813686212 0.16827327006789861 0 0.098988910115244327 0.16290606064387411 0 0.1121134076687188 0.1681877601004072 0 0.085685951813686212 0.16827327006789861 0 0.1121134076687188 0.1681877601004072 0 0.098988910115244327 0.16290606064387411 0 0.1071691429050209 0.16399998765341009 0 0.1121134076687188 0.1681877601004072 0 0.090412089204694471 0.1805336656910532 0 0.099043608393289129 0.1739820565908404 0 0.1015945732624986 0.18605243600710081 0 0.099043608393289129 0.1739820565908404 0 0.10753342209534419 0.17728452549828749 0 0.1121134076687188 0.1681877601004072 0 0.099043608393289129 0.1739820565908404 0 0.10753342209534419 0.17728452549828749 0 0.1015945732624986 0.18605243600710081 0 0.10753342209534419 0.17728452549828749 0 0.1015945732624986 0.18605243600710081 0 0.1112035707905985 0.18320334572689931 0 0.1121134076687188 0.1681877601004072 0 0.13523038861601519 0.1877677503508666 0 0.11767995372854489 0.18057647863093951 0 0.1121134076687188 0.1681877601004072 0 0.13523038861601519 0.1877677503508666 0 0.1112035707905985 0.18320334572689931 0 0.1223189794720482 0.186439011478234 0 0.11767995372854489 0.18057647863093951 0 0.10753342209534419 0.17728452549828749 0 0.1112035707905985 0.18320334572689931 0 0.11767995372854489 0.18057647863093951 0 0.10753342209534419 0.17728452549828749 0 0.11767995372854489 0.18057647863093951 0 0.1121134076687188 0.1681877601004072 0 0.098988910115244327 0.16290606064387411 0 0.1226577088103273 0.1575338992253191 0 0.098988910115244327 0.16290606064387411 0 0.1071691429050209 0.16399998765341009 0 0.1226577088103273 0.1575338992253191 0 0.098988910115244327 0.16290606064387411 0 0.1226577088103273 0.1575338992253191 0 0.1084246141261471 0.14965175001178699 0 0.1071691429050209 0.16399998765341009 0 0.1121134076687188 0.1681877601004072 0 0.1226577088103273 0.1575338992253191 0 0.1071691429050209 0.16399998765341009 0 0.1121134076687188 0.1681877601004072 0 0.11942188521867581 0.14298783467179341 0 0.1084246141261471 0.14965175001178699 0 0.1043387537711581 0.13390325784038359 0 0.1226577088103273 0.1575338992253191 0 0.11942188521867581 0.14298783467179341 0 0.13241197759687681 0.1435774978919509 0 0.1226577088103273 0.1575338992253191 0 0.11942188521867581 0.14298783467179341 0 0.1084246141261471 0.14965175001178699 0 0.1084246141261471 0.14965175001178699 0 0.095128477118697721 0.14784069003938199 0 0.1043387537711581 0.13390325784038359 0 0.098988910115244327 0.16290606064387411 0 0.1084246141261471 0.14965175001178699 0 0.095128477118697721 0.14784069003938199 0 0.1045001491070531 0.121160327763206 0 0.088975241377871397 0.1232983144918848 0 0.1043387537711581 0.13390325784038359 0 0.1180666309774392 0.1177391252782585 0 0.1043387537711581 0.13390325784038359 0 0.1292763717888695 0.13027276838952631 0 0.11942188521867581 0.14298783467179341 0 0.1043387537711581 0.13390325784038359 0 0.1292763717888695 0.13027276838952631 0 0.1043387537711581 0.13390325784038359 0 0.1292763717888695 0.13027276838952631 0 0.1292763717888695 0.13027276838952631 0 0.15421398980658099 0.126642278938669 0 0.1334928892187158 0.1190613281269169 0 0.1292763717888695 0.13027276838952631 0 0.1451753218221403 0.13909416798535271 0 0.13241197759687681 0.1435774978919509 0 0.11942188521867581 0.14298783467179341 0 0.1292763717888695 0.13027276838952631 0 0.13241197759687681 0.1435774978919509 0 0.1292763717888695 0.13027276838952631 0 0.1451753218221403 0.13909416798535271 0 0.15421398980658099 0.126642278938669 0 0.1451753218221403 0.13909416798535271 0 0.15421398980658099 0.126642278938669 0 0.16364776241296411 0.1428165568998532 0 0.1292763717888695 0.13027276838952631 0 0.15421398980658099 0.126642278938669 0 0.1451753218221403 0.13909416798535271 0 0.14632650750541029 0.15216173780676409 0 0.16364776241296411 0.1428165568998532 0 0.1451753218221403 0.13909416798535271 0 0.14632650750541029 0.15216173780676409 0 0.13241197759687681 0.1435774978919509 0 0.1226577088103273 0.1575338992253191 0 0.14632650750541029 0.15216173780676409 0 0.13241197759687681 0.1435774978919509 0 0.1226577088103273 0.1575338992253191 0 0.14632650750541029 0.15216173780676409 0 0.1226577088103273 0.1575338992253191 0 0.14632650750541029 0.15216173780676409 0 0.14186297871677539 0.1680915009346671 0 0.1121134076687188 0.1681877601004072 0 0.1226577088103273 0.1575338992253191 0 0.14186297871677539 0.1680915009346671 0 0.1121134076687188 0.1681877601004072 0 0.14186297871677539 0.1680915009346671 0 0.1223189794720482 0.186439011478234 0 0.11767995372854489 0.18057647863093951 0 0.13523038861601519 0.1877677503508666 0 0.1121134076687188 0.1681877601004072 0 0.14186297871677539 0.1680915009346671 0 0.13523038861601519 0.1877677503508666 0 0.1223189794720482 0.186439011478234 0 0.13523038861601519 0.1877677503508666 0 0.1512589405887978 0.17844840764517481 0 0.14186297871677539 0.1680915009346671 0 0.13523038861601519 0.1877677503508666 0 0.1512589405887978 0.17844840764517481 0 0.13523038861601519 0.1877677503508666 0 0.15632984525756879 0.18993913752623531 0 0.1512589405887978 0.17844840764517481 0 0.14186297871677539 0.1680915009346671 0 0.17161254976483209 0.16799524176892761 0 0.14632650750541029 0.15216173780676409 0 0.14186297871677539 0.1680915009346671 0 0.15933199995061489 0.15696740310647361 0 0.14186297871677539 0.1680915009346671 0 0.15933199995061489 0.15696740310647361 0 0.17161254976483209 0.16799524176892761 0 0.14186297871677539 0.1680915009346671 0 0.17161254976483209 0.16799524176892761 0 0.15933199995061489 0.15696740310647361 0 0.17161254976483209 0.16799524176892761 0 0.17321020135309259 0.1537719781221559 0 0.17924246688167089 0.17802288737896241 0 0.15632984525756879 0.18993913752623531 0 0.17742930189912279 0.19211052470160059 0 0.1512589405887978 0.17844840764517481 0 0.17161254976483209 0.16799524176892761 0 0.15632984525756879 0.18993913752623531 0 0.17161254976483209 0.16799524176892761 0 0.17924246688167089 0.17802288737896241 0 0.15632984525756879 0.18993913752623531 0 0.17924246688167089 0.17802288737896241 0 0.17742930189912279 0.19211052470160059 0 0.19050692962700749 0.18414866427407081 0 0.17161254976483209 0.16799524176892761 0 0.17924246688167089 0.17802288737896241 0 0.1856607932485142 0.16089932896482639 0 0.17924246688167089 0.17802288737896241 0 0.1856607932485142 0.16089932896482639 0 0.19391538149298049 0.17304442703811321 0 0.17161254976483209 0.16799524176892761 0 0.1856607932485142 0.16089932896482639 0 0.17321020135309259 0.1537719781221559 0 0.17321020135309259 0.1537719781221559 0 0.18388433036956739 0.14217247623031959 0 0.16364776241296411 0.1428165568998532 0 0.1856607932485142 0.16089932896482639 0 0.17321020135309259 0.1537719781221559 0 0.18388433036956739 0.14217247623031959 0 0.18388433036956739 0.14217247623031959 0 0.1938103907077679 0.1294427671103697 0 0.17915160782429251 0.1230117894878117 0 0.18388433036956739 0.14217247623031959 0 0.16364776241296411 0.1428165568998532 0 0.17915160782429251 0.1230117894878117 0 0.15421398980658099 0.126642278938669 0 0.16364776241296411 0.1428165568998532 0 0.17915160782429251 0.1230117894878117 0 0.14632650750541029 0.15216173780676409 0 0.15933199995061489 0.15696740310647361 0 0.16364776241296411 0.1428165568998532 0 0.15933199995061489 0.15696740310647361 0 0.17321020135309259 0.1537719781221559 0 0.16364776241296411 0.1428165568998532 0 0.15459121070718229 0.2476980005371214 0 0.14804547269228571 0.22658889320266329 0 0.15695841345200659 0.23334490771670921 0 0.15459121070718229 0.2476980005371214 0 0.13803525363611691 0.22833814077175571 0 0.15459121070718229 0.2476980005371214 0 0.13931030980740869 0.24232932569779139 0 0.13803525363611691 0.22833814077175571 0 0.15459121070718229 0.2476980005371214 0 0.15695841345200659 0.23334490771670921 0 0.15459121070718229 0.2476980005371214 0 0.13931030980740869 0.24232932569779139 0 0.13963176771859701 0.25357449417353739 0 0.1249830071677395 0.23970666730875029 0 0.13931030980740869 0.24232932569779139 0 0.13963176771859701 0.25357449417353739 0 0.1249830071677395 0.23970666730875029 0 0.13931030980740869 0.24232932569779139 0 0.13803525363611691 0.22833814077175571 0 0.11446462981453009 0.22565696238516161 0 0.14042249536164489 0.21990430723703941 0 0.1301594886221448 0.21434063978879969 0 0.11446462981453009 0.22565696238516161 0 0.13803525363611691 0.22833814077175571 0 0.14042249536164489 0.21990430723703941 0 0.11446462981453009 0.22565696238516161 0 0.14042249536164489 0.21990430723703941 0 0.11446462981453009 0.22565696238516161 0 0.1249830071677395 0.23970666730875029 0 0.13803525363611691 0.22833814077175571 0 0.13803525363611691 0.22833814077175571 0 0.14042249536164489 0.21990430723703941 0 0.14804547269228571 0.22658889320266329 0 0.14042249536164489 0.21990430723703941 0 0.14804547269228571 0.22658889320266329 0 0.16638036090875921 0.2141516520889146 0 0.15459121070718229 0.2476980005371214 0 0.13803525363611691 0.22833814077175571 0 0.14804547269228571 0.22658889320266329 0 0.14883012655736261 0.2100916938690536 0 0.15080537476238881 0.20095970121988879 0 0.16638036090875921 0.2141516520889146 0 0.14042249536164489 0.21990430723703941 0 0.14883012655736261 0.2100916938690536 0 0.16638036090875921 0.2141516520889146 0 0.14042249536164489 0.21990430723703941 0 0.16638036090875921 0.2141516520889146 0 0.14883012655736261 0.2100916938690536 0 0.13771227519665649 0.2053511149303727 0 0.15080537476238881 0.20095970121988879 0 0.14042249536164489 0.21990430723703941 0 0.14883012655736261 0.2100916938690536 0 0.13771227519665649 0.2053511149303727 0 0.14042249536164489 0.21990430723703941 0 0.1301594886221448 0.21434063978879969 0 0.13771227519665649 0.2053511149303727 0 0.1301594886221448 0.21434063978879969 0 0.1272382028401417 0.20671964801652101 0 0.13771227519665649 0.2053511149303727 0 0.1188428903213411 0.21139610003196929 0 0.1301594886221448 0.21434063978879969 0 0.1272382028401417 0.20671964801652101 0 0.13771227519665649 0.2053511149303727 0 0.12622014118278729 0.19669023701224311 0 0.13523038861601519 0.1877677503508666 0 0.1272382028401417 0.20671964801652101 0 0.13771227519665649 0.2053511149303727 0 0.12622014118278729 0.19669023701224311 0 0.1223189794720482 0.186439011478234 0 0.12622014118278729 0.19669023701224311 0 0.13523038861601519 0.1877677503508666 0 0.13523038861601519 0.1877677503508666 0 0.15080537476238881 0.20095970121988879 0 0.13523038861601519 0.1877677503508666 0 0.15632984525756879 0.18993913752623531 0 0.13771227519665649 0.2053511149303727 0 0.13523038861601519 0.1877677503508666 0 0.15080537476238881 0.20095970121988879 0 0.13523038861601519 0.1877677503508666 0 0.15080537476238881 0.20095970121988879 0 0.15632984525756879 0.18993913752623531 0 0.15632984525756879 0.18993913752623531 0 0.1688244142983655 0.19262551569402109 0 0.17742930189912279 0.19211052470160059 0 0.15632984525756879 0.18993913752623531 0 0.17742930189912279 0.19211052470160059 0 0.15632984525756879 0.18993913752623531 0 0.16323374564898149 0.20035430453948591 0 0.1688244142983655 0.19262551569402109 0 0.15080537476238881 0.20095970121988879 0 0.15632984525756879 0.18993913752623531 0 0.16323374564898149 0.20035430453948591 0 0.16323374564898149 0.20035430453948591 0 0.1688244142983655 0.19262551569402109 0 0.17339645801772491 0.20286025598974081 0 0.17742930189912279 0.19211052470160059 0 0.17339645801772491 0.20286025598974081 0 0.18903954733291761 0.2091300340672583 0 0.1688244142983655 0.19262551569402109 0 0.17742930189912279 0.19211052470160059 0 0.1688244142983655 0.19262551569402109 0 0.17742930189912279 0.19211052470160059 0 0.17339645801772491 0.20286025598974081 0 0.17339645801772491 0.20286025598974081 0 0.16638036090875921 0.2141516520889146 0 0.18903954733291761 0.2091300340672583 0 0.1770828168939288 0.216333749285332 0 0.194390775325502 0.21022108266546549 0 0.17741234396637909 0.21289939025683249 0 0.16638036090875921 0.2141516520889146 0 0.18903954733291761 0.2091300340672583 0 0.16638036090875921 0.2141516520889146 0 0.18903954733291761 0.2091300340672583 0 0.1770828168939288 0.216333749285332 0 0.194390775325502 0.21022108266546549 0 0.18903954733291761 0.2091300340672583 0 0.1770828168939288 0.216333749285332 0 0.18436228055408271 0.21978819610644951 0 0.194390775325502 0.21022108266546549 0 0.1770828168939288 0.216333749285332 0 0.17741234396637909 0.21289939025683249 0 0.18903954733291761 0.2091300340672583 0 0.1770828168939288 0.216333749285332 0 0.17741234396637909 0.21289939025683249 0 0.1770828168939288 0.216333749285332 0 0.17741234396637909 0.21289939025683249 0 0.17134791419566231 0.2183591498217661 0 0.1770828168939288 0.216333749285332 0 0.17134791419566231 0.2183591498217661 0 0.17134791419566231 0.2183591498217661 0 0.16638036090875921 0.2141516520889146 0 0.17741234396637909 0.21289939025683249 0 0.17134791419566231 0.2183591498217661 0 0.16638036090875921 0.2141516520889146 0 0.16323374564898149 0.20035430453948591 0 0.17339645801772491 0.20286025598974081 0 0.16638036090875921 0.2141516520889146 0 0.15080537476238881 0.20095970121988879 0 0.16638036090875921 0.2141516520889146 0 0.15080537476238881 0.20095970121988879 0 0.16323374564898149 0.20035430453948591 0 0.16638036090875921 0.2141516520889146 0 0.14804547269228571 0.22658889320266329 0 0.17134791419566231 0.2183591498217661 0 0.16638036090875921 0.2141516520889146 0 0.14804547269228571 0.22658889320266329 0 0.17134791419566231 0.2183591498217661 0 0.14804547269228571 0.22658889320266329 0 0.17134791419566231 0.2183591498217661 0 0.166641295919007 0.22922891500183079 0 0.14804547269228571 0.22658889320266329 0 0.15695841345200659 0.23334490771670921 0 0.166641295919007 0.22922891500183079 0 0.17134791419566231 0.2183591498217661 0 0.166641295919007 0.22922891500183079 0 0.1764720447828754 0.22269926790069941 0 0.166641295919007 0.22922891500183079 0 0.1764720447828754 0.22269926790069941 0 0.174290035055923 0.24544035788243229 0 0.1764720447828754 0.22269926790069941 0 0.174290035055923 0.24544035788243229 0 0.1764720447828754 0.22269926790069941 0 0.18089437890534679 0.22644496718555099 0 0.174290035055923 0.24544035788243229 0 0.1770828168939288 0.216333749285332 0 0.17134791419566231 0.2183591498217661 0 0.1764720447828754 0.22269926790069941 0 0.17134791419566231 0.2183591498217661 0 0.1764720447828754 0.22269926790069941 0 0.1770828168939288 0.216333749285332 0 0.1764720447828754 0.22269926790069941 0 0.18436228055408271 0.21978819610644951 0 0.1764720447828754 0.22269926790069941 0 0.18089437890534679 0.22644496718555099 0 0.1770828168939288 0.216333749285332 0 0.1764720447828754 0.22269926790069941 0 0.18436228055408271 0.21978819610644951 0 0.18089437890534679 0.22644496718555099 0 0.19297138686276169 0.22324191349519909 0 0.1764720447828754 0.22269926790069941 0 0.18436228055408271 0.21978819610644951 0 0.18089437890534679 0.22644496718555099 0 0.18089437890534679 0.22644496718555099 0 0.174290035055923 0.24544035788243229 0 0.19116911437402651 0.23984220284583591 0 0.174290035055923 0.24544035788243229 0 0.16359017739155601 0.24116098067279809 0 0.1654699318236621 0.25009272222589601 0 0.166641295919007 0.22922891500183079 0 0.174290035055923 0.24544035788243229 0 0.16359017739155601 0.24116098067279809 0 0.15459121070718229 0.2476980005371214 0 0.15695841345200659 0.23334490771670921 0 0.16359017739155601 0.24116098067279809 0 0.15695841345200659 0.23334490771670921 0 0.166641295919007 0.22922891500183079 0 0.16359017739155601 0.24116098067279809 0 0.15459121070718229 0.2476980005371214 0 0.16359017739155601 0.24116098067279809 0 0.1654699318236621 0.25009272222589601 0 0.20875825771649001 0.24791684293498359 0 0.19116911437402651 0.23984220284583591 0 0.20073192019578509 0.23233936521753559 0 0.18089437890534679 0.22644496718555099 0 0.19116911437402651 0.23984220284583591 0 0.19297138686276169 0.22324191349519909 0 0.19116911437402651 0.23984220284583591 0 0.20073192019578509 0.23233936521753559 0 0.19297138686276169 0.22324191349519909 0 0.20073192019578509 0.23233936521753559 0 0.19297138686276169 0.22324191349519909 0 0.21326442046005309 0.2197184992285473 0 0.20875825771649001 0.24791684293498359 0 0.21326442046005309 0.2197184992285473 0 0.22632415865285471 0.2327733653222773 0 0.20875825771649001 0.24791684293498359 0 0.20073192019578509 0.23233936521753559 0 0.21326442046005309 0.2197184992285473 0 0.21326442046005309 0.2197184992285473 0 0.21169873375707521 0.20410841604559901 0 0.194390775325502 0.21022108266546549 0 0.21326442046005309 0.2197184992285473 0 0.21169873375707521 0.20410841604559901 0 0.22606868467797961 0.21426142885737309 0 0.19297138686276169 0.22324191349519909 0 0.21326442046005309 0.2197184992285473 0 0.194390775325502 0.21022108266546549 0 0.21169873375707521 0.20410841604559901 0 0.194390775325502 0.21022108266546549 0 0.21169873375707521 0.20410841604559901 0 0.194390775325502 0.21022108266546549 0 0.18903954733291761 0.2091300340672583 0 0.21169873375707521 0.20410841604559901 0 0.18903954733291761 0.2091300340672583 0 0.18436228055408271 0.21978819610644951 0 0.19297138686276169 0.22324191349519909 0 0.194390775325502 0.21022108266546549 0 0.21169873375707521 0.20410841604559901 0 0.18903954733291761 0.2091300340672583 0 0.20385087831175711 0.19482962183997801 0 0.17742930189912279 0.19211052470160059 0 0.20455709962581031 0.1904869623587003 0 0.19050692962700749 0.18414866427407081 0 0.17742930189912279 0.19211052470160059 0 0.20455709962581031 0.1904869623587003 0 0.17742930189912279 0.19211052470160059 0 0.20385087831175711 0.19482962183997801 0 0.20455709962581031 0.1904869623587003 0 0.17742930189912279 0.19211052470160059 0 0.18903954733291761 0.2091300340672583 0 0.20385087831175711 0.19482962183997801 0 0.17742930189912279 0.19211052470160059 0 0.20385087831175711 0.19482962183997801 0 0.20455709962581031 0.1904869623587003 0 0.2316848973524977 0.1888634000158009 0 0.21508090582821379 0.1847180537064248 0 0.20455709962581031 0.1904869623587003 0 0.2316848973524977 0.1888634000158009 0 0.20385087831175711 0.19482962183997801 0 0.2302724547243919 0.19754871897835291 0 0.21169873375707521 0.20410841604559901 0 0.20385087831175711 0.19482962183997801 0 0.2302724547243919 0.19754871897835291 0 0.20385087831175711 0.19482962183997801 0 0.20455709962581031 0.1904869623587003 0 0.2302724547243919 0.19754871897835291 0 0.21169873375707521 0.20410841604559901 0 0.2378018101945456 0.19832357997048591 0 0.21169873375707521 0.20410841604559901 0 0.2302724547243919 0.19754871897835291 0 0.2378018101945456 0.19832357997048591 0 0.20455709962581031 0.1904869623587003 0 0.2302724547243919 0.19754871897835291 0 0.2316848973524977 0.1888634000158009 0 0.21169873375707521 0.20410841604559901 0 0.2302724547243919 0.19754871897835291 0 0.2302724547243919 0.19754871897835291 0 0.2378018101945456 0.19832357997048591 0 0.24286991913566969 0.19325292944681119 0 0.2378018101945456 0.19832357997048591 0 0.2553921061020899 0.19442530466253319 0 0.2316848973524977 0.1888634000158009 0 0.25881269507918508 0.18723983767290139 0 0.2378018101945456 0.19832357997048591 0 0.2553921061020899 0.19442530466253319 0 0.2302724547243919 0.19754871897835291 0 0.2316848973524977 0.1888634000158009 0 0.24286991913566969 0.19325292944681119 0 0.2316848973524977 0.1888634000158009 0 0.24286991913566969 0.19325292944681119 0 0.25881269507918508 0.18723983767290139 0 0.2302724547243919 0.19754871897835291 0 0.24286991913566969 0.19325292944681119 0 0.2378018101945456 0.19832357997048591 0 0.2378018101945456 0.19832357997048591 0 0.24125430032536929 0.21638328371995821 0 0.26746882517478771 0.20137667166634279 0 0.2378018101945456 0.19832357997048591 0 0.24125430032536929 0.21638328371995821 0 0.22606868467797961 0.21426142885737309 0 0.21169873375707521 0.20410841604559901 0 0.2378018101945456 0.19832357997048591 0 0.22606868467797961 0.21426142885737309 0 0.24125430032536929 0.21638328371995821 0 0.22606868467797961 0.21426142885737309 0 0.22632415865285471 0.2327733653222773 0 0.21326442046005309 0.2197184992285473 0 0.22606868467797961 0.21426142885737309 0 0.22632415865285471 0.2327733653222773 0 0.24125430032536929 0.21638328371995821 0 0.24408767522763519 0.24738620800961111 0 0.25577825020120981 0.22438143983797609 0 0.24125430032536929 0.21638328371995821 0 0.22632415865285471 0.2327733653222773 0 0.24408767522763519 0.24738620800961111 0 0.24408767522763519 0.24738620800961111 0 0.25577825020120981 0.22438143983797609 0 0.22632415865285471 0.2327733653222773 0 0.24408767522763519 0.24738620800961111 0 0.2248599153753294 0.25464974868018769 0 0.20875825771649001 0.24791684293498359 0 0.22632415865285471 0.2327733653222773 0 0.2248599153753294 0.25464974868018769 0 0.21200562066160161 0.1467079360452806 0 0.21183658649135309 0.1279691399927933 0 0.2301866131769571 0.14830988563429301 0 0.21200562066160161 0.1467079360452806 0 0.20730265976586951 0.15802178200219799 0 0.2192286380700631 0.16321437026710581 0 0.21200562066160161 0.1467079360452806 0 0.20467337404855979 0.13542598228504671 0 0.19801548590604709 0.14912698265977739 0 0.21200562066160161 0.1467079360452806 0 0.19801548590604709 0.14912698265977739 0 0.20730265976586951 0.15802178200219799 0 0.21200562066160161 0.1467079360452806 0 0.21183658649135309 0.1279691399927933 0 0.20467337404855979 0.13542598228504671 0 0.21183658649135309 0.1279691399927933 0 0.20360239427242119 0.1280547973562908 0 0.2040892258420039 0.11938130003695351 0 0.21183658649135309 0.1279691399927933 0 0.20360239427242119 0.1280547973562908 0 0.20467337404855979 0.13542598228504671 0 0.21183658649135309 0.1279691399927933 0 0.20467337404855979 0.13542598228504671 0 0.20467337404855979 0.13542598228504671 0 0.1938103907077679 0.1294427671103697 0 0.19509589525798551 0.13904205207137829 0 0.20360239427242119 0.1280547973562908 0 0.1938103907077679 0.1294427671103697 0 0.2040892258420039 0.11938130003695351 0 0.20360239427242119 0.1280547973562908 0 0.20467337404855979 0.13542598228504671 0 0.1938103907077679 0.1294427671103697 0 0.18388433036956739 0.14217247623031959 0 0.1938103907077679 0.1294427671103697 0 0.19509589525798551 0.13904205207137829 0 0.1856607932485142 0.16089932896482639 0 0.18388433036956739 0.14217247623031959 0 0.19801548590604709 0.14912698265977739 0 0.18388433036956739 0.14217247623031959 0 0.19509589525798551 0.13904205207137829 0 0.19801548590604709 0.14912698265977739 0 0.20467337404855979 0.13542598228504671 0 0.19509589525798551 0.13904205207137829 0 0.19801548590604709 0.14912698265977739 0 0.1856607932485142 0.16089932896482639 0 0.19801548590604709 0.14912698265977739 0 0.19889398188953639 0.1627170798960525 0 0.1856607932485142 0.16089932896482639 0 0.19889398188953639 0.1627170798960525 0 0.19391538149298049 0.17304442703811321 0 0.20143531521365571 0.16978026797347801 0 0.19889398188953639 0.1627170798960525 0 0.20875327909871441 0.1674092356009908 0 0.20143531521365571 0.16978026797347801 0 0.19889398188953639 0.1627170798960525 0 0.19391538149298049 0.17304442703811321 0 0.19801548590604709 0.14912698265977739 0 0.19889398188953639 0.1627170798960525 0 0.20730265976586951 0.15802178200219799 0 0.17924246688167089 0.17802288737896241 0 0.19050692962700749 0.18414866427407081 0 0.19391538149298049 0.17304442703811321 0 0.19050692962700749 0.18414866427407081 0 0.19391538149298049 0.17304442703811321 0 0.19960271430958501 0.18129469115971381 0 0.20143531521365571 0.16978026797347801 0 0.19391538149298049 0.17304442703811321 0 0.20332197819795689 0.17643680315801899 0 0.19391538149298049 0.17304442703811321 0 0.19960271430958501 0.18129469115971381 0 0.20332197819795689 0.17643680315801899 0 0.20455709962581031 0.1904869623587003 0 0.19050692962700749 0.18414866427407081 0 0.19960271430958501 0.18129469115971381 0 0.19960271430958501 0.18129469115971381 0 0.20571218260416971 0.1823565989696658 0 0.20332197819795689 0.17643680315801899 0 0.20455709962581031 0.1904869623587003 0 0.19960271430958501 0.18129469115971381 0 0.20571218260416971 0.1823565989696658 0 0.20455709962581031 0.1904869623587003 0 0.20571218260416971 0.1823565989696658 0 0.21508090582821379 0.1847180537064248 0 0.21013113837578951 0.17591730582290491 0 0.20332197819795689 0.17643680315801899 0 0.20875327909871441 0.1674092356009908 0 0.20571218260416971 0.1823565989696658 0 0.21013113837578951 0.17591730582290491 0 0.21256645528335069 0.1806948814876517 0 0.20571218260416971 0.1823565989696658 0 0.21013113837578951 0.17591730582290491 0 0.20332197819795689 0.17643680315801899 0 0.21013113837578951 0.17591730582290491 0 0.2166911235731557 0.17413001875681339 0 0.20875327909871441 0.1674092356009908 0 0.2166911235731557 0.17413001875681339 0 0.21256645528335069 0.1806948814876517 0 0.22088389427524049 0.1811884257003053 0 0.21013113837578951 0.17591730582290491 0 0.2166911235731557 0.17413001875681339 0 0.21256645528335069 0.1806948814876517 0 0.20571218260416971 0.1823565989696658 0 0.21508090582821379 0.1847180537064248 0 0.21256645528335069 0.1806948814876517 0 0.21508090582821379 0.1847180537064248 0 0.21256645528335069 0.1806948814876517 0 0.22088389427524049 0.1811884257003053 0 0.19889398188953639 0.1627170798960525 0 0.20730265976586951 0.15802178200219799 0 0.20875327909871441 0.1674092356009908 0 0.20143531521365571 0.16978026797347801 0 0.20332197819795689 0.17643680315801899 0 0.20875327909871441 0.1674092356009908 0 0.2166911235731557 0.17413001875681339 0 0.20875327909871441 0.1674092356009908 0 0.2192286380700631 0.16321437026710581 0 0.20730265976586951 0.15802178200219799 0 0.20875327909871441 0.1674092356009908 0 0.2192286380700631 0.16321437026710581 0 0.2192286380700631 0.16321437026710581 0 0.23401579035750819 0.172444394405212 0 0.2301866131769571 0.14830988563429301 0 0.2192286380700631 0.16321437026710581 0 0.2241587286974436 0.1744804302995725 0 0.23401579035750819 0.172444394405212 0 0.2166911235731557 0.17413001875681339 0 0.2192286380700631 0.16321437026710581 0 0.2241587286974436 0.1744804302995725 0 0.2316848973524977 0.1888634000158009 0 0.21508090582821379 0.1847180537064248 0 0.22088389427524049 0.1811884257003053 0 0.22088389427524049 0.1811884257003053 0 0.2241587286974436 0.1744804302995725 0 0.22961269111701679 0.18012562215720671 0 0.2166911235731557 0.17413001875681339 0 0.22088389427524049 0.1811884257003053 0 0.2241587286974436 0.1744804302995725 0 0.2241587286974436 0.1744804302995725 0 0.23401579035750819 0.172444394405212 0 0.22961269111701679 0.18012562215720671 0 0.23401579035750819 0.172444394405212 0 0.22961269111701679 0.18012562215720671 0 0.2357178922152014 0.1819785387317952 0 0.2316848973524977 0.1888634000158009 0 0.22961269111701679 0.18012562215720671 0 0.2357178922152014 0.1819785387317952 0 0.2316848973524977 0.1888634000158009 0 0.22088389427524049 0.1811884257003053 0 0.22961269111701679 0.18012562215720671 0 0.2316848973524977 0.1888634000158009 0 0.24499458573427471 0.18380406373560509 0 0.25881269507918508 0.18723983767290139 0 0.2316848973524977 0.1888634000158009 0 0.2357178922152014 0.1819785387317952 0 0.24499458573427471 0.18380406373560509 0 0.23401579035750819 0.172444394405212 0 0.2357178922152014 0.1819785387317952 0 0.24499458573427471 0.18380406373560509 0 0.23401579035750819 0.172444394405212 0 0.24499458573427471 0.18380406373560509 0 0.24853663986256111 0.1686506312757925 0 0.24853663986256111 0.1686506312757925 0 0.2301866131769571 0.14830988563429301 0 0.23401579035750819 0.172444394405212 0 0.24853663986256111 0.1686506312757925 0 0.2301866131769571 0.14830988563429301 0 0.24853663986256111 0.1686506312757925 0 0.2301866131769571 0.14830988563429301 0 0.25050055172898211 0.1470204461234195 0 0.2301866131769571 0.14830988563429301 0 0.24676159003455239 0.12791355937761181 0 0.25050055172898211 0.1470204461234195 0 0.21200562066160161 0.1467079360452806 0 0.2192286380700631 0.16321437026710581 0 0.2301866131769571 0.14830988563429301 0 0.21183658649135309 0.1279691399927933 0 0.2301866131769571 0.14830988563429301 0 0.21183658649135309 0.1279691399927933 0 0.2301866131769571 0.14830988563429301 0 0.22978096906059331 0.12744245418595729 0 0.2301866131769571 0.14830988563429301 0 0.22978096906059331 0.12744245418595729 0 0.24676159003455239 0.12791355937761181 0 0.24676159003455239 0.12791355937761181 0 0.2412009338978682 0.11370209041744 0 0.25477011833646362 0.1103263086023575 0 0.22978096906059331 0.12744245418595729 0 0.24676159003455239 0.12791355937761181 0 0.2412009338978682 0.11370209041744 0 0.2412009338978682 0.11370209041744 0 0.24584913254136981 0.092562373283250871 0 0.25477011833646362 0.1103263086023575 0 0.2412009338978682 0.11370209041744 0 0.2288428595163621 0.1102657566380227 0 0.24584913254136981 0.092562373283250871 0 0.2288428595163621 0.1102657566380227 0 0.24584913254136981 0.092562373283250871 0 0.22640857620066671 0.09481467996488116 0 0.2288428595163621 0.1102657566380227 0 0.24584913254136981 0.092562373283250871 0 0.22640857620066671 0.09481467996488116 0 0.2288428595163621 0.1102657566380227 0 0.21827246483601331 0.1065849565034198 0 0.22640857620066671 0.09481467996488116 0 0.21827246483601331 0.1065849565034198 0 0.21351959618813299 0.097147580017458796 0 0.21183658649135309 0.1279691399927933 0 0.22978096906059331 0.12744245418595729 0 0.2288428595163621 0.1102657566380227 0 0.21183658649135309 0.1279691399927933 0 0.2288428595163621 0.1102657566380227 0 0.22978096906059331 0.12744245418595729 0 0.2412009338978682 0.11370209041744 0 0.2288428595163621 0.1102657566380227 0 0.2288428595163621 0.1102657566380227 0 0.21475418187066561 0.117828665365575 0 0.21827246483601331 0.1065849565034198 0 0.21183658649135309 0.1279691399927933 0 0.2288428595163621 0.1102657566380227 0 0.21475418187066561 0.117828665365575 0 0.21183658649135309 0.1279691399927933 0 0.2040892258420039 0.11938130003695351 0 0.21475418187066561 0.117828665365575 0 0.2040892258420039 0.11938130003695351 0 0.21183658649135309 0.1279691399927933 0 0.21475418187066561 0.117828665365575 0 0.2040892258420039 0.11938130003695351 0 0.21475418187066561 0.117828665365575 0 0.2040892258420039 0.11938130003695351 0 0.20676832633911099 0.1065873948542566 0 0.21475418187066561 0.117828665365575 0 0.21827246483601331 0.1065849565034198 0 0.20676832633911099 0.1065873948542566 0 0.21827246483601331 0.1065849565034198 0 0.21351959618813299 0.097147580017458796 0 0.20676832633911099 0.1065873948542566 0 0.21351959618813299 0.097147580017458796 0 0.20676832633911099 0.1065873948542566 0 0.19869038202340161 0.092333199231360963 0 0.20676832633911099 0.1065873948542566 0 0.19106144392754701 0.1049401876214167 0 0.19869038202340161 0.092333199231360963 0 0.19106144392754701 0.1049401876214167 0 0.19869038202340161 0.092333199231360963 0 0.1787081257172177 0.086276202607328517 0 0.2040892258420039 0.11938130003695351 0 0.19106144392754701 0.1049401876214167 0 0.17915160782429251 0.1230117894878117 0 0.1938103907077679 0.1294427671103697 0 0.2040892258420039 0.11938130003695351 0 0.17915160782429251 0.1230117894878117 0 0.2040892258420039 0.11938130003695351 0 0.17915160782429251 0.1230117894878117 0 0.2040892258420039 0.11938130003695351 0 0.20676832633911099 0.1065873948542566 0 0.19106144392754701 0.1049401876214167 0 0.2040892258420039 0.11938130003695351 0 0.19106144392754701 0.1049401876214167 0 0.19563724610143751 0.070716739318868613 0 0.20342718918346001 0.077021393457067142 0 0.20344180440486831 0.06417624827846824 0 0.19563724610143751 0.070716739318868613 0 0.19198287475904319 0.080036371251744579 0 0.20342718918346001 0.077021393457067142 0 0.19563724610143751 0.070716739318868613 0 0.20344180440486831 0.06417624827846824 0 0.19374316784163351 0.061695067438316313 0 0.19563724610143751 0.070716739318868613 0 0.19374316784163351 0.061695067438316313 0 0.1855911943181823 0.07065461616874677 0 0.19374316784163351 0.061695067438316313 0 0.18500291587706469 0.059550594622267708 0 0.1855911943181823 0.07065461616874677 0 0.19563724610143751 0.070716739318868613 0 0.19198287475904319 0.080036371251744579 0 0.1855911943181823 0.07065461616874677 0 0.19198287475904319 0.080036371251744579 0 0.19869038202340161 0.092333199231360963 0 0.1787081257172177 0.086276202607328517 0 0.19198287475904319 0.080036371251744579 0 0.19869038202340161 0.092333199231360963 0 0.20342718918346001 0.077021393457067142 0 0.19869038202340161 0.092333199231360963 0 0.21547303208359009 0.083914521248534671 0 0.20342718918346001 0.077021393457067142 0 0.21351959618813299 0.097147580017458796 0 0.19869038202340161 0.092333199231360963 0 0.21547303208359009 0.083914521248534671 0 0.22640857620066671 0.09481467996488116 0 0.21351959618813299 0.097147580017458796 0 0.21547303208359009 0.083914521248534671 0 0.21547303208359009 0.083914521248534671 0 0.20342718918346001 0.077021393457067142 0 0.21658756443749691 0.068119304344926843 0 0.20344180440486831 0.06417624827846824 0 0.21658756443749691 0.068119304344926843 0 0.210008963553066 0.055643958593990329 0 0.20342718918346001 0.077021393457067142 0 0.20344180440486831 0.06417624827846824 0 0.21658756443749691 0.068119304344926843 0 0.21547303208359009 0.083914521248534671 0 0.21658756443749691 0.068119304344926843 0 0.2305814522767862 0.079458889308718778 0 0.21658756443749691 0.068119304344926843 0 0.23208686383455979 0.06275930026955677 0 0.2305814522767862 0.079458889308718778 0 0.22640857620066671 0.09481467996488116 0 0.2305814522767862 0.079458889308718778 0 0.24584913254136981 0.092562373283250871 0 0.22640857620066671 0.09481467996488116 0 0.21547303208359009 0.083914521248534671 0 0.2305814522767862 0.079458889308718778 0 0.2305814522767862 0.079458889308718778 0 0.24584913254136981 0.092562373283250871 0 0.24508406686404721 0.074042699616066798 0 0.23208686383455979 0.06275930026955677 0 0.2305814522767862 0.079458889308718778 0 0.24508406686404721 0.074042699616066798 0 0.24508406686404721 0.074042699616066798 0 0.24702940652874461 0.056345053222077328 0 0.25413798255185233 0.06612457479804941 0 0.23208686383455979 0.06275930026955677 0 0.24508406686404721 0.074042699616066798 0 0.24702940652874461 0.056345053222077328 0 0.23208686383455979 0.06275930026955677 0 0.24702940652874461 0.056345053222077328 0 0.23203932564475119 0.044831597350697042 0 0.24702940652874461 0.056345053222077328 0 0.24524984186232679 0.043358196906864918 0 0.23203932564475119 0.044831597350697042 0 0.24524984186232679 0.043358196906864918 0 0.23203932564475119 0.044831597350697042 0 0.23246702221514451 0.028110850203026699 0 0.24524984186232679 0.043358196906864918 0 0.23246702221514451 0.028110850203026699 0 0.2541752168156497 0.033283058422897631 0 0.23203932564475119 0.044831597350697042 0 0.22363600348005541 0.036035888530111748 0 0.23246702221514451 0.028110850203026699 0 0.22363600348005541 0.036035888530111748 0 0.22206298073655961 0.044373988480887673 0 0.21666632842785979 0.040008119722642371 0 0.23203932564475119 0.044831597350697042 0 0.22363600348005541 0.036035888530111748 0 0.22206298073655961 0.044373988480887673 0 0.23203932564475119 0.044831597350697042 0 0.22206298073655961 0.044373988480887673 0 0.2211993672555326 0.053758257774853817 0 0.23208686383455979 0.06275930026955677 0 0.23203932564475119 0.044831597350697042 0 0.2211993672555326 0.053758257774853817 0 0.22206298073655961 0.044373988480887673 0 0.2211993672555326 0.053758257774853817 0 0.21418756517433479 0.046942275290459273 0 0.21658756443749691 0.068119304344926843 0 0.23208686383455979 0.06275930026955677 0 0.2211993672555326 0.053758257774853817 0 0.23798902324653681 0.01383044680823774 0 0.23129756664408271 0.0034871144361431051 0 0.24069971132508289 -0.0141716467182247 0 0.2493448423645083 0.0014051681544095839 0 0.23798902324653681 0.01383044680823774 0 0.24069971132508289 -0.0141716467182247 0 0.2493448423645083 0.0014051681544095839 0 0.23798902324653681 0.01383044680823774 0 0.25291095945433317 0.015933972917932249 0 0.23798902324653681 0.01383044680823774 0 0.23246702221514451 0.028110850203026699 0 0.25291095945433317 0.015933972917932249 0 0.23246702221514451 0.028110850203026699 0 0.2541752168156497 0.033283058422897631 0 0.23246702221514451 0.028110850203026699 0 0.25291095945433317 0.015933972917932249 0 0.2541752168156497 0.033283058422897631 0 0.23246702221514451 0.028110850203026699 0 0.2243114274660212 0.018967332534370881 0 0.21075882761463979 0.02293864198315421 0 0.23246702221514451 0.028110850203026699 0 0.21075882761463979 0.02293864198315421 0 0.22363600348005541 0.036035888530111748 0 0.23246702221514451 0.028110850203026699 0 0.21075882761463979 0.02293864198315421 0 0.2243114274660212 0.018967332534370881 0 0.22440403978193491 0.0089830690756811174 0 0.21075882761463979 0.02293864198315421 0 0.23798902324653681 0.01383044680823774 0 0.23246702221514451 0.028110850203026699 0 0.2300938158707441 0.014675762611491909 0 0.23246702221514451 0.028110850203026699 0 0.2243114274660212 0.018967332534370881 0 0.2300938158707441 0.014675762611491909 0 0.2300938158707441 0.014675762611491909 0 0.22440403978193491 0.0089830690756811174 0 0.23129756664408271 0.0034871144361431051 0 0.23798902324653681 0.01383044680823774 0 0.2300938158707441 0.014675762611491909 0 0.23129756664408271 0.0034871144361431051 0 0.2243114274660212 0.018967332534370881 0 0.2300938158707441 0.014675762611491909 0 0.22440403978193491 0.0089830690756811174 0 0.22440403978193491 0.0089830690756811174 0 0.22579893665580589 0.002145308586464775 0 0.2181200160463545 0.0011720216127723371 0 0.22579893665580589 0.002145308586464775 0 0.23129756664408271 0.0034871144361431051 0 0.22937412415085151 -0.0050609707787374596 0 0.22440403978193491 0.0089830690756811174 0 0.22579893665580589 0.002145308586464775 0 0.23129756664408271 0.0034871144361431051 0 0.2181200160463545 0.0011720216127723371 0 0.2070527856573989 0.022055638074854261 0 0.19959946491814479 0.0046282397502151107 0 0.2181200160463545 0.0011720216127723371 0 0.2070527856573989 0.022055638074854261 0 0.21075882761463979 0.02293864198315421 0 0.22440403978193491 0.0089830690756811174 0 0.2181200160463545 0.0011720216127723371 0 0.21075882761463979 0.02293864198315421 0 0.2181200160463545 0.0011720216127723371 0 0.2070527856573989 0.022055638074854261 0 0.2070527856573989 0.022055638074854261 0 0.21075882761463979 0.02293864198315421 0 0.22440403978193491 0.0089830690756811174 0 0.21075882761463979 0.02293864198315421 0 0.22363600348005541 0.036035888530111748 0 0.21075882761463979 0.02293864198315421 0 0.21292436932785841 0.034259823922778203 0 0.21075882761463979 0.02293864198315421 0 0.21292436932785841 0.034259823922778203 0 0.20164528338889179 0.032259474032410383 0 0.2070527856573989 0.022055638074854261 0 0.21075882761463979 0.02293864198315421 0 0.20164528338889179 0.032259474032410383 0 0.2070527856573989 0.022055638074854261 0 0.20164528338889179 0.032259474032410383 0 0.21075882761463979 0.02293864198315421 0 0.20164528338889179 0.032259474032410383 0 0.2070527856573989 0.022055638074854261 0 0.18390892145290899 0.016541366304171679 0 0.2070527856573989 0.022055638074854261 0 0.19227303984839511 0.02803136421358807 0 0.18390892145290899 0.016541366304171679 0 0.2070527856573989 0.022055638074854261 0 0.19227303984839511 0.02803136421358807 0 0.20164528338889179 0.032259474032410383 0 0.2070527856573989 0.022055638074854261 0 0.19959946491814479 0.0046282397502151107 0 0.18390892145290899 0.016541366304171679 0 0.19959946491814479 0.0046282397502151107 0 0.1859869084017956 0.0024433714559852532 0 0.18390892145290899 0.016541366304171679 0 0.210008963553066 0.055643958593990329 0 0.21418756517433479 0.046942275290459273 0 0.2044185664875118 0.046571643346486953 0 0.210008963553066 0.055643958593990329 0 0.2044185664875118 0.046571643346486953 0 0.20057574429193831 0.055804475416308452 0 0.20344180440486831 0.06417624827846824 0 0.210008963553066 0.055643958593990329 0 0.20057574429193831 0.055804475416308452 0 0.21658756443749691 0.068119304344926843 0 0.2211993672555326 0.053758257774853817 0 0.210008963553066 0.055643958593990329 0 0.2211993672555326 0.053758257774853817 0 0.210008963553066 0.055643958593990329 0 0.21418756517433479 0.046942275290459273 0 0.22206298073655961 0.044373988480887673 0 0.21418756517433479 0.046942275290459273 0 0.21666632842785979 0.040008119722642371 0 0.21418756517433479 0.046942275290459273 0 0.21666632842785979 0.040008119722642371 0 0.20932909002758099 0.039763191609896213 0 0.22363600348005541 0.036035888530111748 0 0.21666632842785979 0.040008119722642371 0 0.21292436932785841 0.034259823922778203 0 0.21666632842785979 0.040008119722642371 0 0.21292436932785841 0.034259823922778203 0 0.20932909002758099 0.039763191609896213 0 0.21292436932785841 0.034259823922778203 0 0.20932909002758099 0.039763191609896213 0 0.20164528338889179 0.032259474032410383 0 0.2044185664875118 0.046571643346486953 0 0.20932909002758099 0.039763191609896213 0 0.20164528338889179 0.032259474032410383 0 0.21418756517433479 0.046942275290459273 0 0.2044185664875118 0.046571643346486953 0 0.20932909002758099 0.039763191609896213 0 0.20164528338889179 0.032259474032410383 0 0.18519497383260769 0.04908394634903547 0 0.20164528338889179 0.032259474032410383 0 0.19141489864481501 0.051563981460764373 0 0.18519497383260769 0.04908394634903547 0 0.2044185664875118 0.046571643346486953 0 0.20164528338889179 0.032259474032410383 0 0.19141489864481501 0.051563981460764373 0 0.20164528338889179 0.032259474032410383 0 0.19141489864481501 0.051563981460764373 0 0.20164528338889179 0.032259474032410383 0 0.18939133038019751 0.036732509199146293 0 0.18519497383260769 0.04908394634903547 0 0.19227303984839511 0.02803136421358807 0 0.20164528338889179 0.032259474032410383 0 0.18939133038019751 0.036732509199146293 0 0.2044185664875118 0.046571643346486953 0 0.19141489864481501 0.051563981460764373 0 0.20057574429193831 0.055804475416308452 0 0.20344180440486831 0.06417624827846824 0 0.20057574429193831 0.055804475416308452 0 0.19374316784163351 0.061695067438316313 0 0.19141489864481501 0.051563981460764373 0 0.19374316784163351 0.061695067438316313 0 0.18500291587706469 0.059550594622267708 0 0.19141489864481501 0.051563981460764373 0 0.20057574429193831 0.055804475416308452 0 0.19374316784163351 0.061695067438316313 0 0.18500291587706469 0.059550594622267708 0 0.18519497383260769 0.04908394634903547 0 0.16874466427632431 0.065908418665661217 0 0.18519497383260769 0.04908394634903547 0 0.16874466427632431 0.065908418665661217 0 0.18519497383260769 0.04908394634903547 0 0.17039796700966819 0.048809246888128092 0 0.16874466427632431 0.065908418665661217 0 0.19141489864481501 0.051563981460764373 0 0.18500291587706469 0.059550594622267708 0 0.18519497383260769 0.04908394634903547 0 0.18519497383260769 0.04908394634903547 0 0.1828404780051455 0.040176367584277208 0 0.17740872944519931 0.042321181331569327 0 0.18939133038019751 0.036732509199146293 0 0.18519497383260769 0.04908394634903547 0 0.1828404780051455 0.040176367584277208 0 0.1828404780051455 0.040176367584277208 0 0.1793668783625775 0.032567833457357767 0 0.17740872944519931 0.042321181331569327 0 0.19227303984839511 0.02803136421358807 0 0.18939133038019751 0.036732509199146293 0 0.1793668783625775 0.032567833457357767 0 0.18939133038019751 0.036732509199146293 0 0.1828404780051455 0.040176367584277208 0 0.1793668783625775 0.032567833457357767 0 0.1793668783625775 0.032567833457357767 0 0.17740872944519931 0.042321181331569327 0 0.16803154565152301 0.038583782461969467 0 0.18519497383260769 0.04908394634903547 0 0.17740872944519931 0.042321181331569327 0 0.17039796700966819 0.048809246888128092 0 0.17740872944519931 0.042321181331569327 0 0.16803154565152301 0.038583782461969467 0 0.17039796700966819 0.048809246888128092 0 0.16803154565152301 0.038583782461969467 0 0.17039796700966819 0.048809246888128092 0 0.1539984167861182 0.047960708560429839 0 0.1793668783625775 0.032567833457357767 0 0.16803154565152301 0.038583782461969467 0 0.16815846286458169 0.026015699769816179 0 0.16803154565152301 0.038583782461969467 0 0.15885881944099309 0.033828024764515678 0 0.16815846286458169 0.026015699769816179 0 0.16803154565152301 0.038583782461969467 0 0.15885881944099309 0.033828024764515678 0 0.1539984167861182 0.047960708560429839 0 0.1539984167861182 0.047960708560429839 0 0.1530170123472486 0.06412582744890627 0 0.16874466427632431 0.065908418665661217 0 0.17039796700966819 0.048809246888128092 0 0.1539984167861182 0.047960708560429839 0 0.16874466427632431 0.065908418665661217 0 0.17415294238970491 0.003088488330222813 0 0.18390892145290899 0.016541366304171679 0 0.16377362211656199 0.01263194899624916 0 0.17415294238970491 0.003088488330222813 0 0.1859869084017956 0.0024433714559852532 0 0.18390892145290899 0.016541366304171679 0 0.19227303984839511 0.02803136421358807 0 0.1793668783625775 0.032567833457357767 0 0.18390892145290899 0.016541366304171679 0 0.1793668783625775 0.032567833457357767 0 0.18390892145290899 0.016541366304171679 0 0.16815846286458169 0.026015699769816179 0 0.18390892145290899 0.016541366304171679 0 0.16815846286458169 0.026015699769816179 0 0.16377362211656199 0.01263194899624916 0 0.15885881944099309 0.033828024764515678 0 0.16815846286458169 0.026015699769816179 0 0.15558988979038091 0.021892097110660969 0 0.16815846286458169 0.026015699769816179 0 0.16377362211656199 0.01263194899624916 0 0.15558988979038091 0.021892097110660969 0 0.16377362211656199 0.01263194899624916 0 0.1493895168637106 0.0071916650305739582 0 0.15901711775268429 -0.006544852682459551 0 0.17415294238970491 0.003088488330222813 0 0.16377362211656199 0.01263194899624916 0 0.15901711775268429 -0.006544852682459551 0 0.16377362211656199 0.01263194899624916 0 0.1493895168637106 0.0071916650305739582 0 0.15558988979038091 0.021892097110660969 0 0.1493895168637106 0.0071916650305739582 0 0.14395828523593829 0.019055053518294309 0 0.15558988979038091 0.021892097110660969 0 0.15885881944099309 0.033828024764515678 0 0.15558988979038091 0.021892097110660969 0 0.15007948103951901 0.03066518273400419 0 0.14395828523593829 0.019055053518294309 0 0.15558988979038091 0.021892097110660969 0 0.15007948103951901 0.03066518273400419 0 0.14395828523593829 0.019055053518294309 0 0.15007948103951901 0.03066518273400419 0 0.1377698774003924 0.026703941123774021 0 0.1377698774003924 0.026703941123774021 0 0.1274552054474524 0.0077376294574659759 0 0.12842307720111881 0.033870046662418503 0 0.14395828523593829 0.019055053518294309 0 0.1377698774003924 0.026703941123774021 0 0.1274552054474524 0.0077376294574659759 0 0.1274552054474524 0.0077376294574659759 0 0.12842307720111881 0.033870046662418503 0 0.1493895168637106 0.0071916650305739582 0 0.1274552054474524 0.0077376294574659759 0 0.14319412215549979 -0.0041842003619043198 0 0.1493895168637106 0.0071916650305739582 0 0.14395828523593829 0.019055053518294309 0 0.1274552054474524 0.0077376294574659759 0 0.1539984167861182 0.047960708560429839 0 0.1429959282635844 0.036715771591496263 0 0.1370306136065107 0.059901291587246872 0 0.1539984167861182 0.047960708560429839 0 0.1370306136065107 0.059901291587246872 0 0.1530170123472486 0.06412582744890627 0 0.15007948103951901 0.03066518273400419 0 0.1539984167861182 0.047960708560429839 0 0.1429959282635844 0.036715771591496263 0 0.15885881944099309 0.033828024764515678 0 0.15007948103951901 0.03066518273400419 0 0.1539984167861182 0.047960708560429839 0 0.15007948103951901 0.03066518273400419 0 0.1377698774003924 0.026703941123774021 0 0.1429959282635844 0.036715771591496263 0 0.1217668724929772 0.037069692192208473 0 0.12842307720111881 0.033870046662418503 0 0.1370306136065107 0.059901291587246872 0 0.1429959282635844 0.036715771591496263 0 0.12842307720111881 0.033870046662418503 0 0.1370306136065107 0.059901291587246872 0 0.1377698774003924 0.026703941123774021 0 0.1429959282635844 0.036715771591496263 0 0.12842307720111881 0.033870046662418503 0 0.1217668724929772 0.037069692192208473 0 0.1370306136065107 0.059901291587246872 0 0.1222879965447146 0.058325638298925522 0 0.1217668724929772 0.037069692192208473 0 0.1370306136065107 0.059901291587246872 0 0.1222879965447146 0.058325638298925522 0 0.1370306136065107 0.059901291587246872 0 0.13156386179305879 0.068975715454841338 0 0.1370306136065107 0.059901291587246872 0 0.13156386179305879 0.068975715454841338 0 0.13689843183994871 0.079155929125981739 0 0.1370306136065107 0.059901291587246872 0 0.15229435472004099 0.082732890982287172 0 0.1370306136065107 0.059901291587246872 0 0.1530170123472486 0.06412582744890627 0 0.15229435472004099 0.082732890982287172 0 0.1370306136065107 0.059901291587246872 0 0.15229435472004099 0.082732890982287172 0 0.13689843183994871 0.079155929125981739 0 0.15385722884414671 0.093632013040876705 0 0.15427566249759619 0.085696543544195286 0 0.1383561442386759 0.096988126458841084 0 0.15427566249759619 0.085696543544195286 0 0.15229435472004099 0.082732890982287172 0 0.1383561442386759 0.096988126458841084 0 0.15229435472004099 0.082732890982287172 0 0.13689843183994871 0.079155929125981739 0 0.1383561442386759 0.096988126458841084 0 0.15385722884414671 0.093632013040876705 0 0.15427566249759619 0.085696543544195286 0 0.15872793673397659 0.089370608888344291 0 0.15427566249759619 0.085696543544195286 0 0.15229435472004099 0.082732890982287172 0 0.15229435472004099 0.082732890982287172 0 0.1383561442386759 0.096988126458841084 0 0.13689843183994871 0.079155929125981739 0 0.12524718484145689 0.087181621146692256 0 0.1383561442386759 0.096988126458841084 0 0.13156386179305879 0.068975715454841338 0 0.13689843183994871 0.079155929125981739 0 0.12524718484145689 0.087181621146692256 0 0.12524718484145689 0.087181621146692256 0 0.12532476775185619 0.098232396260053964 0 0.1383561442386759 0.096988126458841084 0 0.1244179337573105 0.1112433619353948 0 0.1383561442386759 0.096988126458841084 0 0.14316959303687149 0.11200180865219719 0 0.1244179337573105 0.1112433619353948 0 0.1383561442386759 0.096988126458841084 0 0.1244179337573105 0.1112433619353948 0 0.12532476775185619 0.098232396260053964 0 0.1383561442386759 0.096988126458841084 0 0.1244179337573105 0.1112433619353948 0 0.14316959303687149 0.11200180865219719 0 0.1244179337573105 0.1112433619353948 0 0.1334928892187158 0.1190613281269169 0 0.14316959303687149 0.11200180865219719 0 0.1180666309774392 0.1177391252782585 0 0.1292763717888695 0.13027276838952631 0 0.1334928892187158 0.1190613281269169 0 0.1180666309774392 0.1177391252782585 0 0.1244179337573105 0.1112433619353948 0 0.1334928892187158 0.1190613281269169 0 0.15421398980658099 0.126642278938669 0 0.1334928892187158 0.1190613281269169 0 0.14316959303687149 0.11200180865219719 0 0.15421398980658099 0.126642278938669 0 0.14316959303687149 0.11200180865219719 0 0.15379686645975449 0.1125428177400736 0 0.1383561442386759 0.096988126458841084 0 0.14316959303687149 0.11200180865219719 0 0.15310975452106859 0.10261352196875061 0 0.14316959303687149 0.11200180865219719 0 0.15379686645975449 0.1125428177400736 0 0.15310975452106859 0.10261352196875061 0 0.15385722884414671 0.093632013040876705 0 0.1383561442386759 0.096988126458841084 0 0.15310975452106859 0.10261352196875061 0 0.15385722884414671 0.093632013040876705 0 0.15310975452106859 0.10261352196875061 0 0.16385095723173471 0.094241224129627044 0 0.15379686645975449 0.1125428177400736 0 0.15310975452106859 0.10261352196875061 0 0.16469412847449699 0.1089136614006774 0 0.15310975452106859 0.10261352196875061 0 0.16385095723173471 0.094241224129627044 0 0.16469412847449699 0.1089136614006774 0 0.16385095723173471 0.094241224129627044 0 0.16469412847449699 0.1089136614006774 0 0.17427025395160581 0.09948683593011054 0 0.15421398980658099 0.126642278938669 0 0.17915160782429251 0.1230117894878117 0 0.15421398980658099 0.126642278938669 0 0.15379686645975449 0.1125428177400736 0 0.16469412847449699 0.1089136614006774 0 0.15421398980658099 0.126642278938669 0 0.16469412847449699 0.1089136614006774 0 0.17915160782429251 0.1230117894878117 0 0.19106144392754701 0.1049401876214167 0 0.17915160782429251 0.1230117894878117 0 0.17701599822903011 0.10972843340603081 0 0.16469412847449699 0.1089136614006774 0 0.17915160782429251 0.1230117894878117 0 0.17701599822903011 0.10972843340603081 0 0.19106144392754701 0.1049401876214167 0 0.17701599822903011 0.10972843340603081 0 0.17427025395160581 0.09948683593011054 0 0.19106144392754701 0.1049401876214167 0 0.17427025395160581 0.09948683593011054 0 0.1787081257172177 0.086276202607328517 0 0.16469412847449699 0.1089136614006774 0 0.17701599822903011 0.10972843340603081 0 0.17427025395160581 0.09948683593011054 0 0.16385095723173471 0.094241224129627044 0 0.17427025395160581 0.09948683593011054 0 0.1787081257172177 0.086276202607328517 0 0.19198287475904319 0.080036371251744579 0 0.1787081257172177 0.086276202607328517 0 0.1855911943181823 0.07065461616874677 0 0.18500291587706469 0.059550594622267708 0 0.1855911943181823 0.07065461616874677 0 0.16874466427632431 0.065908418665661217 0 0.1787081257172177 0.086276202607328517 0 0.1855911943181823 0.07065461616874677 0 0.16874466427632431 0.065908418665661217 0 0.1530170123472486 0.06412582744890627 0 0.15229435472004099 0.082732890982287172 0 0.16874466427632431 0.065908418665661217 0 0.15229435472004099 0.082732890982287172 0 0.16874466427632431 0.065908418665661217 0 0.15229435472004099 0.082732890982287172 0 0.16874466427632431 0.065908418665661217 0 0.16292789836242871 0.08391265483867813 0 0.15427566249759619 0.085696543544195286 0 0.15229435472004099 0.082732890982287172 0 0.16292789836242871 0.08391265483867813 0 0.16385095723173471 0.094241224129627044 0 0.1787081257172177 0.086276202607328517 0 0.16292789836242871 0.08391265483867813 0 0.1787081257172177 0.086276202607328517 0 0.16874466427632431 0.065908418665661217 0 0.16292789836242871 0.08391265483867813 0 0.15385722884414671 0.093632013040876705 0 0.16385095723173471 0.094241224129627044 0 0.15872793673397659 0.089370608888344291 0 0.15427566249759619 0.085696543544195286 0 0.16292789836242871 0.08391265483867813 0 0.15872793673397659 0.089370608888344291 0 0.16385095723173471 0.094241224129627044 0 0.16292789836242871 0.08391265483867813 0 0.15872793673397659 0.089370608888344291 0 0.1065252841911684 0.47711053739363207 0 0.099947155838976592 0.45792640442606758 0 0.091519043696944705 0.47407271812275648 0 0.1065252841911684 0.47711053739363207 0 0.091519043696944705 0.47407271812275648 0 0.091930541946857458 0.49099069221018171 0 0.1086494609002788 0.5 0 0.091930541946857458 0.49099069221018171 0 0.082317445275920942 0.5 0 0.1065252841911684 0.47711053739363207 0 0.1086494609002788 0.5 0 0.091930541946857458 0.49099069221018171 0 0.1086494609002788 0.5 0 0.1259428405829203 0.48023978707085452 0 0.13811067604184879 0.50000000000000067 0 0.1065252841911684 0.47711053739363207 0 0.1086494609002788 0.5 0 0.1259428405829203 0.48023978707085452 0 0.1065252841911684 0.47711053739363207 0 0.1137750051239922 0.4604795741417082 0 0.1259428405829203 0.48023978707085452 0 0.1137750051239922 0.4604795741417082 0 0.1259428405829203 0.48023978707085452 0 0.1137750051239922 0.4604795741417082 0 0.1226530656482125 0.44308759750645899 0 0.10160716966506381 0.44071936121256211 0 0.1137750051239922 0.4604795741417082 0 0.10160716966506381 0.44071936121256211 0 0.099947155838976592 0.45792640442606758 0 0.10160716966506381 0.44071936121256211 0 0.099947155838976592 0.45792640442606758 0 0.085183984830352832 0.45879253097320649 0 0.1137750051239922 0.4604795741417082 0 0.10160716966506381 0.44071936121256211 0 0.10160716966506381 0.44071936121256211 0 0.098143415835495615 0.43509432515438617 0 0.1065252841911684 0.47711053739363207 0 0.1137750051239922 0.4604795741417082 0 0.099947155838976592 0.45792640442606758 0 0.099947155838976592 0.45792640442606758 0 0.085183984830352832 0.45879253097320649 0 0.091519043696944705 0.47407271812275648 0 0.085183984830352832 0.45879253097320649 0 0.070530613862346131 0.46556320298305282 0 0.079335058659130764 0.47262436960970672 0 0.085183984830352832 0.45879253097320649 0 0.079335058659130764 0.47262436960970672 0 0.091519043696944705 0.47407271812275648 0 0.10160716966506381 0.44071936121256211 0 0.085183984830352832 0.45879253097320649 0 0.082674190114861767 0.44171109356619948 0 0.085183984830352832 0.45879253097320649 0 0.082674190114861767 0.44171109356619948 0 0.072758466758936907 0.45345272281234389 0 0.10160716966506381 0.44071936121256211 0 0.085183984830352832 0.45879253097320649 0 0.10160716966506381 0.44071936121256211 0 0.082674190114861767 0.44171109356619948 0 0.091479251218205881 0.43408889317397459 0 0.082674190114861767 0.44171109356619948 0 0.06772429520313103 0.44208217867330302 0 0.076548976619749853 0.43084815822997002 0 0.082674190114861767 0.44171109356619948 0 0.06772429520313103 0.44208217867330302 0 0.072758466758936907 0.45345272281234389 0 0.06772429520313103 0.44208217867330302 0 0.072758466758936907 0.45345272281234389 0 0.057849204007633173 0.45512485857810719 0 0.085183984830352832 0.45879253097320649 0 0.070530613862346131 0.46556320298305282 0 0.072758466758936907 0.45345272281234389 0 0.070530613862346131 0.46556320298305282 0 0.072758466758936907 0.45345272281234389 0 0.057849204007633173 0.45512485857810719 0 0.070530613862346131 0.46556320298305282 0 0.070593882823158913 0.47861203821777282 0 0.057498493224789352 0.47394149993887719 0 0.070593882823158913 0.47861203821777282 0 0.068422877870224469 0.48983571467378012 0 0.064096491817175555 0.48449405863899447 0 0.070593882823158913 0.47861203821777282 0 0.064096491817175555 0.48449405863899447 0 0.057498493224789352 0.47394149993887719 0 0.070593882823158913 0.47861203821777282 0 0.079335058659130764 0.47262436960970672 0 0.080615796170122475 0.48516309509711109 0 0.070530613862346131 0.46556320298305282 0 0.070593882823158913 0.47861203821777282 0 0.079335058659130764 0.47262436960970672 0 0.091519043696944705 0.47407271812275648 0 0.091930541946857458 0.49099069221018171 0 0.080615796170122475 0.48516309509711109 0 0.079335058659130764 0.47262436960970672 0 0.091519043696944705 0.47407271812275648 0 0.080615796170122475 0.48516309509711109 0 0.080615796170122475 0.48516309509711109 0 0.08228552980564445 0.49228977083507158 0 0.074278335829676898 0.49323832161257802 0 0.091930541946857458 0.49099069221018171 0 0.080615796170122475 0.48516309509711109 0 0.08228552980564445 0.49228977083507158 0 0.082317445275920942 0.5 0 0.08228552980564445 0.49228977083507158 0 0.074278335829676898 0.49323832161257802 0 0.079200649029350242 0.49980338243369349 0 0.082317445275920942 0.5 0 0.074278335829676898 0.49323832161257802 0 0.091930541946857458 0.49099069221018171 0 0.082317445275920942 0.5 0 0.08228552980564445 0.49228977083507158 0 0.079200649029350242 0.49980338243369349 0 0.074278335829676898 0.49323832161257802 0 0.056725698580741259 0.49838559002428418 0 0.079200649029350242 0.49980338243369349 0 0.056725698580741259 0.49838559002428418 0 0.074278335829676898 0.49323832161257802 0 0.068422877870224469 0.48983571467378012 0 0.056725698580741259 0.49838559002428418 0 0.080615796170122475 0.48516309509711109 0 0.074278335829676898 0.49323832161257802 0 0.068422877870224469 0.48983571467378012 0 0.070593882823158913 0.47861203821777282 0 0.080615796170122475 0.48516309509711109 0 0.068422877870224469 0.48983571467378012 0 0.068422877870224469 0.48983571467378012 0 0.064096491817175555 0.48449405863899447 0 0.06010451598281559 0.48941248703324319 0 0.056725698580741259 0.49838559002428418 0 0.06010451598281559 0.48941248703324319 0 0.05352720807103041 0.48934691354558202 0 0.068422877870224469 0.48983571467378012 0 0.056725698580741259 0.49838559002428418 0 0.06010451598281559 0.48941248703324319 0 0.079200649029350242 0.49980338243369349 0 0.049727030617138901 0.5 0 0.056725698580741259 0.49838559002428418 0 0.064096491817175555 0.48449405863899447 0 0.06010451598281559 0.48941248703324319 0 0.056958543780867038 0.48426591022039911 0 0.06010451598281559 0.48941248703324319 0 0.05352720807103041 0.48934691354558202 0 0.056958543780867038 0.48426591022039911 0 0.05352720807103041 0.48934691354558202 0 0.056958543780867038 0.48426591022039911 0 0.048957605000578823 0.48268504792512801 0 0.05352720807103041 0.48934691354558202 0 0.048957605000578823 0.48268504792512801 0 0.044348449432884421 0.48993939942182979 0 0.056725698580741259 0.49838559002428418 0 0.05352720807103041 0.48934691354558202 0 0.044348449432884421 0.48993939942182979 0 0.064096491817175555 0.48449405863899447 0 0.057498493224789352 0.47394149993887719 0 0.056958543780867038 0.48426591022039911 0 0.057498493224789352 0.47394149993887719 0 0.056958543780867038 0.48426591022039911 0 0.048957605000578823 0.48268504792512801 0 0.057498493224789352 0.47394149993887719 0 0.048957605000578823 0.48268504792512801 0 0.046173344320312122 0.47445304769722829 0 0.057498493224789352 0.47394149993887719 0 0.046173344320312122 0.47445304769722829 0 0.04580452847947504 0.46468132453252442 0 0.046173344320312122 0.47445304769722829 0 0.037810575823929077 0.47231286533915579 0 0.04580452847947504 0.46468132453252442 0 0.046173344320312122 0.47445304769722829 0 0.040186927035656808 0.48178304719115722 0 0.037810575823929077 0.47231286533915579 0 0.048957605000578823 0.48268504792512801 0 0.046173344320312122 0.47445304769722829 0 0.040186927035656808 0.48178304719115722 0 0.040186927035656808 0.48178304719115722 0 0.03375530408202753 0.48770147227430238 0 0.030855411237433961 0.48051407750087938 0 0.040186927035656808 0.48178304719115722 0 0.037810575823929077 0.47231286533915579 0 0.030855411237433961 0.48051407750087938 0 0.037810575823929077 0.47231286533915579 0 0.030855411237433961 0.48051407750087938 0 0.028670160709571669 0.47085520748804238 0 0.056725698580741259 0.49838559002428418 0 0.031133951885561589 0.49700420562815312 0 0.049727030617138901 0.5 0 0.020265815475568879 0.5 0 0.031133951885561589 0.49700420562815312 0 0.056725698580741259 0.49838559002428418 0 0.044348449432884421 0.48993939942182979 0 0.031133951885561589 0.49700420562815312 0 0.049727030617138901 0.5 0 0.056725698580741259 0.49838559002428418 0 0.031133951885561589 0.49700420562815312 0 0.048957605000578823 0.48268504792512801 0 0.040186927035656808 0.48178304719115722 0 0.044348449432884421 0.48993939942182979 0 0.040186927035656808 0.48178304719115722 0 0.044348449432884421 0.48993939942182979 0 0.03375530408202753 0.48770147227430238 0 0.044348449432884421 0.48993939942182979 0 0.03375530408202753 0.48770147227430238 0 0.031133951885561589 0.49700420562815312 0 0.020265815475568879 0.5 0 0.031133951885561589 0.49700420562815312 0 0.0055422051903820033 0.49562282123202211 0 0.031133951885561589 0.49700420562815312 0 0.022170315310345499 0.48710161908857241 0 0.0055422051903820033 0.49562282123202211 0 0.031133951885561589 0.49700420562815312 0 0.0055422051903820033 0.49562282123202211 0 0.03375530408202753 0.48770147227430238 0 0.022170315310345499 0.48710161908857241 0 0.030855411237433961 0.48051407750087938 0 0.03375530408202753 0.48770147227430238 0 0.031133951885561589 0.49700420562815312 0 0.022170315310345499 0.48710161908857241 0 0.022170315310345499 0.48710161908857241 0 0.030855411237433961 0.48051407750087938 0 0.02182755244061553 0.47744571839680411 0 0.030855411237433961 0.48051407750087938 0 0.028670160709571669 0.47085520748804238 0 0.02182755244061553 0.47744571839680411 0 0.028670160709571669 0.47085520748804238 0 0.02182755244061553 0.47744571839680411 0 0.020894438527234299 0.4679868059976498 0 0.02182755244061553 0.47744571839680411 0 0.013610981178002661 0.47465289425451868 0 0.020894438527234299 0.4679868059976498 0 0.022170315310345499 0.48710161908857241 0 0.02182755244061553 0.47744571839680411 0 0.0098667342719247174 0.48323891322881363 0 0.02182755244061553 0.47744571839680411 0 0.0098667342719247174 0.48323891322881363 0 0.013610981178002661 0.47465289425451868 0 -0.00056998108065278003 0.47476596695973361 0 0.00016464839372705691 0.46418205686900887 0 0.0080675545853975301 0.46755182893969383 0 -0.00056998108065278003 0.47476596695973361 0 0.013610981178002661 0.47465289425451868 0 0.0080675545853975301 0.46755182893969383 0 -0.004868410150129664 0.48756987397218537 0 -0.00056998108065278003 0.47476596695973361 0 0.0098667342719247174 0.48323891322881363 0 -0.00056998108065278003 0.47476596695973361 0 0.0098667342719247174 0.48323891322881363 0 0.013610981178002661 0.47465289425451868 0 0.022170315310345499 0.48710161908857241 0 0.0098667342719247174 0.48323891322881363 0 0.0055422051903820033 0.49562282123202211 0 -0.0091953996660012471 0.5 0 0.020265815475568879 0.5 0 0.0055422051903820033 0.49562282123202211 0 -0.004868410150129664 0.48756987397218537 0 0.0098667342719247174 0.48323891322881363 0 0.0055422051903820033 0.49562282123202211 0 0.011077797230648201 0.44630830348692452 0 0.0048859042289793294 0.44940989014404831 0 0.0093666199823670762 0.45628196358129808 0 0.011077797230648201 0.44630830348692452 0 0.0093666199823670762 0.45628196358129808 0 0.017031837957738709 0.44978034574961362 0 0.011077797230648201 0.44630830348692452 0 0.017031837957738709 0.44978034574961362 0 0.01577445486985923 0.44098685460826598 0 0.0087291176804212712 0.44012683423918247 0 0.01577445486985923 0.44098685460826598 0 0.0073889442401581171 0.43513553098931568 0 0.011077797230648201 0.44630830348692452 0 0.0087291176804212712 0.44012683423918247 0 0.01577445486985923 0.44098685460826598 0 0.011077797230648201 0.44630830348692452 0 0.0087291176804212712 0.44012683423918247 0 0.0048859042289793294 0.44940989014404831 0 0.0087291176804212712 0.44012683423918247 0 0.0073889442401581171 0.43513553098931568 0 -0.0012695274607281511 0.43420893568606522 0 -0.0043125933860579183 0.44766374248488883 0 0.0073889442401581171 0.43513553098931568 0 -0.0043125933860579183 0.44766374248488883 0 0.0087291176804212712 0.44012683423918247 0 0.0073889442401581171 0.43513553098931568 0 -0.0043125933860579183 0.44766374248488883 0 0.0073889442401581171 0.43513553098931568 0 -0.0043125933860579183 0.44766374248488883 0 0.0087291176804212712 0.44012683423918247 0 0.0048859042289793294 0.44940989014404831 0 -0.002230269715789707 0.45601633521076501 0 0.00016464839372705691 0.46418205686900887 0 0.0093666199823670762 0.45628196358129808 0 -0.002230269715789707 0.45601633521076501 0 0.0048859042289793294 0.44940989014404831 0 0.0093666199823670762 0.45628196358129808 0 0.00016464839372705691 0.46418205686900887 0 0.0080675545853975301 0.46755182893969383 0 0.0093666199823670762 0.45628196358129808 0 0.013610981178002661 0.47465289425451868 0 0.0080675545853975301 0.46755182893969383 0 0.01445451361234033 0.46343848548205241 0 0.0080675545853975301 0.46755182893969383 0 0.01445451361234033 0.46343848548205241 0 0.0093666199823670762 0.45628196358129808 0 0.01445451361234033 0.46343848548205241 0 0.0093666199823670762 0.45628196358129808 0 0.019546964779171089 0.45799343161942763 0 0.0093666199823670762 0.45628196358129808 0 0.019546964779171089 0.45799343161942763 0 0.017031837957738709 0.44978034574961362 0 0.013610981178002661 0.47465289425451868 0 0.01445451361234033 0.46343848548205241 0 0.020894438527234299 0.4679868059976498 0 0.019546964779171089 0.45799343161942763 0 0.020894438527234299 0.4679868059976498 0 0.026707852453600609 0.46112549965709437 0 0.01445451361234033 0.46343848548205241 0 0.019546964779171089 0.45799343161942763 0 0.020894438527234299 0.4679868059976498 0 0.028670160709571669 0.47085520748804238 0 0.026707852453600609 0.46112549965709437 0 0.035173083161124892 0.46159048762510302 0 0.028670160709571669 0.47085520748804238 0 0.020894438527234299 0.4679868059976498 0 0.026707852453600609 0.46112549965709437 0 0.019546964779171089 0.45799343161942763 0 0.026707852453600609 0.46112549965709437 0 0.029254615090901069 0.44720156555524898 0 0.026707852453600609 0.46112549965709437 0 0.029254615090901069 0.44720156555524898 0 0.035173083161124892 0.46159048762510302 0 0.019546964779171089 0.45799343161942763 0 0.029254615090901069 0.44720156555524898 0 0.017031837957738709 0.44978034574961362 0 0.029254615090901069 0.44720156555524898 0 0.017031837957738709 0.44978034574961362 0 0.01577445486985923 0.44098685460826598 0 0.029254615090901069 0.44720156555524898 0 0.01577445486985923 0.44098685460826598 0 0.023025757724895481 0.43345508144583089 0 0.029254615090901069 0.44720156555524898 0 0.043376249555310088 0.45332877312057701 0 0.048799817037416288 0.43804562931190122 0 0.029254615090901069 0.44720156555524898 0 0.048799817037416288 0.43804562931190122 0 0.036072678231062208 0.42916325703607422 0 0.037810575823929077 0.47231286533915579 0 0.028670160709571669 0.47085520748804238 0 0.035173083161124892 0.46159048762510302 0 0.029254615090901069 0.44720156555524898 0 0.035173083161124892 0.46159048762510302 0 0.043376249555310088 0.45332877312057701 0 0.035173083161124892 0.46159048762510302 0 0.043376249555310088 0.45332877312057701 0 0.04580452847947504 0.46468132453252442 0 0.037810575823929077 0.47231286533915579 0 0.035173083161124892 0.46159048762510302 0 0.04580452847947504 0.46468132453252442 0 0.070530613862346131 0.46556320298305282 0 0.057498493224789352 0.47394149993887719 0 0.057849204007633173 0.45512485857810719 0 0.057498493224789352 0.47394149993887719 0 0.04580452847947504 0.46468132453252442 0 0.057849204007633173 0.45512485857810719 0 0.043376249555310088 0.45332877312057701 0 0.04580452847947504 0.46468132453252442 0 0.057849204007633173 0.45512485857810719 0 0.06772429520313103 0.44208217867330302 0 0.057849204007633173 0.45512485857810719 0 0.048799817037416288 0.43804562931190122 0 0.043376249555310088 0.45332877312057701 0 0.057849204007633173 0.45512485857810719 0 0.048799817037416288 0.43804562931190122 0 0.048799817037416288 0.43804562931190122 0 0.046554608109210548 0.41682620034058909 0 0.048799817037416288 0.43804562931190122 0 0.062151304526816199 0.42808079734946519 0 0.046554608109210548 0.41682620034058909 0 0.06772429520313103 0.44208217867330302 0 0.048799817037416288 0.43804562931190122 0 0.062151304526816199 0.42808079734946519 0 0.059776059665656731 0.40674502239450239 0 0.046554608109210548 0.41682620034058909 0 0.044309399181004752 0.39560677136927691 0 0.059776059665656731 0.40674502239450239 0 0.059338754594765002 0.41678480391158401 0 0.046554608109210548 0.41682620034058909 0 0.062151304526816199 0.42808079734946519 0 0.059338754594765002 0.41678480391158401 0 0.046554608109210548 0.41682620034058909 0 0.046554608109210548 0.41682620034058909 0 0.025849171710582229 0.41537115117929713 0 0.044309399181004752 0.39560677136927691 0 0.046554608109210548 0.41682620034058909 0 0.036072678231062208 0.42916325703607422 0 0.025849171710582229 0.41537115117929713 0 0.048799817037416288 0.43804562931190122 0 0.046554608109210548 0.41682620034058909 0 0.036072678231062208 0.42916325703607422 0 0.025849171710582229 0.41537115117929713 0 0.0073889442401581171 0.43513553098931568 0 0.029254615090901069 0.44720156555524898 0 0.036072678231062208 0.42916325703607422 0 0.023025757724895481 0.43345508144583089 0 0.023025757724895481 0.43345508144583089 0 0.025849171710582229 0.41537115117929713 0 0.0073889442401581171 0.43513553098931568 0 0.036072678231062208 0.42916325703607422 0 0.023025757724895481 0.43345508144583089 0 0.025849171710582229 0.41537115117929713 0 -0.0015258039434690831 0.40193370035769449 0 0.00293157014834568 0.41853461567350481 0 -0.0015258039434690831 0.40193370035769449 0 0.01272876417697287 0.40682933131116839 0 0.00293157014834568 0.41853461567350481 0 0.025849171710582229 0.41537115117929713 0 0.01272876417697287 0.40682933131116839 0 0.00293157014834568 0.41853461567350481 0 -0.0022754738389305991 0.41895959912876468 0 0.00293157014834568 0.41853461567350481 0 0.0013592154495942919 0.42753915636897422 0 0.00293157014834568 0.41853461567350481 0 0.0073889442401581171 0.43513553098931568 0 0.00293157014834568 0.41853461567350481 0 0.0013592154495942919 0.42753915636897422 0 0.0073889442401581171 0.43513553098931568 0 0.01577445486985923 0.44098685460826598 0 0.023025757724895481 0.43345508144583089 0 0.0073889442401581171 0.43513553098931568 0 0.025849171710582229 0.41537115117929713 0 0.00293157014834568 0.41853461567350481 0 0.0073889442401581171 0.43513553098931568 0 -0.0012695274607281511 0.43420893568606522 0 0.0013592154495942919 0.42753915636897422 0 0.0073889442401581171 0.43513553098931568 0 -0.0015258039434690831 0.40193370035769449 0 0.01272876417697287 0.40682933131116839 0 0.020498520531169899 0.39032789026532599 0 -0.0015258039434690831 0.40193370035769449 0 0.020498520531169899 0.39032789026532599 0 -0.0015258039434690831 0.40193370035769449 0 0.0075283452960494364 0.38165158931583287 0 0.020498520531169899 0.39032789026532599 0 0.025849171710582229 0.41537115117929713 0 0.01272876417697287 0.40682933131116839 0 0.020498520531169899 0.39032789026532599 0 0.025849171710582229 0.41537115117929713 0 0.020498520531169899 0.39032789026532599 0 0.044309399181004752 0.39560677136927691 0 0.0075283452960494364 0.38165158931583287 0 0.020498520531169899 0.39032789026532599 0 0.02353520169299585 0.37362814472054379 0 0.020498520531169899 0.39032789026532599 0 0.042522845005809037 0.37872208017295772 0 0.02353520169299585 0.37362814472054379 0 0.020498520531169899 0.39032789026532599 0 0.042522845005809037 0.37872208017295772 0 0.044309399181004752 0.39560677136927691 0 0.042522845005809037 0.37872208017295772 0 0.044309399181004752 0.39560677136927691 0 0.020498520531169899 0.39032789026532599 0 0.042522845005809037 0.37872208017295772 0 0.042522845005809037 0.37872208017295772 0 0.044309399181004752 0.39560677136927691 0 0.051839614348198802 0.38025980930703013 0 0.025849171710582229 0.41537115117929713 0 0.044309399181004752 0.39560677136927691 0 0.046554608109210548 0.41682620034058909 0 0.044309399181004752 0.39560677136927691 0 0.059776059665656731 0.40674502239450239 0 0.044309399181004752 0.39560677136927691 0 0.060692018588842989 0.39599944870225418 0 0.044309399181004752 0.39560677136927691 0 0.060692018588842989 0.39599944870225418 0 0.063776238410546054 0.38660302214779418 0 0.044309399181004752 0.39560677136927691 0 0.062450700161850503 0.37618384912155189 0 0.044309399181004752 0.39560677136927691 0 0.051839614348198802 0.38025980930703013 0 0.062450700161850503 0.37618384912155189 0 0.044309399181004752 0.39560677136927691 0 0.062450700161850503 0.37618384912155189 0 0.063776238410546054 0.38660302214779418 0 0.042522845005809037 0.37872208017295772 0 0.051839614348198802 0.38025980930703013 0 0.058075513044131097 0.37052653656433382 0 0.051839614348198802 0.38025980930703013 0 0.062450700161850503 0.37618384912155189 0 0.058075513044131097 0.37052653656433382 0 0.067287092461653333 0.37904149457876463 0 0.063776238410546054 0.38660302214779418 0 0.072161400797743178 0.38105793652148168 0 0.062450700161850503 0.37618384912155189 0 0.067287092461653333 0.37904149457876463 0 0.072198494027249482 0.37380671869315413 0 0.062450700161850503 0.37618384912155189 0 0.067287092461653333 0.37904149457876463 0 0.063776238410546054 0.38660302214779418 0 0.063776238410546054 0.38660302214779418 0 0.071901741195008168 0.38739861614482091 0 0.072161400797743178 0.38105793652148168 0 0.063776238410546054 0.38660302214779418 0 0.071901741195008168 0.38739861614482091 0 0.069463407887191714 0.39214592385066471 0 0.071901741195008168 0.38739861614482091 0 0.0755621302242519 0.39201682209458011 0 0.069463407887191714 0.39214592385066471 0 0.071901741195008168 0.38739861614482091 0 0.077825643554641777 0.38672279390977482 0 0.072161400797743178 0.38105793652148168 0 0.071901741195008168 0.38739861614482091 0 0.077825643554641777 0.38672279390977482 0 0.0755621302242519 0.39201682209458011 0 0.077825643554641777 0.38672279390977482 0 0.072161400797743178 0.38105793652148168 0 0.078510616705444347 0.37816864488247398 0 0.067287092461653333 0.37904149457876463 0 0.072161400797743178 0.38105793652148168 0 0.072198494027249482 0.37380671869315413 0 0.072161400797743178 0.38105793652148168 0 0.078510616705444347 0.37816864488247398 0 0.072198494027249482 0.37380671869315413 0 0.078510616705444347 0.37816864488247398 0 0.085042866206672563 0.38324630826622891 0 0.085928288961728452 0.3737483007788362 0 0.077825643554641777 0.38672279390977482 0 0.078510616705444347 0.37816864488247398 0 0.085042866206672563 0.38324630826622891 0 0.077825643554641777 0.38672279390977482 0 0.083098249508078564 0.38866747558607623 0 0.085042866206672563 0.38324630826622891 0 0.077825643554641777 0.38672279390977482 0 0.083098249508078564 0.38866747558607623 0 0.081347089647310994 0.39426359033038871 0 0.083098249508078564 0.38866747558607623 0 0.085042866206672563 0.38324630826622891 0 0.088177398623688952 0.39043720983791258 0 0.085042866206672563 0.38324630826622891 0 0.088177398623688952 0.39043720983791258 0 0.091961366483198859 0.38511466468823341 0 0.088177398623688952 0.39043720983791258 0 0.091961366483198859 0.38511466468823341 0 0.093163232144819058 0.39217899767117248 0 0.091614388727837989 0.37859335300503172 0 0.093988035157245742 0.37336089834647151 0 0.085928288961728452 0.3737483007788362 0 0.085042866206672563 0.38324630826622891 0 0.091614388727837989 0.37859335300503172 0 0.085928288961728452 0.3737483007788362 0 0.085042866206672563 0.38324630826622891 0 0.091961366483198859 0.38511466468823341 0 0.091614388727837989 0.37859335300503172 0 0.090282319238747327 0.40191263429965152 0 0.088053698241654391 0.39613237643080118 0 0.084962355642285742 0.40125572261711823 0 0.090282319238747327 0.40191263429965152 0 0.084962355642285742 0.40125572261711823 0 0.089779071214557193 0.40744557907222029 0 0.090282319238747327 0.40191263429965152 0 0.089779071214557193 0.40744557907222029 0 0.095873434265167576 0.40345952162490772 0 0.090282319238747327 0.40191263429965152 0 0.092961693427375994 0.39769616808479702 0 0.088053698241654391 0.39613237643080118 0 0.090282319238747327 0.40191263429965152 0 0.092961693427375994 0.39769616808479702 0 0.095873434265167576 0.40345952162490772 0 0.092961693427375994 0.39769616808479702 0 0.093163232144819058 0.39217899767117248 0 0.088053698241654391 0.39613237643080118 0 0.088177398623688952 0.39043720983791258 0 0.093163232144819058 0.39217899767117248 0 0.088053698241654391 0.39613237643080118 0 0.088053698241654391 0.39613237643080118 0 0.081347089647310994 0.39426359033038871 0 0.084962355642285742 0.40125572261711823 0 0.083098249508078564 0.38866747558607623 0 0.088177398623688952 0.39043720983791258 0 0.081347089647310994 0.39426359033038871 0 0.088177398623688952 0.39043720983791258 0 0.088053698241654391 0.39613237643080118 0 0.081347089647310994 0.39426359033038871 0 0.077825643554641777 0.38672279390977482 0 0.081347089647310994 0.39426359033038871 0 0.0755621302242519 0.39201682209458011 0 0.081347089647310994 0.39426359033038871 0 0.079877669833030254 0.40036917963206492 0 0.074292059518741571 0.39920508055259551 0 0.084962355642285742 0.40125572261711823 0 0.079339507102095377 0.40621924866773762 0 0.084128475355517637 0.41049986621277212 0 0.081347089647310994 0.39426359033038871 0 0.079877669833030254 0.40036917963206492 0 0.084962355642285742 0.40125572261711823 0 0.079877669833030254 0.40036917963206492 0 0.084962355642285742 0.40125572261711823 0 0.079339507102095377 0.40621924866773762 0 0.079339507102095377 0.40621924866773762 0 0.074292059518741571 0.39920508055259551 0 0.071003470476364738 0.40658862694881098 0 0.079877669833030254 0.40036917963206492 0 0.079339507102095377 0.40621924866773762 0 0.074292059518741571 0.39920508055259551 0 0.074292059518741571 0.39920508055259551 0 0.067045403227359551 0.40013682048976562 0 0.071003470476364738 0.40658862694881098 0 0.081347089647310994 0.39426359033038871 0 0.074292059518741571 0.39920508055259551 0 0.0755621302242519 0.39201682209458011 0 0.074292059518741571 0.39920508055259551 0 0.0755621302242519 0.39201682209458011 0 0.069463407887191714 0.39214592385066471 0 0.060692018588842989 0.39599944870225418 0 0.069463407887191714 0.39214592385066471 0 0.067045403227359551 0.40013682048976562 0 0.060692018588842989 0.39599944870225418 0 0.063776238410546054 0.38660302214779418 0 0.069463407887191714 0.39214592385066471 0 0.074292059518741571 0.39920508055259551 0 0.069463407887191714 0.39214592385066471 0 0.067045403227359551 0.40013682048976562 0 0.059776059665656731 0.40674502239450239 0 0.067045403227359551 0.40013682048976562 0 0.071003470476364738 0.40658862694881098 0 0.059776059665656731 0.40674502239450239 0 0.060692018588842989 0.39599944870225418 0 0.067045403227359551 0.40013682048976562 0 0.059776059665656731 0.40674502239450239 0 0.068873046077376571 0.41548719556177949 0 0.071003470476364738 0.40658862694881098 0 0.059776059665656731 0.40674502239450239 0 0.059338754594765002 0.41678480391158401 0 0.068873046077376571 0.41548719556177949 0 0.062151304526816199 0.42808079734946519 0 0.068873046077376571 0.41548719556177949 0 0.075294135126374478 0.42133205033833698 0 0.062151304526816199 0.42808079734946519 0 0.059338754594765002 0.41678480391158401 0 0.068873046077376571 0.41548719556177949 0 0.068873046077376571 0.41548719556177949 0 0.075294135126374478 0.42133205033833698 0 0.077297920235404174 0.41271147306734579 0 0.079339507102095377 0.40621924866773762 0 0.077297920235404174 0.41271147306734579 0 0.071003470476364738 0.40658862694881098 0 0.068873046077376571 0.41548719556177949 0 0.077297920235404174 0.41271147306734579 0 0.071003470476364738 0.40658862694881098 0 0.06772429520313103 0.44208217867330302 0 0.062151304526816199 0.42808079734946519 0 0.076548976619749853 0.43084815822997002 0 0.062151304526816199 0.42808079734946519 0 0.075294135126374478 0.42133205033833698 0 0.076548976619749853 0.43084815822997002 0 0.082674190114861767 0.44171109356619948 0 0.076548976619749853 0.43084815822997002 0 0.084528829458390686 0.43128968827045899 0 0.075294135126374478 0.42133205033833698 0 0.076548976619749853 0.43084815822997002 0 0.083263707117607749 0.42407195869550268 0 0.076548976619749853 0.43084815822997002 0 0.084528829458390686 0.43128968827045899 0 0.083263707117607749 0.42407195869550268 0 0.084528829458390686 0.43128968827045899 0 0.083263707117607749 0.42407195869550268 0 0.089623471072728958 0.42646151850846198 0 0.089623471072728958 0.42646151850846198 0 0.091068973200555417 0.42026376808051291 0 0.1000498018024437 0.42580470649849539 0 0.083263707117607749 0.42407195869550268 0 0.089623471072728958 0.42646151850846198 0 0.091068973200555417 0.42026376808051291 0 0.082674190114861767 0.44171109356619948 0 0.084528829458390686 0.43128968827045899 0 0.091479251218205881 0.43408889317397459 0 0.084528829458390686 0.43128968827045899 0 0.089623471072728958 0.42646151850846198 0 0.091479251218205881 0.43408889317397459 0 0.089623471072728958 0.42646151850846198 0 0.091479251218205881 0.43408889317397459 0 0.094823984982218543 0.4303623608338295 0 0.079339507102095377 0.40621924866773762 0 0.077297920235404174 0.41271147306734579 0 0.084128475355517637 0.41049986621277212 0 0.077297920235404174 0.41271147306734579 0 0.084128475355517637 0.41049986621277212 0 0.08369740420832586 0.41702407584296819 0 0.075294135126374478 0.42133205033833698 0 0.083263707117607749 0.42407195869550268 0 0.08369740420832586 0.41702407584296819 0 0.075294135126374478 0.42133205033833698 0 0.077297920235404174 0.41271147306734579 0 0.08369740420832586 0.41702407584296819 0 0.08369740420832586 0.41702407584296819 0 0.091068973200555417 0.42026376808051291 0 0.090721372797857316 0.41368114093695391 0 0.083263707117607749 0.42407195869550268 0 0.08369740420832586 0.41702407584296819 0 0.091068973200555417 0.42026376808051291 0 0.091068973200555417 0.42026376808051291 0 0.090721372797857316 0.41368114093695391 0 0.097301291656883893 0.41709482374236828 0 0.084962355642285742 0.40125572261711823 0 0.084128475355517637 0.41049986621277212 0 0.089779071214557193 0.40744557907222029 0 0.090721372797857316 0.41368114093695391 0 0.089779071214557193 0.40744557907222029 0 0.098064020896281523 0.40982694706785061 0 0.084128475355517637 0.41049986621277212 0 0.090721372797857316 0.41368114093695391 0 0.089779071214557193 0.40744557907222029 0 0.084128475355517637 0.41049986621277212 0 0.08369740420832586 0.41702407584296819 0 0.090721372797857316 0.41368114093695391 0 0.098064020896281523 0.40982694706785061 0 0.097301291656883893 0.41709482374236828 0 0.1067610578026295 0.41358822798818279 0 0.1067610578026295 0.41358822798818279 0 0.1000498018024437 0.42580470649849539 0 0.1194700949355865 0.4210618048929417 0 0.089779071214557193 0.40744557907222029 0 0.098064020896281523 0.40982694706785061 0 0.095873434265167576 0.40345952162490772 0 0.090721372797857316 0.41368114093695391 0 0.098064020896281523 0.40982694706785061 0 0.097301291656883893 0.41709482374236828 0 0.091068973200555417 0.42026376808051291 0 0.097301291656883893 0.41709482374236828 0 0.1000498018024437 0.42580470649849539 0 0.097301291656883893 0.41709482374236828 0 0.1067610578026295 0.41358822798818279 0 0.1000498018024437 0.42580470649849539 0 0.098064020896281523 0.40982694706785061 0 0.1067610578026295 0.41358822798818279 0 0.10302055889256249 0.40485541722502572 0 0.1067610578026295 0.41358822798818279 0 0.10302055889256249 0.40485541722502572 0 0.1085193894561451 0.40570112299548461 0 0.10160716966506381 0.44071936121256211 0 0.1000498018024437 0.42580470649849539 0 0.1194700949355865 0.4210618048929417 0 0.10160716966506381 0.44071936121256211 0 0.091479251218205881 0.43408889317397459 0 0.098143415835495615 0.43509432515438617 0 0.10160716966506381 0.44071936121256211 0 0.098143415835495615 0.43509432515438617 0 0.1000498018024437 0.42580470649849539 0 0.098143415835495615 0.43509432515438617 0 0.094823984982218543 0.4303623608338295 0 0.1000498018024437 0.42580470649849539 0 0.091479251218205881 0.43408889317397459 0 0.098143415835495615 0.43509432515438617 0 0.094823984982218543 0.4303623608338295 0 0.089623471072728958 0.42646151850846198 0 0.094823984982218543 0.4303623608338295 0 0.1000498018024437 0.42580470649849539 0 0.1226530656482125 0.44308759750645899 0 0.10160716966506381 0.44071936121256211 0 0.1194700949355865 0.4210618048929417 0 0.10160716966506381 0.44071936121256211 0 0.1194700949355865 0.4210618048929417 0 0.1194700949355865 0.4210618048929417 0 0.1155497812843712 0.40499914186118657 0 0.1251947550425104 0.40439573951467739 0 0.1067610578026295 0.41358822798818279 0 0.1194700949355865 0.4210618048929417 0 0.1155497812843712 0.40499914186118657 0 0.1067610578026295 0.41358822798818279 0 0.1155497812843712 0.40499914186118657 0 0.1085193894561451 0.40570112299548461 0 0.1155497812843712 0.40499914186118657 0 0.122036774282776 0.39822043035423382 0 0.1251947550425104 0.40439573951467739 0 0.1155497812843712 0.40499914186118657 0 0.11610378482444179 0.39412346996140252 0 0.122036774282776 0.39822043035423382 0 0.1155497812843712 0.40499914186118657 0 0.11610378482444179 0.39412346996140252 0 0.1087461598450174 0.39936170490754319 0 0.1155497812843712 0.40499914186118657 0 0.1085193894561451 0.40570112299548461 0 0.1087461598450174 0.39936170490754319 0 0.11610378482444179 0.39412346996140252 0 0.11375067629314541 0.38688685370398818 0 0.1075603428337702 0.39169969160667051 0 0.11610378482444179 0.39412346996140252 0 0.1087461598450174 0.39936170490754319 0 0.1075603428337702 0.39169969160667051 0 0.11610378482444179 0.39412346996140252 0 0.1238054918579997 0.39208600405537319 0 0.1206795994765712 0.38675533732833728 0 0.11610378482444179 0.39412346996140252 0 0.122036774282776 0.39822043035423382 0 0.1238054918579997 0.39208600405537319 0 0.1238054918579997 0.39208600405537319 0 0.1206795994765712 0.38675533732833728 0 0.12788083109945839 0.38860499240783991 0 0.1206795994765712 0.38675533732833728 0 0.1248009215614351 0.38126099366717242 0 0.12788083109945839 0.38860499240783991 0 0.1248009215614351 0.38126099366717242 0 0.1159841220893128 0.3789005706549779 0 0.1228562141210252 0.37132582093148131 0 0.1206795994765712 0.38675533732833728 0 0.1248009215614351 0.38126099366717242 0 0.1159841220893128 0.3789005706549779 0 0.1159841220893128 0.3789005706549779 0 0.1078296744761738 0.38329985712023329 0 0.10747452083672961 0.37579109917207609 0 0.11375067629314541 0.38688685370398818 0 0.1078296744761738 0.38329985712023329 0 0.1075603428337702 0.39169969160667051 0 0.1159841220893128 0.3789005706549779 0 0.11375067629314541 0.38688685370398818 0 0.1078296744761738 0.38329985712023329 0 0.1206795994765712 0.38675533732833728 0 0.1159841220893128 0.3789005706549779 0 0.11375067629314541 0.38688685370398818 0 0.11610378482444179 0.39412346996140252 0 0.1206795994765712 0.38675533732833728 0 0.11375067629314541 0.38688685370398818 0 0.103261688095483 0.38762897924253831 0 0.1078296744761738 0.38329985712023329 0 0.1075603428337702 0.39169969160667051 0 0.103261688095483 0.38762897924253831 0 0.1078296744761738 0.38329985712023329 0 0.099362575009813214 0.37959851779976828 0 0.1078296744761738 0.38329985712023329 0 0.10747452083672961 0.37579109917207609 0 0.099362575009813214 0.37959851779976828 0 0.091961366483198859 0.38511466468823341 0 0.091614388727837989 0.37859335300503172 0 0.099362575009813214 0.37959851779976828 0 0.091614388727837989 0.37859335300503172 0 0.099362575009813214 0.37959851779976828 0 0.093988035157245742 0.37336089834647151 0 0.103261688095483 0.38762897924253831 0 0.097487119725900739 0.38859517481362588 0 0.099967316698447939 0.39560048560951988 0 0.091961366483198859 0.38511466468823341 0 0.099362575009813214 0.37959851779976828 0 0.097487119725900739 0.38859517481362588 0 0.103261688095483 0.38762897924253831 0 0.099362575009813214 0.37959851779976828 0 0.097487119725900739 0.38859517481362588 0 0.091961366483198859 0.38511466468823341 0 0.093163232144819058 0.39217899767117248 0 0.097487119725900739 0.38859517481362588 0 0.093163232144819058 0.39217899767117248 0 0.097487119725900739 0.38859517481362588 0 0.099967316698447939 0.39560048560951988 0 0.092961693427375994 0.39769616808479702 0 0.093163232144819058 0.39217899767117248 0 0.099967316698447939 0.39560048560951988 0 0.099967316698447939 0.39560048560951988 0 0.095873434265167576 0.40345952162490772 0 0.10302055889256249 0.40485541722502572 0 0.092961693427375994 0.39769616808479702 0 0.099967316698447939 0.39560048560951988 0 0.095873434265167576 0.40345952162490772 0 0.098064020896281523 0.40982694706785061 0 0.095873434265167576 0.40345952162490772 0 0.10302055889256249 0.40485541722502572 0 0.099967316698447939 0.39560048560951988 0 0.10302055889256249 0.40485541722502572 0 0.1087461598450174 0.39936170490754319 0 0.10302055889256249 0.40485541722502572 0 0.1085193894561451 0.40570112299548461 0 0.1087461598450174 0.39936170490754319 0 0.099967316698447939 0.39560048560951988 0 0.1087461598450174 0.39936170490754319 0 0.1075603428337702 0.39169969160667051 0 0.103261688095483 0.38762897924253831 0 0.099967316698447939 0.39560048560951988 0 0.1075603428337702 0.39169969160667051 0 0.1070314257879712 0.36115535327770337 0 0.10505301399626719 0.34363514048202282 0 0.096563986772785507 0.35476043998674173 0 0.10505301399626719 0.34363514048202282 0 0.087248136190972408 0.34779896317862757 0 0.096563986772785507 0.35476043998674173 0 0.1070314257879712 0.36115535327770337 0 0.10505301399626719 0.34363514048202282 0 0.096563986772785507 0.35476043998674173 0 0.096690917100078641 0.36231159242797178 0 0.088604352889948987 0.3592956006147226 0 0.096690917100078641 0.36231159242797178 0 0.1007356681384701 0.36895508763759249 0 0.1070314257879712 0.36115535327770337 0 0.096690917100078641 0.36231159242797178 0 0.1007356681384701 0.36895508763759249 0 0.090519151911217358 0.36739148062309868 0 0.096563986772785507 0.35476043998674173 0 0.096690917100078641 0.36231159242797178 0 0.1070314257879712 0.36115535327770337 0 0.1007356681384701 0.36895508763759249 0 0.093988035157245742 0.37336089834647151 0 0.090519151911217358 0.36739148062309868 0 0.099362575009813214 0.37959851779976828 0 0.1007356681384701 0.36895508763759249 0 0.093988035157245742 0.37336089834647151 0 0.10747452083672961 0.37579109917207609 0 0.099362575009813214 0.37959851779976828 0 0.1007356681384701 0.36895508763759249 0 0.10747452083672961 0.37579109917207609 0 0.1007356681384701 0.36895508763759249 0 0.1131792697929641 0.36857306582399502 0 0.1007356681384701 0.36895508763759249 0 0.1070314257879712 0.36115535327770337 0 0.1131792697929641 0.36857306582399502 0 0.1070314257879712 0.36115535327770337 0 0.1131792697929641 0.36857306582399502 0 0.1201977060607657 0.36164614878284479 0 0.1159841220893128 0.3789005706549779 0 0.10747452083672961 0.37579109917207609 0 0.1131792697929641 0.36857306582399502 0 0.1159841220893128 0.3789005706549779 0 0.1131792697929641 0.36857306582399502 0 0.1228562141210252 0.37132582093148131 0 0.1131792697929641 0.36857306582399502 0 0.1228562141210252 0.37132582093148131 0 0.1201977060607657 0.36164614878284479 0 0.1201977060607657 0.36164614878284479 0 0.11904464068305751 0.34247939576895581 0 0.1318037841364455 0.35049240264412712 0 0.1201977060607657 0.36164614878284479 0 0.10505301399626719 0.34363514048202282 0 0.1070314257879712 0.36115535327770337 0 0.1201977060607657 0.36164614878284479 0 0.10505301399626719 0.34363514048202282 0 0.1201977060607657 0.36164614878284479 0 0.11904464068305751 0.34247939576895581 0 0.10505301399626719 0.34363514048202282 0 0.11904464068305751 0.34247939576895581 0 0.111169422108031 0.32897458672790703 0 0.12699927711377751 0.32764870020787812 0 0.11904464068305751 0.34247939576895581 0 0.111169422108031 0.32897458672790703 0 0.10505301399626719 0.34363514048202282 0 0.1019377336549251 0.31604716576037573 0 0.12272199582340169 0.30731176645537173 0 0.12699927711377751 0.32764870020787812 0 0.111169422108031 0.32897458672790703 0 0.1019377336549251 0.31604716576037573 0 0.12699927711377751 0.32764870020787812 0 0.12272199582340169 0.30731176645537173 0 0.12699927711377751 0.32764870020787812 0 0.1019377336549251 0.31604716576037573 0 0.12699927711377751 0.32764870020787812 0 0.1019377336549251 0.31604716576037573 0 0.093413935085940425 0.3297932250455779 0 0.091840594142204232 0.31930181930877521 0 0.1019377336549251 0.31604716576037573 0 0.10505301399626719 0.34363514048202282 0 0.093413935085940425 0.3297932250455779 0 0.1019377336549251 0.31604716576037573 0 0.10505301399626719 0.34363514048202282 0 0.10505301399626719 0.34363514048202282 0 0.093413935085940425 0.3297932250455779 0 0.087248136190972408 0.34779896317862757 0 0.111169422108031 0.32897458672790703 0 0.1019377336549251 0.31604716576037573 0 0.10505301399626719 0.34363514048202282 0 0.10505301399626719 0.34363514048202282 0 0.093413935085940425 0.3297932250455779 0 0.093413935085940425 0.3297932250455779 0 0.078093667277052858 0.32651861942907051 0 0.076801923089993104 0.33974896164158658 0 0.093413935085940425 0.3297932250455779 0 0.076801923089993104 0.33974896164158658 0 0.087248136190972408 0.34779896317862757 0 0.1019377336549251 0.31604716576037573 0 0.091840594142204232 0.31930181930877521 0 0.085358563611757018 0.30837230676046762 0 0.091840594142204232 0.31930181930877521 0 0.081774856175614224 0.31595130960913248 0 0.085358563611757018 0.30837230676046762 0 0.093413935085940425 0.3297932250455779 0 0.081774856175614224 0.31595130960913248 0 0.093413935085940425 0.3297932250455779 0 0.091840594142204232 0.31930181930877521 0 0.081774856175614224 0.31595130960913248 0 0.093413935085940425 0.3297932250455779 0 0.081774856175614224 0.31595130960913248 0 0.078093667277052858 0.32651861942907051 0 0.081774856175614224 0.31595130960913248 0 0.074779223938614858 0.31675449251595339 0 0.078093667277052858 0.32651861942907051 0 0.081774856175614224 0.31595130960913248 0 0.074779223938614858 0.31675449251595339 0 0.078157698810994575 0.31031282368079488 0 0.074779223938614858 0.31675449251595339 0 0.067583113670808562 0.32297255061226532 0 0.068733935009112027 0.31501589369963501 0 0.074779223938614858 0.31675449251595339 0 0.068733935009112027 0.31501589369963501 0 0.072815129511188376 0.309747125514023 0 0.078093667277052858 0.32651861942907051 0 0.067583113670808562 0.32297255061226532 0 0.070983533745935329 0.33106107361140152 0 0.074779223938614858 0.31675449251595339 0 0.078093667277052858 0.32651861942907051 0 0.067583113670808562 0.32297255061226532 0 0.067583113670808562 0.32297255061226532 0 0.068733935009112027 0.31501589369963501 0 0.061053530019529879 0.31528693756382559 0 0.068733935009112027 0.31501589369963501 0 0.061053530019529879 0.31528693756382559 0 0.066708625189063606 0.31111637419607008 0 0.076801923089993104 0.33974896164158658 0 0.070983533745935329 0.33106107361140152 0 0.063292770552126135 0.33583756265574971 0 0.078093667277052858 0.32651861942907051 0 0.076801923089993104 0.33974896164158658 0 0.070983533745935329 0.33106107361140152 0 0.067583113670808562 0.32297255061226532 0 0.070983533745935329 0.33106107361140152 0 0.063292770552126135 0.33583756265574971 0 0.076801923089993104 0.33974896164158658 0 0.063292770552126135 0.33583756265574971 0 0.063421470585559289 0.34501080574176468 0 0.076801923089993104 0.33974896164158658 0 0.063421470585559289 0.34501080574176468 0 0.070320717373048111 0.35105773439845123 0 0.063421470585559289 0.34501080574176468 0 0.070320717373048111 0.35105773439845123 0 0.056408336690397728 0.35253022819375718 0 0.070320717373048111 0.35105773439845123 0 0.073628181082452948 0.36233099295570942 0 0.062336014267468542 0.35959299855628579 0 0.070320717373048111 0.35105773439845123 0 0.062336014267468542 0.35959299855628579 0 0.056408336690397728 0.35253022819375718 0 0.070320717373048111 0.35105773439845123 0 0.080592001142696351 0.35676092687382699 0 0.073628181082452948 0.36233099295570942 0 0.070320717373048111 0.35105773439845123 0 0.0785546102867892 0.34893469067558219 0 0.080592001142696351 0.35676092687382699 0 0.076801923089993104 0.33974896164158658 0 0.070320717373048111 0.35105773439845123 0 0.0785546102867892 0.34893469067558219 0 0.0785546102867892 0.34893469067558219 0 0.080592001142696351 0.35676092687382699 0 0.087248136190972408 0.34779896317862757 0 0.076801923089993104 0.33974896164158658 0 0.0785546102867892 0.34893469067558219 0 0.087248136190972408 0.34779896317862757 0 0.080592001142696351 0.35676092687382699 0 0.088604352889948987 0.3592956006147226 0 0.087248136190972408 0.34779896317862757 0 0.096563986772785507 0.35476043998674173 0 0.088604352889948987 0.3592956006147226 0 0.087248136190972408 0.34779896317862757 0 0.093988035157245742 0.37336089834647151 0 0.085928288961728452 0.3737483007788362 0 0.090519151911217358 0.36739148062309868 0 0.085928288961728452 0.3737483007788362 0 0.090519151911217358 0.36739148062309868 0 0.084674586223976944 0.36554515589862951 0 0.096690917100078641 0.36231159242797178 0 0.088604352889948987 0.3592956006147226 0 0.090519151911217358 0.36739148062309868 0 0.088604352889948987 0.3592956006147226 0 0.090519151911217358 0.36739148062309868 0 0.084674586223976944 0.36554515589862951 0 0.080592001142696351 0.35676092687382699 0 0.084674586223976944 0.36554515589862951 0 0.077907006684630672 0.37042981112536871 0 0.080592001142696351 0.35676092687382699 0 0.088604352889948987 0.3592956006147226 0 0.084674586223976944 0.36554515589862951 0 0.085928288961728452 0.3737483007788362 0 0.084674586223976944 0.36554515589862951 0 0.077907006684630672 0.37042981112536871 0 0.078510616705444347 0.37816864488247398 0 0.085928288961728452 0.3737483007788362 0 0.077907006684630672 0.37042981112536871 0 0.062450700161850503 0.37618384912155189 0 0.080592001142696351 0.35676092687382699 0 0.062450700161850503 0.37618384912155189 0 0.080592001142696351 0.35676092687382699 0 0.072198494027249482 0.37380671869315413 0 0.078510616705444347 0.37816864488247398 0 0.077907006684630672 0.37042981112536871 0 0.072198494027249482 0.37380671869315413 0 0.062450700161850503 0.37618384912155189 0 0.080592001142696351 0.35676092687382699 0 0.073628181082452948 0.36233099295570942 0 0.080592001142696351 0.35676092687382699 0 0.077907006684630672 0.37042981112536871 0 0.072198494027249482 0.37380671869315413 0 0.073628181082452948 0.36233099295570942 0 0.058075513044131097 0.37052653656433382 0 0.073628181082452948 0.36233099295570942 0 0.058075513044131097 0.37052653656433382 0 0.062336014267468542 0.35959299855628579 0 0.062450700161850503 0.37618384912155189 0 0.073628181082452948 0.36233099295570942 0 0.058075513044131097 0.37052653656433382 0 0.058075513044131097 0.37052653656433382 0 0.062336014267468542 0.35959299855628579 0 0.051867546232730211 0.36324070312521789 0 0.042522845005809037 0.37872208017295772 0 0.058075513044131097 0.37052653656433382 0 0.042522845005809037 0.37872208017295772 0 0.058075513044131097 0.37052653656433382 0 0.051867546232730211 0.36324070312521789 0 0.051867546232730211 0.36324070312521789 0 0.056408336690397728 0.35253022819375718 0 0.039995022155844849 0.35483167213875499 0 0.056408336690397728 0.35253022819375718 0 0.039995022155844849 0.35483167213875499 0 0.048499290153689513 0.33872725620801891 0 0.063421470585559289 0.34501080574176468 0 0.056408336690397728 0.35253022819375718 0 0.048499290153689513 0.33872725620801891 0 0.062336014267468542 0.35959299855628579 0 0.051867546232730211 0.36324070312521789 0 0.056408336690397728 0.35253022819375718 0 0.042522845005809037 0.37872208017295772 0 0.039995022155844849 0.35483167213875499 0 0.02353520169299585 0.37362814472054379 0 0.042522845005809037 0.37872208017295772 0 0.039995022155844849 0.35483167213875499 0 0.042522845005809037 0.37872208017295772 0 0.051867546232730211 0.36324070312521789 0 0.039995022155844849 0.35483167213875499 0 0.039995022155844849 0.35483167213875499 0 0.02353520169299585 0.37362814472054379 0 0.01045091256259899 0.3581436725760091 0 0.039995022155844849 0.35483167213875499 0 0.01045091256259899 0.3581436725760091 0 0.0222675929958513 0.33086382879242959 0 -0.0086778301900626732 0.37529690039191538 0 0.0075283452960494364 0.38165158931583287 0 0.01045091256259899 0.3581436725760091 0 0.0075283452960494364 0.38165158931583287 0 0.02353520169299585 0.37362814472054379 0 0.01045091256259899 0.3581436725760091 0 -0.0037405759101894749 0.32486350281032239 0 0.0222675929958513 0.33086382879242959 0 0.021299430358089871 0.31112558414410402 0 -0.0037405759101894749 0.32486350281032239 0 0.0032870183029002601 0.34063277615122461 0 0.0222675929958513 0.33086382879242959 0 0.01045091256259899 0.3581436725760091 0 0.0032870183029002601 0.34063277615122461 0 0.0222675929958513 0.33086382879242959 0 0.0222675929958513 0.33086382879242959 0 0.041991979194174259 0.31807108926500849 0 0.021299430358089871 0.31112558414410402 0 0.0222675929958513 0.33086382879242959 0 0.041991979194174259 0.31807108926500849 0 0.0222675929958513 0.33086382879242959 0 0.041991979194174259 0.31807108926500849 0 0.048499290153689513 0.33872725620801891 0 0.039995022155844849 0.35483167213875499 0 0.0222675929958513 0.33086382879242959 0 0.048499290153689513 0.33872725620801891 0 0.063292770552126135 0.33583756265574971 0 0.048499290153689513 0.33872725620801891 0 0.055436910131931402 0.31953494799922982 0 0.063292770552126135 0.33583756265574971 0 0.063421470585559289 0.34501080574176468 0 0.048499290153689513 0.33872725620801891 0 0.041991979194174259 0.31807108926500849 0 0.048499290153689513 0.33872725620801891 0 0.055436910131931402 0.31953494799922982 0 0.041991979194174259 0.31807108926500849 0 0.055436910131931402 0.31953494799922982 0 0.061716365392496857 0.30527834973758677 0 0.067583113670808562 0.32297255061226532 0 0.063292770552126135 0.33583756265574971 0 0.055436910131931402 0.31953494799922982 0 0.055436910131931402 0.31953494799922982 0 0.061053530019529879 0.31528693756382559 0 0.061716365392496857 0.30527834973758677 0 0.067583113670808562 0.32297255061226532 0 0.055436910131931402 0.31953494799922982 0 0.061053530019529879 0.31528693756382559 0 0.061716365392496857 0.30527834973758677 0 0.056231809528790602 0.29488889775206989 0 0.046053138561473403 0.30313869527958609 0 0.041991979194174259 0.31807108926500849 0 0.061716365392496857 0.30527834973758677 0 0.041991979194174259 0.31807108926500849 0 0.061716365392496857 0.30527834973758677 0 0.046053138561473403 0.30313869527958609 0 0.061053530019529879 0.31528693756382559 0 0.061716365392496857 0.30527834973758677 0 0.06351726664236837 0.30868981595858341 0 0.061716365392496857 0.30527834973758677 0 0.056231809528790602 0.29488889775206989 0 0.06877939356858935 0.30069744776055862 0 0.061716365392496857 0.30527834973758677 0 0.056231809528790602 0.29488889775206989 0 0.056231809528790602 0.29488889775206989 0 0.052789017194629979 0.28836717994286598 0 0.075149622807887451 0.28260285332241369 0 0.056231809528790602 0.29488889775206989 0 0.04595136227665967 0.29012985475350139 0 0.056231809528790602 0.29488889775206989 0 0.04595136227665967 0.29012985475350139 0 0.046053138561473403 0.30313869527958609 0 0.056231809528790602 0.29488889775206989 0 0.052789017194629979 0.28836717994286598 0 0.04595136227665967 0.29012985475350139 0 0.052789017194629979 0.28836717994286598 0 0.04595136227665967 0.29012985475350139 0 0.056231809528790602 0.29488889775206989 0 0.052789017194629979 0.28836717994286598 0 0.04595136227665967 0.29012985475350139 0 0.028181610517901929 0.28190384953992231 0 0.04595136227665967 0.29012985475350139 0 0.028181610517901929 0.28190384953992231 0 0.040411961027982328 0.28044030694110078 0 0.04595136227665967 0.29012985475350139 0 0.031091967110119519 0.29396044899606449 0 0.028181610517901929 0.28190384953992231 0 0.052789017194629979 0.28836717994286598 0 0.04595136227665967 0.29012985475350139 0 0.040411961027982328 0.28044030694110078 0 0.04595136227665967 0.29012985475350139 0 0.039319966901854658 0.29826441650469721 0 0.031091967110119519 0.29396044899606449 0 0.04595136227665967 0.29012985475350139 0 0.031091967110119519 0.29396044899606449 0 0.041991979194174259 0.31807108926500849 0 0.034183399659165309 0.30582866698963401 0 0.021299430358089871 0.31112558414410402 0 0.041991979194174259 0.31807108926500849 0 0.046053138561473403 0.30313869527958609 0 0.034183399659165309 0.30582866698963401 0 0.039319966901854658 0.29826441650469721 0 0.046053138561473403 0.30313869527958609 0 0.034183399659165309 0.30582866698963401 0 0.04595136227665967 0.29012985475350139 0 0.039319966901854658 0.29826441650469721 0 0.046053138561473403 0.30313869527958609 0 0.039319966901854658 0.29826441650469721 0 0.034183399659165309 0.30582866698963401 0 0.031091967110119519 0.29396044899606449 0 0.034183399659165309 0.30582866698963401 0 0.021299430358089871 0.31112558414410402 0 0.031091967110119519 0.29396044899606449 0 0.021299430358089871 0.31112558414410402 0 0.031091967110119519 0.29396044899606449 0 0.01619411740766569 0.29095912100708782 0 0.028181610517901929 0.28190384953992231 0 0.01619411740766569 0.29095912100708782 0 0.01041185875914255 0.27367784432634651 0 0.031091967110119519 0.29396044899606449 0 0.028181610517901929 0.28190384953992231 0 0.01619411740766569 0.29095912100708782 0 0.01619411740766569 0.29095912100708782 0 0.0034611098733089872 0.28494369545047238 0 0.01041185875914255 0.27367784432634651 0 0.01619411740766569 0.29095912100708782 0 0.0034611098733089872 0.28494369545047238 0 0.001533996037670159 0.29940650260914209 0 -0.0037405759101894749 0.32486350281032239 0 0.021299430358089871 0.31112558414410402 0 0.001533996037670159 0.29940650260914209 0 0.021299430358089871 0.31112558414410402 0 0.01619411740766569 0.29095912100708782 0 0.001533996037670159 0.29940650260914209 0 -0.00045229697026904348 0.25795292580345919 0 0.0030585758369763671 0.24538293665774921 0 0.015737155004729369 0.25340011108241312 0 -0.00045229697026904348 0.25795292580345919 0 0.015737155004729369 0.25340011108241312 0 -0.00045229697026904348 0.25795292580345919 0 0.01041185875914255 0.27367784432634651 0 0.015737155004729369 0.25340011108241312 0 -0.0068905671122931923 0.27148047605306702 0 0.0034611098733089872 0.28494369545047238 0 0.01041185875914255 0.27367784432634651 0 -0.0068905671122931923 0.27148047605306702 0 -0.00045229697026904348 0.25795292580345919 0 0.01041185875914255 0.27367784432634651 0 0.028181610517901929 0.28190384953992231 0 0.026342878868222459 0.26573818846327069 0 0.034323565625321337 0.27417239577410257 0 0.028181610517901929 0.28190384953992231 0 0.01041185875914255 0.27367784432634651 0 0.026342878868222459 0.26573818846327069 0 0.028181610517901929 0.28190384953992231 0 0.01041185875914255 0.27367784432634651 0 0.031926606979727712 0.24884729636136671 0 0.026342878868222459 0.26573818846327069 0 0.015737155004729369 0.25340011108241312 0 0.031926606979727712 0.24884729636136671 0 0.015737155004729369 0.25340011108241312 0 0.01041185875914255 0.27367784432634651 0 0.026342878868222459 0.26573818846327069 0 0.015737155004729369 0.25340011108241312 0 0.057175485762615101 0.24174678009990461 0 0.031926606979727712 0.24884729636136671 0 0.042357812087178627 0.26860723815211651 0 0.031926606979727712 0.24884729636136671 0 0.042357812087178627 0.26860723815211651 0 0.031926606979727712 0.24884729636136671 0 0.026342878868222459 0.26573818846327069 0 0.042357812087178627 0.26860723815211651 0 0.026342878868222459 0.26573818846327069 0 0.034323565625321337 0.27417239577410257 0 0.042357812087178627 0.26860723815211651 0 0.052789017194629979 0.28836717994286598 0 0.042357812087178627 0.26860723815211651 0 0.040411961027982328 0.28044030694110078 0 0.034323565625321337 0.27417239577410257 0 0.042357812087178627 0.26860723815211651 0 0.040411961027982328 0.28044030694110078 0 0.028181610517901929 0.28190384953992231 0 0.034323565625321337 0.27417239577410257 0 0.040411961027982328 0.28044030694110078 0 0.052789017194629979 0.28836717994286598 0 0.042357812087178627 0.26860723815211651 0 0.063079158848947353 0.2683377938129804 0 0.052789017194629979 0.28836717994286598 0 0.042357812087178627 0.26860723815211651 0 0.057175485762615101 0.24174678009990461 0 0.042357812087178627 0.26860723815211651 0 0.063079158848947353 0.2683377938129804 0 0.057175485762615101 0.24174678009990461 0 0.075709362988111914 0.2549031265023331 0 0.063079158848947353 0.2683377938129804 0 0.075709362988111914 0.2549031265023331 0 0.083377381736377293 0.27137491007719711 0 0.063079158848947353 0.2683377938129804 0 0.075709362988111914 0.2549031265023331 0 0.091865538445326356 0.25786726132117188 0 0.083377381736377293 0.27137491007719711 0 0.075149622807887451 0.28260285332241369 0 0.097510228421144984 0.27683852670196207 0 0.083377381736377293 0.27137491007719711 0 0.075149622807887451 0.28260285332241369 0 0.097510228421144984 0.27683852670196207 0 0.091865538445326356 0.25786726132117188 0 0.083377381736377293 0.27137491007719711 0 0.09713359206231087 0.2735031497187399 0 0.083377381736377293 0.27137491007719711 0 0.097510228421144984 0.27683852670196207 0 0.09713359206231087 0.2735031497187399 0 0.083377381736377293 0.27137491007719711 0 0.063079158848947353 0.2683377938129804 0 0.075149622807887451 0.28260285332241369 0 0.052789017194629979 0.28836717994286598 0 0.063079158848947353 0.2683377938129804 0 0.075149622807887451 0.28260285332241369 0 0.052789017194629979 0.28836717994286598 0 0.075149622807887451 0.28260285332241369 0 0.06877939356858935 0.30069744776055862 0 0.087193438585146776 0.28875456248268577 0 0.056231809528790602 0.29488889775206989 0 0.075149622807887451 0.28260285332241369 0 0.06877939356858935 0.30069744776055862 0 0.075149622807887451 0.28260285332241369 0 0.06877939356858935 0.30069744776055862 0 0.087193438585146776 0.28875456248268577 0 0.06877939356858935 0.30069744776055862 0 0.085358563611757018 0.30837230676046762 0 0.06877939356858935 0.30069744776055862 0 0.078157698810994575 0.31031282368079488 0 0.085358563611757018 0.30837230676046762 0 0.067423264763119314 0.3068420982442831 0 0.06877939356858935 0.30069744776055862 0 0.072815129511188376 0.309747125514023 0 0.068733935009112027 0.31501589369963501 0 0.066708625189063606 0.31111637419607008 0 0.072815129511188376 0.309747125514023 0 0.066708625189063606 0.31111637419607008 0 0.067423264763119314 0.3068420982442831 0 0.072815129511188376 0.309747125514023 0 0.061053530019529879 0.31528693756382559 0 0.066708625189063606 0.31111637419607008 0 0.06351726664236837 0.30868981595858341 0 0.066708625189063606 0.31111637419607008 0 0.06351726664236837 0.30868981595858341 0 0.067423264763119314 0.3068420982442831 0 0.061716365392496857 0.30527834973758677 0 0.06351726664236837 0.30868981595858341 0 0.067423264763119314 0.3068420982442831 0 0.061716365392496857 0.30527834973758677 0 0.06351726664236837 0.30868981595858341 0 0.056231809528790602 0.29488889775206989 0 0.06877939356858935 0.30069744776055862 0 0.061716365392496857 0.30527834973758677 0 0.067423264763119314 0.3068420982442831 0 0.06877939356858935 0.30069744776055862 0 0.061716365392496857 0.30527834973758677 0 0.06877939356858935 0.30069744776055862 0 0.06877939356858935 0.30069744776055862 0 0.072815129511188376 0.309747125514023 0 0.078157698810994575 0.31031282368079488 0 0.074779223938614858 0.31675449251595339 0 0.072815129511188376 0.309747125514023 0 0.078157698810994575 0.31031282368079488 0 0.085358563611757018 0.30837230676046762 0 0.087193438585146776 0.28875456248268577 0 0.099723981038035744 0.29644284623116879 0 0.1019377336549251 0.31604716576037573 0 0.085358563611757018 0.30837230676046762 0 0.06877939356858935 0.30069744776055862 0 0.085358563611757018 0.30837230676046762 0 0.087193438585146776 0.28875456248268577 0 0.081774856175614224 0.31595130960913248 0 0.078157698810994575 0.31031282368079488 0 0.085358563611757018 0.30837230676046762 0 0.075149622807887451 0.28260285332241369 0 0.087193438585146776 0.28875456248268577 0 0.097510228421144984 0.27683852670196207 0 0.099723981038035744 0.29644284623116879 0 0.097510228421144984 0.27683852670196207 0 0.087193438585146776 0.28875456248268577 0 0.099723981038035744 0.29644284623116879 0 0.097510228421144984 0.27683852670196207 0 0.099723981038035744 0.29644284623116879 0 0.1167017247620603 0.29028461299800679 0 0.097510228421144984 0.27683852670196207 0 0.1019377336549251 0.31604716576037573 0 0.099723981038035744 0.29644284623116879 0 0.12272199582340169 0.30731176645537173 0 0.1019377336549251 0.31604716576037573 0 0.099723981038035744 0.29644284623116879 0 0.1019377336549251 0.31604716576037573 0 0.085358563611757018 0.30837230676046762 0 0.099723981038035744 0.29644284623116879 0 0.099723981038035744 0.29644284623116879 0 0.12272199582340169 0.30731176645537173 0 0.1167017247620603 0.29028461299800679 0 0.11514937987204669 0.27229134081490658 0 0.1085619950856153 0.26327486463328242 0 0.13163285518376111 0.26359295959491469 0 0.1167017247620603 0.29028461299800679 0 0.11514937987204669 0.27229134081490658 0 0.12602378406681949 0.28050301364547348 0 0.11514937987204669 0.27229134081490658 0 0.12602378406681949 0.28050301364547348 0 0.13278853132294849 0.26774415492785131 0 0.1167017247620603 0.29028461299800679 0 0.11514937987204669 0.27229134081490658 0 0.097510228421144984 0.27683852670196207 0 0.11514937987204669 0.27229134081490658 0 0.13278853132294849 0.26774415492785131 0 0.1070286098646317 0.24911961171667879 0 0.13163285518376111 0.26359295959491469 0 0.1249830071677395 0.23970666730875029 0 0.1070286098646317 0.24911961171667879 0 0.13163285518376111 0.26359295959491469 0 0.1070286098646317 0.24911961171667879 0 0.1085619950856153 0.26327486463328242 0 0.13163285518376111 0.26359295959491469 0 0.1070286098646317 0.24911961171667879 0 0.091865538445326356 0.25786726132117188 0 0.1085619950856153 0.26327486463328242 0 0.091865538445326356 0.25786726132117188 0 0.1085619950856153 0.26327486463328242 0 0.09713359206231087 0.2735031497187399 0 0.11514937987204669 0.27229134081490658 0 0.097510228421144984 0.27683852670196207 0 0.09713359206231087 0.2735031497187399 0 0.11514937987204669 0.27229134081490658 0 0.097510228421144984 0.27683852670196207 0 0.11514937987204669 0.27229134081490658 0 0.1085619950856153 0.26327486463328242 0 0.09713359206231087 0.2735031497187399 0 0.097510228421144984 0.27683852670196207 0 0.09713359206231087 0.2735031497187399 0 0.1413305601308569 0.27844976726412729 0 0.15017117684334291 0.27449805239404879 0 0.13689163832331441 0.26668641752494648 0 0.15017117684334291 0.27449805239404879 0 0.15210639547942201 0.26276421473600631 0 0.13689163832331441 0.26668641752494648 0 0.15017117684334291 0.27449805239404879 0 0.13689163832331441 0.26668641752494648 0 0.15017117684334291 0.27449805239404879 0 0.15210639547942201 0.26276421473600631 0 0.15017117684334291 0.27449805239404879 0 0.15210639547942201 0.26276421473600631 0 0.16231470423890279 0.27182938107924931 0 0.15459121070718229 0.2476980005371214 0 0.15210639547942201 0.26276421473600631 0 0.13963176771859701 0.25357449417353739 0 0.15459121070718229 0.2476980005371214 0 0.15210639547942201 0.26276421473600631 0 0.15210639547942201 0.26276421473600631 0 0.13963176771859701 0.25357449417353739 0 0.13689163832331441 0.26668641752494648 0 0.15210639547942201 0.26276421473600631 0 0.13689163832331441 0.26668641752494648 0 0.1249830071677395 0.23970666730875029 0 0.13163285518376111 0.26359295959491469 0 0.1249830071677395 0.23970666730875029 0 0.13963176771859701 0.25357449417353739 0 0.13163285518376111 0.26359295959491469 0 0.13963176771859701 0.25357449417353739 0 0.13163285518376111 0.26359295959491469 0 0.13689163832331441 0.26668641752494648 0 0.13163285518376111 0.26359295959491469 0 0.13689163832331441 0.26668641752494648 0 0.12602378406681949 0.28050301364547348 0 0.13278853132294849 0.26774415492785131 0 0.13945550031022269 0.29169194584112962 0 0.13278853132294849 0.26774415492785131 0 0.13945550031022269 0.29169194584112962 0 0.11514937987204669 0.27229134081490658 0 0.13163285518376111 0.26359295959491469 0 0.13278853132294849 0.26774415492785131 0 0.1413305601308569 0.27844976726412729 0 0.13278853132294849 0.26774415492785131 0 0.13945550031022269 0.29169194584112962 0 0.13163285518376111 0.26359295959491469 0 0.13278853132294849 0.26774415492785131 0 0.13278853132294849 0.26774415492785131 0 0.13689163832331441 0.26668641752494648 0 0.13163285518376111 0.26359295959491469 0 0.13278853132294849 0.26774415492785131 0 0.13689163832331441 0.26668641752494648 0 0.1413305601308569 0.27844976726412729 0 0.13278853132294849 0.26774415492785131 0 0.13689163832331441 0.26668641752494648 0 0.1167017247620603 0.29028461299800679 0 0.12602378406681949 0.28050301364547348 0 0.13945550031022269 0.29169194584112962 0 0.12272199582340169 0.30731176645537173 0 0.1167017247620603 0.29028461299800679 0 0.13945550031022269 0.29169194584112962 0 0.12272199582340169 0.30731176645537173 0 0.13945550031022269 0.29169194584112962 0 0.14422933883241029 0.30883960124516202 0 0.12272199582340169 0.30731176645537173 0 0.14422933883241029 0.30883960124516202 0 0.1461224692974944 0.31563973675440848 0 0.14422933883241029 0.30883960124516202 0 0.1473459538544559 0.2916282656326622 0 0.15276103761632859 0.29588267090389359 0 0.14422933883241029 0.30883960124516202 0 0.1473459538544559 0.2916282656326622 0 0.13945550031022269 0.29169194584112962 0 0.14422933883241029 0.30883960124516202 0 0.1473459538544559 0.2916282656326622 0 0.13945550031022269 0.29169194584112962 0 0.14422933883241029 0.30883960124516202 0 0.14422933883241029 0.30883960124516202 0 0.15391615700153899 0.31174452170334482 0 0.1461224692974944 0.31563973675440848 0 0.14422933883241029 0.30883960124516202 0 0.1461224692974944 0.31563973675440848 0 0.14422933883241029 0.30883960124516202 0 0.15276103761632859 0.29588267090389359 0 0.15716272803068559 0.30240232862080418 0 0.14422933883241029 0.30883960124516202 0 0.15391615700153899 0.31174452170334482 0 0.15716272803068559 0.30240232862080418 0 0.1413305601308569 0.27844976726412729 0 0.15017117684334291 0.27449805239404879 0 0.1473459538544559 0.2916282656326622 0 0.15017117684334291 0.27449805239404879 0 0.1473459538544559 0.2916282656326622 0 0.15285381142165441 0.2878038629749855 0 0.15017117684334291 0.27449805239404879 0 0.1473459538544559 0.2916282656326622 0 0.1413305601308569 0.27844976726412729 0 0.13945550031022269 0.29169194584112962 0 0.1473459538544559 0.2916282656326622 0 0.15276103761632859 0.29588267090389359 0 0.15285381142165441 0.2878038629749855 0 0.15822046743145901 0.29156854496698859 0 0.15276103761632859 0.29588267090389359 0 0.15822046743145901 0.29156854496698859 0 0.15716272803068559 0.30240232862080418 0 0.1473459538544559 0.2916282656326622 0 0.15276103761632859 0.29588267090389359 0 0.15285381142165441 0.2878038629749855 0 0.15017117684334291 0.27449805239404879 0 0.15285381142165441 0.2878038629749855 0 0.1562836205825972 0.28429107035667261 0 0.15285381142165441 0.2878038629749855 0 0.1562836205825972 0.28429107035667261 0 0.15822046743145901 0.29156854496698859 0 0.15822046743145901 0.29156854496698859 0 0.1641456262438882 0.28271846578033649 0 0.16920750311224661 0.2984109358035934 0 0.1641456262438882 0.28271846578033649 0 0.17065776422060941 0.28329619183387927 0 0.16920750311224661 0.2984109358035934 0 0.1562836205825972 0.28429107035667261 0 0.15822046743145901 0.29156854496698859 0 0.1641456262438882 0.28271846578033649 0 0.17065776422060941 0.28329619183387927 0 0.16920750311224661 0.2984109358035934 0 0.15391615700153899 0.31174452170334482 0 0.15716272803068559 0.30240232862080418 0 0.16517630284256579 0.31093537389155301 0 0.15716272803068559 0.30240232862080418 0 0.16920750311224661 0.2984109358035934 0 0.16517630284256579 0.31093537389155301 0 0.15822046743145901 0.29156854496698859 0 0.15716272803068559 0.30240232862080418 0 0.16920750311224661 0.2984109358035934 0 0.16920750311224661 0.2984109358035934 0 0.18469693049009839 0.31049400186265291 0 0.1915618103696887 0.29092990925948681 0 0.16920750311224661 0.2984109358035934 0 0.16517630284256579 0.31093537389155301 0 0.18469693049009839 0.31049400186265291 0 0.17065776422060941 0.28329619183387927 0 0.16920750311224661 0.2984109358035934 0 0.1915618103696887 0.29092990925948681 0 0.17210802532897629 0.26818144786416559 0 0.1954510296012367 0.26487229871378293 0 0.1915618103696887 0.29092990925948681 0 0.17210802532897629 0.26818144786416559 0 0.1915618103696887 0.29092990925948681 0 0.17065776422060941 0.28329619183387927 0 0.17210802532897629 0.26818144786416559 0 0.1915618103696887 0.29092990925948681 0 0.1641456262438882 0.28271846578033649 0 0.17065776422060941 0.28329619183387927 0 0.16231470423890279 0.27182938107924931 0 0.17065776422060941 0.28329619183387927 0 0.17210802532897629 0.26818144786416559 0 0.16231470423890279 0.27182938107924931 0 0.17065776422060941 0.28329619183387927 0 0.17210802532897629 0.26818144786416559 0 0.17210802532897629 0.26818144786416559 0 0.16231470423890279 0.27182938107924931 0 0.16469923731717501 0.25951791386705908 0 0.15017117684334291 0.27449805239404879 0 0.1641456262438882 0.28271846578033649 0 0.15017117684334291 0.27449805239404879 0 0.1562836205825972 0.28429107035667261 0 0.1641456262438882 0.28271846578033649 0 0.15017117684334291 0.27449805239404879 0 0.1641456262438882 0.28271846578033649 0 0.16231470423890279 0.27182938107924931 0 0.174290035055923 0.24544035788243229 0 0.17210802532897629 0.26818144786416559 0 0.16796204265425871 0.25867679730755389 0 0.15459121070718229 0.2476980005371214 0 0.15210639547942201 0.26276421473600631 0 0.16469923731717501 0.25951791386705908 0 0.15459121070718229 0.2476980005371214 0 0.16469923731717501 0.25951791386705908 0 0.15459121070718229 0.2476980005371214 0 0.16469923731717501 0.25951791386705908 0 0.1654699318236621 0.25009272222589601 0 0.15210639547942201 0.26276421473600631 0 0.16469923731717501 0.25951791386705908 0 0.15210639547942201 0.26276421473600631 0 0.16231470423890279 0.27182938107924931 0 0.16469923731717501 0.25951791386705908 0 0.17210802532897629 0.26818144786416559 0 0.16469923731717501 0.25951791386705908 0 0.17210802532897629 0.26818144786416559 0 0.16469923731717501 0.25951791386705908 0 0.16796204265425871 0.25867679730755389 0 0.16469923731717501 0.25951791386705908 0 0.16796204265425871 0.25867679730755389 0 0.174290035055923 0.24544035788243229 0 0.16796204265425871 0.25867679730755389 0 0.1654699318236621 0.25009272222589601 0 0.16469923731717501 0.25951791386705908 0 0.16796204265425871 0.25867679730755389 0 0.1654699318236621 0.25009272222589601 0 0.174290035055923 0.24544035788243229 0 0.19116911437402651 0.23984220284583591 0 0.1954510296012367 0.26487229871378293 0 0.174290035055923 0.24544035788243229 0 0.17210802532897629 0.26818144786416559 0 0.174290035055923 0.24544035788243229 0 0.17210802532897629 0.26818144786416559 0 0.1954510296012367 0.26487229871378293 0 0.20875825771649001 0.24791684293498359 0 0.19116911437402651 0.23984220284583591 0 0.1954510296012367 0.26487229871378293 0 0.1954510296012367 0.26487229871378293 0 0.22030560629676121 0.27149770606240892 0 0.2126931172276143 0.29091976815982801 0 0.20875825771649001 0.24791684293498359 0 0.2248599153753294 0.25464974868018769 0 0.22030560629676121 0.27149770606240892 0 0.20875825771649001 0.24791684293498359 0 0.22030560629676121 0.27149770606240892 0 0.20875825771649001 0.24791684293498359 0 0.1954510296012367 0.26487229871378293 0 0.22030560629676121 0.27149770606240892 0 0.2248599153753294 0.25464974868018769 0 0.2323971002540606 0.27039097618124619 0 0.22030560629676121 0.27149770606240892 0 0.24408767522763519 0.24738620800961111 0 0.2248599153753294 0.25464974868018769 0 0.2323971002540606 0.27039097618124619 0 0.2323971002540606 0.27039097618124619 0 0.22030560629676121 0.27149770606240892 0 0.23185295487703239 0.29507856918983399 0 0.2323971002540606 0.27039097618124619 0 0.24481726326944989 0.28301452540910571 0 0.25231182870767649 0.26565671054774792 0 0.24408767522763519 0.24738620800961111 0 0.2323971002540606 0.27039097618124619 0 0.25231182870767649 0.26565671054774792 0 0.24408767522763519 0.24738620800961111 0 0.2323971002540606 0.27039097618124619 0 0.23185295487703239 0.29507856918983399 0 0.2434003034573026 0.31865943231725968 0 0.2584766085760114 0.29794422587681391 0 0.23185295487703239 0.29507856918983399 0 0.2434003034573026 0.31865943231725968 0 0.24481726326944989 0.28301452540910571 0 0.23185295487703239 0.29507856918983399 0 0.2584766085760114 0.29794422587681391 0 0.2323971002540606 0.27039097618124619 0 0.24481726326944989 0.28301452540910571 0 0.23185295487703239 0.29507856918983399 0 0.22030560629676121 0.27149770606240892 0 0.23185295487703239 0.29507856918983399 0 0.22030560629676121 0.27149770606240892 0 0.23185295487703239 0.29507856918983399 0 0.2126931172276143 0.29091976815982801 0 0.23185295487703239 0.29507856918983399 0 0.2259717068105678 0.3094617550786456 0 0.2434003034573026 0.31865943231725968 0 0.23185295487703239 0.29507856918983399 0 0.2259717068105678 0.3094617550786456 0 0.2126931172276143 0.29091976815982801 0 0.2126931172276143 0.29091976815982801 0 0.1915618103696887 0.29092990925948681 0 0.2110155954103991 0.31367837065480991 0 0.2259717068105678 0.3094617550786456 0 0.2126931172276143 0.29091976815982801 0 0.2110155954103991 0.31367837065480991 0 0.1954510296012367 0.26487229871378293 0 0.2126931172276143 0.29091976815982801 0 0.1915618103696887 0.29092990925948681 0 0.1915618103696887 0.29092990925948681 0 0.2110155954103991 0.31367837065480991 0 0.18469693049009839 0.31049400186265291 0 0.1915618103696887 0.29092990925948681 0 0.2110155954103991 0.31367837065480991 0 0.18469693049009839 0.31049400186265291 0 0.2110155954103991 0.31367837065480991 0 0.18615059583754739 0.32736758856947512 0 0.19978515960601689 0.33500682496952111 0 0.2110155954103991 0.31367837065480991 0 0.18615059583754739 0.32736758856947512 0 0.19978515960601689 0.33500682496952111 0 0.17935081779669221 0.35188336889896321 0 0.18615059583754739 0.32736758856947512 0 0.19978515960601689 0.33500682496952111 0 0.21456194289380839 0.3361162946968122 0 0.2110155954103991 0.31367837065480991 0 0.21456194289380839 0.3361162946968122 0 0.2110155954103991 0.31367837065480991 0 0.23046938045110441 0.33642683205013701 0 0.21456194289380839 0.3361162946968122 0 0.22325674002787821 0.34633717375331591 0 0.20675863078908621 0.34858622846666021 0 0.19978515960601689 0.33500682496952111 0 0.21456194289380839 0.3361162946968122 0 0.20675863078908621 0.34858622846666021 0 0.2259717068105678 0.3094617550786456 0 0.2110155954103991 0.31367837065480991 0 0.2330010684391616 0.32332008074323643 0 0.2110155954103991 0.31367837065480991 0 0.2330010684391616 0.32332008074323643 0 0.23046938045110441 0.33642683205013701 0 0.2259717068105678 0.3094617550786456 0 0.2330010684391616 0.32332008074323643 0 0.2434003034573026 0.31865943231725968 0 0.2110155954103991 0.31367837065480991 0 0.23046938045110441 0.33642683205013701 0 0.21456194289380839 0.3361162946968122 0 0.23046938045110441 0.33642683205013701 0 0.22325674002787821 0.34633717375331591 0 0.23046938045110441 0.33642683205013701 0 0.22325674002787821 0.34633717375331591 0 0.24344393384466831 0.33385691108522603 0 0.24409564621427951 0.32007939312167299 0 0.25444107595088311 0.34120581542696748 0 0.24344393384466831 0.33385691108522603 0 0.24362193879533739 0.35180689639839602 0 0.25444107595088311 0.34120581542696748 0 0.24409564621427951 0.32007939312167299 0 0.25444107595088311 0.34120581542696748 0 0.23046938045110441 0.33642683205013701 0 0.24190014017519229 0.32072069280771492 0 0.23046938045110441 0.33642683205013701 0 0.24344393384466831 0.33385691108522603 0 0.24190014017519229 0.32072069280771492 0 0.23046938045110441 0.33642683205013701 0 0.24344393384466831 0.33385691108522603 0 0.24362193879533739 0.35180689639839602 0 0.2330010684391616 0.32332008074323643 0 0.23046938045110441 0.33642683205013701 0 0.24190014017519229 0.32072069280771492 0 0.24344393384466831 0.33385691108522603 0 0.24409564621427951 0.32007939312167299 0 0.24190014017519229 0.32072069280771492 0 0.24409564621427951 0.32007939312167299 0 0.24190014017519229 0.32072069280771492 0 0.2434003034573026 0.31865943231725968 0 0.24409564621427951 0.32007939312167299 0 0.24190014017519229 0.32072069280771492 0 0.2434003034573026 0.31865943231725968 0 0.24190014017519229 0.32072069280771492 0 0.2434003034573026 0.31865943231725968 0 0.24409564621427951 0.32007939312167299 0 0.2330010684391616 0.32332008074323643 0 0.2434003034573026 0.31865943231725968 0 0.24190014017519229 0.32072069280771492 0 0.2330010684391616 0.32332008074323643 0 0.24190014017519229 0.32072069280771492 0 0.24362193879533739 0.35180689639839602 0 0.2314830385436232 0.36047235017888501 0 0.25677449713956552 0.3671869607466593 0 0.2314830385436232 0.36047235017888501 0 0.23247357682054581 0.37647505136151332 0 0.25677449713956552 0.3671869607466593 0 0.23046938045110441 0.33642683205013701 0 0.24362193879533739 0.35180689639839602 0 0.24362193879533739 0.35180689639839602 0 0.22325674002787821 0.34633717375331591 0 0.2314830385436232 0.36047235017888501 0 0.23046938045110441 0.33642683205013701 0 0.24362193879533739 0.35180689639839602 0 0.22325674002787821 0.34633717375331591 0 0.22325674002787821 0.34633717375331591 0 0.2199768366979504 0.35921000277812248 0 0.2314830385436232 0.36047235017888501 0 0.2199768366979504 0.35921000277812248 0 0.2314830385436232 0.36047235017888501 0 0.23247357682054581 0.37647505136151332 0 0.2059121973086189 0.36417921013023818 0 0.23247357682054581 0.37647505136151332 0 0.2199768366979504 0.35921000277812248 0 0.2059121973086189 0.36417921013023818 0 0.23247357682054581 0.37647505136151332 0 0.2059121973086189 0.36417921013023818 0 0.20793047633248141 0.3768383089322857 0 0.23247357682054581 0.37647505136151332 0 0.22325674002787821 0.34633717375331591 0 0.2199768366979504 0.35921000277812248 0 0.20675863078908621 0.34858622846666021 0 0.2199768366979504 0.35921000277812248 0 0.2059121973086189 0.36417921013023818 0 0.20675863078908621 0.34858622846666021 0 0.19978515960601689 0.33500682496952111 0 0.20675863078908621 0.34858622846666021 0 0.17935081779669221 0.35188336889896321 0 0.2059121973086189 0.36417921013023818 0 0.20675863078908621 0.34858622846666021 0 0.17935081779669221 0.35188336889896321 0 0.2059121973086189 0.36417921013023818 0 0.17935081779669221 0.35188336889896321 0 0.2059121973086189 0.36417921013023818 0 0.18643361128087649 0.3654589617298945 0 0.19310454865044069 0.37609917555638789 0 0.2059121973086189 0.36417921013023818 0 0.18643361128087649 0.3654589617298945 0 0.17935081779669221 0.35188336889896321 0 0.2059121973086189 0.36417921013023818 0 0.19310454865044069 0.37609917555638789 0 0.20793047633248141 0.3768383089322857 0 0.18096946422075569 0.37310509349324361 0 0.18643361128087649 0.3654589617298945 0 0.19310454865044069 0.37609917555638789 0 0.18096946422075569 0.37310509349324361 0 0.17305887074715501 0.36208913593408038 0 0.1716533053760318 0.37897624384524248 0 0.18096946422075569 0.37310509349324361 0 0.18643361128087649 0.3654589617298945 0 0.17305887074715501 0.36208913593408038 0 0.18643361128087649 0.3654589617298945 0 0.17305887074715501 0.36208913593408038 0 0.17935081779669221 0.35188336889896321 0 0.17305887074715501 0.36208913593408038 0 0.15955847827432981 0.36475803367264259 0 0.15519594547663221 0.38174669225370078 0 0.17305887074715501 0.36208913593408038 0 0.15519594547663221 0.38174669225370078 0 0.1716533053760318 0.37897624384524248 0 0.17305887074715501 0.36208913593408038 0 0.15519594547663221 0.38174669225370078 0 0.17305887074715501 0.36208913593408038 0 0.15955847827432981 0.36475803367264259 0 0.16593234238826129 0.3585249030653691 0 0.15955847827432981 0.36475803367264259 0 0.15841137558075041 0.35649261633570423 0 0.1538832817724356 0.36107451953833081 0 0.15955847827432981 0.36475803367264259 0 0.15841137558075041 0.35649261633570423 0 0.16593234238826129 0.3585249030653691 0 0.17935081779669221 0.35188336889896321 0 0.15278943828476571 0.33958752766768763 0 0.16143737719263809 0.35000657279540798 0 0.16593234238826129 0.3585249030653691 0 0.17935081779669221 0.35188336889896321 0 0.16143737719263809 0.35000657279540798 0 0.17935081779669221 0.35188336889896321 0 0.15278943828476571 0.33958752766768763 0 0.16143737719263809 0.35000657279540798 0 0.15673848080007219 0.34786378421893888 0 0.15278943828476571 0.33958752766768763 0 0.16143737719263809 0.35000657279540798 0 0.15673848080007219 0.34786378421893888 0 0.1563834365694034 0.35154809504339363 0 0.16143737719263809 0.35000657279540798 0 0.1563834365694034 0.35154809504339363 0 0.15841137558075041 0.35649261633570423 0 0.16143737719263809 0.35000657279540798 0 0.15841137558075041 0.35649261633570423 0 0.16593234238826129 0.3585249030653691 0 0.17305887074715501 0.36208913593408038 0 0.16593234238826129 0.3585249030653691 0 0.17935081779669221 0.35188336889896321 0 0.17935081779669221 0.35188336889896321 0 0.18615059583754739 0.32736758856947512 0 0.16944915175456851 0.32340771574139998 0 0.16517630284256579 0.31093537389155301 0 0.18469693049009839 0.31049400186265291 0 0.16944915175456851 0.32340771574139998 0 0.18469693049009839 0.31049400186265291 0 0.18615059583754739 0.32736758856947512 0 0.16944915175456851 0.32340771574139998 0 0.16944915175456851 0.32340771574139998 0 0.1574907038361868 0.32026297515167879 0 0.15278943828476571 0.33958752766768763 0 0.15391615700153899 0.31174452170334482 0 0.16517630284256579 0.31093537389155301 0 0.1574907038361868 0.32026297515167879 0 0.16517630284256579 0.31093537389155301 0 0.16944915175456851 0.32340771574139998 0 0.1574907038361868 0.32026297515167879 0 0.17935081779669221 0.35188336889896321 0 0.16944915175456851 0.32340771574139998 0 0.15278943828476571 0.33958752766768763 0 0.15278943828476571 0.33958752766768763 0 0.12699927711377751 0.32764870020787812 0 0.1426227428590168 0.34594310822351809 0 0.15278943828476571 0.33958752766768763 0 0.1504292773267176 0.34510242750579312 0 0.1426227428590168 0.34594310822351809 0 0.15278943828476571 0.33958752766768763 0 0.1539803519945443 0.346070460380139 0 0.1504292773267176 0.34510242750579312 0 0.15278943828476571 0.33958752766768763 0 0.1461224692974944 0.31563973675440848 0 0.12699927711377751 0.32764870020787812 0 0.15278943828476571 0.33958752766768763 0 0.1461224692974944 0.31563973675440848 0 0.1574907038361868 0.32026297515167879 0 0.15278943828476571 0.33958752766768763 0 0.1461224692974944 0.31563973675440848 0 0.15391615700153899 0.31174452170334482 0 0.1574907038361868 0.32026297515167879 0 0.1461224692974944 0.31563973675440848 0 0.12272199582340169 0.30731176645537173 0 0.1461224692974944 0.31563973675440848 0 0.12699927711377751 0.32764870020787812 0 0.11904464068305751 0.34247939576895581 0 0.12699927711377751 0.32764870020787812 0 0.1318037841364455 0.35049240264412712 0 0.12699927711377751 0.32764870020787812 0 0.1318037841364455 0.35049240264412712 0 0.1426227428590168 0.34594310822351809 0 0.12699927711377751 0.32764870020787812 0 0.1318037841364455 0.35049240264412712 0 0.15278943828476571 0.33958752766768763 0 0.12699927711377751 0.32764870020787812 0 0.1318037841364455 0.35049240264412712 0 0.1426227428590168 0.34594310822351809 0 0.14386483642728951 0.35404856911198052 0 0.1318037841364455 0.35049240264412712 0 0.14069808444328871 0.36052661773067601 0 0.14386483642728951 0.35404856911198052 0 0.1201977060607657 0.36164614878284479 0 0.1318037841364455 0.35049240264412712 0 0.13660829115911419 0.37333610508037601 0 0.1201977060607657 0.36164614878284479 0 0.1353423981252648 0.37965715708366632 0 0.1201977060607657 0.36164614878284479 0 0.13660829115911419 0.37333610508037601 0 0.1353423981252648 0.37965715708366632 0 0.1228562141210252 0.37132582093148131 0 0.1201977060607657 0.36164614878284479 0 0.1353423981252648 0.37965715708366632 0 0.1318037841364455 0.35049240264412712 0 0.13660829115911419 0.37333610508037601 0 0.14069808444328871 0.36052661773067601 0 0.1318037841364455 0.35049240264412712 0 0.13660829115911419 0.37333610508037601 0 0.13660829115911419 0.37333610508037601 0 0.14069808444328871 0.36052661773067601 0 0.14421546301630789 0.36755559191026999 0 0.14069808444328871 0.36052661773067601 0 0.1470705840239768 0.36092711733208122 0 0.14421546301630789 0.36755559191026999 0 0.15955847827432981 0.36475803367264259 0 0.1508690536807448 0.36862033490867019 0 0.15519594547663221 0.38174669225370078 0 0.1470705840239768 0.36092711733208122 0 0.14421546301630789 0.36755559191026999 0 0.1508690536807448 0.36862033490867019 0 0.13660829115911419 0.37333610508037601 0 0.14421546301630789 0.36755559191026999 0 0.14602018008691639 0.37486475993013429 0 0.14421546301630789 0.36755559191026999 0 0.14602018008691639 0.37486475993013429 0 0.1508690536807448 0.36862033490867019 0 0.15955847827432981 0.36475803367264259 0 0.1508690536807448 0.36862033490867019 0 0.1538832817724356 0.36107451953833081 0 0.1470705840239768 0.36092711733208122 0 0.1508690536807448 0.36862033490867019 0 0.1538832817724356 0.36107451953833081 0 0.15841137558075041 0.35649261633570423 0 0.1538832817724356 0.36107451953833081 0 0.1519795773063293 0.35535112843799121 0 0.1470705840239768 0.36092711733208122 0 0.1538832817724356 0.36107451953833081 0 0.1519795773063293 0.35535112843799121 0 0.1519795773063293 0.35535112843799121 0 0.1529571071606223 0.35095715170734698 0 0.14894135434616629 0.34986744948513981 0 0.1563834365694034 0.35154809504339363 0 0.1519795773063293 0.35535112843799121 0 0.1529571071606223 0.35095715170734698 0 0.1563834365694034 0.35154809504339363 0 0.15841137558075041 0.35649261633570423 0 0.1519795773063293 0.35535112843799121 0 0.15673848080007219 0.34786378421893888 0 0.15278943828476571 0.33958752766768763 0 0.1539803519945443 0.346070460380139 0 0.1563834365694034 0.35154809504339363 0 0.15444964883765039 0.34889185027921799 0 0.1529571071606223 0.35095715170734698 0 0.15673848080007219 0.34786378421893888 0 0.1563834365694034 0.35154809504339363 0 0.15444964883765039 0.34889185027921799 0 0.15444964883765039 0.34889185027921799 0 0.1529571071606223 0.35095715170734698 0 0.15218886766361009 0.34801976004627161 0 0.15673848080007219 0.34786378421893888 0 0.15444964883765039 0.34889185027921799 0 0.1539803519945443 0.346070460380139 0 0.15444964883765039 0.34889185027921799 0 0.1539803519945443 0.346070460380139 0 0.15218886766361009 0.34801976004627161 0 0.1504292773267176 0.34510242750579312 0 0.14894135434616629 0.34986744948513981 0 0.15218886766361009 0.34801976004627161 0 0.1539803519945443 0.346070460380139 0 0.1504292773267176 0.34510242750579312 0 0.15218886766361009 0.34801976004627161 0 0.1529571071606223 0.35095715170734698 0 0.14894135434616629 0.34986744948513981 0 0.15218886766361009 0.34801976004627161 0 0.14894135434616629 0.34986744948513981 0 0.1426227428590168 0.34594310822351809 0 0.14386483642728951 0.35404856911198052 0 0.1504292773267176 0.34510242750579312 0 0.14894135434616629 0.34986744948513981 0 0.1426227428590168 0.34594310822351809 0 0.1519795773063293 0.35535112843799121 0 0.14894135434616629 0.34986744948513981 0 0.14386483642728951 0.35404856911198052 0 0.1470705840239768 0.36092711733208122 0 0.1519795773063293 0.35535112843799121 0 0.14386483642728951 0.35404856911198052 0 0.14069808444328871 0.36052661773067601 0 0.1470705840239768 0.36092711733208122 0 0.14386483642728951 0.35404856911198052 0 0.1545120669518171 0.39905685494955478 0 0.1373330202061093 0.40140424857332141 0 0.14638225966809301 0.41437562946611411 0 0.1417785114138414 0.39651213306251099 0 0.1545120669518171 0.39905685494955478 0 0.15519594547663221 0.38174669225370078 0 0.1417785114138414 0.39651213306251099 0 0.1545120669518171 0.39905685494955478 0 0.1373330202061093 0.40140424857332141 0 0.13660829115911419 0.37333610508037601 0 0.1417785114138414 0.39651213306251099 0 0.14480930372611139 0.381531841195209 0 0.1417785114138414 0.39651213306251099 0 0.15519594547663221 0.38174669225370078 0 0.14602018008691639 0.37486475993013429 0 0.1508690536807448 0.36862033490867019 0 0.15519594547663221 0.38174669225370078 0 0.14602018008691639 0.37486475993013429 0 0.15519594547663221 0.38174669225370078 0 0.14480930372611139 0.381531841195209 0 0.13660829115911419 0.37333610508037601 0 0.14602018008691639 0.37486475993013429 0 0.14480930372611139 0.381531841195209 0 0.1417785114138414 0.39651213306251099 0 0.15519594547663221 0.38174669225370078 0 0.14480930372611139 0.381531841195209 0 0.133642716158303 0.3896580717230429 0 0.1353423981252648 0.37965715708366632 0 0.130380369056077 0.3835655566084073 0 0.13660829115911419 0.37333610508037601 0 0.1417785114138414 0.39651213306251099 0 0.13660829115911419 0.37333610508037601 0 0.1417785114138414 0.39651213306251099 0 0.1353423981252648 0.37965715708366632 0 0.1417785114138414 0.39651213306251099 0 0.133642716158303 0.3896580717230429 0 0.1353423981252648 0.37965715708366632 0 0.1228562141210252 0.37132582093148131 0 0.1353423981252648 0.37965715708366632 0 0.12834497571595049 0.37895238207268178 0 0.1248009215614351 0.38126099366717242 0 0.1228562141210252 0.37132582093148131 0 0.12834497571595049 0.37895238207268178 0 0.1353423981252648 0.37965715708366632 0 0.12834497571595049 0.37895238207268178 0 0.130380369056077 0.3835655566084073 0 0.1248009215614351 0.38126099366717242 0 0.12834497571595049 0.37895238207268178 0 0.130380369056077 0.3835655566084073 0 0.133642716158303 0.3896580717230429 0 0.130380369056077 0.3835655566084073 0 0.12788083109945839 0.38860499240783991 0 0.1248009215614351 0.38126099366717242 0 0.130380369056077 0.3835655566084073 0 0.12788083109945839 0.38860499240783991 0 0.1238054918579997 0.39208600405537319 0 0.12788083109945839 0.38860499240783991 0 0.12953005840455689 0.39549779637852928 0 0.122036774282776 0.39822043035423382 0 0.1238054918579997 0.39208600405537319 0 0.12953005840455689 0.39549779637852928 0 0.133642716158303 0.3896580717230429 0 0.12788083109945839 0.38860499240783991 0 0.12953005840455689 0.39549779637852928 0 0.133642716158303 0.3896580717230429 0 0.12953005840455689 0.39549779637852928 0 0.13547964823768799 0.39568498104787969 0 0.1417785114138414 0.39651213306251099 0 0.133642716158303 0.3896580717230429 0 0.13547964823768799 0.39568498104787969 0 0.12953005840455689 0.39549779637852928 0 0.13547964823768799 0.39568498104787969 0 0.1373330202061093 0.40140424857332141 0 0.1417785114138414 0.39651213306251099 0 0.13547964823768799 0.39568498104787969 0 0.1373330202061093 0.40140424857332141 0 0.1417785114138414 0.39651213306251099 0 0.1373330202061093 0.40140424857332141 0 0.122036774282776 0.39822043035423382 0 0.12953005840455689 0.39549779637852928 0 0.1251947550425104 0.40439573951467739 0 0.12953005840455689 0.39549779637852928 0 0.1373330202061093 0.40140424857332141 0 0.1251947550425104 0.40439573951467739 0 0.1194700949355865 0.4210618048929417 0 0.1373330202061093 0.40140424857332141 0 0.1251947550425104 0.40439573951467739 0 0.1194700949355865 0.4210618048929417 0 0.1373330202061093 0.40140424857332141 0 0.1194700949355865 0.4210618048929417 0 0.1373330202061093 0.40140424857332141 0 0.14638225966809301 0.41437562946611411 0 0.1194700949355865 0.4210618048929417 0 0.1418330014184454 0.43311401494600871 0 0.14638225966809301 0.41437562946611411 0 0.1226530656482125 0.44308759750645899 0 0.1194700949355865 0.4210618048929417 0 0.1418330014184454 0.43311401494600871 0 0.1418330014184454 0.43311401494600871 0 0.16240653167201571 0.42447924313578472 0 0.16297720621760581 0.44304224485657961 0 0.1418330014184454 0.43311401494600871 0 0.14638225966809301 0.41437562946611411 0 0.16240653167201571 0.42447924313578472 0 0.1545120669518171 0.39905685494955478 0 0.14638225966809301 0.41437562946611411 0 0.16386849626205149 0.40774477091638017 0 0.16386849626205149 0.40774477091638017 0 0.16240653167201571 0.42447924313578472 0 0.17573906826204361 0.41688434346112302 0 0.14638225966809301 0.41437562946611411 0 0.16386849626205149 0.40774477091638017 0 0.16240653167201571 0.42447924313578472 0 0.16386849626205149 0.40774477091638017 0 0.17573906826204361 0.41688434346112302 0 0.1759114722096686 0.40275262900861231 0 0.16240653167201571 0.42447924313578472 0 0.18363915820385501 0.43171445516850288 0 0.16297720621760581 0.44304224485657961 0 0.16240653167201571 0.42447924313578472 0 0.18363915820385501 0.43171445516850288 0 0.17573906826204361 0.41688434346112302 0 0.18363915820385501 0.43171445516850288 0 0.17573906826204361 0.41688434346112302 0 0.1892839776604609 0.4076241774890566 0 0.17573906826204361 0.41688434346112302 0 0.1759114722096686 0.40275262900861231 0 0.1892839776604609 0.4076241774890566 0 0.1759114722096686 0.40275262900861231 0 0.18276262560753551 0.38758381345117859 0 0.1892839776604609 0.4076241774890566 0 0.1759114722096686 0.40275262900861231 0 0.16736244110721121 0.39269741561929222 0 0.18276262560753551 0.38758381345117859 0 0.1545120669518171 0.39905685494955478 0 0.15519594547663221 0.38174669225370078 0 0.16736244110721121 0.39269741561929222 0 0.16386849626205149 0.40774477091638017 0 0.1759114722096686 0.40275262900861231 0 0.16736244110721121 0.39269741561929222 0 0.1545120669518171 0.39905685494955478 0 0.16386849626205149 0.40774477091638017 0 0.16736244110721121 0.39269741561929222 0 0.15519594547663221 0.38174669225370078 0 0.16736244110721121 0.39269741561929222 0 0.1716533053760318 0.37897624384524248 0 0.18096946422075569 0.37310509349324361 0 0.1716533053760318 0.37897624384524248 0 0.18276262560753551 0.38758381345117859 0 0.16736244110721121 0.39269741561929222 0 0.1716533053760318 0.37897624384524248 0 0.18276262560753551 0.38758381345117859 0 0.18096946422075569 0.37310509349324361 0 0.18276262560753551 0.38758381345117859 0 0.19310454865044069 0.37609917555638789 0 0.18276262560753551 0.38758381345117859 0 0.19310454865044069 0.37609917555638789 0 0.19583665863792801 0.39107301280863399 0 0.19310454865044069 0.37609917555638789 0 0.19583665863792801 0.39107301280863399 0 0.20793047633248141 0.3768383089322857 0 0.18276262560753551 0.38758381345117859 0 0.19583665863792801 0.39107301280863399 0 0.1892839776604609 0.4076241774890566 0 0.19583665863792801 0.39107301280863399 0 0.20801862543954619 0.39730831062218352 0 0.1892839776604609 0.4076241774890566 0 0.20801862543954619 0.39730831062218352 0 0.23357086543954481 0.40327460245243801 0 0.208106774546614 0.41777831231208151 0 0.20801862543954619 0.39730831062218352 0 0.20793047633248141 0.3768383089322857 0 0.19583665863792801 0.39107301280863399 0 0.20801862543954619 0.39730831062218352 0 0.20793047633248141 0.3768383089322857 0 0.20801862543954619 0.39730831062218352 0 0.20793047633248141 0.3768383089322857 0 0.22039262926428049 0.38739850192277842 0 0.23247357682054581 0.37647505136151332 0 0.22039262926428049 0.38739850192277842 0 0.23357086543954481 0.40327460245243801 0 0.20793047633248141 0.3768383089322857 0 0.23247357682054581 0.37647505136151332 0 0.22039262926428049 0.38739850192277842 0 0.20801862543954619 0.39730831062218352 0 0.22039262926428049 0.38739850192277842 0 0.23357086543954481 0.40327460245243801 0 0.23357086543954481 0.40327460245243801 0 0.25408339161319271 0.40986188697062009 0 0.25903495633247242 0.38877089259278902 0 0.23357086543954481 0.40327460245243801 0 0.25903495633247242 0.38877089259278902 0 0.23247357682054581 0.37647505136151332 0 0.25903495633247242 0.38877089259278902 0 0.25677449713956552 0.3671869607466593 0 0.23247357682054581 0.37647505136151332 0 0.23357086543954481 0.40327460245243801 0 0.25903495633247242 0.38877089259278902 0 0.23247357682054581 0.37647505136151332 0 0.25903495633247242 0.38877089259278902 0 0.24932533014252381 0.42846655246196269 0 0.22779267783281781 0.42273531082743071 0 0.2380726306195573 0.44173963568697661 0 0.24932533014252381 0.42846655246196269 0 0.22779267783281781 0.42273531082743071 0 0.25408339161319271 0.40986188697062009 0 0.23357086543954481 0.40327460245243801 0 0.22779267783281781 0.42273531082743071 0 0.25408339161319271 0.40986188697062009 0 0.23357086543954481 0.40327460245243801 0 0.22779267783281781 0.42273531082743071 0 0.208106774546614 0.41777831231208151 0 0.23357086543954481 0.40327460245243801 0 0.208106774546614 0.41777831231208151 0 0.22779267783281781 0.42273531082743071 0 0.20822479714476649 0.44518554154138851 0 0.2380726306195573 0.44173963568697661 0 0.22779267783281781 0.42273531082743071 0 0.208106774546614 0.41777831231208151 0 0.20822479714476649 0.44518554154138851 0 0.208106774546614 0.41777831231208151 0 0.20822479714476649 0.44518554154138851 0 0.20801862543954619 0.39730831062218352 0 0.208106774546614 0.41777831231208151 0 0.18363915820385501 0.43171445516850288 0 0.208106774546614 0.41777831231208151 0 0.1892839776604609 0.4076241774890566 0 0.20801862543954619 0.39730831062218352 0 0.208106774546614 0.41777831231208151 0 0.1892839776604609 0.4076241774890566 0 0.18363915820385501 0.43171445516850288 0 0.208106774546614 0.41777831231208151 0 0.20822479714476649 0.44518554154138851 0 0.18363915820385501 0.43171445516850288 0 0.208106774546614 0.41777831231208151 0 0.18363915820385501 0.43171445516850288 0 0.20822479714476649 0.44518554154138851 0 0.18719180313125591 0.45369374087437447 0 0.2083428197429219 0.47259277077069539 0 0.18353177886360711 0.47535278601821912 0 0.18719180313125591 0.45369374087437447 0 0.20822479714476649 0.44518554154138851 0 0.2083428197429219 0.47259277077069539 0 0.18719180313125591 0.45369374087437447 0 0.20822479714476649 0.44518554154138851 0 0.2083428197429219 0.47259277077069539 0 0.20822479714476649 0.44518554154138851 0 0.2323758740487826 0.46359611285230368 0 0.2083428197429219 0.47259277077069539 0 0.20822479714476649 0.44518554154138851 0 0.2323758740487826 0.46359611285230368 0 0.2380726306195573 0.44173963568697661 0 0.2323758740487826 0.46359611285230368 0 0.24714112907796831 0.45338177429035259 0 0.25744361575398889 0.46623942981671429 0 0.2323758740487826 0.46359611285230368 0 0.24714112907796831 0.45338177429035259 0 0.2380726306195573 0.44173963568697661 0 0.24714112907796831 0.45338177429035259 0 0.2380726306195573 0.44173963568697661 0 0.25903187889636392 0.44263935422956352 0 0.24932533014252381 0.42846655246196269 0 0.2380726306195573 0.44173963568697661 0 0.25903187889636392 0.44263935422956352 0 0.2383314595681654 0.5 0 0.24307645105495199 0.47978116368728951 0 0.22611748935117981 0.48319400946205809 0 0.2383314595681654 0.5 0 0.24307645105495199 0.47978116368728951 0 0.26376728808802868 0.48291271884290921 0 0.2323758740487826 0.46359611285230368 0 0.24307645105495199 0.47978116368728951 0 0.25744361575398889 0.46623942981671429 0 0.2323758740487826 0.46359611285230368 0 0.22611748935117981 0.48319400946205809 0 0.2083428197429219 0.47259277077069539 0 0.2323758740487826 0.46359611285230368 0 0.24307645105495199 0.47978116368728951 0 0.22611748935117981 0.48319400946205809 0 0.2383314595681654 0.5 0 0.22611748935117981 0.48319400946205809 0 0.20846084234107731 0.50000000000000222 0 0.20846084234107731 0.50000000000000222 0 0.2083428197429219 0.47259277077069539 0 0.1967358146245404 0.48634662226103531 0 0.20846084234107731 0.50000000000000222 0 0.2083428197429219 0.47259277077069539 0 0.22611748935117981 0.48319400946205809 0 0.20846084234107731 0.50000000000000222 0 0.2083428197429219 0.47259277077069539 0 0.2083428197429219 0.47259277077069539 0 0.1967358146245404 0.48634662226103531 0 0.18353177886360711 0.47535278601821912 0 0.1967358146245404 0.48634662226103531 0 0.18501078690800121 0.5 0 0.18353177886360711 0.47535278601821912 0 0.20846084234107731 0.50000000000000222 0 0.1967358146245404 0.48634662226103531 0 0.18501078690800121 0.5 0 0.18501078690800121 0.5 0 0.16716037382035259 0.48320729860838391 0 0.18353177886360711 0.47535278601821912 0 0.18501078690800121 0.5 0 0.161560731474925 0.5 0 0.16716037382035259 0.48320729860838391 0 0.161560731474925 0.5 0 0.16716037382035259 0.48320729860838391 0 0.1476840313703893 0.4804785438703984 0 0.16716037382035259 0.48320729860838391 0 0.1639343657247759 0.46502386354052461 0 0.1476840313703893 0.4804785438703984 0 0.16716037382035259 0.48320729860838391 0 0.18353177886360711 0.47535278601821912 0 0.1639343657247759 0.46502386354052461 0 0.18353177886360711 0.47535278601821912 0 0.18719180313125591 0.45369374087437447 0 0.1639343657247759 0.46502386354052461 0 0.18363915820385501 0.43171445516850288 0 0.18719180313125591 0.45369374087437447 0 0.16297720621760581 0.44304224485657961 0 0.18719180313125591 0.45369374087437447 0 0.16297720621760581 0.44304224485657961 0 0.1639343657247759 0.46502386354052461 0 0.16297720621760581 0.44304224485657961 0 0.1639343657247759 0.46502386354052461 0 0.13891483104521479 0.45824666407131709 0 0.1639343657247759 0.46502386354052461 0 0.13891483104521479 0.45824666407131709 0 0.1476840313703893 0.4804785438703984 0 0.1418330014184454 0.43311401494600871 0 0.16297720621760581 0.44304224485657961 0 0.13891483104521479 0.45824666407131709 0 0.1226530656482125 0.44308759750645899 0 0.1418330014184454 0.43311401494600871 0 0.13891483104521479 0.45824666407131709 0 0.1137750051239922 0.4604795741417082 0 0.13891483104521479 0.45824666407131709 0 0.1259428405829203 0.48023978707085452 0 0.1137750051239922 0.4604795741417082 0 0.1226530656482125 0.44308759750645899 0 0.13891483104521479 0.45824666407131709 0 0.13891483104521479 0.45824666407131709 0 0.1259428405829203 0.48023978707085452 0 0.1476840313703893 0.4804785438703984 0 0.1259428405829203 0.48023978707085452 0 0.13811067604184879 0.50000000000000067 0 0.1476840313703893 0.4804785438703984 0 0.1259428405829203 0.48023978707085452 0 0.13811067604184879 0.50000000000000067 0 0.161560731474925 0.5 0 0.13811067604184879 0.50000000000000067 0 0.1476840313703893 0.4804785438703984 0 0.33200645978123888 0.5 0 0.4039008539447933 0.5 0 0.38124951499701609 0.4734785303135195 0 0.35456119054549018 0.46157568710187941 0 0.33200645978123888 0.5 0 0.38124951499701609 0.4734785303135195 0 0.37345341561318951 0.45407136009255727 0 0.35456119054549018 0.46157568710187941 0 0.38124951499701609 0.4734785303135195 0 0.37345341561318951 0.45407136009255727 0 0.35527813468953351 0.44155734433189919 0 0.37426612281776722 0.43390813374205722 0 0.37345341561318951 0.45407136009255727 0 0.35527813468953351 0.44155734433189919 0 0.35456119054549018 0.46157568710187941 0 0.35527813468953351 0.44155734433189919 0 0.35456119054549018 0.46157568710187941 0 0.33800480915899112 0.44824453579225282 0 0.35527813468953351 0.44155734433189919 0 0.33800480915899112 0.44824453579225282 0 0.33961821023650118 0.43304004345837682 0 0.35456119054549018 0.46157568710187941 0 0.33800480915899112 0.44824453579225282 0 0.35456119054549018 0.46157568710187941 0 0.33257154011350593 0.46710850914328589 0 0.33800480915899112 0.44824453579225282 0 0.33257154011350593 0.46710850914328589 0 0.33800480915899112 0.44824453579225282 0 0.31935128747446712 0.45708532219124981 0 0.33800480915899112 0.44824453579225282 0 0.32144842777249211 0.43491338448262618 0 0.33961821023650118 0.43304004345837682 0 0.33800480915899112 0.44824453579225282 0 0.32144842777249211 0.43491338448262618 0 0.31935128747446712 0.45708532219124981 0 0.30586101247699582 0.44689003922425008 0 0.32144842777249211 0.43491338448262618 0 0.33800480915899112 0.44824453579225282 0 0.31935128747446712 0.45708532219124981 0 0.32144842777249211 0.43491338448262618 0 0.31935128747446712 0.45708532219124981 0 0.31641178350622318 0.47439027206521622 0 0.30456971293168722 0.46375372028620082 0 0.33257154011350593 0.46710850914328589 0 0.31935128747446712 0.45708532219124981 0 0.31641178350622318 0.47439027206521622 0 0.33257154011350593 0.46710850914328589 0 0.33200645978123888 0.5 0 0.31641178350622318 0.47439027206521622 0 0.33200645978123888 0.5 0 0.31641178350622318 0.47439027206521622 0 0.28975762551538231 0.48273231778088699 0 0.35456119054549018 0.46157568710187941 0 0.33257154011350593 0.46710850914328589 0 0.33200645978123888 0.5 0 0.33200645978123888 0.5 0 0.28975762551538231 0.48273231778088699 0 0.27836168249593729 0.5 0 0.31641178350622318 0.47439027206521622 0 0.28975762551538231 0.48273231778088699 0 0.30456971293168722 0.46375372028620082 0 0.28975762551538231 0.48273231778088699 0 0.27579256012895581 0.46819883738428292 0 0.29146685568536751 0.45767065016940062 0 0.28975762551538231 0.48273231778088699 0 0.29146685568536751 0.45767065016940062 0 0.2383314595681654 0.5 0 0.27836168249593729 0.5 0 0.26376728808802868 0.48291271884290921 0 0.28975762551538231 0.48273231778088699 0 0.27836168249593729 0.5 0 0.26376728808802868 0.48291271884290921 0 0.26376728808802868 0.48291271884290921 0 0.25744361575398889 0.46623942981671429 0 0.27579256012895581 0.46819883738428292 0 0.28975762551538231 0.48273231778088699 0 0.26376728808802868 0.48291271884290921 0 0.27579256012895581 0.46819883738428292 0 0.24307645105495199 0.47978116368728951 0 0.26376728808802868 0.48291271884290921 0 0.25744361575398889 0.46623942981671429 0 0.25903187889636392 0.44263935422956352 0 0.25744361575398889 0.46623942981671429 0 0.27530985080467191 0.44942420618731499 0 0.24714112907796831 0.45338177429035259 0 0.25903187889636392 0.44263935422956352 0 0.25744361575398889 0.46623942981671429 0 0.25744361575398889 0.46623942981671429 0 0.27579256012895581 0.46819883738428292 0 0.27530985080467191 0.44942420618731499 0 0.27579256012895581 0.46819883738428292 0 0.27530985080467191 0.44942420618731499 0 0.29146685568536751 0.45767065016940062 0 0.25744361575398889 0.46623942981671429 0 0.27530985080467191 0.44942420618731499 0 0.25903187889636392 0.44263935422956352 0 0.27530985080467191 0.44942420618731499 0 0.27505623100229087 0.4348476740592655 0 0.27530985080467191 0.44942420618731499 0 0.29317608585535382 0.43260898255791452 0 0.27505623100229087 0.4348476740592655 0 0.29146685568536751 0.45767065016940062 0 0.29317608585535382 0.43260898255791452 0 0.29146685568536751 0.45767065016940062 0 0.30586101247699582 0.44689003922425008 0 0.29317608585535382 0.43260898255791452 0 0.27530985080467191 0.44942420618731499 0 0.29317608585535382 0.43260898255791452 0 0.27530985080467191 0.44942420618731499 0 0.29146685568536751 0.45767065016940062 0 0.29317608585535382 0.43260898255791452 0 0.28975762551538231 0.48273231778088699 0 0.29146685568536751 0.45767065016940062 0 0.30456971293168722 0.46375372028620082 0 0.31935128747446712 0.45708532219124981 0 0.30456971293168722 0.46375372028620082 0 0.30586101247699582 0.44689003922425008 0 0.29146685568536751 0.45767065016940062 0 0.30456971293168722 0.46375372028620082 0 0.30586101247699582 0.44689003922425008 0 0.30586101247699582 0.44689003922425008 0 0.30634439312270823 0.43399865985944752 0 0.29317608585535382 0.43260898255791452 0 0.30586101247699582 0.44689003922425008 0 0.30634439312270823 0.43399865985944752 0 0.32144842777249211 0.43491338448262618 0 0.30634439312270823 0.43399865985944752 0 0.30489204638599299 0.4215822331729997 0 0.32144842777249211 0.43491338448262618 0 0.30634439312270823 0.43399865985944752 0 0.30489204638599299 0.4215822331729997 0 0.29317608585535382 0.43260898255791452 0 0.30489204638599299 0.4215822331729997 0 0.29975305932796259 0.41744433537700698 0 0.29317608585535382 0.43260898255791452 0 0.30489204638599299 0.4215822331729997 0 0.29317608585535382 0.43260898255791452 0 0.3118915780135324 0.41323937428140151 0 0.29502947749690772 0.40543354060152631 0 0.3118915780135324 0.41323937428140151 0 0.29502947749690772 0.40543354060152631 0 0.30643336556868711 0.40291455658037362 0 0.3118915780135324 0.41323937428140151 0 0.30113048033892958 0.41268853501446529 0 0.29502947749690772 0.40543354060152631 0 0.3118915780135324 0.41323937428140151 0 0.30435856615922963 0.41588380589548912 0 0.30113048033892958 0.41268853501446529 0 0.3118915780135324 0.41323937428140151 0 0.30643336556868711 0.40291455658037362 0 0.31304947154898299 0.40669669926715551 0 0.3118915780135324 0.41323937428140151 0 0.30489204638599299 0.4215822331729997 0 0.31704646820872218 0.41014281572128303 0 0.30489204638599299 0.4215822331729997 0 0.31704646820872218 0.41014281572128303 0 0.3118915780135324 0.41323937428140151 0 0.30489204638599299 0.4215822331729997 0 0.30435856615922963 0.41588380589548912 0 0.30489204638599299 0.4215822331729997 0 0.29975305932796259 0.41744433537700698 0 0.30435856615922963 0.41588380589548912 0 0.30489204638599299 0.4215822331729997 0 0.29975305932796259 0.41744433537700698 0 0.29975305932796259 0.41744433537700698 0 0.29449886488583898 0.4132136729222724 0 0.29975305932796259 0.41744433537700698 0 0.29461972069701831 0.41144161891690201 0 0.29975305932796259 0.41744433537700698 0 0.30435856615922963 0.41588380589548912 0 0.30113048033892958 0.41268853501446529 0 0.29975305932796259 0.41744433537700698 0 0.30113048033892958 0.41268853501446529 0 0.29461972069701831 0.41144161891690201 0 0.30113048033892958 0.41268853501446529 0 0.29461972069701831 0.41144161891690201 0 0.29502947749690772 0.40543354060152631 0 0.29975305932796259 0.41744433537700698 0 0.29449886488583898 0.4132136729222724 0 0.29317608585535382 0.43260898255791452 0 0.29449886488583898 0.4132136729222724 0 0.28869510622530881 0.41742994381066301 0 0.29317608585535382 0.43260898255791452 0 0.29105124203247501 0.4072687857653895 0 0.29308762653047299 0.40645362269547841 0 0.29461972069701831 0.41144161891690201 0 0.29105124203247501 0.4072687857653895 0 0.29461972069701831 0.41144161891690201 0 0.29105124203247501 0.4072687857653895 0 0.29461972069701831 0.41144161891690201 0 0.29157613572053642 0.41086029969232818 0 0.29105124203247501 0.4072687857653895 0 0.28945550651531449 0.41029675755255129 0 0.29105124203247501 0.4072687857653895 0 0.29157613572053642 0.41086029969232818 0 0.28945550651531449 0.41029675755255129 0 0.29308762653047299 0.40645362269547841 0 0.29461972069701831 0.41144161891690201 0 0.29502947749690772 0.40543354060152631 0 0.29461972069701831 0.41144161891690201 0 0.29502947749690772 0.40543354060152631 0 0.29449886488583898 0.4132136729222724 0 0.29157613572053642 0.41086029969232818 0 0.29975305932796259 0.41744433537700698 0 0.29461972069701831 0.41144161891690201 0 0.29449886488583898 0.4132136729222724 0 0.29461972069701831 0.41144161891690201 0 0.29449886488583898 0.4132136729222724 0 0.29157613572053642 0.41086029969232818 0 0.29461972069701831 0.41144161891690201 0 0.29449886488583898 0.4132136729222724 0 0.29449886488583898 0.4132136729222724 0 0.29157613572053642 0.41086029969232818 0 0.28869510622530881 0.41742994381066301 0 0.29157613572053642 0.41086029969232818 0 0.28945550651531449 0.41029675755255129 0 0.28869510622530881 0.41742994381066301 0 0.28869510622530881 0.41742994381066301 0 0.28274335565410291 0.41318836239633261 0 0.28011726770437861 0.42420925272631138 0 0.28945550651531449 0.41029675755255129 0 0.28274335565410291 0.41318836239633261 0 0.28584645353694782 0.40118251875290162 0 0.28945550651531449 0.41029675755255129 0 0.28869510622530881 0.41742994381066301 0 0.28274335565410291 0.41318836239633261 0 0.29449886488583898 0.4132136729222724 0 0.29317608585535382 0.43260898255791452 0 0.29317608585535382 0.43260898255791452 0 0.27505623100229087 0.4348476740592655 0 0.28011726770437861 0.42420925272631138 0 0.28869510622530881 0.41742994381066301 0 0.29317608585535382 0.43260898255791452 0 0.28011726770437861 0.42420925272631138 0 0.25903187889636392 0.44263935422956352 0 0.27505623100229087 0.4348476740592655 0 0.26764607175068739 0.42535657459522308 0 0.27505623100229087 0.4348476740592655 0 0.26764607175068739 0.42535657459522308 0 0.28011726770437861 0.42420925272631138 0 0.28274335565410291 0.41318836239633261 0 0.28011726770437861 0.42420925272631138 0 0.27182089177589941 0.41102402831496537 0 0.28274335565410291 0.41318836239633261 0 0.27182089177589941 0.41102402831496537 0 0.28584645353694782 0.40118251875290162 0 0.26764607175068739 0.42535657459522308 0 0.28011726770437861 0.42420925272631138 0 0.27182089177589941 0.41102402831496537 0 0.24932533014252381 0.42846655246196269 0 0.26764607175068739 0.42535657459522308 0 0.25408339161319271 0.40986188697062009 0 0.26764607175068739 0.42535657459522308 0 0.27182089177589941 0.41102402831496537 0 0.25408339161319271 0.40986188697062009 0 0.24932533014252381 0.42846655246196269 0 0.25903187889636392 0.44263935422956352 0 0.26764607175068739 0.42535657459522308 0 0.25903495633247242 0.38877089259278902 0 0.2699270554837932 0.38256702509492291 0 0.25677449713956552 0.3671869607466593 0 0.25903495633247242 0.38877089259278902 0 0.2699270554837932 0.38256702509492291 0 0.27182089177589941 0.41102402831496537 0 0.25408339161319271 0.40986188697062009 0 0.25903495633247242 0.38877089259278902 0 0.27182089177589941 0.41102402831496537 0 0.25903495633247242 0.38877089259278902 0 0.28584645353694782 0.40118251875290162 0 0.25903495633247242 0.38877089259278902 0 0.2699270554837932 0.38256702509492291 0 0.28584645353694782 0.40118251875290162 0 0.2699270554837932 0.38256702509492291 0 0.28584645353694782 0.40118251875290162 0 0.25903495633247242 0.38877089259278902 0 0.28584645353694782 0.40118251875290162 0 0.2699270554837932 0.38256702509492291 0 0.28164748035231918 0.3833691337288414 0 0.28584645353694782 0.40118251875290162 0 0.2699270554837932 0.38256702509492291 0 0.27204027827202459 0.37769940366659382 0 0.2704138720414444 0.37159989170313429 0 0.2699270554837932 0.38256702509492291 0 0.27204027827202459 0.37769940366659382 0 0.275107036573007 0.38002428949633388 0 0.27204027827202459 0.37769940366659382 0 0.27658869331385272 0.37658954418192858 0 0.2704138720414444 0.37159989170313429 0 0.27204027827202459 0.37769940366659382 0 0.27658869331385272 0.37658954418192858 0 0.275107036573007 0.38002428949633388 0 0.27658869331385272 0.37658954418192858 0 0.28164748035231918 0.3833691337288414 0 0.28255141910243181 0.36881539236457972 0 0.2699270554837932 0.38256702509492291 0 0.275107036573007 0.38002428949633388 0 0.28164748035231918 0.3833691337288414 0 0.27658869331385272 0.37658954418192858 0 0.275107036573007 0.38002428949633388 0 0.28164748035231918 0.3833691337288414 0 0.28164748035231918 0.3833691337288414 0 0.29547707735069001 0.39887058673173331 0 0.29710586311966519 0.37498843892672162 0 0.28164748035231918 0.3833691337288414 0 0.29710586311966519 0.37498843892672162 0 0.28255141910243181 0.36881539236457972 0 0.29547707735069001 0.39887058673173331 0 0.29710586311966519 0.37498843892672162 0 0.28164748035231918 0.3833691337288414 0 0.28584645353694782 0.40118251875290162 0 0.29547707735069001 0.39887058673173331 0 0.29105124203247501 0.4072687857653895 0 0.28945550651531449 0.41029675755255129 0 0.28584645353694782 0.40118251875290162 0 0.29105124203247501 0.4072687857653895 0 0.28584645353694782 0.40118251875290162 0 0.28584645353694782 0.40118251875290162 0 0.29547707735069001 0.39887058673173331 0 0.29260892758054219 0.40431301531214081 0 0.29547707735069001 0.39887058673173331 0 0.29502947749690772 0.40543354060152631 0 0.29547707735069001 0.39887058673173331 0 0.29260892758054219 0.40431301531214081 0 0.29547707735069001 0.39887058673173331 0 0.29502947749690772 0.40543354060152631 0 0.29260892758054219 0.40431301531214081 0 0.29502947749690772 0.40543354060152631 0 0.29260892758054219 0.40431301531214081 0 0.29308762653047299 0.40645362269547841 0 0.29502947749690772 0.40543354060152631 0 0.29260892758054219 0.40431301531214081 0 0.29105124203247501 0.4072687857653895 0 0.29260892758054219 0.40431301531214081 0 0.29105124203247501 0.4072687857653895 0 0.29308762653047299 0.40645362269547841 0 0.29260892758054219 0.40431301531214081 0 0.28584645353694782 0.40118251875290162 0 0.29260892758054219 0.40431301531214081 0 0.29105124203247501 0.4072687857653895 0 0.28584645353694782 0.40118251875290162 0 0.29260892758054219 0.40431301531214081 0 0.30643336556868711 0.40291455658037362 0 0.30535711333293492 0.38007675863104462 0 0.31565461397772798 0.39987619259500312 0 0.29547707735069001 0.39887058673173331 0 0.30643336556868711 0.40291455658037362 0 0.30535711333293492 0.38007675863104462 0 0.29547707735069001 0.39887058673173331 0 0.29502947749690772 0.40543354060152631 0 0.30643336556868711 0.40291455658037362 0 0.30643336556868711 0.40291455658037362 0 0.31565461397772798 0.39987619259500312 0 0.31304947154898299 0.40669669926715551 0 0.29547707735069001 0.39887058673173331 0 0.30535711333293492 0.38007675863104462 0 0.29710586311966519 0.37498843892672162 0 0.29547707735069001 0.39887058673173331 0 0.30535711333293492 0.38007675863104462 0 0.30535711333293492 0.38007675863104462 0 0.32920089003145142 0.39870339826956619 0 0.30535711333293492 0.38007675863104462 0 0.3267893265351946 0.38056067495598361 0 0.32920089003145142 0.39870339826956619 0 0.30535711333293492 0.38007675863104462 0 0.3267893265351946 0.38056067495598361 0 0.3267589851183767 0.36776821452386338 0 0.3267893265351946 0.38056067495598361 0 0.34096754860442691 0.38762893324019271 0 0.33687080386773549 0.37546358871643137 0 0.3267893265351946 0.38056067495598361 0 0.34096754860442691 0.38762893324019271 0 0.32920089003145142 0.39870339826956619 0 0.34096754860442691 0.38762893324019271 0 0.33687080386773549 0.37546358871643137 0 0.34963810352005931 0.37576464290079881 0 0.32920089003145142 0.39870339826956619 0 0.35173350642461049 0.41630576600580999 0 0.34835836177175988 0.39888788145175103 0 0.34096754860442691 0.38762893324019271 0 0.32920089003145142 0.39870339826956619 0 0.34835836177175988 0.39888788145175103 0 0.34096754860442691 0.38762893324019271 0 0.32920089003145142 0.39870339826956619 0 0.32920089003145142 0.39870339826956619 0 0.31565461397772798 0.39987619259500312 0 0.31704646820872218 0.41014281572128303 0 0.32920089003145142 0.39870339826956619 0 0.31704646820872218 0.41014281572128303 0 0.30535711333293492 0.38007675863104462 0 0.32920089003145142 0.39870339826956619 0 0.31565461397772798 0.39987619259500312 0 0.31565461397772798 0.39987619259500312 0 0.31304947154898299 0.40669669926715551 0 0.31704646820872218 0.41014281572128303 0 0.31704646820872218 0.41014281572128303 0 0.32278595610884098 0.42092809450220853 0 0.33391630719095478 0.41589031279526911 0 0.3118915780135324 0.41323937428140151 0 0.31304947154898299 0.40669669926715551 0 0.31704646820872218 0.41014281572128303 0 0.30489204638599299 0.4215822331729997 0 0.31704646820872218 0.41014281572128303 0 0.32278595610884098 0.42092809450220853 0 0.32920089003145142 0.39870339826956619 0 0.31704646820872218 0.41014281572128303 0 0.33391630719095478 0.41589031279526911 0 0.30489204638599299 0.4215822331729997 0 0.32278595610884098 0.42092809450220853 0 0.32144842777249211 0.43491338448262618 0 0.30489204638599299 0.4215822331729997 0 0.32144842777249211 0.43491338448262618 0 0.32278595610884098 0.42092809450220853 0 0.32144842777249211 0.43491338448262618 0 0.33195537040394368 0.42562451770215881 0 0.32144842777249211 0.43491338448262618 0 0.33195537040394368 0.42562451770215881 0 0.33961821023650118 0.43304004345837682 0 0.33195537040394368 0.42562451770215881 0 0.3420079507109291 0.4233507532723132 0 0.33961821023650118 0.43304004345837682 0 0.3420079507109291 0.4233507532723132 0 0.33961821023650118 0.43304004345837682 0 0.34852962537784599 0.42921190182690577 0 0.3420079507109291 0.4233507532723132 0 0.33391630719095478 0.41589031279526911 0 0.35173350642461049 0.41630576600580999 0 0.32920089003145142 0.39870339826956619 0 0.33391630719095478 0.41589031279526911 0 0.35173350642461049 0.41630576600580999 0 0.32920089003145142 0.39870339826956619 0 0.35173350642461049 0.41630576600580999 0 0.32278595610884098 0.42092809450220853 0 0.33195537040394368 0.42562451770215881 0 0.33391630719095478 0.41589031279526911 0 0.33195537040394368 0.42562451770215881 0 0.3420079507109291 0.4233507532723132 0 0.33391630719095478 0.41589031279526911 0 0.35173350642461049 0.41630576600580999 0 0.34835836177175988 0.39888788145175103 0 0.35745458191178708 0.40603946031775118 0 0.35173350642461049 0.41630576600580999 0 0.35841268919250319 0.41662087790198288 0 0.35745458191178708 0.40603946031775118 0 0.35527813468953351 0.44155734433189919 0 0.33961821023650118 0.43304004345837682 0 0.34852962537784599 0.42921190182690577 0 0.3420079507109291 0.4233507532723132 0 0.35173350642461049 0.41630576600580999 0 0.34852962537784599 0.42921190182690577 0 0.35173350642461049 0.41630576600580999 0 0.34852962537784599 0.42921190182690577 0 0.35851356907694942 0.43084974830926542 0 0.35527813468953351 0.44155734433189919 0 0.34852962537784599 0.42921190182690577 0 0.35851356907694942 0.43084974830926542 0 0.35173350642461049 0.41630576600580999 0 0.35851356907694942 0.43084974830926542 0 0.37426612281776722 0.43390813374205722 0 0.35173350642461049 0.41630576600580999 0 0.37426612281776722 0.43390813374205722 0 0.35527813468953351 0.44155734433189919 0 0.35851356907694942 0.43084974830926542 0 0.37426612281776722 0.43390813374205722 0 0.37426612281776722 0.43390813374205722 0 0.36624280198345521 0.41316031018620869 0 0.38206111242543861 0.42111915346048762 0 0.35173350642461049 0.41630576600580999 0 0.35841268919250319 0.41662087790198288 0 0.37426612281776722 0.43390813374205722 0 0.35841268919250319 0.41662087790198288 0 0.36624280198345521 0.41316031018620869 0 0.37644478834369538 0.39990109160760751 0 0.35841268919250319 0.41662087790198288 0 0.37644478834369538 0.39990109160760751 0 0.35841268919250319 0.41662087790198288 0 0.37426612281776722 0.43390813374205722 0 0.36624280198345521 0.41316031018620869 0 0.35841268919250319 0.41662087790198288 0 0.35745458191178708 0.40603946031775118 0 0.37644478834369538 0.39990109160760751 0 0.36402527354992209 0.38418730784978777 0 0.35820055409578272 0.39634389975250278 0 0.37644478834369538 0.39990109160760751 0 0.35745458191178708 0.40603946031775118 0 0.35820055409578272 0.39634389975250278 0 0.37644478834369538 0.39990109160760751 0 0.36402527354992209 0.38418730784978777 0 0.38026122572135079 0.3855812713300395 0 0.37644478834369538 0.39990109160760751 0 0.36402527354992209 0.38418730784978777 0 0.35259308956250079 0.38830583112468331 0 0.35820055409578272 0.39634389975250278 0 0.36402527354992209 0.38418730784978777 0 0.34963810352005931 0.37576464290079881 0 0.3617772970429175 0.3664881626226118 0 0.36402527354992209 0.38418730784978777 0 0.35259308956250079 0.38830583112468331 0 0.34963810352005931 0.37576464290079881 0 0.34096754860442691 0.38762893324019271 0 0.35259308956250079 0.38830583112468331 0 0.34963810352005931 0.37576464290079881 0 0.34096754860442691 0.38762893324019271 0 0.35259308956250079 0.38830583112468331 0 0.34835836177175988 0.39888788145175103 0 0.34835836177175988 0.39888788145175103 0 0.35745458191178708 0.40603946031775118 0 0.35820055409578272 0.39634389975250278 0 0.35259308956250079 0.38830583112468331 0 0.34835836177175988 0.39888788145175103 0 0.35820055409578272 0.39634389975250278 0 0.35291116921171761 0.34997118265257909 0 0.35207353371078182 0.36095744046386541 0 0.36596009824664688 0.35336137002200152 0 0.35291116921171761 0.34997118265257909 0 0.34425042465606531 0.34551988485033502 0 0.34257800558338891 0.35528885569764779 0 0.35291116921171761 0.34997118265257909 0 0.34425042465606531 0.34551988485033502 0 0.34725201247428938 0.33650543463957772 0 0.35291116921171761 0.34997118265257909 0 0.35207353371078182 0.36095744046386541 0 0.34257800558338891 0.35528885569764779 0 0.35207353371078182 0.36095744046386541 0 0.34257800558338891 0.35528885569764779 0 0.34020005556062022 0.36559547796131853 0 0.34963810352005931 0.37576464290079881 0 0.35207353371078182 0.36095744046386541 0 0.34020005556062022 0.36559547796131853 0 0.34963810352005931 0.37576464290079881 0 0.35207353371078182 0.36095744046386541 0 0.3617772970429175 0.3664881626226118 0 0.35207353371078182 0.36095744046386541 0 0.3617772970429175 0.3664881626226118 0 0.36596009824664688 0.35336137002200152 0 0.3617772970429175 0.3664881626226118 0 0.36596009824664688 0.35336137002200152 0 0.37951797562987188 0.36297222726640688 0 0.36402527354992209 0.38418730784978777 0 0.3617772970429175 0.3664881626226118 0 0.37951797562987188 0.36297222726640688 0 0.36596009824664688 0.35336137002200152 0 0.37683016966330413 0.35167770670410359 0 0.37951797562987188 0.36297222726640688 0 0.36596009824664688 0.35336137002200152 0 0.37326990258408232 0.34203288027681339 0 0.36040848805977538 0.33956218043777903 0 0.35291116921171761 0.34997118265257909 0 0.36596009824664688 0.35336137002200152 0 0.36040848805977538 0.33956218043777903 0 0.36596009824664688 0.35336137002200152 0 0.37326990258408232 0.34203288027681339 0 0.37683016966330413 0.35167770670410359 0 0.37326990258408232 0.34203288027681339 0 0.36040848805977538 0.33956218043777903 0 0.36424310144416511 0.32213284182668722 0 0.37326990258408232 0.34203288027681339 0 0.36424310144416511 0.32213284182668722 0 0.38263009593359038 0.33378942036267573 0 0.36424310144416511 0.32213284182668722 0 0.36084094352288848 0.31005712518645329 0 0.38845870662102688 0.31402938643627948 0 0.36424310144416511 0.32213284182668722 0 0.33832641730666507 0.32419843889697691 0 0.36084094352288848 0.31005712518645329 0 0.36424310144416511 0.32213284182668722 0 0.34725201247428938 0.33650543463957772 0 0.33832641730666507 0.32419843889697691 0 0.33832641730666507 0.32419843889697691 0 0.33322318042475019 0.30608486393662709 0 0.36084094352288848 0.31005712518645329 0 0.36424310144416511 0.32213284182668722 0 0.33832641730666507 0.32419843889697691 0 0.36040848805977538 0.33956218043777903 0 0.36424310144416511 0.32213284182668722 0 0.34725201247428938 0.33650543463957772 0 0.35291116921171761 0.34997118265257909 0 0.36040848805977538 0.33956218043777903 0 0.34725201247428938 0.33650543463957772 0 0.34425042465606531 0.34551988485033502 0 0.33948507646798259 0.33620079982269829 0 0.33468329446119433 0.34611894491369333 0 0.34425042465606531 0.34551988485033502 0 0.34725201247428938 0.33650543463957772 0 0.33948507646798259 0.33620079982269829 0 0.33948507646798259 0.33620079982269829 0 0.33260759119213867 0.32841395582659932 0 0.33468329446119433 0.34611894491369333 0 0.33260759119213867 0.32841395582659932 0 0.3189918521702384 0.35425036366256529 0 0.33468329446119433 0.34611894491369333 0 0.34725201247428938 0.33650543463957772 0 0.33948507646798259 0.33620079982269829 0 0.33832641730666507 0.32419843889697691 0 0.33948507646798259 0.33620079982269829 0 0.33260759119213867 0.32841395582659932 0 0.33832641730666507 0.32419843889697691 0 0.33832641730666507 0.32419843889697691 0 0.31834133699144418 0.31155866740680349 0 0.33322318042475019 0.30608486393662709 0 0.33832641730666507 0.32419843889697691 0 0.31240973316916509 0.32626403596726722 0 0.31834133699144418 0.31155866740680349 0 0.33832641730666507 0.32419843889697691 0 0.31240973316916509 0.32626403596726722 0 0.33260759119213867 0.32841395582659932 0 0.33832641730666507 0.32419843889697691 0 0.31240973316916509 0.32626403596726722 0 0.33260759119213867 0.32841395582659932 0 0.3189918521702384 0.35425036366256529 0 0.33260759119213867 0.32841395582659932 0 0.31565305212153622 0.33577695972960381 0 0.3189918521702384 0.35425036366256529 0 0.33260759119213867 0.32841395582659932 0 0.31565305212153622 0.33577695972960381 0 0.31240973316916509 0.32626403596726722 0 0.31565305212153622 0.33577695972960381 0 0.31240973316916509 0.32626403596726722 0 0.31565305212153622 0.33577695972960381 0 0.3189918521702384 0.35425036366256529 0 0.31012961018097368 0.34454798623135058 0 0.3189918521702384 0.35425036366256529 0 0.33468329446119433 0.34611894491369333 0 0.33264243857876369 0.35780437135181759 0 0.33468329446119433 0.34611894491369333 0 0.33264243857876369 0.35780437135181759 0 0.34257800558338891 0.35528885569764779 0 0.34425042465606531 0.34551988485033502 0 0.33468329446119433 0.34611894491369333 0 0.34257800558338891 0.35528885569764779 0 0.33687080386773549 0.37546358871643137 0 0.34963810352005931 0.37576464290079881 0 0.34020005556062022 0.36559547796131853 0 0.33264243857876369 0.35780437135181759 0 0.34257800558338891 0.35528885569764779 0 0.34020005556062022 0.36559547796131853 0 0.33264243857876369 0.35780437135181759 0 0.34020005556062022 0.36559547796131853 0 0.3267589851183767 0.36776821452386338 0 0.33687080386773549 0.37546358871643137 0 0.34020005556062022 0.36559547796131853 0 0.3267589851183767 0.36776821452386338 0 0.3267893265351946 0.38056067495598361 0 0.33687080386773549 0.37546358871643137 0 0.3267589851183767 0.36776821452386338 0 0.30535711333293492 0.38007675863104462 0 0.3189918521702384 0.35425036366256529 0 0.3267589851183767 0.36776821452386338 0 0.3189918521702384 0.35425036366256529 0 0.33264243857876369 0.35780437135181759 0 0.3267589851183767 0.36776821452386338 0 0.3189918521702384 0.35425036366256529 0 0.29710586311966519 0.37498843892672162 0 0.29873464888864021 0.35110629112170988 0 0.29710586311966519 0.37498843892672162 0 0.29873464888864021 0.35110629112170988 0 0.30535711333293492 0.38007675863104462 0 0.3189918521702384 0.35425036366256529 0 0.29710586311966519 0.37498843892672162 0 0.30535711333293492 0.38007675863104462 0 0.3189918521702384 0.35425036366256529 0 0.3189918521702384 0.35425036366256529 0 0.31012961018097368 0.34454798623135058 0 0.29873464888864021 0.35110629112170988 0 0.31012961018097368 0.34454798623135058 0 0.29873464888864021 0.35110629112170988 0 0.30713888754348029 0.33705833041152361 0 0.29873464888864021 0.35110629112170988 0 0.28036599096640957 0.35376788439104112 0 0.28722229448336278 0.34080874887309248 0 0.29873464888864021 0.35110629112170988 0 0.28255141910243181 0.36881539236457972 0 0.28036599096640957 0.35376788439104112 0 0.29710586311966519 0.37498843892672162 0 0.29873464888864021 0.35110629112170988 0 0.28255141910243181 0.36881539236457972 0 0.27658869331385272 0.37658954418192858 0 0.28255141910243181 0.36881539236457972 0 0.2704138720414444 0.37159989170313429 0 0.28255141910243181 0.36881539236457972 0 0.2704138720414444 0.37159989170313429 0 0.27315299171431079 0.36181997400462312 0 0.2699270554837932 0.38256702509492291 0 0.2704138720414444 0.37159989170313429 0 0.25677449713956552 0.3671869607466593 0 0.2704138720414444 0.37159989170313429 0 0.27315299171431079 0.36181997400462312 0 0.26478650568748691 0.36233223773226181 0 0.28255141910243181 0.36881539236457972 0 0.27315299171431079 0.36181997400462312 0 0.28036599096640957 0.35376788439104112 0 0.27315299171431079 0.36181997400462312 0 0.28036599096640957 0.35376788439104112 0 0.26764717077378142 0.3525844638320984 0 0.28036599096640957 0.35376788439104112 0 0.27375856649630792 0.343328531160357 0 0.28722229448336278 0.34080874887309248 0 0.28036599096640957 0.35376788439104112 0 0.26764717077378142 0.3525844638320984 0 0.27375856649630792 0.343328531160357 0 0.26764717077378142 0.3525844638320984 0 0.26537266581322888 0.34244303911966462 0 0.27375856649630792 0.343328531160357 0 0.27315299171431079 0.36181997400462312 0 0.26764717077378142 0.3525844638320984 0 0.26478650568748691 0.36233223773226181 0 0.26478650568748691 0.36233223773226181 0 0.25444107595088311 0.34120581542696748 0 0.26764717077378142 0.3525844638320984 0 0.26478650568748691 0.36233223773226181 0 0.25444107595088311 0.34120581542696748 0 0.25490600439331818 0.35563297757607121 0 0.26478650568748691 0.36233223773226181 0 0.25444107595088311 0.34120581542696748 0 0.26764717077378142 0.3525844638320984 0 0.25444107595088311 0.34120581542696748 0 0.26537266581322888 0.34244303911966462 0 0.24362193879533739 0.35180689639839602 0 0.25490600439331818 0.35563297757607121 0 0.25444107595088311 0.34120581542696748 0 0.24362193879533739 0.35180689639839602 0 0.25490600439331818 0.35563297757607121 0 0.25677449713956552 0.3671869607466593 0 0.24362193879533739 0.35180689639839602 0 0.25677449713956552 0.3671869607466593 0 0.2699270554837932 0.38256702509492291 0 0.25677449713956552 0.3671869607466593 0 0.25490600439331818 0.35563297757607121 0 0.25677449713956552 0.3671869607466593 0 0.26478650568748691 0.36233223773226181 0 0.2704138720414444 0.37159989170313429 0 0.25677449713956552 0.3671869607466593 0 0.26478650568748691 0.36233223773226181 0 0.24409564621427951 0.32007939312167299 0 0.2633985401261637 0.31444108487519912 0 0.2633985401261637 0.31444108487519912 0 0.25689477808081729 0.32709490987076878 0 0.26564385003194302 0.33265334605923552 0 0.2434003034573026 0.31865943231725968 0 0.24409564621427951 0.32007939312167299 0 0.2633985401261637 0.31444108487519912 0 0.24409564621427951 0.32007939312167299 0 0.2633985401261637 0.31444108487519912 0 0.25689477808081729 0.32709490987076878 0 0.24409564621427951 0.32007939312167299 0 0.25689477808081729 0.32709490987076878 0 0.25444107595088311 0.34120581542696748 0 0.25444107595088311 0.34120581542696748 0 0.26537266581322888 0.34244303911966462 0 0.26564385003194302 0.33265334605923552 0 0.25689477808081729 0.32709490987076878 0 0.25444107595088311 0.34120581542696748 0 0.26564385003194302 0.33265334605923552 0 0.26564385003194302 0.33265334605923552 0 0.27375856649630792 0.343328531160357 0 0.28288883140784132 0.32861689437565639 0 0.26537266581322888 0.34244303911966462 0 0.26564385003194302 0.33265334605923552 0 0.27375856649630792 0.343328531160357 0 0.2633985401261637 0.31444108487519912 0 0.28288883140784132 0.32861689437565639 0 0.28270143403804782 0.30880277662872507 0 0.2633985401261637 0.31444108487519912 0 0.26564385003194302 0.33265334605923552 0 0.28288883140784132 0.32861689437565639 0 0.30036343465761189 0.32722414331669819 0 0.30200432794993198 0.30316446838225158 0 0.28270143403804782 0.30880277662872507 0 0.28288883140784132 0.32861689437565639 0 0.30036343465761189 0.32722414331669819 0 0.28288883140784132 0.32861689437565639 0 0.30036343465761189 0.32722414331669819 0 0.28270143403804782 0.30880277662872507 0 0.28722229448336278 0.34080874887309248 0 0.28288883140784132 0.32861689437565639 0 0.30036343465761189 0.32722414331669819 0 0.29873464888864021 0.35110629112170988 0 0.28722229448336278 0.34080874887309248 0 0.30036343465761189 0.32722414331669819 0 0.27375856649630792 0.343328531160357 0 0.28722229448336278 0.34080874887309248 0 0.28288883140784132 0.32861689437565639 0 0.29873464888864021 0.35110629112170988 0 0.30036343465761189 0.32722414331669819 0 0.29873464888864021 0.35110629112170988 0 0.30713888754348029 0.33705833041152361 0 0.30036343465761189 0.32722414331669819 0 0.31565305212153622 0.33577695972960381 0 0.30713888754348029 0.33705833041152361 0 0.31240973316916509 0.32626403596726722 0 0.30713888754348029 0.33705833041152361 0 0.30036343465761189 0.32722414331669819 0 0.31240973316916509 0.32626403596726722 0 0.31565305212153622 0.33577695972960381 0 0.31012961018097368 0.34454798623135058 0 0.30713888754348029 0.33705833041152361 0 0.31240973316916509 0.32626403596726722 0 0.30560541732661178 0.30211260268680112 0 0.31834133699144418 0.31155866740680349 0 0.30036343465761189 0.32722414331669819 0 0.31240973316916509 0.32626403596726722 0 0.30200432794993198 0.30316446838225158 0 0.30036343465761189 0.32722414331669819 0 0.30200432794993198 0.30316446838225158 0 0.31240973316916509 0.32626403596726722 0 0.30560541732661178 0.30211260268680112 0 0.30036343465761189 0.32722414331669819 0 0.31240973316916509 0.32626403596726722 0 0.31240973316916509 0.32626403596726722 0 0.30560541732661178 0.30211260268680112 0 0.30200432794993198 0.30316446838225158 0 0.30560541732661178 0.30211260268680112 0 0.30410185710303989 0.30189634570785268 0 0.30410185710303989 0.30189634570785268 0 0.30211035052260471 0.30160990743296101 0 0.30200432794993198 0.30316446838225158 0 0.30560541732661178 0.30211260268680112 0 0.30200432794993198 0.30316446838225158 0 0.30410185710303989 0.30189634570785268 0 0.30211035052260471 0.30160990743296101 0 0.30560541732661178 0.30211260268680112 0 0.30410185710303989 0.30189634570785268 0 0.30200432794993198 0.30316446838225158 0 0.30211035052260471 0.30160990743296101 0 0.30200432794993198 0.30316446838225158 0 0.30410185710303989 0.30189634570785268 0 0.30242604344626117 0.29698104511888002 0 0.30211035052260471 0.30160990743296101 0 0.30242604344626117 0.29698104511888002 0 0.30560541732661178 0.30211260268680112 0 0.30410185710303989 0.30189634570785268 0 0.30242604344626117 0.29698104511888002 0 0.30410185710303989 0.30189634570785268 0 0.30211035052260471 0.30160990743296101 0 0.30242604344626117 0.29698104511888002 0 0.30211035052260471 0.30160990743296101 0 0.30242604344626117 0.29698104511888002 0 0.29500862157009938 0.30058846617341489 0 0.30211035052260471 0.30160990743296101 0 0.29500862157009938 0.30058846617341489 0 0.30211035052260471 0.30160990743296101 0 0.30200432794993198 0.30316446838225158 0 0.29500862157009938 0.30058846617341489 0 0.30242604344626117 0.29698104511888002 0 0.30391666313851617 0.27512476390030183 0 0.30242604344626117 0.29698104511888002 0 0.29552763112984481 0.27674742905740118 0 0.30391666313851617 0.27512476390030183 0 0.30242604344626117 0.29698104511888002 0 0.3112514413175817 0.29026934197235099 0 0.30391666313851617 0.27512476390030183 0 0.30242604344626117 0.29698104511888002 0 0.29552763112984481 0.27674742905740118 0 0.30560541732661178 0.30211260268680112 0 0.30242604344626117 0.29698104511888002 0 0.3112514413175817 0.29026934197235099 0 0.30242604344626117 0.29698104511888002 0 0.29076513543691768 0.28939852083497331 0 0.29552763112984481 0.27674742905740118 0 0.29076513543691768 0.28939852083497331 0 0.29500862157009938 0.30058846617341489 0 0.28413524928310913 0.29922467439641609 0 0.30242604344626117 0.29698104511888002 0 0.29076513543691768 0.28939852083497331 0 0.29500862157009938 0.30058846617341489 0 0.29076513543691768 0.28939852083497331 0 0.28413524928310913 0.29922467439641609 0 0.27626512682778948 0.29313810373083149 0 0.30200432794993198 0.30316446838225158 0 0.29500862157009938 0.30058846617341489 0 0.28270143403804782 0.30880277662872507 0 0.30200432794993198 0.30316446838225158 0 0.28270143403804782 0.30880277662872507 0 0.29500862157009938 0.30058846617341489 0 0.28413524928310913 0.29922467439641609 0 0.28270143403804782 0.30880277662872507 0 0.2633985401261637 0.31444108487519912 0 0.28270143403804782 0.30880277662872507 0 0.27272750336506618 0.30258947742020531 0 0.27626512682778948 0.29313810373083149 0 0.2584766085760114 0.29794422587681391 0 0.2633985401261637 0.31444108487519912 0 0.28270143403804782 0.30880277662872507 0 0.27272750336506618 0.30258947742020531 0 0.28413524928310913 0.29922467439641609 0 0.28270143403804782 0.30880277662872507 0 0.27272750336506618 0.30258947742020531 0 0.28413524928310913 0.29922467439641609 0 0.27272750336506618 0.30258947742020531 0 0.27626512682778948 0.29313810373083149 0 0.27626512682778948 0.29313810373083149 0 0.2584766085760114 0.29794422587681391 0 0.27355291369472051 0.27722901943636852 0 0.29076513543691768 0.28939852083497331 0 0.27626512682778948 0.29313810373083149 0 0.27355291369472051 0.27722901943636852 0 0.2584766085760114 0.29794422587681391 0 0.27355291369472051 0.27722901943636852 0 0.24481726326944989 0.28301452540910571 0 0.2584766085760114 0.29794422587681391 0 0.27355291369472051 0.27722901943636852 0 0.2633985401261637 0.31444108487519912 0 0.27272750336506618 0.30258947742020531 0 0.2584766085760114 0.29794422587681391 0 0.2434003034573026 0.31865943231725968 0 0.2633985401261637 0.31444108487519912 0 0.2584766085760114 0.29794422587681391 0 0.2434003034573026 0.31865943231725968 0 0.2584766085760114 0.29794422587681391 0 0.25231182870767649 0.26565671054774792 0 0.27355291369472051 0.27722901943636852 0 0.26670419109251631 0.25026282370240799 0 0.24408767522763519 0.24738620800961111 0 0.25231182870767649 0.26565671054774792 0 0.26670419109251631 0.25026282370240799 0 0.24481726326944989 0.28301452540910571 0 0.25231182870767649 0.26565671054774792 0 0.27355291369472051 0.27722901943636852 0 0.27355291369472051 0.27722901943636852 0 0.28862921881342862 0.25651381299592252 0 0.27355291369472051 0.27722901943636852 0 0.26670419109251631 0.25026282370240799 0 0.28862921881342862 0.25651381299592252 0 0.28862921881342862 0.25651381299592252 0 0.29776356066822751 0.24396300722953371 0 0.27355291369472051 0.27722901943636852 0 0.28862921881342862 0.25651381299592252 0 0.29552763112984481 0.27674742905740118 0 0.28862921881342862 0.25651381299592252 0 0.29552763112984481 0.27674742905740118 0 0.2978556946594782 0.26499916065428741 0 0.29076513543691768 0.28939852083497331 0 0.27355291369472051 0.27722901943636852 0 0.29552763112984481 0.27674742905740118 0 0.28862921881342862 0.25651381299592252 0 0.29552763112984481 0.27674742905740118 0 0.29552763112984481 0.27674742905740118 0 0.30391666313851617 0.27512476390030183 0 0.2978556946594782 0.26499916065428741 0 0.28862921881342862 0.25651381299592252 0 0.30540728283077301 0.25326848268172381 0 0.29776356066822751 0.24396300722953371 0 0.28862921881342862 0.25651381299592252 0 0.30540728283077301 0.25326848268172381 0 0.2978556946594782 0.26499916065428741 0 0.30391666313851617 0.27512476390030183 0 0.30540728283077301 0.25326848268172381 0 0.32407224861068928 0.25845906939160002 0 0.30391666313851617 0.27512476390030183 0 0.30540728283077301 0.25326848268172381 0 0.2978556946594782 0.26499916065428741 0 0.30391666313851617 0.27512476390030183 0 0.30540728283077301 0.25326848268172381 0 0.32407224861068928 0.25845906939160002 0 0.34621985135880412 0.25716369420118629 0 0.33602305800246068 0.24156532362903541 0 0.32407224861068928 0.25845906939160002 0 0.33573897500213212 0.27118907792075031 0 0.34621985135880412 0.25716369420118629 0 0.33573897500213212 0.27118907792075031 0 0.34621985135880412 0.25716369420118629 0 0.34889669758406239 0.27330177451323312 0 0.33573897500213212 0.27118907792075031 0 0.33760291196371039 0.28866313535018251 0 0.34889669758406239 0.27330177451323312 0 0.33573897500213212 0.27118907792075031 0 0.32249822532155947 0.27974924819773228 0 0.33760291196371039 0.28866313535018251 0 0.30391666313851617 0.27512476390030183 0 0.32407224861068928 0.25845906939160002 0 0.32249822532155947 0.27974924819773228 0 0.32407224861068928 0.25845906939160002 0 0.33573897500213212 0.27118907792075031 0 0.32249822532155947 0.27974924819773228 0 0.32249822532155947 0.27974924819773228 0 0.32181085735496129 0.29737904995804021 0 0.33760291196371039 0.28866313535018251 0 0.3112514413175817 0.29026934197235099 0 0.32249822532155947 0.27974924819773228 0 0.32181085735496129 0.29737904995804021 0 0.30560541732661178 0.30211260268680112 0 0.3112514413175817 0.29026934197235099 0 0.32181085735496129 0.29737904995804021 0 0.3112514413175817 0.29026934197235099 0 0.30391666313851617 0.27512476390030183 0 0.32249822532155947 0.27974924819773228 0 0.30560541732661178 0.30211260268680112 0 0.31834133699144418 0.31155866740680349 0 0.33322318042475019 0.30608486393662709 0 0.30560541732661178 0.30211260268680112 0 0.32181085735496129 0.29737904995804021 0 0.30560541732661178 0.30211260268680112 0 0.33322318042475019 0.30608486393662709 0 0.30560541732661178 0.30211260268680112 0 0.32181085735496129 0.29737904995804021 0 0.33322318042475019 0.30608486393662709 0 0.33322318042475019 0.30608486393662709 0 0.33760291196371039 0.28866313535018251 0 0.3474292253766908 0.2983281498519389 0 0.32181085735496129 0.29737904995804021 0 0.33322318042475019 0.30608486393662709 0 0.33760291196371039 0.28866313535018251 0 0.33760291196371039 0.28866313535018251 0 0.35804986559541407 0.28850747493449269 0 0.3474292253766908 0.2983281498519389 0 0.33760291196371039 0.28866313535018251 0 0.35804986559541407 0.28850747493449269 0 0.34889669758406239 0.27330177451323312 0 0.35804986559541407 0.28850747493449269 0 0.3474292253766908 0.2983281498519389 0 0.36084094352288848 0.31005712518645329 0 0.33322318042475019 0.30608486393662709 0 0.36084094352288848 0.31005712518645329 0 0.33322318042475019 0.30608486393662709 0 0.3474292253766908 0.2983281498519389 0 0.36084094352288848 0.31005712518645329 0 0.36084094352288848 0.31005712518645329 0 0.38845870662102688 0.31402938643627948 0 0.35804986559541407 0.28850747493449269 0 0.36084094352288848 0.31005712518645329 0 0.37817763409623367 0.29851885642209008 0 0.35804986559541407 0.28850747493449269 0 0.38514994837266681 0.27949120296068991 0 0.37817763409623367 0.29851885642209008 0 0.35804986559541407 0.28850747493449269 0 0.366871884000251 0.26098549015955369 0 0.35804986559541407 0.28850747493449269 0 0.366871884000251 0.26098549015955369 0 0.38514994837266681 0.27949120296068991 0 0.366871884000251 0.26098549015955369 0 0.34621985135880412 0.25716369420118629 0 0.35506734431001008 0.24099040477674649 0 0.366871884000251 0.26098549015955369 0 0.34621985135880412 0.25716369420118629 0 0.34889669758406239 0.27330177451323312 0 0.35804986559541407 0.28850747493449269 0 0.366871884000251 0.26098549015955369 0 0.34889669758406239 0.27330177451323312 0 0.366871884000251 0.26098549015955369 0 0.38514994837266681 0.27949120296068991 0 0.39942768190676292 0.24984404265893251 0 0.38514994837266681 0.27949120296068991 0 0.40682783676557799 0.2776054933960036 0 0.39942768190676292 0.24984404265893251 0 0.38514994837266681 0.27949120296068991 0 0.37817763409623367 0.29851885642209008 0 0.40412646323741058 0.30309139953484648 0 0.37817763409623367 0.29851885642209008 0 0.40412646323741058 0.30309139953484648 0 0.38845870662102688 0.31402938643627948 0 0.36084094352288848 0.31005712518645329 0 0.37817763409623367 0.29851885642209008 0 0.38845870662102688 0.31402938643627948 0 0.40412646323741058 0.30309139953484648 0 0.41637697488267622 0.31801079343502842 0 0.38845870662102688 0.31402938643627948 0 0.38514994837266681 0.27949120296068991 0 0.40412646323741058 0.30309139953484648 0 0.40682783676557799 0.2776054933960036 0 0.40412646323741058 0.30309139953484648 0 0.41976921814555818 0.29211768668413912 0 0.40682783676557799 0.2776054933960036 0 0.41976921814555818 0.29211768668413912 0 0.41637697488267622 0.31801079343502842 0 0.41976921814555818 0.29211768668413912 0 0.42513350018684931 0.31727978930714562 0 0.41637697488267622 0.31801079343502842 0 0.40412646323741058 0.30309139953484648 0 0.41976921814555818 0.29211768668413912 0 0.41637697488267622 0.31801079343502842 0 0.41976921814555818 0.29211768668413912 0 0.43247574774766739 0.30605345857332189 0 0.43955569476185158 0.29408144821631971 0 0.41976921814555818 0.29211768668413912 0 0.43247574774766739 0.30605345857332189 0 0.42513350018684931 0.31727978930714562 0 0.43247574774766739 0.30605345857332189 0 0.44627146073815099 0.30463227626881562 0 0.43185811500265409 0.32027152080346688 0 0.41976921814555818 0.29211768668413912 0 0.4433505344106517 0.28015863804748209 0 0.43955569476185158 0.29408144821631971 0 0.42316146140843852 0.26622457993324949 0 0.43782475921338132 0.26100542001485322 0 0.4433505344106517 0.28015863804748209 0 0.41976921814555818 0.29211768668413912 0 0.42316146140843852 0.26622457993324949 0 0.4433505344106517 0.28015863804748209 0 0.42316146140843852 0.26622457993324949 0 0.4433505344106517 0.28015863804748209 0 0.41976921814555818 0.29211768668413912 0 0.42316146140843852 0.26622457993324949 0 0.40682783676557799 0.2776054933960036 0 0.41976921814555818 0.29211768668413912 0 0.42316146140843852 0.26622457993324949 0 0.42316146140843852 0.26622457993324949 0 0.39942768190676292 0.24984404265893251 0 0.4257854623107804 0.24619549292105969 0 0.42316146140843852 0.26622457993324949 0 0.39942768190676292 0.24984404265893251 0 0.42316146140843852 0.26622457993324949 0 0.40682783676557799 0.2776054933960036 0 0.39942768190676292 0.24984404265893251 0 0.42316146140843852 0.26622457993324949 0 0.43782475921338132 0.26100542001485322 0 0.4257854623107804 0.24619549292105969 0 0.42316146140843852 0.26622457993324949 0 0.4257854623107804 0.24619549292105969 0 0.43782475921338132 0.26100542001485322 0 0.4257854623107804 0.24619549292105969 0 0.44026912624384251 0.2482901158784577 0 0.43782475921338132 0.26100542001485322 0 0.44720764468000263 0.25651678075340001 0 0.44026912624384251 0.2482901158784577 0 0.43782475921338132 0.26100542001485322 0 0.44720764468000263 0.25651678075340001 0 0.44902255210496889 0.26682979311814548 0 0.44720764468000263 0.25651678075340001 0 0.44902255210496889 0.26682979311814548 0 0.45778275784582179 0.26230725949089512 0 0.44720764468000263 0.25651678075340001 0 0.45675440256914851 0.25143546716135329 0 0.44980473776379493 0.24892982199632099 0 0.44720764468000263 0.25651678075340001 0 0.44980473776379493 0.24892982199632099 0 0.44026912624384251 0.2482901158784577 0 0.43782475921338132 0.26100542001485322 0 0.4433505344106517 0.28015863804748209 0 0.44902255210496889 0.26682979311814548 0 0.4433505344106517 0.28015863804748209 0 0.44902255210496889 0.26682979311814548 0 0.45894706437498739 0.27416086728409772 0 0.4433505344106517 0.28015863804748209 0 0.45894706437498739 0.27416086728409772 0 0.4606848064736479 0.28899303173416419 0 0.45894706437498739 0.27416086728409772 0 0.46974488900411798 0.26199038117111378 0 0.47494507228911281 0.28286898070546113 0 0.44902255210496889 0.26682979311814548 0 0.45894706437498739 0.27416086728409772 0 0.45778275784582179 0.26230725949089512 0 0.45894706437498739 0.27416086728409772 0 0.45778275784582179 0.26230725949089512 0 0.46974488900411798 0.26199038117111378 0 0.46974488900411798 0.26199038117111378 0 0.46454470571912321 0.24111178163676639 0 0.46259686318363369 0.25465534831908893 0 0.46974488900411798 0.26199038117111378 0 0.46454470571912321 0.24111178163676639 0 0.44720764468000263 0.25651678075340001 0 0.45675440256914851 0.25143546716135329 0 0.45778275784582179 0.26230725949089512 0 0.45675440256914851 0.25143546716135329 0 0.45778275784582179 0.26230725949089512 0 0.46259686318363369 0.25465534831908893 0 0.45675440256914851 0.25143546716135329 0 0.46259686318363369 0.25465534831908893 0 0.46017941216138591 0.24818184617103509 0 0.45778275784582179 0.26230725949089512 0 0.46259686318363369 0.25465534831908893 0 0.46974488900411798 0.26199038117111378 0 0.47479710248874951 0.26890477833712312 0 0.46726549252889987 0.2445719445248026 0 0.47538932675441631 0.2532173092492252 0 0.47479710248874951 0.26890477833712312 0 0.46726549252889987 0.2445719445248026 0 0.46974488900411798 0.26199038117111378 0 0.47479710248874951 0.26890477833712312 0 0.46726549252889987 0.2445719445248026 0 0.47538932675441631 0.2532173092492252 0 0.48100701709425808 0.26189953057779752 0 0.47479710248874951 0.26890477833712312 0 0.48132079222896762 0.25226252207308519 0 0.48100701709425808 0.26189953057779752 0 0.48538962345466652 0.25796436056032712 0 0.47538932675441631 0.2532173092492252 0 0.48132079222896762 0.25226252207308519 0 0.48100701709425808 0.26189953057779752 0 0.47538932675441631 0.2532173092492252 0 0.48132079222896762 0.25226252207308519 0 0.47701305774490371 0.24550023363278131 0 0.46974488900411798 0.26199038117111378 0 0.47494507228911281 0.28286898070546113 0 0.46974488900411798 0.26199038117111378 0 0.47479710248874951 0.26890477833712312 0 0.47494507228911281 0.28286898070546113 0 0.47479710248874951 0.26890477833712312 0 0.48655566379543541 0.27225507611025868 0 0.47494507228911281 0.28286898070546113 0 0.48100701709425808 0.26189953057779752 0 0.47479710248874951 0.26890477833712312 0 0.48655566379543541 0.27225507611025868 0 0.48100701709425808 0.26189953057779752 0 0.48655566379543541 0.27225507611025868 0 0.48984428608057201 0.26411807849854702 0 0.48655566379543541 0.27225507611025868 0 0.5 0.28533779439364171 0 0.47494507228911281 0.28286898070546113 0 0.48655566379543541 0.27225507611025868 0 0.5 0.26993687424651358 0 0.48984428608057201 0.26411807849854702 0 0.48655566379543541 0.27225507611025868 0 0.5 0.26993687424651358 0 0.5 0.28533779439364171 0 0.5 0.26993687424651358 0 0.49999999999999989 0.25453595409938551 0 0.48984428608057201 0.26411807849854702 0 0.49999999999999989 0.25453595409938551 0 0.48773754792976343 0.25092288794538409 0 0.48538962345466652 0.25796436056032712 0 0.48132079222896762 0.25226252207308519 0 0.48773754792976343 0.25092288794538409 0 0.48538962345466652 0.25796436056032712 0 0.48100701709425808 0.26189953057779752 0 0.48984428608057201 0.26411807849854702 0 0.48538962345466652 0.25796436056032712 0 0.49999999999999989 0.25453595409938551 0 0.48984428608057201 0.26411807849854702 0 0.48538962345466652 0.25796436056032712 0 0.5 0.30770507926382878 0 0.5 0.28533779439364171 0 0.48014525557410859 0.30374758023980819 0 0.5 0.28533779439364171 0 0.48014525557410859 0.30374758023980819 0 0.5 0.28533779439364171 0 0.47494507228911281 0.28286898070546113 0 0.48014525557410859 0.30374758023980819 0 0.47494507228911281 0.28286898070546113 0 0.48014525557410859 0.30374758023980819 0 0.47494507228911281 0.28286898070546113 0 0.46991973683371779 0.29527846766527982 0 0.48014525557410859 0.30374758023980819 0 0.48014525557410859 0.30374758023980819 0 0.48018541932267361 0.31017214473682442 0 0.4641401515156065 0.31858788902658403 0 0.48014525557410859 0.30374758023980819 0 0.46281698015095829 0.30414558436525069 0 0.4641401515156065 0.31858788902658403 0 0.48014525557410859 0.30374758023980819 0 0.4641401515156065 0.31858788902658403 0 0.46991973683371779 0.29527846766527982 0 0.48014525557410859 0.30374758023980819 0 0.46281698015095829 0.30414558436525069 0 0.46281698015095829 0.30414558436525069 0 0.4606848064736479 0.28899303173416419 0 0.44627146073815099 0.30463227626881562 0 0.46281698015095829 0.30414558436525069 0 0.44627146073815099 0.30463227626881562 0 0.45506119924111488 0.3127850777465806 0 0.46281698015095829 0.30414558436525069 0 0.45506119924111488 0.3127850777465806 0 0.4641401515156065 0.31858788902658403 0 0.45894706437498739 0.27416086728409772 0 0.47494507228911281 0.28286898070546113 0 0.4606848064736479 0.28899303173416419 0 0.4606848064736479 0.28899303173416419 0 0.44627146073815099 0.30463227626881562 0 0.47494507228911281 0.28286898070546113 0 0.46991973683371779 0.29527846766527982 0 0.4606848064736479 0.28899303173416419 0 0.46991973683371779 0.29527846766527982 0 0.46281698015095829 0.30414558436525069 0 0.4606848064736479 0.28899303173416419 0 0.4433505344106517 0.28015863804748209 0 0.4606848064736479 0.28899303173416419 0 0.43955569476185158 0.29408144821631971 0 0.4606848064736479 0.28899303173416419 0 0.43955569476185158 0.29408144821631971 0 0.44627146073815099 0.30463227626881562 0 0.44627146073815099 0.30463227626881562 0 0.43185811500265409 0.32027152080346688 0 0.43247574774766739 0.30605345857332189 0 0.43955569476185158 0.29408144821631971 0 0.44627146073815099 0.30463227626881562 0 0.4546736380097815 0.32355307614209627 0 0.43185811500265409 0.32027152080346688 0 0.4546736380097815 0.32355307614209627 0 0.42966475374499757 0.3366702380041065 0 0.43185811500265409 0.32027152080346688 0 0.44627146073815099 0.30463227626881562 0 0.45506119924111488 0.3127850777465806 0 0.43185811500265409 0.32027152080346688 0 0.45506119924111488 0.3127850777465806 0 0.4546736380097815 0.32355307614209627 0 0.43185811500265409 0.32027152080346688 0 0.44438709883839322 0.33690338389245561 0 0.4546736380097815 0.32355307614209627 0 0.42966475374499757 0.3366702380041065 0 0.4546736380097815 0.32355307614209627 0 0.42966475374499757 0.3366702380041065 0 0.44254598302420439 0.34352493140565799 0 0.44438709883839322 0.33690338389245561 0 0.43054108579727229 0.34974173272448078 0 0.44254598302420439 0.34352493140565799 0 0.44438709883839322 0.33690338389245561 0 0.44884064098751342 0.34170410685590558 0 0.44438709883839322 0.33690338389245561 0 0.4546736380097815 0.32355307614209627 0 0.45823311187951399 0.32406503506043027 0 0.44438709883839322 0.33690338389245561 0 0.45410512783539209 0.33661709793377548 0 0.45823311187951399 0.32406503506043027 0 0.44438709883839322 0.33690338389245561 0 0.45823311187951399 0.32406503506043027 0 0.44884064098751342 0.34170410685590558 0 0.45410512783539209 0.33661709793377548 0 0.45590779031980339 0.34544894341479537 0 0.44438709883839322 0.33690338389245561 0 0.44884064098751342 0.34170410685590558 0 0.45410512783539209 0.33661709793377548 0 0.45410512783539209 0.33661709793377548 0 0.46315699715173653 0.33496402044529022 0 0.45590779031980339 0.34544894341479537 0 0.45410512783539209 0.33661709793377548 0 0.46315699715173653 0.33496402044529022 0 0.45823311187951399 0.32406503506043027 0 0.46315699715173653 0.33496402044529022 0 0.46790288107544548 0.34436232095110891 0 0.45590779031980339 0.34544894341479537 0 0.45506119924111488 0.3127850777465806 0 0.4546736380097815 0.32355307614209627 0 0.4641401515156065 0.31858788902658403 0 0.4546736380097815 0.32355307614209627 0 0.4641401515156065 0.31858788902658403 0 0.4546736380097815 0.32355307614209627 0 0.45823311187951399 0.32406503506043027 0 0.4641401515156065 0.31858788902658403 0 0.4546736380097815 0.32355307614209627 0 0.45823311187951399 0.32406503506043027 0 0.45823311187951399 0.32406503506043027 0 0.4641401515156065 0.31858788902658403 0 0.45823311187951399 0.32406503506043027 0 0.48620782471429541 0.32808863636998559 0 0.45823311187951399 0.32406503506043027 0 0.4641401515156065 0.31858788902658403 0 0.48620782471429541 0.32808863636998559 0 0.48014525557410859 0.30374758023980819 0 0.48018541932267361 0.31017214473682442 0 0.48620782471429541 0.32808863636998559 0 0.48018541932267361 0.31017214473682442 0 0.4641401515156065 0.31858788902658403 0 0.48014525557410859 0.30374758023980819 0 0.48620782471429541 0.32808863636998559 0 0.48018541932267361 0.31017214473682442 0 0.4641401515156065 0.31858788902658403 0 0.48620782471429541 0.32808863636998559 0 0.48620782471429541 0.32808863636998559 0 0.47738700017243901 0.35182235150128077 0 0.46790288107544548 0.34436232095110891 0 0.46315699715173653 0.33496402044529022 0 0.48620782471429541 0.32808863636998559 0 0.46790288107544548 0.34436232095110891 0 0.46315699715173653 0.33496402044529022 0 0.45823311187951399 0.32406503506043027 0 0.48620782471429541 0.32808863636998559 0 0.48620782471429541 0.32808863636998559 0 0.49310391235714851 0.35577624743253422 0 0.50000000000000178 0.33007236413401608 0 0.48620782471429541 0.32808863636998559 0 0.49310391235714851 0.35577624743253422 0 0.50000000000000178 0.33007236413401608 0 0.48620782471429541 0.32808863636998559 0 0.5 0.30770507926382878 0 0.50000000000000178 0.33007236413401608 0 0.48620782471429541 0.32808863636998559 0 0.5 0.30770507926382878 0 0.48014525557410859 0.30374758023980819 0 0.48620782471429541 0.32808863636998559 0 0.49310391235714851 0.35577624743253422 0 0.47816411347766591 0.37070502160307278 0 0.50000000000000111 0.38346385849508291 0 0.49310391235714851 0.35577624743253422 0 0.50000000000000111 0.38346385849508291 0 0.5 0.35676811131454939 0 0.49310391235714851 0.35577624743253422 0 0.50000000000000111 0.38346385849508291 0 0.48620782471429541 0.32808863636998559 0 0.49310391235714851 0.35577624743253422 0 0.47738700017243901 0.35182235150128077 0 0.50000000000000178 0.33007236413401608 0 0.5 0.35676811131454939 0 0.49310391235714851 0.35577624743253422 0 0.47738700017243901 0.35182235150128077 0 0.46155626923763993 0.3601795311497023 0 0.46790288107544548 0.34436232095110891 0 0.47738700017243901 0.35182235150128077 0 0.47816411347766591 0.37070502160307278 0 0.46155626923763993 0.3601795311497023 0 0.49310391235714851 0.35577624743253422 0 0.47738700017243901 0.35182235150128077 0 0.47816411347766591 0.37070502160307278 0 0.47816411347766591 0.37070502160307278 0 0.46155626923763993 0.3601795311497023 0 0.45910646009339717 0.37744990054943878 0 0.46155626923763993 0.3601795311497023 0 0.4464888538825672 0.36811918888300871 0 0.45910646009339717 0.37744990054943878 0 0.46155626923763993 0.3601795311497023 0 0.46790288107544548 0.34436232095110891 0 0.45590779031980339 0.34544894341479537 0 0.46155626923763993 0.3601795311497023 0 0.45590779031980339 0.34544894341479537 0 0.44878706735912399 0.35555404080643832 0 0.44884064098751342 0.34170410685590558 0 0.45590779031980339 0.34544894341479537 0 0.44754489204847481 0.3474801050076522 0 0.44754489204847481 0.3474801050076522 0 0.44878706735912399 0.35555404080643832 0 0.44164297855172852 0.35116850255546389 0 0.45590779031980339 0.34544894341479537 0 0.44754489204847481 0.3474801050076522 0 0.44878706735912399 0.35555404080643832 0 0.44254598302420439 0.34352493140565799 0 0.44884064098751342 0.34170410685590558 0 0.44754489204847481 0.3474801050076522 0 0.44878706735912399 0.35555404080643832 0 0.43888363666310498 0.35841133919602691 0 0.44164297855172852 0.35116850255546389 0 0.44254598302420439 0.34352493140565799 0 0.44164297855172852 0.35116850255546389 0 0.43054108579727229 0.34974173272448078 0 0.44254598302420439 0.34352493140565799 0 0.44754489204847481 0.3474801050076522 0 0.44164297855172852 0.35116850255546389 0 0.46155626923763993 0.3601795311497023 0 0.44878706735912399 0.35555404080643832 0 0.4464888538825672 0.36811918888300871 0 0.44878706735912399 0.35555404080643832 0 0.43888363666310498 0.35841133919602691 0 0.4464888538825672 0.36811918888300871 0 0.43888363666310498 0.35841133919602691 0 0.4464888538825672 0.36811918888300871 0 0.43230135428116528 0.3672808749987464 0 0.4464888538825672 0.36811918888300871 0 0.43230135428116528 0.3672808749987464 0 0.43577254145544769 0.38178321786044789 0 0.43230135428116528 0.3672808749987464 0 0.42154452093759809 0.37451287216370788 0 0.43577254145544769 0.38178321786044789 0 0.43230135428116528 0.3672808749987464 0 0.42422398691552898 0.36449924972644793 0 0.43054108579727229 0.34974173272448078 0 0.42422398691552898 0.36449924972644793 0 0.4125089866460801 0.36646151901885649 0 0.43054108579727229 0.34974173272448078 0 0.43230135428116528 0.3672808749987464 0 0.42422398691552898 0.36449924972644793 0 0.42154452093759809 0.37451287216370788 0 0.42422398691552898 0.36449924972644793 0 0.42154452093759809 0.37451287216370788 0 0.4125089866460801 0.36646151901885649 0 0.42154452093759809 0.37451287216370788 0 0.4125089866460801 0.36646151901885649 0 0.41086155648359562 0.37752148151286491 0 0.4125089866460801 0.36646151901885649 0 0.40836914838148891 0.36122359109958302 0 0.40043600463791418 0.37111035276115939 0 0.40926043311551258 0.35461325708906188 0 0.42966475374499757 0.3366702380041065 0 0.40465586948021381 0.3497873998661169 0 0.40836914838148891 0.36122359109958302 0 0.43054108579727229 0.34974173272448078 0 0.40836914838148891 0.36122359109958302 0 0.40926043311551258 0.35461325708906188 0 0.43054108579727229 0.34974173272448078 0 0.4125089866460801 0.36646151901885649 0 0.40836914838148891 0.36122359109958302 0 0.43054108579727229 0.34974173272448078 0 0.4125089866460801 0.36646151901885649 0 0.43054108579727229 0.34974173272448078 0 0.41346636980407597 0.34022753974993669 0 0.40465586948021381 0.3497873998661169 0 0.40836914838148891 0.36122359109958302 0 0.40926043311551258 0.35461325708906188 0 0.40448110926935232 0.35678568193523208 0 0.40926043311551258 0.35461325708906188 0 0.43054108579727229 0.34974173272448078 0 0.42966475374499757 0.3366702380041065 0 0.43888363666310498 0.35841133919602691 0 0.43230135428116528 0.3672808749987464 0 0.43054108579727229 0.34974173272448078 0 0.43888363666310498 0.35841133919602691 0 0.44164297855172852 0.35116850255546389 0 0.43054108579727229 0.34974173272448078 0 0.44254598302420439 0.34352493140565799 0 0.43054108579727229 0.34974173272448078 0 0.44438709883839322 0.33690338389245561 0 0.43054108579727229 0.34974173272448078 0 0.43185811500265409 0.32027152080346688 0 0.41346636980407597 0.34022753974993669 0 0.44438709883839322 0.33690338389245561 0 0.43054108579727229 0.34974173272448078 0 0.42966475374499757 0.3366702380041065 0 0.42966475374499757 0.3366702380041065 0 0.43185811500265409 0.32027152080346688 0 0.41346636980407597 0.34022753974993669 0 0.43247574774766739 0.30605345857332189 0 0.43185811500265409 0.32027152080346688 0 0.42513350018684931 0.31727978930714562 0 0.43185811500265409 0.32027152080346688 0 0.42513350018684931 0.31727978930714562 0 0.41637697488267622 0.31801079343502842 0 0.43185811500265409 0.32027152080346688 0 0.41637697488267622 0.31801079343502842 0 0.43185811500265409 0.32027152080346688 0 0.41637697488267622 0.31801079343502842 0 0.41346636980407597 0.34022753974993669 0 0.42513350018684931 0.31727978930714562 0 0.41637697488267622 0.31801079343502842 0 0.41637697488267622 0.31801079343502842 0 0.4088771157742952 0.32842239552446362 0 0.41346636980407597 0.34022753974993669 0 0.42966475374499757 0.3366702380041065 0 0.41346636980407597 0.34022753974993669 0 0.40465586948021381 0.3497873998661169 0 0.42966475374499757 0.3366702380041065 0 0.40465586948021381 0.3497873998661169 0 0.41637697488267622 0.31801079343502842 0 0.41346636980407597 0.34022753974993669 0 0.4088771157742952 0.32842239552446362 0 0.41346636980407597 0.34022753974993669 0 0.39823112816246431 0.33708556887781788 0 0.4088771157742952 0.32842239552446362 0 0.39823112816246431 0.33708556887781788 0 0.39015978558166509 0.32006724475639747 0 0.41346636980407597 0.34022753974993669 0 0.39823112816246431 0.33708556887781788 0 0.40465586948021381 0.3497873998661169 0 0.41637697488267622 0.31801079343502842 0 0.4088771157742952 0.32842239552446362 0 0.39015978558166509 0.32006724475639747 0 0.41637697488267622 0.31801079343502842 0 0.39015978558166509 0.32006724475639747 0 0.41637697488267622 0.31801079343502842 0 0.39015978558166509 0.32006724475639747 0 0.38845870662102688 0.31402938643627948 0 0.41637697488267622 0.31801079343502842 0 0.38845870662102688 0.31402938643627948 0 0.36424310144416511 0.32213284182668722 0 0.39015978558166509 0.32006724475639747 0 0.36424310144416511 0.32213284182668722 0 0.39015978558166509 0.32006724475639747 0 0.38845870662102688 0.31402938643627948 0 0.36424310144416511 0.32213284182668722 0 0.39015978558166509 0.32006724475639747 0 0.38263009593359038 0.33378942036267573 0 0.39823112816246431 0.33708556887781788 0 0.39015978558166509 0.32006724475639747 0 0.38263009593359038 0.33378942036267573 0 0.39823112816246431 0.33708556887781788 0 0.38263009593359038 0.33378942036267573 0 0.38724656189557538 0.34762856607566239 0 0.37326990258408232 0.34203288027681339 0 0.38263009593359038 0.33378942036267573 0 0.38724656189557538 0.34762856607566239 0 0.37326990258408232 0.34203288027681339 0 0.38724656189557538 0.34762856607566239 0 0.37683016966330413 0.35167770670410359 0 0.38724656189557538 0.34762856607566239 0 0.37951797562987188 0.36297222726640688 0 0.40465586948021381 0.3497873998661169 0 0.38724656189557538 0.34762856607566239 0 0.37683016966330413 0.35167770670410359 0 0.37951797562987188 0.36297222726640688 0 0.37951797562987188 0.36297222726640688 0 0.38619721096570547 0.37270544947468542 0 0.39621927890253522 0.36088883121980492 0 0.36402527354992209 0.38418730784978777 0 0.37951797562987188 0.36297222726640688 0 0.38619721096570547 0.37270544947468542 0 0.4125089866460801 0.36646151901885649 0 0.39447688749488768 0.38318130531323202 0 0.40836914838148891 0.36122359109958302 0 0.38619721096570547 0.37270544947468542 0 0.40043600463791418 0.37111035276115939 0 0.40836914838148891 0.36122359109958302 0 0.38619721096570547 0.37270544947468542 0 0.39621927890253522 0.36088883121980492 0 0.40836914838148891 0.36122359109958302 0 0.38619721096570547 0.37270544947468542 0 0.4125089866460801 0.36646151901885649 0 0.40043600463791418 0.37111035276115939 0 0.39447688749488768 0.38318130531323202 0 0.40836914838148891 0.36122359109958302 0 0.39621927890253522 0.36088883121980492 0 0.40448110926935232 0.35678568193523208 0 0.39823112816246431 0.33708556887781788 0 0.38724656189557538 0.34762856607566239 0 0.40465586948021381 0.3497873998661169 0 0.39621927890253522 0.36088883121980492 0 0.40448110926935232 0.35678568193523208 0 0.40465586948021381 0.3497873998661169 0 0.37951797562987188 0.36297222726640688 0 0.39621927890253522 0.36088883121980492 0 0.40465586948021381 0.3497873998661169 0 0.37951797562987188 0.36297222726640688 0 0.40465586948021381 0.3497873998661169 0 0.40926043311551258 0.35461325708906188 0 0.40448110926935232 0.35678568193523208 0 0.40465586948021381 0.3497873998661169 0 0.39447688749488768 0.38318130531323202 0 0.39483871320347702 0.4071019992473493 0 0.40691651399442003 0.39431430560618358 0 0.4125089866460801 0.36646151901885649 0 0.39447688749488768 0.38318130531323202 0 0.41086155648359562 0.37752148151286491 0 0.39447688749488768 0.38318130531323202 0 0.40691651399442003 0.39431430560618358 0 0.41491583085581651 0.38593022955566342 0 0.38619721096570547 0.37270544947468542 0 0.40043600463791418 0.37111035276115939 0 0.39447688749488768 0.38318130531323202 0 0.39447688749488768 0.38318130531323202 0 0.38026122572135079 0.3855812713300395 0 0.37644478834369538 0.39990109160760751 0 0.36402527354992209 0.38418730784978777 0 0.38619721096570547 0.37270544947468542 0 0.38026122572135079 0.3855812713300395 0 0.36402527354992209 0.38418730784978777 0 0.38619721096570547 0.37270544947468542 0 0.38619721096570547 0.37270544947468542 0 0.39447688749488768 0.38318130531323202 0 0.38026122572135079 0.3855812713300395 0 0.39447688749488768 0.38318130531323202 0 0.37644478834369538 0.39990109160760751 0 0.39447688749488768 0.38318130531323202 0 0.37644478834369538 0.39990109160760751 0 0.39483871320347702 0.4071019992473493 0 0.38206111242543861 0.42111915346048762 0 0.39291195859231648 0.42909145477573529 0 0.39483871320347702 0.4071019992473493 0 0.36624280198345521 0.41316031018620869 0 0.39483871320347702 0.4071019992473493 0 0.36624280198345521 0.41316031018620869 0 0.37644478834369538 0.39990109160760751 0 0.39483871320347702 0.4071019992473493 0 0.36624280198345521 0.41316031018620869 0 0.38206111242543861 0.42111915346048762 0 0.39483871320347702 0.4071019992473493 0 0.37426612281776722 0.43390813374205722 0 0.38206111242543861 0.42111915346048762 0 0.39291195859231648 0.42909145477573529 0 0.39291195859231648 0.42909145477573529 0 0.39483871320347702 0.4071019992473493 0 0.41659510530397598 0.43181748595047798 0 0.39291195859231648 0.42909145477573529 0 0.41659510530397598 0.43181748595047798 0 0.39679873921092379 0.4515105014783044 0 0.41659510530397598 0.43181748595047798 0 0.44223276457332439 0.41808795715326652 0 0.44795077244779752 0.44624555400270371 0 0.39483871320347702 0.4071019992473493 0 0.41659510530397598 0.43181748595047798 0 0.42343462442349888 0.40104368830848991 0 0.41659510530397598 0.43181748595047798 0 0.42343462442349888 0.40104368830848991 0 0.44223276457332439 0.41808795715326652 0 0.42343462442349888 0.40104368830848991 0 0.43577254145544769 0.38178321786044789 0 0.45203053564352053 0.39498537736963052 0 0.39483871320347702 0.4071019992473493 0 0.42343462442349888 0.40104368830848991 0 0.40691651399442003 0.39431430560618358 0 0.39483871320347702 0.4071019992473493 0 0.42343462442349888 0.40104368830848991 0 0.42343462442349888 0.40104368830848991 0 0.40691651399442003 0.39431430560618358 0 0.41491583085581651 0.38593022955566342 0 0.39447688749488768 0.38318130531323202 0 0.41086155648359562 0.37752148151286491 0 0.41491583085581651 0.38593022955566342 0 0.42154452093759809 0.37451287216370788 0 0.41086155648359562 0.37752148151286491 0 0.41491583085581651 0.38593022955566342 0 0.42154452093759809 0.37451287216370788 0 0.41491583085581651 0.38593022955566342 0 0.43577254145544769 0.38178321786044789 0 0.42343462442349888 0.40104368830848991 0 0.41491583085581651 0.38593022955566342 0 0.43577254145544769 0.38178321786044789 0 0.50000000000000111 0.38346385849508291 0 0.47115278504782893 0.41634768013503037 0 0.5 0.44985682577498209 0 0.43577254145544769 0.38178321786044789 0 0.45203053564352053 0.39498537736963052 0 0.45910646009339717 0.37744990054943878 0 0.4464888538825672 0.36811918888300871 0 0.43577254145544769 0.38178321786044789 0 0.45910646009339717 0.37744990054943878 0 0.42343462442349888 0.40104368830848991 0 0.45203053564352053 0.39498537736963052 0 0.44223276457332439 0.41808795715326652 0 0.42343462442349888 0.40104368830848991 0 0.45203053564352053 0.39498537736963052 0 0.45203053564352053 0.39498537736963052 0 0.48062644686354222 0.38892706643077107 0 0.47115278504782893 0.41634768013503037 0 0.45203053564352053 0.39498537736963052 0 0.48062644686354222 0.38892706643077107 0 0.45203053564352053 0.39498537736963052 0 0.45910646009339717 0.37744990054943878 0 0.48062644686354222 0.38892706643077107 0 0.47816411347766591 0.37070502160307278 0 0.45910646009339717 0.37744990054943878 0 0.48062644686354222 0.38892706643077107 0 0.48062644686354222 0.38892706643077107 0 0.50000000000000111 0.38346385849508291 0 0.47115278504782893 0.41634768013503037 0 0.47816411347766591 0.37070502160307278 0 0.48062644686354222 0.38892706643077107 0 0.50000000000000111 0.38346385849508291 0 0.47115278504782893 0.41634768013503037 0 0.44795077244779752 0.44624555400270371 0 0.5 0.44985682577498209 0 0.47115278504782893 0.41634768013503037 0 0.44223276457332439 0.41808795715326652 0 0.44795077244779752 0.44624555400270371 0 0.45203053564352053 0.39498537736963052 0 0.47115278504782893 0.41634768013503037 0 0.44223276457332439 0.41808795715326652 0 0.44795077244779752 0.44624555400270371 0 0.5 0.44985682577498209 0 0.45432384463304731 0.47181982544328699 0 0.44795077244779752 0.44624555400270371 0 0.45432384463304731 0.47181982544328699 0 0.41976759677264541 0.46299674743874941 0 0.5 0.5 0 0.45432384463304731 0.47181982544328699 0 0.4039008539447933 0.5 0 0.5 0.44985682577498209 0 0.5 0.5 0 0.45432384463304731 0.47181982544328699 0 0.45432384463304731 0.47181982544328699 0 0.41976759677264541 0.46299674743874941 0 0.4039008539447933 0.5 0 0.41659510530397598 0.43181748595047798 0 0.44795077244779752 0.44624555400270371 0 0.41976759677264541 0.46299674743874941 0 0.41659510530397598 0.43181748595047798 0 0.41976759677264541 0.46299674743874941 0 0.39679873921092379 0.4515105014783044 0 0.41976759677264541 0.46299674743874941 0 0.39679873921092379 0.4515105014783044 0 0.38124951499701609 0.4734785303135195 0 0.37426612281776722 0.43390813374205722 0 0.39679873921092379 0.4515105014783044 0 0.37345341561318951 0.45407136009255727 0 0.37426612281776722 0.43390813374205722 0 0.39679873921092379 0.4515105014783044 0 0.37426612281776722 0.43390813374205722 0 0.39291195859231648 0.42909145477573529 0 0.39679873921092379 0.4515105014783044 0 0.37345341561318951 0.45407136009255727 0 0.39679873921092379 0.4515105014783044 0 0.38124951499701609 0.4734785303135195 0 0.41976759677264541 0.46299674743874941 0 0.4039008539447933 0.5 0 0.38124951499701609 0.4734785303135195 0 0.33267184659450738 0.076895445692967912 0 0.33384818513785952 0.095220671081154562 0 0.35358280794182778 0.081134118762519997 0 0.33267184659450738 0.076895445692967912 0 0.32548261985150279 0.067359467524783917 0 0.3362917714796716 0.06065716441287583 0 0.33267184659450738 0.076895445692967912 0 0.34851501510280047 0.067687362164181281 0 0.3362917714796716 0.06065716441287583 0 0.33267184659450738 0.076895445692967912 0 0.32548261985150279 0.067359467524783917 0 0.31341431229701289 0.075466738345394593 0 0.32548261985150279 0.067359467524783917 0 0.31341431229701289 0.075466738345394593 0 0.32027454076834638 0.053691579612965813 0 0.33267184659450738 0.076895445692967912 0 0.31341431229701289 0.075466738345394593 0 0.31611760134168382 0.090350323099841451 0 0.33267184659450738 0.076895445692967912 0 0.31611760134168382 0.090350323099841451 0 0.33384818513785952 0.095220671081154562 0 0.31611760134168382 0.090350323099841451 0 0.31824238186382442 0.10596634075124969 0 0.33384818513785952 0.095220671081154562 0 0.31824238186382442 0.10596634075124969 0 0.33179207943910011 0.1164240708363329 0 0.33384818513785952 0.095220671081154562 0 0.31824238186382442 0.10596634075124969 0 0.33179207943910011 0.1164240708363329 0 0.30795405624806621 0.1196451118560683 0 0.33179207943910011 0.1164240708363329 0 0.30795405624806621 0.1196451118560683 0 0.33179207943910011 0.1164240708363329 0 0.30795405624806621 0.1196451118560683 0 0.33548825912762259 0.13096913504343041 0 0.33179207943910011 0.1164240708363329 0 0.35157714643851551 0.1141437321368203 0 0.33548825912762259 0.13096913504343041 0 0.33179207943910011 0.1164240708363329 0 0.33384818513785952 0.095220671081154562 0 0.3484473056242175 0.099720290806598971 0 0.35157714643851551 0.1141437321368203 0 0.36391875564503579 0.093797237318286847 0 0.3484473056242175 0.099720290806598971 0 0.35157714643851551 0.1141437321368203 0 0.36391875564503579 0.093797237318286847 0 0.33179207943910011 0.1164240708363329 0 0.3484473056242175 0.099720290806598971 0 0.35157714643851551 0.1141437321368203 0 0.35157714643851551 0.1141437321368203 0 0.35036421010623209 0.1315926994818985 0 0.3627730460680359 0.12672541473946861 0 0.35157714643851551 0.1141437321368203 0 0.36764800366116113 0.1133136025492217 0 0.3627730460680359 0.12672541473946861 0 0.36764800366116113 0.1133136025492217 0 0.3627730460680359 0.12672541473946861 0 0.37865315121162502 0.12651792307034379 0 0.36764800366116113 0.1133136025492217 0 0.36391875564503579 0.093797237318286847 0 0.38131791894259309 0.1053837054811891 0 0.35157714643851551 0.1141437321368203 0 0.36764800366116113 0.1133136025492217 0 0.36391875564503579 0.093797237318286847 0 0.36391875564503579 0.093797237318286847 0 0.37626036485155617 0.073450742499753335 0 0.36391875564503579 0.093797237318286847 0 0.35358280794182778 0.081134118762519997 0 0.37626036485155617 0.073450742499753335 0 0.3484473056242175 0.099720290806598971 0 0.36391875564503579 0.093797237318286847 0 0.35358280794182778 0.081134118762519997 0 0.33384818513785952 0.095220671081154562 0 0.3484473056242175 0.099720290806598971 0 0.35358280794182778 0.081134118762519997 0 0.33267184659450738 0.076895445692967912 0 0.35358280794182778 0.081134118762519997 0 0.34851501510280047 0.067687362164181281 0 0.35358280794182778 0.081134118762519997 0 0.34851501510280047 0.067687362164181281 0 0.36249353249464039 0.062726138694476727 0 0.35358280794182778 0.081134118762519997 0 0.36249353249464039 0.062726138694476727 0 0.37626036485155617 0.073450742499753335 0 0.36249353249464039 0.062726138694476727 0 0.37626036485155617 0.073450742499753335 0 0.37499939369354562 0.05304484752901701 0 0.36249353249464039 0.062726138694476727 0 0.36380932314816672 0.047130461707631743 0 0.37499939369354562 0.05304484752901701 0 0.36380932314816672 0.047130461707631743 0 0.37149400158627133 0.040771782732311551 0 0.37499939369354562 0.05304484752901701 0 0.36380932314816672 0.047130461707631743 0 0.37149400158627133 0.040771782732311551 0 0.35632905552962613 0.028539258666194341 0 0.35632905552962613 0.028539258666194341 0 0.37972153351231391 0.034948967731108539 0 0.37149400158627133 0.040771782732311551 0 0.35632905552962613 0.028539258666194341 0 0.37972153351231391 0.034948967731108539 0 0.35070289367735308 0.0515811313361665 0 0.35632905552962613 0.028539258666194341 0 0.33677866430921333 0.042746402371639132 0 0.36380932314816672 0.047130461707631743 0 0.35070289367735308 0.0515811313361665 0 0.35632905552962613 0.028539258666194341 0 0.34851501510280047 0.067687362164181281 0 0.35070289367735308 0.0515811313361665 0 0.3362917714796716 0.06065716441287583 0 0.34851501510280047 0.067687362164181281 0 0.36249353249464039 0.062726138694476727 0 0.35070289367735308 0.0515811313361665 0 0.36249353249464039 0.062726138694476727 0 0.36380932314816672 0.047130461707631743 0 0.35070289367735308 0.0515811313361665 0 0.36607496410772972 0.0099128258503241584 0 0.36363341023265389 -0.0063806336983604772 0 0.35417251228579488 -2.242005975592893e-05 0 0.36607496410772972 0.0099128258503241584 0 0.37710365768939269 0.003497131652723405 0 0.36363341023265389 -0.0063806336983604772 0 0.36607496410772972 0.0099128258503241584 0 0.3649654001187026 0.020183039261816259 0 0.35274829662482121 0.015921790885601011 0 0.37254899247150169 0.026414696685793361 0 0.35632905552962613 0.028539258666194341 0 0.37972153351231391 0.034948967731108539 0 0.3649654001187026 0.020183039261816259 0 0.37254899247150169 0.026414696685793361 0 0.35632905552962613 0.028539258666194341 0 0.3649654001187026 0.020183039261816259 0 0.37254899247150169 0.026414696685793361 0 0.37712569185983408 0.020126624221168409 0 0.36607496410772972 0.0099128258503241584 0 0.3649654001187026 0.020183039261816259 0 0.37712569185983408 0.020126624221168409 0 0.35632905552962613 0.028539258666194341 0 0.35274829662482121 0.015921790885601011 0 0.33293657754693851 0.02212954960128018 0 0.35632905552962613 0.028539258666194341 0 0.33293657754693851 0.02212954960128018 0 0.3649654001187026 0.020183039261816259 0 0.35632905552962613 0.028539258666194341 0 0.35274829662482121 0.015921790885601011 0 0.36607496410772972 0.0099128258503241584 0 0.34157602306932849 0.0064507546968392846 0 0.35417251228579488 -2.242005975592893e-05 0 0.36607496410772972 0.0099128258503241584 0 0.35274829662482121 0.015921790885601011 0 0.34157602306932849 0.0064507546968392846 0 0.36607496410772972 0.0099128258503241584 0 0.34157602306932849 0.0064507546968392846 0 0.34157602306932849 0.0064507546968392846 0 0.33293657754693851 0.02212954960128018 0 0.32620267418635412 0.0059866388145550734 0 0.35274829662482121 0.015921790885601011 0 0.34157602306932849 0.0064507546968392846 0 0.33293657754693851 0.02212954960128018 0 0.34157602306932849 0.0064507546968392846 0 0.32620267418635412 0.0059866388145550734 0 0.33353947209339507 -0.0030874404116698678 0 0.35632905552962613 0.028539258666194341 0 0.33293657754693851 0.02212954960128018 0 0.33677866430921333 0.042746402371639132 0 0.33293657754693851 0.02212954960128018 0 0.32303445209427878 0.03735823743790824 0 0.30954409956425089 0.015719840536366041 0 0.33293657754693851 0.02212954960128018 0 0.30954409956425089 0.015719840536366041 0 0.31512547078870717 0.00058050222945548585 0 0.32620267418635412 0.0059866388145550734 0 0.30954409956425089 0.015719840536366041 0 0.33293657754693851 0.02212954960128018 0 0.32620267418635412 0.0059866388145550734 0 0.30954409956425089 0.015719840536366041 0 0.31512547078870717 0.00058050222945548585 0 0.32620267418635412 0.0059866388145550734 0 0.32480757643857888 -0.004030676734553703 0 0.35070289367735308 0.0515811313361665 0 0.3362917714796716 0.06065716441287583 0 0.33677866430921333 0.042746402371639132 0 0.3362917714796716 0.06065716441287583 0 0.33677866430921333 0.042746402371639132 0 0.32027454076834638 0.053691579612965813 0 0.33293657754693851 0.02212954960128018 0 0.33677866430921333 0.042746402371639132 0 0.32303445209427878 0.03735823743790824 0 0.33677866430921333 0.042746402371639132 0 0.32303445209427878 0.03735823743790824 0 0.32027454076834638 0.053691579612965813 0 0.32303445209427878 0.03735823743790824 0 0.32027454076834638 0.053691579612965813 0 0.30650578394631578 0.044892701649794267 0 0.32303445209427878 0.03735823743790824 0 0.30650578394631578 0.044892701649794267 0 0.30954409956425089 0.015719840536366041 0 0.32548261985150279 0.067359467524783917 0 0.3362917714796716 0.06065716441287583 0 0.32027454076834638 0.053691579612965813 0 0.32027454076834638 0.053691579612965813 0 0.30650578394631578 0.044892701649794267 0 0.30277264571709428 0.065087370313758802 0 0.30650578394631578 0.044892701649794267 0 0.29349156052568548 0.056670541144285817 0 0.30277264571709428 0.065087370313758802 0 0.30650578394631578 0.044892701649794267 0 0.2904689778777293 0.045125700538597768 0 0.29168111751751918 0.02888460418978318 0 0.2904689778777293 0.045125700538597768 0 0.29168111751751918 0.02888460418978318 0 0.2758834114161548 0.038455266642768562 0 0.30650578394631578 0.044892701649794267 0 0.2904689778777293 0.045125700538597768 0 0.29349156052568548 0.056670541144285817 0 0.2904689778777293 0.045125700538597768 0 0.29349156052568548 0.056670541144285817 0 0.27986167859138522 0.057155606573707142 0 0.2904689778777293 0.045125700538597768 0 0.27986167859138522 0.057155606573707142 0 0.2758834114161548 0.038455266642768562 0 0.29349156052568548 0.056670541144285817 0 0.27986167859138522 0.057155606573707142 0 0.28784871649590288 0.071091326645571079 0 0.30954409956425089 0.015719840536366041 0 0.28615162158156338 0.0093101314714518976 0 0.30954409956425089 0.015719840536366041 0 0.28615162158156338 0.0093101314714518976 0 0.30337497077494741 -0.0042580161424043677 0 0.31512547078870717 0.00058050222945548585 0 0.30954409956425089 0.015719840536366041 0 0.30337497077494741 -0.0042580161424043677 0 0.30650578394631578 0.044892701649794267 0 0.30954409956425089 0.015719840536366041 0 0.29168111751751918 0.02888460418978318 0 0.29168111751751918 0.02888460418978318 0 0.28615162158156338 0.0093101314714518976 0 0.26878828125423959 0.020092460074794309 0 0.30954409956425089 0.015719840536366041 0 0.29168111751751918 0.02888460418978318 0 0.28615162158156338 0.0093101314714518976 0 0.28615162158156338 0.0093101314714518976 0 0.26247114447865921 0.001459212755205932 0 0.2747839227137826 -0.0090145145465851083 0 0.28615162158156338 0.0093101314714518976 0 0.26878828125423959 0.020092460074794309 0 0.26247114447865921 0.001459212755205932 0 0.26878828125423959 0.020092460074794309 0 0.2758834114161548 0.038455266642768562 0 0.2541752168156497 0.033283058422897631 0 0.29168111751751918 0.02888460418978318 0 0.26878828125423959 0.020092460074794309 0 0.2758834114161548 0.038455266642768562 0 0.26878828125423959 0.020092460074794309 0 0.25291095945433317 0.015933972917932249 0 0.2541752168156497 0.033283058422897631 0 0.26878828125423959 0.020092460074794309 0 0.25291095945433317 0.015933972917932249 0 0.26247114447865921 0.001459212755205932 0 0.2493448423645083 0.0014051681544095839 0 0.25291095945433317 0.015933972917932249 0 0.26247114447865921 0.001459212755205932 0 0.27986167859138522 0.057155606573707142 0 0.26251257909950781 0.044843322471642022 0 0.26215654578266823 0.058364645047413011 0 0.27986167859138522 0.057155606573707142 0 0.2758834114161548 0.038455266642768562 0 0.26251257909950781 0.044843322471642022 0 0.24524984186232679 0.043358196906864918 0 0.2541752168156497 0.033283058422897631 0 0.26251257909950781 0.044843322471642022 0 0.2758834114161548 0.038455266642768562 0 0.2541752168156497 0.033283058422897631 0 0.2758834114161548 0.038455266642768562 0 0.2541752168156497 0.033283058422897631 0 0.26251257909950781 0.044843322471642022 0 0.24702940652874461 0.056345053222077328 0 0.24524984186232679 0.043358196906864918 0 0.26251257909950781 0.044843322471642022 0 0.24702940652874461 0.056345053222077328 0 0.26251257909950781 0.044843322471642022 0 0.26215654578266823 0.058364645047413011 0 0.24702940652874461 0.056345053222077328 0 0.26215654578266823 0.058364645047413011 0 0.25413798255185233 0.06612457479804941 0 0.24508406686404721 0.074042699616066798 0 0.25413798255185233 0.06612457479804941 0 0.26285540556637749 0.074858989928479017 0 0.26215654578266823 0.058364645047413011 0 0.25413798255185233 0.06612457479804941 0 0.26285540556637749 0.074858989928479017 0 0.24584913254136981 0.092562373283250871 0 0.24508406686404721 0.074042699616066798 0 0.26285540556637749 0.074858989928479017 0 0.24584913254136981 0.092562373283250871 0 0.26285540556637749 0.074858989928479017 0 0.26567973009487911 0.092884148373097372 0 0.24584913254136981 0.092562373283250871 0 0.26285540556637749 0.074858989928479017 0 0.27179655706942912 0.082792594367445196 0 0.27040739986602091 0.070920083602711181 0 0.28292295199336859 0.087161759687164039 0 0.26285540556637749 0.074858989928479017 0 0.26567973009487911 0.092884148373097372 0 0.27179655706942912 0.082792594367445196 0 0.26567973009487911 0.092884148373097372 0 0.27179655706942912 0.082792594367445196 0 0.28292295199336859 0.087161759687164039 0 0.27040739986602091 0.070920083602711181 0 0.28292295199336859 0.087161759687164039 0 0.27986167859138522 0.057155606573707142 0 0.27040739986602091 0.070920083602711181 0 0.28784871649590288 0.071091326645571079 0 0.27040739986602091 0.070920083602711181 0 0.28784871649590288 0.071091326645571079 0 0.28292295199336859 0.087161759687164039 0 0.27986167859138522 0.057155606573707142 0 0.26215654578266823 0.058364645047413011 0 0.26285540556637749 0.074858989928479017 0 0.27986167859138522 0.057155606573707142 0 0.26285540556637749 0.074858989928479017 0 0.27040739986602091 0.070920083602711181 0 0.27986167859138522 0.057155606573707142 0 0.26285540556637749 0.074858989928479017 0 0.26285540556637749 0.074858989928479017 0 0.27179655706942912 0.082792594367445196 0 0.27040739986602091 0.070920083602711181 0 0.28784871649590288 0.071091326645571079 0 0.29911647637469918 0.084557520677064277 0 0.30277264571709428 0.065087370313758802 0 0.29349156052568548 0.056670541144285817 0 0.28784871649590288 0.071091326645571079 0 0.30277264571709428 0.065087370313758802 0 0.28292295199336859 0.087161759687164039 0 0.29911647637469918 0.084557520677064277 0 0.29543850412071643 0.1034034357716169 0 0.28784871649590288 0.071091326645571079 0 0.28292295199336859 0.087161759687164039 0 0.29911647637469918 0.084557520677064277 0 0.31611760134168382 0.090350323099841451 0 0.29911647637469918 0.084557520677064277 0 0.29543850412071643 0.1034034357716169 0 0.31341431229701289 0.075466738345394593 0 0.31611760134168382 0.090350323099841451 0 0.29911647637469918 0.084557520677064277 0 0.31341431229701289 0.075466738345394593 0 0.32027454076834638 0.053691579612965813 0 0.30277264571709428 0.065087370313758802 0 0.31341431229701289 0.075466738345394593 0 0.29911647637469918 0.084557520677064277 0 0.30277264571709428 0.065087370313758802 0 0.31824238186382442 0.10596634075124969 0 0.30795405624806621 0.1196451118560683 0 0.29543850412071643 0.1034034357716169 0 0.30795405624806621 0.1196451118560683 0 0.28755656751022812 0.1224012610299153 0 0.30795405624806621 0.1196451118560683 0 0.29543850412071643 0.1034034357716169 0 0.30795405624806621 0.1196451118560683 0 0.29543850412071643 0.1034034357716169 0 0.28755656751022812 0.1224012610299153 0 0.31611760134168382 0.090350323099841451 0 0.31824238186382442 0.10596634075124969 0 0.29543850412071643 0.1034034357716169 0 0.28292295199336859 0.087161759687164039 0 0.29543850412071643 0.1034034357716169 0 0.27757149853761809 0.1071246269212299 0 0.28292295199336859 0.087161759687164039 0 0.29543850412071643 0.1034034357716169 0 0.29543850412071643 0.1034034357716169 0 0.28755656751022812 0.1224012610299153 0 0.27757149853761809 0.1071246269212299 0 0.27757149853761809 0.1071246269212299 0 0.25477011833646362 0.1103263086023575 0 0.26715907877239031 0.1251574102037635 0 0.28755656751022812 0.1224012610299153 0 0.27757149853761809 0.1071246269212299 0 0.26715907877239031 0.1251574102037635 0 0.28755656751022812 0.1224012610299153 0 0.26715907877239031 0.1251574102037635 0 0.26567973009487911 0.092884148373097372 0 0.28292295199336859 0.087161759687164039 0 0.27757149853761809 0.1071246269212299 0 0.26567973009487911 0.092884148373097372 0 0.27757149853761809 0.1071246269212299 0 0.25477011833646362 0.1103263086023575 0 0.24584913254136981 0.092562373283250871 0 0.26567973009487911 0.092884148373097372 0 0.25477011833646362 0.1103263086023575 0 0.24676159003455239 0.12791355937761181 0 0.25477011833646362 0.1103263086023575 0 0.26715907877239031 0.1251574102037635 0 0.24676159003455239 0.12791355937761181 0 0.26715907877239031 0.1251574102037635 0 0.25050055172898211 0.1470204461234195 0 0.24676159003455239 0.12791355937761181 0 0.26715907877239031 0.1251574102037635 0 0.27973574073040353 0.14012950961255341 0 0.26715907877239031 0.1251574102037635 0 0.26693214027285761 0.15164580292090249 0 0.28755656751022812 0.1224012610299153 0 0.27973574073040353 0.14012950961255341 0 0.26715907877239031 0.1251574102037635 0 0.27973574073040353 0.14012950961255341 0 0.26693214027285761 0.15164580292090249 0 0.28558814460545578 0.16572139005079961 0 0.26693214027285761 0.15164580292090249 0 0.25050055172898211 0.1470204461234195 0 0.26390442975729111 0.16651128438396251 0 0.26715907877239031 0.1251574102037635 0 0.26693214027285761 0.15164580292090249 0 0.25050055172898211 0.1470204461234195 0 0.24853663986256111 0.1686506312757925 0 0.25050055172898211 0.1470204461234195 0 0.26390442975729111 0.16651128438396251 0 0.24499458573427471 0.18380406373560509 0 0.24853663986256111 0.1686506312757925 0 0.25881269507918508 0.18723983767290139 0 0.24853663986256111 0.1686506312757925 0 0.25881269507918508 0.18723983767290139 0 0.26688666654816529 0.18899137691729209 0 0.24853663986256111 0.1686506312757925 0 0.26390442975729111 0.16651128438396251 0 0.26688666654816529 0.18899137691729209 0 0.24853663986256111 0.1686506312757925 0 0.26688666654816529 0.18899137691729209 0 0.27359422921988191 0.17523213197826509 0 0.28558814460545578 0.16572139005079961 0 0.27298240200963331 0.19052702935457599 0 0.26390442975729111 0.16651128438396251 0 0.27359422921988191 0.17523213197826509 0 0.26688666654816529 0.18899137691729209 0 0.28558814460545578 0.16572139005079961 0 0.27298240200963331 0.19052702935457599 0 0.28558814460545578 0.16572139005079961 0 0.27298240200963331 0.19052702935457599 0 0.27704414610519129 0.18962688550264081 0 0.27359422921988191 0.17523213197826509 0 0.26688666654816529 0.18899137691729209 0 0.27298240200963331 0.19052702935457599 0 0.26390442975729111 0.16651128438396251 0 0.27359422921988191 0.17523213197826509 0 0.28558814460545578 0.16572139005079961 0 0.26693214027285761 0.15164580292090249 0 0.26390442975729111 0.16651128438396251 0 0.28558814460545578 0.16572139005079961 0 0.28558814460545578 0.16572139005079961 0 0.29387123780829377 0.18265757391415199 0 0.30002612940851581 0.16496503100331389 0 0.28558814460545578 0.16572139005079961 0 0.30002612940851581 0.16496503100331389 0 0.29819388720127987 0.140915750747024 0 0.28558814460545578 0.16572139005079961 0 0.29387123780829377 0.18265757391415199 0 0.27704414610519129 0.18962688550264081 0 0.29387123780829377 0.18265757391415199 0 0.27704414610519129 0.18962688550264081 0 0.29387123780829377 0.18265757391415199 0 0.29364686351599367 0.1859474725088136 0 0.27704414610519129 0.18962688550264081 0 0.29387123780829377 0.18265757391415199 0 0.31069832951139692 0.17568826232566451 0 0.29387123780829377 0.18265757391415199 0 0.31069832951139692 0.17568826232566451 0 0.30002612940851581 0.16496503100331389 0 0.29387123780829377 0.18265757391415199 0 0.29364686351599367 0.1859474725088136 0 0.31024958092679639 0.18226805951498931 0 0.29364686351599367 0.1859474725088136 0 0.31024958092679639 0.18226805951498931 0 0.29387123780829377 0.18265757391415199 0 0.31069832951139692 0.17568826232566451 0 0.31024958092679639 0.18226805951498931 0 0.31069832951139692 0.17568826232566451 0 0.31024958092679639 0.18226805951498931 0 0.31069832951139692 0.17568826232566451 0 0.31177904791615191 0.15984217797892949 0 0.30002612940851581 0.16496503100331389 0 0.31069832951139692 0.17568826232566451 0 0.31177904791615191 0.15984217797892949 0 0.31177904791615191 0.15984217797892949 0 0.30002612940851581 0.16496503100331389 0 0.29819388720127987 0.140915750747024 0 0.31177904791615191 0.15984217797892949 0 0.29819388720127987 0.140915750747024 0 0.32479114848122198 0.14149493481813169 0 0.30795405624806621 0.1196451118560683 0 0.29819388720127987 0.140915750747024 0 0.32479114848122198 0.14149493481813169 0 0.30795405624806621 0.1196451118560683 0 0.28755656751022812 0.1224012610299153 0 0.29819388720127987 0.140915750747024 0 0.28755656751022812 0.1224012610299153 0 0.27973574073040353 0.14012950961255341 0 0.29819388720127987 0.140915750747024 0 0.27973574073040353 0.14012950961255341 0 0.28558814460545578 0.16572139005079961 0 0.29819388720127987 0.140915750747024 0 0.28558814460545578 0.16572139005079961 0 0.29819388720127987 0.140915750747024 0 0.26670419109251631 0.25026282370240799 0 0.25577825020120981 0.22438143983797609 0 0.28024438099156712 0.23192038751720881 0 0.26670419109251631 0.25026282370240799 0 0.28862921881342862 0.25651381299592252 0 0.28024438099156712 0.23192038751720881 0 0.24408767522763519 0.24738620800961111 0 0.26670419109251631 0.25026282370240799 0 0.25577825020120981 0.22438143983797609 0 0.25577825020120981 0.22438143983797609 0 0.28024438099156712 0.23192038751720881 0 0.27641339061321879 0.21557909907581749 0 0.27641339061321879 0.21557909907581749 0 0.26746882517478771 0.20137667166634279 0 0.28806304543853017 0.20349606395814779 0 0.25577825020120981 0.22438143983797609 0 0.27641339061321879 0.21557909907581749 0 0.26746882517478771 0.20137667166634279 0 0.25577825020120981 0.22438143983797609 0 0.26746882517478771 0.20137667166634279 0 0.24125430032536929 0.21638328371995821 0 0.25577825020120981 0.22438143983797609 0 0.26746882517478771 0.20137667166634279 0 0.24286991913566969 0.19325292944681119 0 0.25881269507918508 0.18723983767290139 0 0.2553921061020899 0.19442530466253319 0 0.2553921061020899 0.19442530466253319 0 0.27298240200963331 0.19052702935457599 0 0.2378018101945456 0.19832357997048591 0 0.25782179071692268 0.19758824843624931 0 0.26746882517478771 0.20137667166634279 0 0.2378018101945456 0.19832357997048591 0 0.25782179071692268 0.19758824843624931 0 0.2553921061020899 0.19442530466253319 0 0.25782179071692268 0.19758824843624931 0 0.2553921061020899 0.19442530466253319 0 0.27298240200963331 0.19052702935457599 0 0.2378018101945456 0.19832357997048591 0 0.26746882517478771 0.20137667166634279 0 0.2553921061020899 0.19442530466253319 0 0.26688666654816529 0.18899137691729209 0 0.27298240200963331 0.19052702935457599 0 0.25782179071692268 0.19758824843624931 0 0.27298240200963331 0.19052702935457599 0 0.25881269507918508 0.18723983767290139 0 0.2553921061020899 0.19442530466253319 0 0.26688666654816529 0.18899137691729209 0 0.26746882517478771 0.20137667166634279 0 0.28806304543853017 0.20349606395814779 0 0.27298240200963331 0.19052702935457599 0 0.26746882517478771 0.20137667166634279 0 0.28806304543853017 0.20349606395814779 0 0.27298240200963331 0.19052702935457599 0 0.26746882517478771 0.20137667166634279 0 0.25782179071692268 0.19758824843624931 0 0.27298240200963331 0.19052702935457599 0 0.26746882517478771 0.20137667166634279 0 0.27298240200963331 0.19052702935457599 0 0.27704414610519129 0.18962688550264081 0 0.28806304543853017 0.20349606395814779 0 0.27298240200963331 0.19052702935457599 0 0.27704414610519129 0.18962688550264081 0 0.29364686351599367 0.1859474725088136 0 0.27704414610519129 0.18962688550264081 0 0.28806304543853017 0.20349606395814779 0 0.29364686351599367 0.1859474725088136 0 0.27704414610519129 0.18962688550264081 0 0.29364686351599367 0.1859474725088136 0 0.3086572657022727 0.20561545624995189 0 0.28806304543853017 0.20349606395814779 0 0.29364686351599367 0.1859474725088136 0 0.31024958092679639 0.18226805951498931 0 0.3086572657022727 0.20561545624995189 0 0.31024958092679639 0.18226805951498931 0 0.3086572657022727 0.20561545624995189 0 0.3086572657022727 0.20561545624995189 0 0.30689790252302718 0.23141220146314551 0 0.3086572657022727 0.20561545624995189 0 0.28806304543853017 0.20349606395814779 0 0.3086572657022727 0.20561545624995189 0 0.30689790252302718 0.23141220146314551 0 0.31643390397348697 0.21830950573582331 0 0.27641339061321879 0.21557909907581749 0 0.28806304543853017 0.20349606395814779 0 0.29313610972852522 0.22018778493578589 0 0.3086572657022727 0.20561545624995189 0 0.28806304543853017 0.20349606395814779 0 0.29313610972852522 0.22018778493578589 0 0.28024438099156712 0.23192038751720881 0 0.27641339061321879 0.21557909907581749 0 0.29313610972852522 0.22018778493578589 0 0.28024438099156712 0.23192038751720881 0 0.29451048847783629 0.23187084528641819 0 0.29313610972852522 0.22018778493578589 0 0.3086572657022727 0.20561545624995189 0 0.29313610972852522 0.22018778493578589 0 0.30689790252302718 0.23141220146314551 0 0.30689790252302718 0.23141220146314551 0 0.31643390397348697 0.21830950573582331 0 0.29451048847783629 0.23187084528641819 0 0.29313610972852522 0.22018778493578589 0 0.30689790252302718 0.23141220146314551 0 0.30540728283077301 0.25326848268172381 0 0.30689790252302718 0.23141220146314551 0 0.3198884195097737 0.23687589857564961 0 0.30689790252302718 0.23141220146314551 0 0.29776356066822751 0.24396300722953371 0 0.29451048847783629 0.23187084528641819 0 0.30689790252302718 0.23141220146314551 0 0.29776356066822751 0.24396300722953371 0 0.30540728283077301 0.25326848268172381 0 0.30689790252302718 0.23141220146314551 0 0.29776356066822751 0.24396300722953371 0 0.30540728283077301 0.25326848268172381 0 0.30689790252302718 0.23141220146314551 0 0.28024438099156712 0.23192038751720881 0 0.29451048847783629 0.23187084528641819 0 0.29776356066822751 0.24396300722953371 0 0.28862921881342862 0.25651381299592252 0 0.28024438099156712 0.23192038751720881 0 0.28862921881342862 0.25651381299592252 0 0.28024438099156712 0.23192038751720881 0 0.29776356066822751 0.24396300722953371 0 0.32407224861068928 0.25845906939160002 0 0.33602305800246068 0.24156532362903541 0 0.3198884195097737 0.23687589857564961 0 0.30540728283077301 0.25326848268172381 0 0.32407224861068928 0.25845906939160002 0 0.3198884195097737 0.23687589857564961 0 0.3198884195097737 0.23687589857564961 0 0.33091995500720089 0.22028473832584769 0 0.31643390397348697 0.21830950573582331 0 0.30689790252302718 0.23141220146314551 0 0.3198884195097737 0.23687589857564961 0 0.31643390397348697 0.21830950573582331 0 0.33602305800246068 0.24156532362903541 0 0.3198884195097737 0.23687589857564961 0 0.33091995500720089 0.22028473832584769 0 0.33091995500720089 0.22028473832584769 0 0.3400215363664818 0.20884321591418961 0 0.34408505339426848 0.22834519858783861 0 0.33602305800246068 0.24156532362903541 0 0.33091995500720089 0.22028473832584769 0 0.34408505339426848 0.22834519858783861 0 0.3400215363664818 0.20884321591418961 0 0.32433940103437719 0.20722933608207109 0 0.3400215363664818 0.20884321591418961 0 0.32433940103437719 0.20722933608207109 0 0.33104212449429238 0.20264582156899011 0 0.33091995500720089 0.22028473832584769 0 0.3400215363664818 0.20884321591418961 0 0.32433940103437719 0.20722933608207109 0 0.3400215363664818 0.20884321591418961 0 0.33104212449429238 0.20264582156899011 0 0.3086572657022727 0.20561545624995189 0 0.31643390397348697 0.21830950573582331 0 0.32433940103437719 0.20722933608207109 0 0.3086572657022727 0.20561545624995189 0 0.32433940103437719 0.20722933608207109 0 0.3086572657022727 0.20561545624995189 0 0.32433940103437719 0.20722933608207109 0 0.32343250252217542 0.1997477387295846 0 0.33091995500720089 0.22028473832584769 0 0.31643390397348697 0.21830950573582331 0 0.32433940103437719 0.20722933608207109 0 0.32433940103437719 0.20722933608207109 0 0.32343250252217542 0.1997477387295846 0 0.33104212449429238 0.20264582156899011 0 0.31024958092679639 0.18226805951498931 0 0.3086572657022727 0.20561545624995189 0 0.32113399189084502 0.19116728119210921 0 0.3086572657022727 0.20561545624995189 0 0.32343250252217542 0.1997477387295846 0 0.32113399189084502 0.19116728119210921 0 0.32343250252217542 0.1997477387295846 0 0.32113399189084502 0.19116728119210921 0 0.33198972948908961 0.1920807985548009 0 0.32343250252217542 0.1997477387295846 0 0.33198972948908961 0.1920807985548009 0 0.33104212449429238 0.20264582156899011 0 0.33198972948908961 0.1920807985548009 0 0.33104212449429238 0.20264582156899011 0 0.34158052900810509 0.19714246077915221 0 0.3400215363664818 0.20884321591418961 0 0.33104212449429238 0.20264582156899011 0 0.34158052900810509 0.19714246077915221 0 0.33198972948908961 0.1920807985548009 0 0.34158052900810509 0.19714246077915221 0 0.34206504335435911 0.18622136715287549 0 0.34158052900810509 0.19714246077915221 0 0.3531173648859956 0.19133988765458759 0 0.34206504335435911 0.18622136715287549 0 0.34158052900810509 0.19714246077915221 0 0.35118823991497139 0.2019243174539809 0 0.3531173648859956 0.19133988765458759 0 0.3400215363664818 0.20884321591418961 0 0.34158052900810509 0.19714246077915221 0 0.35118823991497139 0.2019243174539809 0 0.35118823991497139 0.2019243174539809 0 0.3531173648859956 0.19133988765458759 0 0.36100653206352112 0.19951821008446641 0 0.36861665430242579 0.20611717183294859 0 0.37100233338211719 0.18719640054689909 0 0.37702259364788843 0.19725177040780559 0 0.3531173648859956 0.19133988765458759 0 0.36100653206352112 0.19951821008446641 0 0.37100233338211719 0.18719640054689909 0 0.36861665430242579 0.20611717183294859 0 0.37100233338211719 0.18719640054689909 0 0.36100653206352112 0.19951821008446641 0 0.36861665430242579 0.20611717183294859 0 0.37100233338211719 0.18719640054689909 0 0.36110806783209531 0.21101327293391581 0 0.38219459929770883 0.21318332995364189 0 0.36110806783209531 0.21101327293391581 0 0.37086573214651242 0.21973202206850681 0 0.38219459929770883 0.21318332995364189 0 0.36861665430242579 0.20611717183294859 0 0.36110806783209531 0.21101327293391581 0 0.38219459929770883 0.21318332995364189 0 0.36100653206352112 0.19951821008446641 0 0.36861665430242579 0.20611717183294859 0 0.36110806783209531 0.21101327293391581 0 0.36110806783209531 0.21101327293391581 0 0.35785771938578531 0.22115336064940139 0 0.37086573214651242 0.21973202206850681 0 0.3400215363664818 0.20884321591418961 0 0.36110806783209531 0.21101327293391581 0 0.3400215363664818 0.20884321591418961 0 0.36110806783209531 0.21101327293391581 0 0.35785771938578531 0.22115336064940139 0 0.3400215363664818 0.20884321591418961 0 0.35785771938578531 0.22115336064940139 0 0.3400215363664818 0.20884321591418961 0 0.35118823991497139 0.2019243174539809 0 0.36110806783209531 0.21101327293391581 0 0.35118823991497139 0.2019243174539809 0 0.36100653206352112 0.19951821008446641 0 0.36110806783209531 0.21101327293391581 0 0.3400215363664818 0.20884321591418961 0 0.34408505339426848 0.22834519858783861 0 0.35785771938578531 0.22115336064940139 0 0.34408505339426848 0.22834519858783861 0 0.35785771938578531 0.22115336064940139 0 0.35506734431001008 0.24099040477674649 0 0.35785771938578531 0.22115336064940139 0 0.37086573214651242 0.21973202206850681 0 0.37569390240508799 0.23346350538461449 0 0.35785771938578531 0.22115336064940139 0 0.37569390240508799 0.23346350538461449 0 0.35785771938578531 0.22115336064940139 0 0.35506734431001008 0.24099040477674649 0 0.37569390240508799 0.23346350538461449 0 0.366871884000251 0.26098549015955369 0 0.37569390240508799 0.23346350538461449 0 0.366871884000251 0.26098549015955369 0 0.35506734431001008 0.24099040477674649 0 0.37569390240508799 0.23346350538461449 0 0.33602305800246068 0.24156532362903541 0 0.34408505339426848 0.22834519858783861 0 0.35506734431001008 0.24099040477674649 0 0.34621985135880412 0.25716369420118629 0 0.33602305800246068 0.24156532362903541 0 0.35506734431001008 0.24099040477674649 0 0.34267070828927437 0.14760520769186661 0 0.32479114848122198 0.14149493481813169 0 0.32855581780897619 0.1565730003787931 0 0.34267070828927437 0.14760520769186661 0 0.32855581780897619 0.1565730003787931 0 0.33879267973502292 0.16405236682813751 0 0.34267070828927437 0.14760520769186661 0 0.33548825912762259 0.13096913504343041 0 0.35036421010623209 0.1315926994818985 0 0.34267070828927437 0.14760520769186661 0 0.33548825912762259 0.13096913504343041 0 0.32479114848122198 0.14149493481813169 0 0.30795405624806621 0.1196451118560683 0 0.32479114848122198 0.14149493481813169 0 0.30795405624806621 0.1196451118560683 0 0.33548825912762259 0.13096913504343041 0 0.32479114848122198 0.14149493481813169 0 0.31177904791615191 0.15984217797892949 0 0.32479114848122198 0.14149493481813169 0 0.32855581780897619 0.1565730003787931 0 0.31069832951139692 0.17568826232566451 0 0.31177904791615191 0.15984217797892949 0 0.32474550462320961 0.1698703145769003 0 0.31177904791615191 0.15984217797892949 0 0.32474550462320961 0.1698703145769003 0 0.32855581780897619 0.1565730003787931 0 0.31024958092679639 0.18226805951498931 0 0.32113399189084502 0.19116728119210921 0 0.33129572477180019 0.17760391609694109 0 0.31024958092679639 0.18226805951498931 0 0.32474550462320961 0.1698703145769003 0 0.33129572477180019 0.17760391609694109 0 0.31024958092679639 0.18226805951498931 0 0.33129572477180019 0.17760391609694109 0 0.31069832951139692 0.17568826232566451 0 0.31024958092679639 0.18226805951498931 0 0.32474550462320961 0.1698703145769003 0 0.31069832951139692 0.17568826232566451 0 0.32474550462320961 0.1698703145769003 0 0.33129572477180019 0.17760391609694109 0 0.34206504335435911 0.18622136715287549 0 0.35234186861680472 0.17293977267889571 0 0.33129572477180019 0.17760391609694109 0 0.35234186861680472 0.17293977267889571 0 0.33198972948908961 0.1920807985548009 0 0.33129572477180019 0.17760391609694109 0 0.34206504335435911 0.18622136715287549 0 0.32113399189084502 0.19116728119210921 0 0.33198972948908961 0.1920807985548009 0 0.33129572477180019 0.17760391609694109 0 0.33129572477180019 0.17760391609694109 0 0.33879267973502292 0.16405236682813751 0 0.35234186861680472 0.17293977267889571 0 0.32474550462320961 0.1698703145769003 0 0.32855581780897619 0.1565730003787931 0 0.33879267973502292 0.16405236682813751 0 0.32474550462320961 0.1698703145769003 0 0.33879267973502292 0.16405236682813751 0 0.32474550462320961 0.1698703145769003 0 0.33129572477180019 0.17760391609694109 0 0.33879267973502292 0.16405236682813751 0 0.34267070828927437 0.14760520769186661 0 0.33879267973502292 0.16405236682813751 0 0.35068377849926219 0.16065843584034711 0 0.33879267973502292 0.16405236682813751 0 0.35068377849926219 0.16065843584034711 0 0.35234186861680472 0.17293977267889571 0 0.35068377849926219 0.16065843584034711 0 0.36380235711786002 0.15860959337706351 0 0.35703435534156802 0.15262492932747479 0 0.35068377849926219 0.16065843584034711 0 0.35234186861680472 0.17293977267889571 0 0.36380235711786002 0.15860959337706351 0 0.3531173648859956 0.19133988765458759 0 0.34206504335435911 0.18622136715287549 0 0.35234186861680472 0.17293977267889571 0 0.3531173648859956 0.19133988765458759 0 0.35234186861680472 0.17293977267889571 0 0.37100233338211719 0.18719640054689909 0 0.37100233338211719 0.18719640054689909 0 0.37338801246180892 0.1682756292608496 0 0.35234186861680472 0.17293977267889571 0 0.37100233338211719 0.18719640054689909 0 0.37338801246180892 0.1682756292608496 0 0.37338801246180892 0.1682756292608496 0 0.37598838348065883 0.147652140659499 0 0.36380235711786002 0.15860959337706351 0 0.37338801246180892 0.1682756292608496 0 0.37598838348065883 0.147652140659499 0 0.35234186861680472 0.17293977267889571 0 0.37338801246180892 0.1682756292608496 0 0.35234186861680472 0.17293977267889571 0 0.36380235711786002 0.15860959337706351 0 0.37338801246180892 0.1682756292608496 0 0.36380235711786002 0.15860959337706351 0 0.36575527557501142 0.14812777850814959 0 0.37598838348065883 0.147652140659499 0 0.36575527557501142 0.14812777850814959 0 0.37011735806513207 0.13885874591995279 0 0.37598838348065883 0.147652140659499 0 0.37011735806513207 0.13885874591995279 0 0.37598838348065883 0.147652140659499 0 0.36575527557501142 0.14812777850814959 0 0.35811915890754231 0.1409224626114684 0 0.37011735806513207 0.13885874591995279 0 0.36575527557501142 0.14812777850814959 0 0.35703435534156802 0.15262492932747479 0 0.35811915890754231 0.1409224626114684 0 0.36380235711786002 0.15860959337706351 0 0.36575527557501142 0.14812777850814959 0 0.35703435534156802 0.15262492932747479 0 0.34267070828927437 0.14760520769186661 0 0.35703435534156802 0.15262492932747479 0 0.35811915890754231 0.1409224626114684 0 0.34267070828927437 0.14760520769186661 0 0.35068377849926219 0.16065843584034711 0 0.35703435534156802 0.15262492932747479 0 0.35157714643851551 0.1141437321368203 0 0.33548825912762259 0.13096913504343041 0 0.35036421010623209 0.1315926994818985 0 0.34267070828927437 0.14760520769186661 0 0.35811915890754231 0.1409224626114684 0 0.35036421010623209 0.1315926994818985 0 0.35811915890754231 0.1409224626114684 0 0.35036421010623209 0.1315926994818985 0 0.3627730460680359 0.12672541473946861 0 0.37011735806513207 0.13885874591995279 0 0.37865315121162502 0.12651792307034379 0 0.37598838348065883 0.147652140659499 0 0.3627730460680359 0.12672541473946861 0 0.37011735806513207 0.13885874591995279 0 0.37865315121162502 0.12651792307034379 0 0.35811915890754231 0.1409224626114684 0 0.3627730460680359 0.12672541473946861 0 0.37011735806513207 0.13885874591995279 0 0.37865315121162502 0.12651792307034379 0 0.38552611998295361 0.1374526198718069 0 0.39441739984549901 0.1241302862483445 0 0.37865315121162502 0.12651792307034379 0 0.38552611998295361 0.1374526198718069 0 0.37598838348065883 0.147652140659499 0 0.37865315121162502 0.12651792307034379 0 0.37598838348065883 0.147652140659499 0 0.40692520790138581 0.1375159079987914 0 0.41375939183803889 0.12438751577121231 0 0.39441739984549901 0.1241302862483445 0 0.38552611998295361 0.1374526198718069 0 0.39528656874141049 0.1393503008590129 0 0.39441739984549901 0.1241302862483445 0 0.39528656874141049 0.1393503008590129 0 0.40692520790138581 0.1375159079987914 0 0.39441739984549901 0.1241302862483445 0 0.40167710695360992 0.14951627890174121 0 0.38917733403563831 0.14825117602850449 0 0.3876479635813378 0.16511540866910429 0 0.39528656874141049 0.1393503008590129 0 0.40167710695360992 0.14951627890174121 0 0.40692520790138581 0.1375159079987914 0 0.39528656874141049 0.1393503008590129 0 0.40167710695360992 0.14951627890174121 0 0.38917733403563831 0.14825117602850449 0 0.38917733403563831 0.14825117602850449 0 0.37598838348065883 0.147652140659499 0 0.3876479635813378 0.16511540866910429 0 0.38552611998295361 0.1374526198718069 0 0.38917733403563831 0.14825117602850449 0 0.37598838348065883 0.147652140659499 0 0.38552611998295361 0.1374526198718069 0 0.39528656874141049 0.1393503008590129 0 0.38917733403563831 0.14825117602850449 0 0.37598838348065883 0.147652140659499 0 0.3876479635813378 0.16511540866910429 0 0.37338801246180892 0.1682756292608496 0 0.37598838348065883 0.147652140659499 0 0.3876479635813378 0.16511540866910429 0 0.37338801246180892 0.1682756292608496 0 0.3876479635813378 0.16511540866910429 0 0.38274094156957489 0.1817451985455423 0 0.37338801246180892 0.1682756292608496 0 0.3876479635813378 0.16511540866910429 0 0.37100233338211719 0.18719640054689909 0 0.37338801246180892 0.1682756292608496 0 0.38274094156957489 0.1817451985455423 0 0.3876479635813378 0.16511540866910429 0 0.38274094156957489 0.1817451985455423 0 0.39926908452155829 0.1825210740360185 0 0.38274094156957489 0.1817451985455423 0 0.39926908452155829 0.1825210740360185 0 0.38764867084536248 0.19616830377624239 0 0.3876479635813378 0.16511540866910429 0 0.39926908452155829 0.1825210740360185 0 0.3876479635813378 0.16511540866910429 0 0.39926908452155829 0.1825210740360185 0 0.4127568475293118 0.15955090066883321 0 0.40167710695360992 0.14951627890174121 0 0.3876479635813378 0.16511540866910429 0 0.4127568475293118 0.15955090066883321 0 0.3876479635813378 0.16511540866910429 0 0.4127568475293118 0.15955090066883321 0 0.39926908452155829 0.1825210740360185 0 0.4127568475293118 0.15955090066883321 0 0.41733915970324392 0.18303868081007471 0 0.4127568475293118 0.15955090066883321 0 0.41733915970324392 0.18303868081007471 0 0.43471364205589857 0.17804639708199901 0 0.43471364205589857 0.17804639708199901 0 0.43786573147728608 0.15398639266856359 0 0.4127568475293118 0.15955090066883321 0 0.43471364205589857 0.17804639708199901 0 0.43786573147728608 0.15398639266856359 0 0.4127568475293118 0.15955090066883321 0 0.43786573147728608 0.15398639266856359 0 0.4127568475293118 0.15955090066883321 0 0.42773951025102319 0.1458876489584397 0 0.43786573147728608 0.15398639266856359 0 0.42773951025102319 0.1458876489584397 0 0.43948005490385461 0.14166420773802921 0 0.43786573147728608 0.15398639266856359 0 0.42975146326382302 0.13212867936583519 0 0.44152649671145788 0.12992187075840789 0 0.43543067731870683 0.1163956131204143 0 0.42773951025102319 0.1458876489584397 0 0.42975146326382302 0.13212867936583519 0 0.43948005490385461 0.14166420773802921 0 0.42975146326382302 0.13212867936583519 0 0.44152649671145788 0.12992187075840789 0 0.43948005490385461 0.14166420773802921 0 0.42773951025102319 0.1458876489584397 0 0.42975146326382302 0.13212867936583519 0 0.41884345408084078 0.14210806435093981 0 0.42975146326382302 0.13212867936583519 0 0.41884345408084078 0.14210806435093981 0 0.41375939183803889 0.12438751577121231 0 0.40692520790138581 0.1375159079987914 0 0.41884345408084078 0.14210806435093981 0 0.41375939183803889 0.12438751577121231 0 0.4127568475293118 0.15955090066883321 0 0.42773951025102319 0.1458876489584397 0 0.41884345408084078 0.14210806435093981 0 0.40167710695360992 0.14951627890174121 0 0.40692520790138581 0.1375159079987914 0 0.41884345408084078 0.14210806435093981 0 0.40167710695360992 0.14951627890174121 0 0.4127568475293118 0.15955090066883321 0 0.41884345408084078 0.14210806435093981 0 0.366871884000251 0.26098549015955369 0 0.39942768190676292 0.24984404265893251 0 0.37569390240508799 0.23346350538461449 0 0.39942768190676292 0.24984404265893251 0 0.39351642974102852 0.2290656983796466 0 0.40791300224572641 0.23357974653930419 0 0.39942768190676292 0.24984404265893251 0 0.37569390240508799 0.23346350538461449 0 0.39942768190676292 0.24984404265893251 0 0.37569390240508799 0.23346350538461449 0 0.39351642974102852 0.2290656983796466 0 0.37569390240508799 0.23346350538461449 0 0.38219459929770883 0.21318332995364189 0 0.37086573214651242 0.21973202206850681 0 0.37569390240508799 0.23346350538461449 0 0.38219459929770883 0.21318332995364189 0 0.37569390240508799 0.23346350538461449 0 0.39351642974102852 0.2290656983796466 0 0.38219459929770883 0.21318332995364189 0 0.39351642974102852 0.2290656983796466 0 0.40235296284985578 0.21525786736174141 0 0.38219459929770883 0.21318332995364189 0 0.39351642974102852 0.2290656983796466 0 0.40235296284985578 0.21525786736174141 0 0.40791300224572641 0.23357974653930419 0 0.40235296284985578 0.21525786736174141 0 0.39577160961367652 0.20613406012363941 0 0.38219459929770883 0.21318332995364189 0 0.40235296284985578 0.21525786736174141 0 0.38219459929770883 0.21318332995364189 0 0.40235296284985578 0.21525786736174141 0 0.39577160961367652 0.20613406012363941 0 0.41089020546177851 0.19992673940293279 0 0.36861665430242579 0.20611717183294859 0 0.38219459929770883 0.21318332995364189 0 0.37702259364788843 0.19725177040780559 0 0.38219459929770883 0.21318332995364189 0 0.38764867084536248 0.19616830377624239 0 0.39577160961367652 0.20613406012363941 0 0.38219459929770883 0.21318332995364189 0 0.38764867084536248 0.19616830377624239 0 0.38219459929770883 0.21318332995364189 0 0.38764867084536248 0.19616830377624239 0 0.37702259364788843 0.19725177040780559 0 0.37100233338211719 0.18719640054689909 0 0.38274094156957489 0.1817451985455423 0 0.37702259364788843 0.19725177040780559 0 0.38274094156957489 0.1817451985455423 0 0.38764867084536248 0.19616830377624239 0 0.37702259364788843 0.19725177040780559 0 0.39926908452155829 0.1825210740360185 0 0.41089020546177851 0.19992673940293279 0 0.39926908452155829 0.1825210740360185 0 0.38764867084536248 0.19616830377624239 0 0.41089020546177851 0.19992673940293279 0 0.39577160961367652 0.20613406012363941 0 0.38764867084536248 0.19616830377624239 0 0.41089020546177851 0.19992673940293279 0 0.39926908452155829 0.1825210740360185 0 0.41733915970324392 0.18303868081007471 0 0.41089020546177851 0.19992673940293279 0 0.41733915970324392 0.18303868081007471 0 0.41089020546177851 0.19992673940293279 0 0.43156155263451018 0.20210640149543441 0 0.41733915970324392 0.18303868081007471 0 0.43471364205589857 0.17804639708199901 0 0.43156155263451018 0.20210640149543441 0 0.43471364205589857 0.17804639708199901 0 0.43156155263451018 0.20210640149543441 0 0.43156155263451018 0.20210640149543441 0 0.42480142661983911 0.2175680835518973 0 0.42840946321312051 0.22616640590886961 0 0.43156155263451018 0.20210640149543441 0 0.42840946321312051 0.22616640590886961 0 0.44436461221646167 0.20999508604729539 0 0.43156155263451018 0.20210640149543441 0 0.42840946321312051 0.22616640590886961 0 0.43156155263451018 0.20210640149543441 0 0.42480142661983911 0.2175680835518973 0 0.4225113264020024 0.21733240476984469 0 0.42480142661983911 0.2175680835518973 0 0.4225113264020024 0.21733240476984469 0 0.41089020546177851 0.19992673940293279 0 0.43156155263451018 0.20210640149543441 0 0.4225113264020024 0.21733240476984469 0 0.40235296284985578 0.21525786736174141 0 0.4225113264020024 0.21733240476984469 0 0.41089020546177851 0.19992673940293279 0 0.4225113264020024 0.21733240476984469 0 0.40235296284985578 0.21525786736174141 0 0.41089020546177851 0.19992673940293279 0 0.4225113264020024 0.21733240476984469 0 0.40235296284985578 0.21525786736174141 0 0.40791300224572641 0.23357974653930419 0 0.41739444340429749 0.2277063835001634 0 0.40235296284985578 0.21525786736174141 0 0.4225113264020024 0.21733240476984469 0 0.41739444340429749 0.2277063835001634 0 0.4225113264020024 0.21733240476984469 0 0.42840946321312051 0.22616640590886961 0 0.42480142661983911 0.2175680835518973 0 0.4225113264020024 0.21733240476984469 0 0.42840946321312051 0.22616640590886961 0 0.4225113264020024 0.21733240476984469 0 0.41739444340429749 0.2277063835001634 0 0.42840946321312051 0.22616640590886961 0 0.41739444340429749 0.2277063835001634 0 0.42840946321312051 0.22616640590886961 0 0.4257854623107804 0.24619549292105969 0 0.42840946321312051 0.22616640590886961 0 0.43536105216878368 0.2365782269159023 0 0.44368062793731677 0.22349698264731471 0 0.42840946321312051 0.22616640590886961 0 0.43536105216878368 0.2365782269159023 0 0.42840946321312051 0.22616640590886961 0 0.43536105216878368 0.2365782269159023 0 0.4257854623107804 0.24619549292105969 0 0.42840946321312051 0.22616640590886961 0 0.4257854623107804 0.24619549292105969 0 0.43536105216878368 0.2365782269159023 0 0.4257854623107804 0.24619549292105969 0 0.44026912624384251 0.2482901158784577 0 0.40791300224572641 0.23357974653930419 0 0.41739444340429749 0.2277063835001634 0 0.4257854623107804 0.24619549292105969 0 0.39942768190676292 0.24984404265893251 0 0.40791300224572641 0.23357974653930419 0 0.4257854623107804 0.24619549292105969 0 0.46726549252889987 0.2445719445248026 0 0.46454470571912321 0.24111178163676639 0 0.45973388256905029 0.22023911071248209 0 0.46974488900411798 0.26199038117111378 0 0.46726549252889987 0.2445719445248026 0 0.46454470571912321 0.24111178163676639 0 0.46259686318363369 0.25465534831908893 0 0.46454470571912321 0.24111178163676639 0 0.46017941216138591 0.24818184617103509 0 0.46454470571912321 0.24111178163676639 0 0.45599289621143579 0.24380603632437331 0 0.45411179728733608 0.23319590634983331 0 0.46454470571912321 0.24111178163676639 0 0.45599289621143579 0.24380603632437331 0 0.46017941216138591 0.24818184617103509 0 0.45675440256914851 0.25143546716135329 0 0.45599289621143579 0.24380603632437331 0 0.46017941216138591 0.24818184617103509 0 0.45675440256914851 0.25143546716135329 0 0.45599289621143579 0.24380603632437331 0 0.44980473776379493 0.24892982199632099 0 0.44980473776379493 0.24892982199632099 0 0.44026912624384251 0.2482901158784577 0 0.44889748720277189 0.2412936916596255 0 0.45599289621143579 0.24380603632437331 0 0.44980473776379493 0.24892982199632099 0 0.44889748720277189 0.2412936916596255 0 0.43536105216878368 0.2365782269159023 0 0.44889748720277189 0.2412936916596255 0 0.44479975205276812 0.23334101624467121 0 0.43536105216878368 0.2365782269159023 0 0.44026912624384251 0.2482901158784577 0 0.44889748720277189 0.2412936916596255 0 0.45599289621143579 0.24380603632437331 0 0.44889748720277189 0.2412936916596255 0 0.45411179728733608 0.23319590634983331 0 0.44889748720277189 0.2412936916596255 0 0.44479975205276812 0.23334101624467121 0 0.45411179728733608 0.23319590634983331 0 0.44368062793731677 0.22349698264731471 0 0.45973388256905029 0.22023911071248209 0 0.45411179728733608 0.23319590634983331 0 0.42840946321312051 0.22616640590886961 0 0.44368062793731677 0.22349698264731471 0 0.44436461221646167 0.20999508604729539 0 0.44479975205276812 0.23334101624467121 0 0.44368062793731677 0.22349698264731471 0 0.45411179728733608 0.23319590634983331 0 0.43536105216878368 0.2365782269159023 0 0.44479975205276812 0.23334101624467121 0 0.44368062793731677 0.22349698264731471 0 0.46726549252889987 0.2445719445248026 0 0.45973388256905029 0.22023911071248209 0 0.46454470571912321 0.24111178163676639 0 0.45973388256905029 0.22023911071248209 0 0.45411179728733608 0.23319590634983331 0 0.46726549252889987 0.2445719445248026 0 0.45973388256905029 0.22023911071248209 0 0.47193941891911578 0.2377486676429052 0 0.45973388256905029 0.22023911071248209 0 0.46852982483255501 0.20530530186961091 0 0.45220227260920082 0.19590627690016171 0 0.45973388256905029 0.22023911071248209 0 0.45220227260920082 0.19590627690016171 0 0.45973388256905029 0.22023911071248209 0 0.46852982483255501 0.20530530186961091 0 0.47352033382411912 0.21868285927332179 0 0.45973388256905029 0.22023911071248209 0 0.44436461221646167 0.20999508604729539 0 0.45220227260920082 0.19590627690016171 0 0.44368062793731677 0.22349698264731471 0 0.45973388256905029 0.22023911071248209 0 0.44436461221646167 0.20999508604729539 0 0.43156155263451018 0.20210640149543441 0 0.44436461221646167 0.20999508604729539 0 0.45220227260920082 0.19590627690016171 0 0.43471364205589857 0.17804639708199901 0 0.43156155263451018 0.20210640149543441 0 0.45220227260920082 0.19590627690016171 0 0.46852982483255501 0.20530530186961091 0 0.45220227260920082 0.19590627690016171 0 0.46615988056152152 0.1908274089020511 0 0.45220227260920082 0.19590627690016171 0 0.46615988056152152 0.1908274089020511 0 0.45879405197766071 0.18012278015188449 0 0.46615988056152152 0.1908274089020511 0 0.47919108664458759 0.1934113314950143 0 0.47208216674360381 0.1793913540935842 0 0.46852982483255501 0.20530530186961091 0 0.46615988056152152 0.1908274089020511 0 0.47919108664458759 0.1934113314950143 0 0.49732382361072702 0.19594215850747609 0 0.5 0.20603080702203139 0 0.5 0.18177823348335431 0 0.47919108664458759 0.1934113314950143 0 0.48932966766976382 0.190557790266463 0 0.48602222898774727 0.18066595386055709 0 0.48932966766976382 0.190557790266463 0 0.49732382361072702 0.19594215850747609 0 0.5 0.18177823348335431 0 0.47919108664458759 0.1934113314950143 0 0.48932966766976382 0.190557790266463 0 0.48930364138476679 0.20497541544067369 0 0.48932966766976382 0.190557790266463 0 0.49732382361072702 0.19594215850747609 0 0.48930364138476679 0.20497541544067369 0 0.49732382361072702 0.19594215850747609 0 0.4986619118053634 0.2252390563034308 0 0.49732382361072702 0.19594215850747609 0 0.48930364138476679 0.20497541544067369 0 0.49294118880886167 0.21361032414149361 0 0.49732382361072702 0.19594215850747609 0 0.49294118880886167 0.21361032414149361 0 0.4986619118053634 0.2252390563034308 0 0.49732382361072702 0.19594215850747609 0 0.5 0.20603080702203139 0 0.4986619118053634 0.2252390563034308 0 0.49294118880886167 0.21361032414149361 0 0.4882051255917661 0.21731409025307019 0 0.49121144165168529 0.2245809002028174 0 0.48930364138476679 0.20497541544067369 0 0.49294118880886167 0.21361032414149361 0 0.4882051255917661 0.21731409025307019 0 0.48930364138476679 0.20497541544067369 0 0.4882051255917661 0.21731409025307019 0 0.48047445222170998 0.2112122776065905 0 0.48047445222170998 0.2112122776065905 0 0.47352033382411912 0.21868285927332179 0 0.48360765434923447 0.2251174109592198 0 0.47919108664458759 0.1934113314950143 0 0.48930364138476679 0.20497541544067369 0 0.48047445222170998 0.2112122776065905 0 0.46852982483255501 0.20530530186961091 0 0.47919108664458759 0.1934113314950143 0 0.48047445222170998 0.2112122776065905 0 0.4882051255917661 0.21731409025307019 0 0.48047445222170998 0.2112122776065905 0 0.48360765434923447 0.2251174109592198 0 0.46852982483255501 0.20530530186961091 0 0.48047445222170998 0.2112122776065905 0 0.47352033382411912 0.21868285927332179 0 0.45973388256905029 0.22023911071248209 0 0.47525585514804553 0.2315401952187057 0 0.47193941891911578 0.2377486676429052 0 0.45973388256905029 0.22023911071248209 0 0.47352033382411912 0.21868285927332179 0 0.47525585514804553 0.2315401952187057 0 0.47525585514804553 0.2315401952187057 0 0.48360765434923447 0.2251174109592198 0 0.48351437565578659 0.2346310373346146 0 0.47352033382411912 0.21868285927332179 0 0.47525585514804553 0.2315401952187057 0 0.48360765434923447 0.2251174109592198 0 0.4882051255917661 0.21731409025307019 0 0.48360765434923447 0.2251174109592198 0 0.49121144165168529 0.2245809002028174 0 0.5 0.20603080702203139 0 0.5 0.23028338056070841 0 0.4986619118053634 0.2252390563034308 0 0.49294118880886167 0.21361032414149361 0 0.49121144165168529 0.2245809002028174 0 0.4986619118053634 0.2252390563034308 0 0.49121144165168529 0.2245809002028174 0 0.49030853195584928 0.2347586362683092 0 0.49504547135322452 0.2347786367184857 0 0.49121144165168529 0.2245809002028174 0 0.4986619118053634 0.2252390563034308 0 0.49504547135322452 0.2347786367184857 0 0.48360765434923447 0.2251174109592198 0 0.49030853195584928 0.2347586362683092 0 0.48351437565578659 0.2346310373346146 0 0.48360765434923447 0.2251174109592198 0 0.49121144165168529 0.2245809002028174 0 0.49030853195584928 0.2347586362683092 0 0.49999999999999989 0.25453595409938551 0 0.49030853195584928 0.2347586362683092 0 0.49504547135322452 0.2347786367184857 0 0.49999999999999989 0.25453595409938551 0 0.49030853195584928 0.2347586362683092 0 0.48822360492280598 0.24279884890547179 0 0.49999999999999989 0.25453595409938551 0 0.4986619118053634 0.2252390563034308 0 0.49504547135322452 0.2347786367184857 0 0.49999999999999989 0.25453595409938551 0 0.4986619118053634 0.2252390563034308 0 0.49999999999999989 0.25453595409938551 0 0.5 0.23028338056070841 0 0.4986619118053634 0.2252390563034308 0 0.49030853195584928 0.2347586362683092 0 0.48822360492280598 0.24279884890547179 0 0.48351437565578659 0.2346310373346146 0 0.48773754792976343 0.25092288794538409 0 0.48822360492280598 0.24279884890547179 0 0.48284900161305599 0.2462726230721155 0 0.49999999999999989 0.25453595409938551 0 0.48773754792976343 0.25092288794538409 0 0.48822360492280598 0.24279884890547179 0 0.48822360492280598 0.24279884890547179 0 0.48284900161305599 0.2462726230721155 0 0.47995000523883902 0.239878622803855 0 0.48132079222896762 0.25226252207308519 0 0.48773754792976343 0.25092288794538409 0 0.48284900161305599 0.2462726230721155 0 0.48132079222896762 0.25226252207308519 0 0.48284900161305599 0.2462726230721155 0 0.47701305774490371 0.24550023363278131 0 0.48284900161305599 0.2462726230721155 0 0.47701305774490371 0.24550023363278131 0 0.47995000523883902 0.239878622803855 0 0.47525585514804553 0.2315401952187057 0 0.48351437565578659 0.2346310373346146 0 0.47995000523883902 0.239878622803855 0 0.48822360492280598 0.24279884890547179 0 0.48351437565578659 0.2346310373346146 0 0.47995000523883902 0.239878622803855 0 0.47701305774490371 0.24550023363278131 0 0.47995000523883902 0.239878622803855 0 0.47193941891911578 0.2377486676429052 0 0.47525585514804553 0.2315401952187057 0 0.47995000523883902 0.239878622803855 0 0.47193941891911578 0.2377486676429052 0 0.47538932675441631 0.2532173092492252 0 0.46726549252889987 0.2445719445248026 0 0.47290182398683389 0.24525953876242859 0 0.47538932675441631 0.2532173092492252 0 0.47701305774490371 0.24550023363278131 0 0.47290182398683389 0.24525953876242859 0 0.46726549252889987 0.2445719445248026 0 0.47193941891911578 0.2377486676429052 0 0.47290182398683389 0.24525953876242859 0 0.47701305774490371 0.24550023363278131 0 0.47193941891911578 0.2377486676429052 0 0.47290182398683389 0.24525953876242859 0 0.46608637210412851 0.1477322723792539 0 0.43786573147728608 0.15398639266856359 0 0.46016646906495112 0.16395371122315031 0 0.46608637210412851 0.1477322723792539 0 0.45286292290921282 0.13859746743760179 0 0.47496103211525731 0.1237634329267102 0 0.45286292290921282 0.13859746743760179 0 0.47496103211525731 0.1237634329267102 0 0.45225301510521332 0.1233337151903597 0 0.45286292290921282 0.13859746743760179 0 0.44152649671145788 0.12992187075840789 0 0.45225301510521332 0.1233337151903597 0 0.45286292290921282 0.13859746743760179 0 0.44152649671145788 0.12992187075840789 0 0.43948005490385461 0.14166420773802921 0 0.46608637210412851 0.1477322723792539 0 0.45286292290921282 0.13859746743760179 0 0.43786573147728608 0.15398639266856359 0 0.46608637210412851 0.1477322723792539 0 0.43786573147728608 0.15398639266856359 0 0.43948005490385461 0.14166420773802921 0 0.43786573147728608 0.15398639266856359 0 0.45286292290921282 0.13859746743760179 0 0.43948005490385461 0.14166420773802921 0 0.43786573147728608 0.15398639266856359 0 0.43786573147728608 0.15398639266856359 0 0.44467066264935118 0.1715734430878412 0 0.46016646906495112 0.16395371122315031 0 0.43471364205589857 0.17804639708199901 0 0.43786573147728608 0.15398639266856359 0 0.44467066264935118 0.1715734430878412 0 0.45220227260920082 0.19590627690016171 0 0.44467066264935118 0.1715734430878412 0 0.45879405197766071 0.18012278015188449 0 0.45220227260920082 0.19590627690016171 0 0.44467066264935118 0.1715734430878412 0 0.43471364205589857 0.17804639708199901 0 0.45220227260920082 0.19590627690016171 0 0.44467066264935118 0.1715734430878412 0 0.45879405197766071 0.18012278015188449 0 0.46016646906495112 0.16395371122315031 0 0.47208216674360381 0.1793913540935842 0 0.46615988056152152 0.1908274089020511 0 0.45879405197766071 0.18012278015188449 0 0.47208216674360381 0.1793913540935842 0 0.44467066264935118 0.1715734430878412 0 0.45879405197766071 0.18012278015188449 0 0.46016646906495112 0.16395371122315031 0 0.46016646906495112 0.16395371122315031 0 0.48085855815761291 0.1694582099979117 0 0.48428522806642083 0.15406703508246189 0 0.46016646906495112 0.16395371122315031 0 0.48085855815761291 0.1694582099979117 0 0.47208216674360381 0.1793913540935842 0 0.48085855815761291 0.1694582099979117 0 0.47208216674360381 0.1793913540935842 0 0.48602222898774727 0.18066595386055709 0 0.47919108664458759 0.1934113314950143 0 0.47208216674360381 0.1793913540935842 0 0.48602222898774727 0.18066595386055709 0 0.48932966766976382 0.190557790266463 0 0.48602222898774727 0.18066595386055709 0 0.5 0.18177823348335431 0 0.48085855815761291 0.1694582099979117 0 0.48602222898774727 0.18066595386055709 0 0.49143708201915959 0.16897517975305609 0 0.48602222898774727 0.18066595386055709 0 0.5 0.18177823348335431 0 0.49143708201915959 0.16897517975305609 0 0.5 0.18177823348335431 0 0.49143708201915959 0.16897517975305609 0 0.49999999999999928 0.15752565994467729 0 0.49143708201915959 0.16897517975305609 0 0.49999999999999928 0.15752565994467729 0 0.48428522806642083 0.15406703508246189 0 0.48085855815761291 0.1694582099979117 0 0.49143708201915959 0.16897517975305609 0 0.48428522806642083 0.15406703508246189 0 0.49999999999999928 0.15752565994467729 0 0.500000000000003 0.14669110421028861 0 0.49594489535160508 0.142977927739637 0 0.49999999999999928 0.15752565994467729 0 0.49594489535160508 0.142977927739637 0 0.48428522806642083 0.15406703508246189 0 0.49999999999999928 0.15752565994467729 0 0.49594489535160508 0.142977927739637 0 0.49545587105339439 0.1412235477300019 0 0.50000000000001943 0.1402165001077316 0 0.500000000000003 0.14669110421028861 0 0.49594489535160508 0.142977927739637 0 0.50000000000001943 0.1402165001077316 0 0.49594489535160508 0.142977927739637 0 0.49545587105339439 0.1412235477300019 0 0.50000000000001943 0.1402165001077316 0 0.500000000000003 0.14669110421028861 0 0.49594489535160508 0.142977927739637 0 0.49594489535160508 0.142977927739637 0 0.49545587105339439 0.1412235477300019 0 0.49594489535160508 0.142977927739637 0 0.49545587105339439 0.1412235477300019 0 0.48428522806642083 0.15406703508246189 0 0.46608637210412851 0.1477322723792539 0 0.49545587105339439 0.1412235477300019 0 0.46608637210412851 0.1477322723792539 0 0.49545587105339439 0.1412235477300019 0 0.48428522806642083 0.15406703508246189 0 0.46608637210412851 0.1477322723792539 0 0.46016646906495112 0.16395371122315031 0 0.48428522806642083 0.15406703508246189 0 0.46608637210412851 0.1477322723792539 0 0.49545587105339439 0.1412235477300019 0 0.47496103211525731 0.1237634329267102 0 0.49545587105339439 0.1412235477300019 0 0.48950694225452568 0.1198817007058849 0 0.49545587105339439 0.1412235477300019 0 0.48950694225452568 0.1198817007058849 0 0.47496103211525731 0.1237634329267102 0 0.50000000000001943 0.1402165001077316 0 0.5 0.11691690982984899 0 0.48950694225452568 0.1198817007058849 0 0.49545587105339439 0.1412235477300019 0 0.47496103211525731 0.1237634329267102 0 0.49545587105339439 0.1412235477300019 0 0.50000000000001943 0.1402165001077316 0 0.48950694225452568 0.1198817007058849 0 0.5 0.11691690982984899 0 0.48950694225452568 0.1198817007058849 0 0.48355801345565658 0.098539853681768069 0 0.5 0.11691690982984899 0 0.48355801345565658 0.098539853681768069 0 0.49999999999999678 0.093617319551966477 0 0.48950694225452568 0.1198817007058849 0 0.48355801345565658 0.098539853681768069 0 0.48950694225452568 0.1198817007058849 0 0.48355801345565658 0.098539853681768069 0 0.47181400165122311 0.1079645297031 0 0.48355801345565658 0.098539853681768069 0 0.47181400165122311 0.1079645297031 0 0.46050918560987603 0.087657255853108115 0 0.48950694225452568 0.1198817007058849 0 0.47181400165122311 0.1079645297031 0 0.47496103211525731 0.1237634329267102 0 0.48877805342801522 0.081304272218018059 0 0.49251870228534339 0.054939023700027033 0 0.48877805342801522 0.081304272218018059 0 0.48169639673645109 0.063812882530478579 0 0.49251870228534339 0.054939023700027033 0 0.5 0.070765121329986136 0 0.48877805342801522 0.081304272218018059 0 0.49251870228534339 0.054939023700027033 0 0.48355801345565658 0.098539853681768069 0 0.49999999999999678 0.093617319551966477 0 0.47760908465679108 0.077198006657650226 0 0.48877805342801522 0.081304272218018059 0 0.49999999999999678 0.093617319551966477 0 0.47760908465679108 0.077198006657650226 0 0.49999999999999678 0.093617319551966477 0 0.47760908465679108 0.077198006657650226 0 0.5 0.070765121329986136 0 0.48877805342801522 0.081304272218018059 0 0.49999999999999678 0.093617319551966477 0 0.48355801345565658 0.098539853681768069 0 0.47760908465679108 0.077198006657650226 0 0.48355801345565658 0.098539853681768069 0 0.47760908465679108 0.077198006657650226 0 0.46050918560987603 0.087657255853108115 0 0.48877805342801522 0.081304272218018059 0 0.47760908465679108 0.077198006657650226 0 0.48169639673645109 0.063812882530478579 0 0.47760908465679108 0.077198006657650226 0 0.46134587053020237 0.065272152027816527 0 0.47127437321721882 0.054472160197545777 0 0.47760908465679108 0.077198006657650226 0 0.48169639673645109 0.063812882530478579 0 0.47127437321721882 0.054472160197545777 0 0.47760908465679108 0.077198006657650226 0 0.47127437321721882 0.054472160197545777 0 0.47760908465679108 0.077198006657650226 0 0.46134587053020237 0.065272152027816527 0 0.46134587053020237 0.065272152027816527 0 0.46050918560987603 0.087657255853108115 0 0.43793580024771062 0.069792658475256536 0 0.47760908465679108 0.077198006657650226 0 0.46134587053020237 0.065272152027816527 0 0.46050918560987603 0.087657255853108115 0 0.46050918560987603 0.087657255853108115 0 0.43793580024771062 0.069792658475256536 0 0.43626907088382838 0.088333994600240412 0 0.46134587053020237 0.065272152027816527 0 0.43793580024771062 0.069792658475256536 0 0.445082656403611 0.053346297397986589 0 0.47181400165122311 0.1079645297031 0 0.47496103211525731 0.1237634329267102 0 0.45561505149954279 0.1060487137634753 0 0.47496103211525731 0.1237634329267102 0 0.45561505149954279 0.1060487137634753 0 0.45225301510521332 0.1233337151903597 0 0.47496103211525731 0.1237634329267102 0 0.45561505149954279 0.1060487137634753 0 0.47181400165122311 0.1079645297031 0 0.46050918560987603 0.087657255853108115 0 0.45561505149954279 0.1060487137634753 0 0.45561505149954279 0.1060487137634753 0 0.43543067731870683 0.1163956131204143 0 0.43626907088382838 0.088333994600240412 0 0.46050918560987603 0.087657255853108115 0 0.45561505149954279 0.1060487137634753 0 0.43626907088382838 0.088333994600240412 0 0.45561505149954279 0.1060487137634753 0 0.43626907088382838 0.088333994600240412 0 0.45561505149954279 0.1060487137634753 0 0.45225301510521332 0.1233337151903597 0 0.43543067731870683 0.1163956131204143 0 0.44152649671145788 0.12992187075840789 0 0.45225301510521332 0.1233337151903597 0 0.43543067731870683 0.1163956131204143 0 0.42975146326382302 0.13212867936583519 0 0.43543067731870683 0.1163956131204143 0 0.41375939183803889 0.12438751577121231 0 0.43543067731870683 0.1163956131204143 0 0.41375939183803889 0.12438751577121231 0 0.41828248892561121 0.10848341864898189 0 0.41375939183803889 0.12438751577121231 0 0.41828248892561121 0.10848341864898189 0 0.39927486010465291 0.1068834890384424 0 0.41828248892561121 0.10848341864898189 0 0.43626907088382838 0.088333994600240412 0 0.40769915086434849 0.093258842843597867 0 0.41828248892561121 0.10848341864898189 0 0.40769915086434849 0.093258842843597867 0 0.39927486010465291 0.1068834890384424 0 0.43543067731870683 0.1163956131204143 0 0.41828248892561121 0.10848341864898189 0 0.43626907088382838 0.088333994600240412 0 0.43626907088382838 0.088333994600240412 0 0.41692309026811369 0.070619275437005857 0 0.43793580024771062 0.069792658475256536 0 0.41692309026811369 0.070619275437005857 0 0.42287126627256427 0.056019859102580762 0 0.43793580024771062 0.069792658475256536 0 0.43626907088382838 0.088333994600240412 0 0.41692309026811369 0.070619275437005857 0 0.41692309026811369 0.070619275437005857 0 0.40024884245072551 0.077024578204752142 0 0.40516434694894982 0.059852034440063859 0 0.41692309026811369 0.070619275437005857 0 0.42287126627256427 0.056019859102580762 0 0.41692309026811369 0.070619275437005857 0 0.40516434694894982 0.059852034440063859 0 0.43626907088382838 0.088333994600240412 0 0.41692309026811369 0.070619275437005857 0 0.40769915086434849 0.093258842843597867 0 0.41692309026811369 0.070619275437005857 0 0.40769915086434849 0.093258842843597867 0 0.40024884245072551 0.077024578204752142 0 0.41692309026811369 0.070619275437005857 0 0.40769915086434849 0.093258842843597867 0 0.40769915086434849 0.093258842843597867 0 0.40024884245072551 0.077024578204752142 0 0.38862569706320471 0.087872898062501897 0 0.39216517552804042 0.068956747809525959 0 0.40024884245072551 0.077024578204752142 0 0.38862569706320471 0.087872898062501897 0 0.39216517552804042 0.068956747809525959 0 0.40024884245072551 0.077024578204752142 0 0.40516434694894982 0.059852034440063859 0 0.37626036485155617 0.073450742499753335 0 0.38860197405807662 0.053104247681219748 0 0.39216517552804042 0.068956747809525959 0 0.37626036485155617 0.073450742499753335 0 0.38862569706320471 0.087872898062501897 0 0.39216517552804042 0.068956747809525959 0 0.37626036485155617 0.073450742499753335 0 0.38860197405807662 0.053104247681219748 0 0.36391875564503579 0.093797237318286847 0 0.37626036485155617 0.073450742499753335 0 0.38862569706320471 0.087872898062501897 0 0.38862569706320471 0.087872898062501897 0 0.38131791894259309 0.1053837054811891 0 0.39927486010465291 0.1068834890384424 0 0.36391875564503579 0.093797237318286847 0 0.38862569706320471 0.087872898062501897 0 0.38131791894259309 0.1053837054811891 0 0.36764800366116113 0.1133136025492217 0 0.37865315121162502 0.12651792307034379 0 0.38131791894259309 0.1053837054811891 0 0.37865315121162502 0.12651792307034379 0 0.38131791894259309 0.1053837054811891 0 0.39441739984549901 0.1241302862483445 0 0.37865315121162502 0.12651792307034379 0 0.38131791894259309 0.1053837054811891 0 0.41375939183803889 0.12438751577121231 0 0.39441739984549901 0.1241302862483445 0 0.39927486010465291 0.1068834890384424 0 0.38131791894259309 0.1053837054811891 0 0.39441739984549901 0.1241302862483445 0 0.39927486010465291 0.1068834890384424 0 0.40769915086434849 0.093258842843597867 0 0.38862569706320471 0.087872898062501897 0 0.39927486010465291 0.1068834890384424 0 0.39535693027036539 0.026786665551015679 0 0.400943583264597 0.032757752862686243 0 0.41117132256702787 0.028479033492419061 0 0.390573905146131 0.01337489700380801 0 0.41117132256702787 0.028479033492419061 0 0.390573905146131 0.01337489700380801 0 0.41192653303325338 0.01639234649043092 0 0.41117132256702787 0.028479033492419061 0 0.39535693027036539 0.026786665551015679 0 0.390573905146131 0.01337489700380801 0 0.41117132256702787 0.028479033492419061 0 0.39535693027036539 0.026786665551015679 0 0.39020271017826902 0.032595772455314469 0 0.400943583264597 0.032757752862686243 0 0.400943583264597 0.032757752862686243 0 0.41117132256702787 0.028479033492419061 0 0.390573905146131 0.01337489700380801 0 0.41192653303325338 0.01639234649043092 0 0.39308329438013551 0.0024870490543335609 0 0.41192653303325338 0.01639234649043092 0 0.40244716601505548 -0.0036088655860909711 0 0.39308329438013551 0.0024870490543335609 0 0.390573905146131 0.01337489700380801 0 0.41192653303325338 0.01639234649043092 0 0.36607496410772972 0.0099128258503241584 0 0.390573905146131 0.01337489700380801 0 0.390573905146131 0.01337489700380801 0 0.37710365768939269 0.003497131652723405 0 0.39308329438013551 0.0024870490543335609 0 0.390573905146131 0.01337489700380801 0 0.37710365768939269 0.003497131652723405 0 0.36607496410772972 0.0099128258503241584 0 0.390573905146131 0.01337489700380801 0 0.37710365768939269 0.003497131652723405 0 0.36607496410772972 0.0099128258503241584 0 0.390573905146131 0.01337489700380801 0 0.37712569185983408 0.020126624221168409 0 0.390573905146131 0.01337489700380801 0 0.37712569185983408 0.020126624221168409 0 0.3838931301958014 0.02672587194085204 0 0.39535693027036539 0.026786665551015679 0 0.390573905146131 0.01337489700380801 0 0.3838931301958014 0.02672587194085204 0 0.39535693027036539 0.026786665551015679 0 0.3838931301958014 0.02672587194085204 0 0.39020271017826902 0.032595772455314469 0 0.3838931301958014 0.02672587194085204 0 0.39020271017826902 0.032595772455314469 0 0.38410701898352212 0.0336164975387203 0 0.37254899247150169 0.026414696685793361 0 0.37712569185983408 0.020126624221168409 0 0.3838931301958014 0.02672587194085204 0 0.37254899247150169 0.026414696685793361 0 0.3838931301958014 0.02672587194085204 0 0.37972153351231391 0.034948967731108539 0 0.37149400158627133 0.040771782732311551 0 0.37972153351231391 0.034948967731108539 0 0.38261070204770409 0.04019537802760613 0 0.3838931301958014 0.02672587194085204 0 0.37972153351231391 0.034948967731108539 0 0.38410701898352212 0.0336164975387203 0 0.37972153351231391 0.034948967731108539 0 0.38261070204770409 0.04019537802760613 0 0.38410701898352212 0.0336164975387203 0 0.37149400158627133 0.040771782732311551 0 0.38261070204770409 0.04019537802760613 0 0.37499939369354562 0.05304484752901701 0 0.38261070204770409 0.04019537802760613 0 0.39020271017826902 0.032595772455314469 0 0.38410701898352212 0.0336164975387203 0 0.37626036485155617 0.073450742499753335 0 0.37499939369354562 0.05304484752901701 0 0.38860197405807662 0.053104247681219748 0 0.38261070204770409 0.04019537802760613 0 0.37499939369354562 0.05304484752901701 0 0.38860197405807662 0.053104247681219748 0 0.38860197405807662 0.053104247681219748 0 0.40155648788187848 0.047555465280726412 0 0.40516434694894982 0.059852034440063859 0 0.39216517552804042 0.068956747809525959 0 0.38860197405807662 0.053104247681219748 0 0.40516434694894982 0.059852034440063859 0 0.40155648788187848 0.047555465280726412 0 0.40516434694894982 0.059852034440063859 0 0.41151604725589042 0.04450782613893578 0 0.38261070204770409 0.04019537802760613 0 0.39020271017826902 0.032595772455314469 0 0.400943583264597 0.032757752862686243 0 0.38261070204770409 0.04019537802760613 0 0.400943583264597 0.032757752862686243 0 0.38860197405807662 0.053104247681219748 0 0.40155648788187848 0.047555465280726412 0 0.400943583264597 0.032757752862686243 0 0.38261070204770409 0.04019537802760613 0 0.38860197405807662 0.053104247681219748 0 0.400943583264597 0.032757752862686243 0 0.38860197405807662 0.053104247681219748 0 0.400943583264597 0.032757752862686243 0 0.40155648788187848 0.047555465280726412 0 0.400943583264597 0.032757752862686243 0 0.41151604725589042 0.04450782613893578 0 0.41151604725589042 0.04450782613893578 0 0.42881944227701912 0.041420442768157331 0 0.41117132256702787 0.028479033492419061 0 0.400943583264597 0.032757752862686243 0 0.41151604725589042 0.04450782613893578 0 0.41117132256702787 0.028479033492419061 0 0.42881944227701912 0.041420442768157331 0 0.41117132256702787 0.028479033492419061 0 0.40516434694894982 0.059852034440063859 0 0.41151604725589042 0.04450782613893578 0 0.42287126627256427 0.056019859102580762 0 0.41151604725589042 0.04450782613893578 0 0.42287126627256427 0.056019859102580762 0 0.42881944227701912 0.041420442768157331 0 0.41692309026811369 0.070619275437005857 0 0.40516434694894982 0.059852034440063859 0 0.42287126627256427 0.056019859102580762 0 0.42287126627256427 0.056019859102580762 0 0.42881944227701912 0.041420442768157331 0 0.445082656403611 0.053346297397986589 0 0.42881944227701912 0.041420442768157331 0 0.445082656403611 0.053346297397986589 0 0.43793580024771062 0.069792658475256536 0 0.42287126627256427 0.056019859102580762 0 0.445082656403611 0.053346297397986589 0 0.42287126627256427 0.056019859102580762 0 0.42881944227701912 0.041420442768157331 0 0.42881944227701912 0.041420442768157331 0 0.43754172449963652 0.020012160723533502 0 0.44459218374597059 0.035365679903493402 0 0.43327916092037588 0.019409795977053449 0 0.41192653303325338 0.01639234649043092 0 0.43327916092037588 0.019409795977053449 0 0.41117132256702787 0.028479033492419061 0 0.42881944227701912 0.041420442768157331 0 0.43327916092037588 0.019409795977053449 0 0.41117132256702787 0.028479033492419061 0 0.42881944227701912 0.041420442768157331 0 0.43327916092037588 0.019409795977053449 0 0.43754172449963652 0.020012160723533502 0 0.42881944227701912 0.041420442768157331 0 0.43754172449963652 0.020012160723533502 0 0.43327916092037588 0.019409795977053449 0 0.43519481438892982 0.01153357006427971 0 0.438691795214877 0.017189385947991791 0 0.43327916092037588 0.019409795977053449 0 0.438691795214877 0.017189385947991791 0 0.43754172449963652 0.020012160723533502 0 0.43327916092037588 0.019409795977053449 0 0.438691795214877 0.017189385947991791 0 0.43327916092037588 0.019409795977053449 0 0.43754172449963652 0.020012160723533502 0 0.43327916092037588 0.019409795977053449 0 0.41192653303325338 0.01639234649043092 0 0.41117132256702787 0.028479033492419061 0 0.41192653303325338 0.01639234649043092 0 0.41533659158712111 0.0025510864320527028 0 0.40244716601505548 -0.0036088655860909711 0 0.41192653303325338 0.01639234649043092 0 0.41533659158712111 0.0025510864320527028 0 0.42624227931779829 0.0065726109829769754 0 0.41533659158712111 0.0025510864320527028 0 0.42624227931779829 0.0065726109829769754 0 0.42288990595833748 -0.0071977917862458777 0 0.43327916092037588 0.019409795977053449 0 0.41192653303325338 0.01639234649043092 0 0.42624227931779829 0.0065726109829769754 0 0.43327916092037588 0.019409795977053449 0 0.42624227931779829 0.0065726109829769754 0 0.43519481438892982 0.01153357006427971 0 0.42624227931779829 0.0065726109829769754 0 0.43667305753146168 0.0031874598282999899 0 0.43149767093985347 -0.0047712603921836244 0 0.42624227931779829 0.0065726109829769754 0 0.43519481438892982 0.01153357006427971 0 0.43667305753146168 0.0031874598282999899 0 0.44633791244094601 0.00027686967771180341 0 0.44108777896013562 0.011308597585076401 0 0.45860495033808069 0.0090204672773349492 0 0.44108777896013562 0.011308597585076401 0 0.438691795214877 0.017189385947991791 0 0.45860495033808069 0.0090204672773349492 0 0.43667305753146168 0.0031874598282999899 0 0.44633791244094601 0.00027686967771180341 0 0.44108777896013562 0.011308597585076401 0 0.438691795214877 0.017189385947991791 0 0.45860495033808069 0.0090204672773349492 0 0.43519481438892982 0.01153357006427971 0 0.43667305753146168 0.0031874598282999899 0 0.44108777896013562 0.011308597585076401 0 0.43519481438892982 0.01153357006427971 0 0.44108777896013562 0.011308597585076401 0 0.438691795214877 0.017189385947991791 0 0.44108777896013562 0.011308597585076401 0 0.438691795214877 0.017189385947991791 0 0.438691795214877 0.017189385947991791 0 0.43754172449963652 0.020012160723533502 0 0.4556209703075354 0.02256703178062083 0 0.43754172449963652 0.020012160723533502 0 0.4556209703075354 0.02256703178062083 0 0.438691795214877 0.017189385947991791 0 0.4556209703075354 0.02256703178062083 0 0.45860495033808069 0.0090204672773349492 0 0.43754172449963652 0.020012160723533502 0 0.4556209703075354 0.02256703178062083 0 0.44459218374597059 0.035365679903493402 0 0.438691795214877 0.017189385947991791 0 0.43754172449963652 0.020012160723533502 0 0.4556209703075354 0.02256703178062083 0 0.44459218374597059 0.035365679903493402 0 0.45527948969076443 0.033535023826329551 0 0.4556209703075354 0.02256703178062083 0 0.45860495033808069 0.0090204672773349492 0 0.46493966177765012 0.031746313737440288 0 0.45860495033808069 0.0090204672773349492 0 0.46493966177765012 0.031746313737440288 0 0.45860495033808069 0.0090204672773349492 0 0.46493966177765012 0.031746313737440288 0 0.47692543316178432 0.02210131387803985 0 0.4556209703075354 0.02256703178062083 0 0.45527948969076443 0.033535023826329551 0 0.46493966177765012 0.031746313737440288 0 0.46388414289190288 0.0068547986852786798 0 0.45860495033808069 0.0090204672773349492 0 0.47692543316178432 0.02210131387803985 0 0.46388414289190288 0.0068547986852786798 0 0.45860495033808069 0.0090204672773349492 0 0.46567425139328511 -0.010385612516943419 0 0.46388414289190288 0.0068547986852786798 0 0.45860495033808069 0.0090204672773349492 0 0.42881944227701912 0.041420442768157331 0 0.445082656403611 0.053346297397986589 0 0.44459218374597059 0.035365679903493402 0 0.445082656403611 0.053346297397986589 0 0.44459218374597059 0.035365679903493402 0 0.45697999240722342 0.045513327663088958 0 0.44459218374597059 0.035365679903493402 0 0.45527948969076443 0.033535023826329551 0 0.45697999240722342 0.045513327663088958 0 0.46493966177765012 0.031746313737440288 0 0.47127437321721882 0.054472160197545777 0 0.46493966177765012 0.031746313737440288 0 0.45697999240722342 0.045513327663088958 0 0.47127437321721882 0.054472160197545777 0 0.45527948969076443 0.033535023826329551 0 0.46493966177765012 0.031746313737440288 0 0.45697999240722342 0.045513327663088958 0 0.46134587053020237 0.065272152027816527 0 0.445082656403611 0.053346297397986589 0 0.45697999240722342 0.045513327663088958 0 0.46134587053020237 0.065272152027816527 0 0.445082656403611 0.053346297397986589 0 0.46134587053020237 0.065272152027816527 0 0.45697999240722342 0.045513327663088958 0 0.47127437321721882 0.054472160197545777 0 0.48169639673645109 0.063812882530478579 0 0.47127437321721882 0.054472160197545777 0 0.48280267675422328 0.052783815769943031 0 0.48280267675422328 0.052783815769943031 0 0.4824802295582778 0.042109183718532728 0 0.48702378776118899 0.047097063590441947 0 0.47127437321721882 0.054472160197545777 0 0.48280267675422328 0.052783815769943031 0 0.4824802295582778 0.042109183718532728 0 0.47127437321721882 0.054472160197545777 0 0.4824802295582778 0.042109183718532728 0 0.475952201034607 0.035122049665789572 0 0.46493966177765012 0.031746313737440288 0 0.47127437321721882 0.054472160197545777 0 0.475952201034607 0.035122049665789572 0 0.4824802295582778 0.042109183718532728 0 0.475952201034607 0.035122049665789572 0 0.48543063850723522 0.030775885952790519 0 0.49078359534059379 0.037811848616920482 0 0.48702378776118899 0.047097063590441947 0 0.49251870228534339 0.054939023700027033 0 0.49251870228534339 0.054939023700027033 0 0.49625935114267172 0.028573775182036031 0 0.5 0.047912923108005767 0 0.49251870228534339 0.054939023700027033 0 0.49625935114267172 0.028573775182036031 0 0.49078359534059379 0.037811848616920482 0 0.49251870228534339 0.054939023700027033 0 0.49625935114267172 0.028573775182036031 0 0.5 0.047912923108005767 0 0.5 0.025060724886025398 0 0.49625935114267172 0.028573775182036031 0 0.49078359534059379 0.037811848616920482 0 0.48543063850723522 0.030775885952790519 0 0.49625935114267172 0.028573775182036031 0 0.4824802295582778 0.042109183718532728 0 0.49078359534059379 0.037811848616920482 0 0.48543063850723522 0.030775885952790519 0 0.4824802295582778 0.042109183718532728 0 0.49078359534059379 0.037811848616920482 0 0.48702378776118899 0.047097063590441947 0 0.5 0.070765121329986136 0 0.5 0.047912923108005767 0 0.49251870228534339 0.054939023700027033 0 0.48280267675422328 0.052783815769943031 0 0.48702378776118899 0.047097063590441947 0 0.49251870228534339 0.054939023700027033 0 0.48169639673645109 0.063812882530478579 0 0.48280267675422328 0.052783815769943031 0 0.49251870228534339 0.054939023700027033 0 0.47692543316178432 0.02210131387803985 0 0.49029432417556779 0.01427948689964427 0 0.48130793305892078 -0.0029006766824825718 0 0.47692543316178432 0.02210131387803985 0 0.48130793305892078 -0.0029006766824825718 0 0.46388414289190288 0.0068547986852786798 0 0.47692543316178432 0.02210131387803985 0 0.48130793305892078 -0.0029006766824825718 0 0.46493966177765012 0.031746313737440288 0 0.475952201034607 0.035122049665789572 0 0.47692543316178432 0.02210131387803985 0 0.475952201034607 0.035122049665789572 0 0.47692543316178432 0.02210131387803985 0 0.48543063850723522 0.030775885952790519 0 0.47692543316178432 0.02210131387803985 0 0.48543063850723522 0.030775885952790519 0 0.488099024875434 0.023574168854118421 0 0.5 0.025060724886025398 0 0.49625935114267172 0.028573775182036031 0 0.5 0.0022085266640450201 0 0.47692543316178432 0.02210131387803985 0 0.488099024875434 0.023574168854118421 0 0.49029432417556779 0.01427948689964427 0 0.488099024875434 0.023574168854118421 0 0.49625935114267172 0.028573775182036031 0 0.49029432417556779 0.01427948689964427 0 0.48543063850723522 0.030775885952790519 0 0.488099024875434 0.023574168854118421 0 0.49625935114267172 0.028573775182036031 0 0.49625935114267172 0.028573775182036031 0 0.5 0.0022085266640450201 0 0.49625935114267172 0.028573775182036031 0 0.5 0.0022085266640450201 0 0.49029432417556779 0.01427948689964427 0 0.5 0.0022085266640450201 0 0.49029432417556779 0.01427948689964427 0 0.48130793305892078 -0.0029006766824825718 0 0.49174959150374448 -0.01388793055666071 0 0.48130793305892078 -0.0029006766824825718 0 0.48569043295605729 -0.027902667243005001 0 0.5 0.0022085266640450201 0 0.49174959150374448 -0.01388793055666071 0 0.5 -0.026956904965200309 0 0.5 0.0022085266640450201 0 0.49174959150374448 -0.01388793055666071 0 0.48130793305892078 -0.0029006766824825718 0 0.46388414289190288 0.0068547986852786798 0 0.48130793305892078 -0.0029006766824825718 0 0.46567425139328511 -0.010385612516943419 0 0.48130793305892078 -0.0029006766824825718 0 0.48569043295605729 -0.027902667243005001 0 0.48130793305892078 -0.0029006766824825718 0 0.48569043295605729 -0.027902667243005001 0 0.46567425139328511 -0.010385612516943419 0 0.48569043295605729 -0.027902667243005001 0 0.46567425139328511 -0.010385612516943419 0 0.46871527720295292 -0.027105183537962142 0 0.49174959150374448 -0.01388793055666071 0 0.48569043295605729 -0.027902667243005001 0 0.5 -0.026956904965200309 0 0.5 -0.026956904965200309 0 0.49394084145231282 -0.040971641651544592 0 0.5 -0.056122336594445647 0 0.48569043295605729 -0.027902667243005001 0 0.5 -0.026956904965200309 0 0.49394084145231282 -0.040971641651544592 0 0.48569043295605729 -0.027902667243005001 0 0.49007293285319392 -0.052904657803527412 0 0.47787198311450763 -0.040916309906423663 0 0.48569043295605729 -0.027902667243005001 0 0.49394084145231282 -0.040971641651544592 0 0.49007293285319392 -0.052904657803527412 0 0.48569043295605729 -0.027902667243005001 0 0.49007293285319392 -0.052904657803527412 0 0.49007293285319392 -0.052904657803527412 0 0.47874273394923739 -0.053168074528556639 0 0.48750614451212648 -0.069915460075944902 0 0.5 -0.056122336594445647 0 0.49007293285319392 -0.052904657803527412 0 0.48750614451212648 -0.069915460075944902 0 0.49394084145231282 -0.040971641651544592 0 0.5 -0.056122336594445647 0 0.49007293285319392 -0.052904657803527412 0 0.47090240877918288 -0.061725774671168201 0 0.47874273394923739 -0.053168074528556639 0 0.48750614451212648 -0.069915460075944902 0 0.47090240877918288 -0.061725774671168201 0 0.47874273394923739 -0.053168074528556639 0 0.46581704864370699 -0.044322754901527157 0 0.49007293285319392 -0.052904657803527412 0 0.47874273394923739 -0.053168074528556639 0 0.47787198311450763 -0.040916309906423663 0 0.48569043295605729 -0.027902667243005001 0 0.47787198311450763 -0.040916309906423663 0 0.46871527720295292 -0.027105183537962142 0 0.47787198311450763 -0.040916309906423663 0 0.46581704864370699 -0.044322754901527157 0 0.46871527720295292 -0.027105183537962142 0 0.47874273394923739 -0.053168074528556639 0 0.47787198311450763 -0.040916309906423663 0 0.46581704864370699 -0.044322754901527157 0 0.46581704864370699 -0.044322754901527157 0 0.44287941649791951 -0.047395057086161867 0 0.45074218341800038 -0.019187294904413541 0 0.47090240877918288 -0.061725774671168201 0 0.46581704864370699 -0.044322754901527157 0 0.45624070547997858 -0.061493536532244167 0 0.46581704864370699 -0.044322754901527157 0 0.45624070547997858 -0.061493536532244167 0 0.44287941649791951 -0.047395057086161867 0 0.45624070547997858 -0.061493536532244167 0 0.44287941649791951 -0.047395057086161867 0 0.43891688931090611 -0.072953945589123992 0 0.44287941649791951 -0.047395057086161867 0 0.45074218341800038 -0.019187294904413541 0 0.44287941649791951 -0.047395057086161867 0 0.45074218341800038 -0.019187294904413541 0 0.43205841039335108 -0.01946916187857933 0 0.44633791244094601 0.00027686967771180341 0 0.45860495033808069 0.0090204672773349492 0 0.45074218341800038 -0.019187294904413541 0 0.44633791244094601 0.00027686967771180341 0 0.45074218341800038 -0.019187294904413541 0 0.43962470149831839 -0.0069494191073698822 0 0.45074218341800038 -0.019187294904413541 0 0.43962470149831839 -0.0069494191073698822 0 0.43205841039335108 -0.01946916187857933 0 0.43667305753146168 0.0031874598282999899 0 0.44633791244094601 0.00027686967771180341 0 0.43962470149831839 -0.0069494191073698822 0 0.45860495033808069 0.0090204672773349492 0 0.45074218341800038 -0.019187294904413541 0 0.45860495033808069 0.0090204672773349492 0 0.45074218341800038 -0.019187294904413541 0 0.46567425139328511 -0.010385612516943419 0 0.45074218341800038 -0.019187294904413541 0 0.46567425139328511 -0.010385612516943419 0 0.46871527720295292 -0.027105183537962142 0 0.46581704864370699 -0.044322754901527157 0 0.45074218341800038 -0.019187294904413541 0 0.46871527720295292 -0.027105183537962142 0 0.5 -0.1144531998529362 0 0.48012745672256091 -0.092929717469344988 0 0.46804565854765939 -0.1104610470666058 0 0.5 -0.1144531998529362 0 0.46804565854765939 -0.1104610470666058 0 0.47607643507557301 -0.1343078895027166 0 0.5 -0.1144531998529362 0 0.48012745672256091 -0.092929717469344988 0 0.5 -0.085287768223690996 0 0.48012745672256091 -0.092929717469344988 0 0.48750614451212648 -0.069915460075944902 0 0.46451583267344643 -0.078452336520569863 0 0.48012745672256091 -0.092929717469344988 0 0.5 -0.085287768223690996 0 0.48750614451212648 -0.069915460075944902 0 0.5 -0.056122336594445647 0 0.5 -0.085287768223690996 0 0.48750614451212648 -0.069915460075944902 0 0.47090240877918288 -0.061725774671168201 0 0.48750614451212648 -0.069915460075944902 0 0.46451583267344643 -0.078452336520569863 0 0.47090240877918288 -0.061725774671168201 0 0.45624070547997858 -0.061493536532244167 0 0.46451583267344643 -0.078452336520569863 0 0.45624070547997858 -0.061493536532244167 0 0.43891688931090611 -0.072953945589123992 0 0.46451583267344643 -0.078452336520569863 0 0.43891688931090611 -0.072953945589123992 0 0.46451583267344643 -0.078452336520569863 0 0.45338062257323419 -0.095233620711193914 0 0.43891688931090611 -0.072953945589123992 0 0.45338062257323419 -0.095233620711193914 0 0.43222727096090607 -0.094678797624654309 0 0.48012745672256091 -0.092929717469344988 0 0.46451583267344643 -0.078452336520569863 0 0.45338062257323419 -0.095233620711193914 0 0.45338062257323419 -0.095233620711193914 0 0.4452764924180585 -0.1113947647207716 0 0.46804565854765939 -0.1104610470666058 0 0.48012745672256091 -0.092929717469344988 0 0.45338062257323419 -0.095233620711193914 0 0.46804565854765939 -0.1104610470666058 0 0.45338062257323419 -0.095233620711193914 0 0.4452764924180585 -0.1113947647207716 0 0.43222727096090607 -0.094678797624654309 0 0.4452764924180585 -0.1113947647207716 0 0.42813095842663718 -0.1192876667367317 0 0.44147628164703068 -0.12865680021492301 0 0.4452764924180585 -0.1113947647207716 0 0.45739486048555339 -0.1241621835697562 0 0.44147628164703068 -0.12865680021492301 0 0.45739486048555339 -0.1241621835697562 0 0.46804565854765939 -0.1104610470666058 0 0.47607643507557301 -0.1343078895027166 0 0.4452764924180585 -0.1113947647207716 0 0.45739486048555339 -0.1241621835697562 0 0.46804565854765939 -0.1104610470666058 0 0.41398607359570228 -0.1088181494040668 0 0.39574487623049842 -0.1229575011834792 0 0.41365082035528511 -0.13001629491493211 0 0.42813095842663718 -0.1192876667367317 0 0.41398607359570228 -0.1088181494040668 0 0.41365082035528511 -0.13001629491493211 0 0.42813095842663718 -0.1192876667367317 0 0.43222727096090607 -0.094678797624654309 0 0.41398607359570228 -0.1088181494040668 0 0.43222727096090607 -0.094678797624654309 0 0.41398607359570228 -0.1088181494040668 0 0.4452764924180585 -0.1113947647207716 0 0.42813095842663718 -0.1192876667367317 0 0.43222727096090607 -0.094678797624654309 0 0.41398607359570228 -0.1088181494040668 0 0.41616493578370378 -0.086423550985677222 0 0.39751976066023192 -0.08929351726903359 0 0.43222727096090607 -0.094678797624654309 0 0.41398607359570228 -0.1088181494040668 0 0.41616493578370378 -0.086423550985677222 0 0.43891688931090611 -0.072953945589123992 0 0.43222727096090607 -0.094678797624654309 0 0.41616493578370378 -0.086423550985677222 0 0.43891688931090611 -0.072953945589123992 0 0.41616493578370378 -0.086423550985677222 0 0.41525646327647708 -0.068386855442458941 0 0.43891688931090611 -0.072953945589123992 0 0.41525646327647708 -0.068386855442458941 0 0.42842354772955049 -0.06116037655145929 0 0.41616493578370378 -0.086423550985677222 0 0.41525646327647708 -0.068386855442458941 0 0.39820292050708062 -0.071677822085052217 0 0.41525646327647708 -0.068386855442458941 0 0.39820292050708062 -0.071677822085052217 0 0.39980538128575133 -0.05316686688594497 0 0.39820292050708062 -0.071677822085052217 0 0.38498324899674208 -0.060461766525164107 0 0.3726997503476317 -0.082586626489910026 0 0.38498324899674208 -0.060461766525164107 0 0.3726997503476317 -0.082586626489910026 0 0.39820292050708062 -0.071677822085052217 0 0.39751976066023192 -0.08929351726903359 0 0.3726997503476317 -0.082586626489910026 0 0.39751976066023192 -0.08929351726903359 0 0.38288209631585601 -0.1045375850891366 0 0.3726997503476317 -0.082586626489910026 0 0.41616493578370378 -0.086423550985677222 0 0.39820292050708062 -0.071677822085052217 0 0.39751976066023192 -0.08929351726903359 0 0.41398607359570228 -0.1088181494040668 0 0.39751976066023192 -0.08929351726903359 0 0.38288209631585601 -0.1045375850891366 0 0.38288209631585601 -0.1045375850891366 0 0.39574487623049842 -0.1229575011834792 0 0.37176373857123329 -0.11942482032851259 0 0.41398607359570228 -0.1088181494040668 0 0.38288209631585601 -0.1045375850891366 0 0.39574487623049842 -0.1229575011834792 0 0.41398607359570228 -0.1088181494040668 0 0.39574487623049842 -0.1229575011834792 0 0.41853119971070352 -0.022056189205187319 0 0.42314572373549508 -0.035741632867193313 0 0.41290988486212099 -0.03273738775267989 0 0.41853119971070352 -0.022056189205187319 0 0.41290988486212099 -0.03273738775267989 0 0.40514002913257691 -0.024155665911247098 0 0.41853119971070352 -0.022056189205187319 0 0.41168608468335921 -0.01284787659286582 0 0.40514002913257691 -0.024155665911247098 0 0.41533659158712111 0.0025510864320527028 0 0.41168608468335921 -0.01284787659286582 0 0.40244716601505548 -0.0036088655860909711 0 0.41533659158712111 0.0025510864320527028 0 0.41168608468335921 -0.01284787659286582 0 0.42288990595833748 -0.0071977917862458777 0 0.41853119971070352 -0.022056189205187319 0 0.41168608468335921 -0.01284787659286582 0 0.42288990595833748 -0.0071977917862458777 0 0.42288990595833748 -0.0071977917862458777 0 0.43149767093985347 -0.0047712603921836244 0 0.43205841039335108 -0.01946916187857933 0 0.42624227931779829 0.0065726109829769754 0 0.42288990595833748 -0.0071977917862458777 0 0.43149767093985347 -0.0047712603921836244 0 0.43667305753146168 0.0031874598282999899 0 0.43962470149831839 -0.0069494191073698822 0 0.43149767093985347 -0.0047712603921836244 0 0.43962470149831839 -0.0069494191073698822 0 0.43149767093985347 -0.0047712603921836244 0 0.43205841039335108 -0.01946916187857933 0 0.41853119971070352 -0.022056189205187319 0 0.43205841039335108 -0.01946916187857933 0 0.42314572373549508 -0.035741632867193313 0 0.41853119971070352 -0.022056189205187319 0 0.42288990595833748 -0.0071977917862458777 0 0.43205841039335108 -0.01946916187857933 0 0.44287941649791951 -0.047395057086161867 0 0.42314572373549508 -0.035741632867193313 0 0.42009297052849481 -0.051375827068360538 0 0.44287941649791951 -0.047395057086161867 0 0.43205841039335108 -0.01946916187857933 0 0.42314572373549508 -0.035741632867193313 0 0.44287941649791951 -0.047395057086161867 0 0.42842354772955049 -0.06116037655145929 0 0.42009297052849481 -0.051375827068360538 0 0.44287941649791951 -0.047395057086161867 0 0.43891688931090611 -0.072953945589123992 0 0.42842354772955049 -0.06116037655145929 0 0.42009297052849481 -0.051375827068360538 0 0.41275570250635779 -0.042300936024956673 0 0.39980538128575133 -0.05316686688594497 0 0.41525646327647708 -0.068386855442458941 0 0.42009297052849481 -0.051375827068360538 0 0.39980538128575133 -0.05316686688594497 0 0.41525646327647708 -0.068386855442458941 0 0.42842354772955049 -0.06116037655145929 0 0.42009297052849481 -0.051375827068360538 0 0.42314572373549508 -0.035741632867193313 0 0.42009297052849481 -0.051375827068360538 0 0.41275570250635779 -0.042300936024956673 0 0.42314572373549508 -0.035741632867193313 0 0.41275570250635779 -0.042300936024956673 0 0.41290988486212099 -0.03273738775267989 0 0.41275570250635779 -0.042300936024956673 0 0.41290988486212099 -0.03273738775267989 0 0.40357795276756331 -0.039354340403851468 0 0.41290988486212099 -0.03273738775267989 0 0.40357795276756331 -0.039354340403851468 0 0.40514002913257691 -0.024155665911247098 0 0.40357795276756331 -0.039354340403851468 0 0.39726674764585429 -0.038336906560419173 0 0.40514002913257691 -0.024155665911247098 0 0.39726674764585429 -0.038336906560419173 0 0.40514002913257691 -0.024155665911247098 0 0.40357795276756331 -0.039354340403851468 0 0.39726674764585429 -0.038336906560419173 0 0.40357795276756331 -0.039354340403851468 0 0.39726674764585429 -0.038336906560419173 0 0.39980538128575133 -0.05316686688594497 0 0.41275570250635779 -0.042300936024956673 0 0.40357795276756331 -0.039354340403851468 0 0.39980538128575133 -0.05316686688594497 0 0.39820292050708062 -0.071677822085052217 0 0.39980538128575133 -0.05316686688594497 0 0.38498324899674208 -0.060461766525164107 0 0.39726674764585429 -0.038336906560419173 0 0.38498324899674208 -0.060461766525164107 0 0.39726674764585429 -0.038336906560419173 0 0.39980538128575133 -0.05316686688594497 0 0.38498324899674208 -0.060461766525164107 0 0.39726674764585429 -0.038336906560419173 0 0.38498324899674208 -0.060461766525164107 0 0.37764392033772082 -0.046233699327783401 0 0.38498324899674208 -0.060461766525164107 0 0.37764392033772082 -0.046233699327783401 0 0.37270161624372983 -0.054125161526179473 0 0.39726674764585429 -0.038336906560419173 0 0.36828100296303973 -0.03366409415001017 0 0.39726674764585429 -0.038336906560419173 0 0.37764392033772082 -0.046233699327783401 0 0.36828100296303973 -0.03366409415001017 0 0.39726674764585429 -0.038336906560419173 0 0.38229009779069428 -0.026785576992642168 0 0.36828100296303973 -0.03366409415001017 0 0.38229009779069428 -0.026785576992642168 0 0.38362922915759678 -0.017631601723860239 0 0.37048424229434018 -0.019624212758315999 0 0.38229009779069428 -0.026785576992642168 0 0.38362922915759678 -0.017631601723860239 0 0.39178926689264038 -0.024671069770605271 0 0.39726674764585429 -0.038336906560419173 0 0.38229009779069428 -0.026785576992642168 0 0.39178926689264038 -0.024671069770605271 0 0.39726674764585429 -0.038336906560419173 0 0.39178926689264038 -0.024671069770605271 0 0.40514002913257691 -0.024155665911247098 0 0.38362922915759678 -0.017631601723860239 0 0.39178926689264038 -0.024671069770605271 0 0.39707153218419411 -0.01503990759201764 0 0.39178926689264038 -0.024671069770605271 0 0.40514002913257691 -0.024155665911247098 0 0.39707153218419411 -0.01503990759201764 0 0.41168608468335921 -0.01284787659286582 0 0.40514002913257691 -0.024155665911247098 0 0.39707153218419411 -0.01503990759201764 0 0.41168608468335921 -0.01284787659286582 0 0.40244716601505548 -0.0036088655860909711 0 0.39707153218419411 -0.01503990759201764 0 0.40244716601505548 -0.0036088655860909711 0 0.39707153218419411 -0.01503990759201764 0 0.38773741722393612 -0.0073243659674364792 0 0.39308329438013551 0.0024870490543335609 0 0.40244716601505548 -0.0036088655860909711 0 0.38773741722393612 -0.0073243659674364792 0 0.39308329438013551 0.0024870490543335609 0 0.37710365768939269 0.003497131652723405 0 0.38773741722393612 -0.0073243659674364792 0 0.38362922915759678 -0.017631601723860239 0 0.39707153218419411 -0.01503990759201764 0 0.38773741722393612 -0.0073243659674364792 0 0.38362922915759678 -0.017631601723860239 0 0.38773741722393612 -0.0073243659674364792 0 0.3763160554926579 -0.0091826099015701705 0 0.38362922915759678 -0.017631601723860239 0 0.3763160554926579 -0.0091826099015701705 0 0.37048424229434018 -0.019624212758315999 0 0.37710365768939269 0.003497131652723405 0 0.38773741722393612 -0.0073243659674364792 0 0.3763160554926579 -0.0091826099015701705 0 0.37710365768939269 0.003497131652723405 0 0.3763160554926579 -0.0091826099015701705 0 0.36363341023265389 -0.0063806336983604772 0 0.37710365768939269 0.003497131652723405 0 0.36363341023265389 -0.0063806336983604772 0 0.3763160554926579 -0.0091826099015701705 0 0.36363341023265389 -0.0063806336983604772 0 0.37048424229434018 -0.019624212758315999 0 0.36363341023265389 -0.0063806336983604772 0 0.37048424229434018 -0.019624212758315999 0 0.35741991310074539 -0.01974656988682276 0 0.38229009779069428 -0.026785576992642168 0 0.37048424229434018 -0.019624212758315999 0 0.36828100296303973 -0.03366409415001017 0 0.37048424229434018 -0.019624212758315999 0 0.35741991310074539 -0.01974656988682276 0 0.36828100296303973 -0.03366409415001017 0 0.35741991310074539 -0.01974656988682276 0 0.33929525828022522 -0.028991281739600489 0 0.36828100296303973 -0.03366409415001017 0 0.35741991310074539 -0.01974656988682276 0 0.34540565173346771 -0.010072627087826681 0 0.33929525828022522 -0.028991281739600489 0 0.36363341023265389 -0.0063806336983604772 0 0.34540565173346771 -0.010072627087826681 0 0.35417251228579488 -2.242005975592893e-05 0 0.36363341023265389 -0.0063806336983604772 0 0.35741991310074539 -0.01974656988682276 0 0.34540565173346771 -0.010072627087826681 0 0.34157602306932849 0.0064507546968392846 0 0.34540565173346771 -0.010072627087826681 0 0.35417251228579488 -2.242005975592893e-05 0 0.34157602306932849 0.0064507546968392846 0 0.34540565173346771 -0.010072627087826681 0 0.33353947209339507 -0.0030874404116698678 0 0.34540565173346771 -0.010072627087826681 0 0.33353947209339507 -0.0030874404116698678 0 0.3297054350392461 -0.01377129174736331 0 0.33353947209339507 -0.0030874404116698678 0 0.3297054350392461 -0.01377129174736331 0 0.32480757643857888 -0.004030676734553703 0 0.32620267418635412 0.0059866388145550734 0 0.33353947209339507 -0.0030874404116698678 0 0.32480757643857888 -0.004030676734553703 0 0.34540565173346771 -0.010072627087826681 0 0.3297054350392461 -0.01377129174736331 0 0.33929525828022522 -0.028991281739600489 0 0.33929525828022522 -0.028991281739600489 0 0.31466763110507701 -0.019874507028862381 0 0.31030951359741082 -0.024318469329190819 0 0.33929525828022522 -0.028991281739600489 0 0.31714240342858657 -0.03714591201677854 0 0.31030951359741082 -0.024318469329190819 0 0.33929525828022522 -0.028991281739600489 0 0.31030951359741082 -0.024318469329190819 0 0.3297054350392461 -0.01377129174736331 0 0.33929525828022522 -0.028991281739600489 0 0.31466763110507701 -0.019874507028862381 0 0.3297054350392461 -0.01377129174736331 0 0.31466763110507701 -0.019874507028862381 0 0.31609136354687423 -0.009694482536455315 0 0.31466763110507701 -0.019874507028862381 0 0.31609136354687423 -0.009694482536455315 0 0.3116231186474025 -0.015362582559457671 0 0.31512547078870717 0.00058050222945548585 0 0.31609136354687423 -0.009694482536455315 0 0.32480757643857888 -0.004030676734553703 0 0.3297054350392461 -0.01377129174736331 0 0.31609136354687423 -0.009694482536455315 0 0.32480757643857888 -0.004030676734553703 0 0.32343709612320348 -0.059197949277534467 0 0.32611693611674569 -0.044094006065882541 0 0.31095537048005573 -0.048756250082915037 0 0.33929525828022522 -0.028991281739600489 0 0.31714240342858657 -0.03714591201677854 0 0.32611693611674569 -0.044094006065882541 0 0.31714240342858657 -0.03714591201677854 0 0.32611693611674569 -0.044094006065882541 0 0.31095537048005573 -0.048756250082915037 0 0.33929525828022522 -0.028991281739600489 0 0.32611693611674569 -0.044094006065882541 0 0.34631771891971852 -0.045631895720798142 0 0.32343709612320348 -0.059197949277534467 0 0.34631771891971852 -0.045631895720798142 0 0.34033375761373169 -0.062673526927725334 0 0.32343709612320348 -0.059197949277534467 0 0.32611693611674569 -0.044094006065882541 0 0.34631771891971852 -0.045631895720798142 0 0.34631771891971852 -0.045631895720798142 0 0.36435943119468223 -0.044782422182726232 0 0.34033375761373169 -0.062673526927725334 0 0.36435943119468223 -0.044782422182726232 0 0.36381986444577391 -0.065022758069044173 0 0.34033375761373169 -0.062673526927725334 0 0.36435943119468223 -0.044782422182726232 0 0.34033375761373169 -0.062673526927725334 0 0.33929525828022522 -0.028991281739600489 0 0.36828100296303973 -0.03366409415001017 0 0.33929525828022522 -0.028991281739600489 0 0.34631771891971852 -0.045631895720798142 0 0.36828100296303973 -0.03366409415001017 0 0.34631771891971852 -0.045631895720798142 0 0.36435943119468223 -0.044782422182726232 0 0.36828100296303973 -0.03366409415001017 0 0.37764392033772082 -0.046233699327783401 0 0.36435943119468223 -0.044782422182726232 0 0.36828100296303973 -0.03366409415001017 0 0.38498324899674208 -0.060461766525164107 0 0.37270161624372983 -0.054125161526179473 0 0.36381986444577391 -0.065022758069044173 0 0.36435943119468223 -0.044782422182726232 0 0.37270161624372983 -0.054125161526179473 0 0.36381986444577391 -0.065022758069044173 0 0.37764392033772082 -0.046233699327783401 0 0.36435943119468223 -0.044782422182726232 0 0.37270161624372983 -0.054125161526179473 0 0.36381986444577391 -0.065022758069044173 0 0.3726997503476317 -0.082586626489910026 0 0.34686135580753569 -0.083799667955024915 0 0.38498324899674208 -0.060461766525164107 0 0.36381986444577391 -0.065022758069044173 0 0.3726997503476317 -0.082586626489910026 0 0.3726997503476317 -0.082586626489910026 0 0.34686135580753569 -0.083799667955024915 0 0.36041625169852132 -0.1047114864546559 0 0.3726997503476317 -0.082586626489910026 0 0.36041625169852132 -0.1047114864546559 0 0.36381986444577391 -0.065022758069044173 0 0.34686135580753569 -0.083799667955024915 0 0.34033375761373169 -0.062673526927725334 0 0.36041625169852132 -0.1047114864546559 0 0.32759042670677441 -0.10723897811608959 0 0.34813275304941088 -0.12683634641940189 0 0.34686135580753569 -0.083799667955024915 0 0.36041625169852132 -0.1047114864546559 0 0.32759042670677441 -0.10723897811608959 0 0.37176373857123329 -0.11942482032851259 0 0.36041625169852132 -0.1047114864546559 0 0.34813275304941088 -0.12683634641940189 0 0.38288209631585601 -0.1045375850891366 0 0.37176373857123329 -0.11942482032851259 0 0.36041625169852132 -0.1047114864546559 0 0.38288209631585601 -0.1045375850891366 0 0.3726997503476317 -0.082586626489910026 0 0.36041625169852132 -0.1047114864546559 0 0.36041625169852132 -0.1047114864546559 0 0.34813275304941088 -0.12683634641940189 0 0.32759042670677441 -0.10723897811608959 0 0.32190627618415202 -0.13209161434923619 0 0.34813275304941088 -0.12683634641940189 0 0.32759042670677441 -0.10723897811608959 0 0.31630808403278132 -0.080564631672724443 0 0.30986568973299572 -0.10230617971324089 0 0.32759042670677441 -0.10723897811608959 0 0.30180115013913672 -0.11839843949832141 0 0.30986568973299572 -0.10230617971324089 0 0.32759042670677441 -0.10723897811608959 0 0.30180115013913672 -0.11839843949832141 0 0.32190627618415202 -0.13209161434923619 0 0.34033375761373169 -0.062673526927725334 0 0.31630808403278132 -0.080564631672724443 0 0.34686135580753569 -0.083799667955024915 0 0.34033375761373169 -0.062673526927725334 0 0.31630808403278132 -0.080564631672724443 0 0.34686135580753569 -0.083799667955024915 0 0.32759042670677441 -0.10723897811608959 0 0.31630808403278132 -0.080564631672724443 0 0.32343709612320348 -0.059197949277534467 0 0.31630808403278132 -0.080564631672724443 0 0.30190679680618759 -0.062954305206289876 0 0.32343709612320348 -0.059197949277534467 0 0.34033375761373169 -0.062673526927725334 0 0.31630808403278132 -0.080564631672724443 0 0.31630808403278132 -0.080564631672724443 0 0.30190679680618759 -0.062954305206289876 0 0.29526415216686391 -0.077733265537233309 0 0.31630808403278132 -0.080564631672724443 0 0.29526415216686391 -0.077733265537233309 0 0.29228241045183079 -0.098455736417723635 0 0.31630808403278132 -0.080564631672724443 0 0.29228241045183079 -0.098455736417723635 0 0.29228241045183079 -0.098455736417723635 0 0.27565548671188822 -0.099199295577507646 0 0.27795886726355978 -0.078688056432714634 0 0.29526415216686391 -0.077733265537233309 0 0.29228241045183079 -0.098455736417723635 0 0.27795886726355978 -0.078688056432714634 0 0.2878646022799598 -0.068003597956713985 0 0.29526415216686391 -0.077733265537233309 0 0.27795886726355978 -0.078688056432714634 0 0.30190679680618759 -0.062954305206289876 0 0.2878646022799598 -0.068003597956713985 0 0.29526415216686391 -0.077733265537233309 0 0.30190679680618759 -0.062954305206289876 0 0.2878646022799598 -0.068003597956713985 0 0.29096334322066092 -0.059849280225790842 0 0.31630808403278132 -0.080564631672724443 0 0.30986568973299572 -0.10230617971324089 0 0.29228241045183079 -0.098455736417723635 0 0.30180115013913672 -0.11839843949832141 0 0.30986568973299572 -0.10230617971324089 0 0.29228241045183079 -0.098455736417723635 0 0.29228241045183079 -0.098455736417723635 0 0.28640006426846121 -0.1165936289646068 0 0.27565548671188822 -0.099199295577507646 0 0.30180115013913672 -0.11839843949832141 0 0.29228241045183079 -0.098455736417723635 0 0.28640006426846121 -0.1165936289646068 0 0.28640006426846121 -0.1165936289646068 0 0.27291969858375847 -0.1158337021530771 0 0.2844487176724903 -0.132698300767601 0 0.30180115013913672 -0.11839843949832141 0 0.28640006426846121 -0.1165936289646068 0 0.2844487176724903 -0.132698300767601 0 0.28640006426846121 -0.1165936289646068 0 0.27291969858375847 -0.1158337021530771 0 0.27565548671188822 -0.099199295577507646 0 0.27291969858375847 -0.1158337021530771 0 0.26294714442546979 -0.1139595911161231 0 0.2652510066121806 -0.12646247351016579 0 0.27291969858375847 -0.1158337021530771 0 0.26752161929283969 -0.10680061804155409 0 0.26294714442546979 -0.1139595911161231 0 0.27565548671188822 -0.099199295577507646 0 0.26752161929283969 -0.10680061804155409 0 0.25856414745024231 -0.09820988331950839 0 0.27291969858375847 -0.1158337021530771 0 0.27565548671188822 -0.099199295577507646 0 0.26752161929283969 -0.10680061804155409 0 0.26752161929283969 -0.10680061804155409 0 0.25856414745024231 -0.09820988331950839 0 0.26294714442546979 -0.1139595911161231 0 0.25856414745024231 -0.09820988331950839 0 0.24145071203087429 -0.115435474970793 0 0.25856414745024231 -0.09820988331950839 0 0.25351509400142769 -0.092934925890948539 0 0.2450942160685709 -0.1019414555228059 0 0.25856414745024231 -0.09820988331950839 0 0.26294714442546979 -0.1139595911161231 0 0.25153217278082501 -0.1231612647483309 0 0.25856414745024231 -0.09820988331950839 0 0.25153217278082501 -0.1231612647483309 0 0.25856414745024231 -0.09820988331950839 0 0.25153217278082501 -0.1231612647483309 0 0.24145071203087429 -0.115435474970793 0 0.26294714442546979 -0.1139595911161231 0 0.25153217278082501 -0.1231612647483309 0 0.2652510066121806 -0.12646247351016579 0 0.26691935270070127 -0.068563315616831669 0 0.27795886726355978 -0.078688056432714634 0 0.26274175007547179 -0.083386599468169981 0 0.26691935270070127 -0.068563315616831669 0 0.26766162421336692 -0.065929532005972513 0 0.27779514406935069 -0.057473296418519157 0 0.26691935270070127 -0.068563315616831669 0 0.27779514406935069 -0.057473296418519157 0 0.26691935270070127 -0.068563315616831669 0 0.26766162421336692 -0.065929532005972513 0 0.2878646022799598 -0.068003597956713985 0 0.27763449157839282 -0.068182066606194719 0 0.27779514406935069 -0.057473296418519157 0 0.26691935270070127 -0.068563315616831669 0 0.27763449157839282 -0.068182066606194719 0 0.27779514406935069 -0.057473296418519157 0 0.2878646022799598 -0.068003597956713985 0 0.27763449157839282 -0.068182066606194719 0 0.27795886726355978 -0.078688056432714634 0 0.26691935270070127 -0.068563315616831669 0 0.27763449157839282 -0.068182066606194719 0 0.27795886726355978 -0.078688056432714634 0 0.27565548671188822 -0.099199295577507646 0 0.25856414745024231 -0.09820988331950839 0 0.27795886726355978 -0.078688056432714634 0 0.25856414745024231 -0.09820988331950839 0 0.27795886726355978 -0.078688056432714634 0 0.26274175007547179 -0.083386599468169981 0 0.25856414745024231 -0.09820988331950839 0 0.27795886726355978 -0.078688056432714634 0 0.26691935270070127 -0.068563315616831669 0 0.24766026241142591 -0.088201765253309902 0 0.26691935270070127 -0.068563315616831669 0 0.2507869405063915 -0.080011144606320195 0 0.24766026241142591 -0.088201765253309902 0 0.26691935270070127 -0.068563315616831669 0 0.26274175007547179 -0.083386599468169981 0 0.24766026241142591 -0.088201765253309902 0 0.25856414745024231 -0.09820988331950839 0 0.26274175007547179 -0.083386599468169981 0 0.25351509400142769 -0.092934925890948539 0 0.25856414745024231 -0.09820988331950839 0 0.26274175007547179 -0.083386599468169981 0 0.26274175007547179 -0.083386599468169981 0 0.25351509400142769 -0.092934925890948539 0 0.24766026241142591 -0.088201765253309902 0 0.26766162421336692 -0.065929532005972513 0 0.2507869405063915 -0.080011144606320195 0 0.2507869405063915 -0.080011144606320195 0 0.25534731233013808 -0.07034474537456252 0 0.24612108748217501 -0.07017583377114911 0 0.26691935270070127 -0.068563315616831669 0 0.26766162421336692 -0.065929532005972513 0 0.2507869405063915 -0.080011144606320195 0 0.26766162421336692 -0.065929532005972513 0 0.2507869405063915 -0.080011144606320195 0 0.25534731233013808 -0.07034474537456252 0 0.26691935270070127 -0.068563315616831669 0 0.26274175007547179 -0.083386599468169981 0 0.26766162421336692 -0.065929532005972513 0 0.2568195971186199 -0.065262471114809317 0 0.26198788130909229 -0.061393504898518567 0 0.26766162421336692 -0.065929532005972513 0 0.25534731233013808 -0.07034474537456252 0 0.2568195971186199 -0.065262471114809317 0 0.2568195971186199 -0.065262471114809317 0 0.25519944218403839 -0.055937302381494691 0 0.24612108748217501 -0.07017583377114911 0 0.25534731233013808 -0.07034474537456252 0 0.2568195971186199 -0.065262471114809317 0 0.24612108748217501 -0.07017583377114911 0 0.25519944218403839 -0.055937302381494691 0 0.26093456313060992 -0.045667279242595872 0 0.24341039940362891 -0.042173740244686897 0 0.25519944218403839 -0.055937302381494691 0 0.26407052281547783 -0.05495742300306157 0 0.26093456313060992 -0.045667279242595872 0 0.25519944218403839 -0.055937302381494691 0 0.26198788130909229 -0.061393504898518567 0 0.26407052281547783 -0.05495742300306157 0 0.26766162421336692 -0.065929532005972513 0 0.26198788130909229 -0.061393504898518567 0 0.26407052281547783 -0.05495742300306157 0 0.2568195971186199 -0.065262471114809317 0 0.25519944218403839 -0.055937302381494691 0 0.26198788130909229 -0.061393504898518567 0 0.27303477035907092 -0.046864130713030042 0 0.27779514406935069 -0.057473296418519157 0 0.282202678641152 -0.039158045764984488 0 0.26766162421336692 -0.065929532005972513 0 0.27779514406935069 -0.057473296418519157 0 0.26766162421336692 -0.065929532005972513 0 0.27303477035907092 -0.046864130713030042 0 0.27779514406935069 -0.057473296418519157 0 0.26766162421336692 -0.065929532005972513 0 0.27303477035907092 -0.046864130713030042 0 0.26766162421336692 -0.065929532005972513 0 0.26407052281547783 -0.05495742300306157 0 0.27303477035907092 -0.046864130713030042 0 0.26407052281547783 -0.05495742300306157 0 0.27303477035907092 -0.046864130713030042 0 0.26093456313060992 -0.045667279242595872 0 0.27303477035907092 -0.046864130713030042 0 0.26159288306101852 -0.033226044156959719 0 0.27840791650477342 -0.027798729420087182 0 0.27303477035907092 -0.046864130713030042 0 0.27840791650477342 -0.027798729420087182 0 0.27303477035907092 -0.046864130713030042 0 0.27840791650477342 -0.027798729420087182 0 0.282202678641152 -0.039158045764984488 0 0.26159288306101852 -0.033226044156959719 0 0.26093456313060992 -0.045667279242595872 0 0.24341039940362891 -0.042173740244686897 0 0.26159288306101852 -0.033226044156959719 0 0.25218648869958882 -0.02329869203001355 0 0.24341039940362891 -0.042173740244686897 0 0.27303477035907092 -0.046864130713030042 0 0.26159288306101852 -0.033226044156959719 0 0.26093456313060992 -0.045667279242595872 0 0.26159288306101852 -0.033226044156959719 0 0.25218648869958882 -0.02329869203001355 0 0.26256900734020372 -0.017077137779551749 0 0.25218648869958882 -0.02329869203001355 0 0.26256900734020372 -0.017077137779551749 0 0.25266044236801027 -0.0098448912506446801 0 0.26247114447865921 0.001459212755205932 0 0.26256900734020372 -0.017077137779551749 0 0.25266044236801027 -0.0098448912506446801 0 0.2493448423645083 0.0014051681544095839 0 0.26247114447865921 0.001459212755205932 0 0.25266044236801027 -0.0098448912506446801 0 0.26247114447865921 0.001459212755205932 0 0.26256900734020372 -0.017077137779551749 0 0.2747839227137826 -0.0090145145465851083 0 0.26256900734020372 -0.017077137779551749 0 0.2747839227137826 -0.0090145145465851083 0 0.27840791650477342 -0.027798729420087182 0 0.26159288306101852 -0.033226044156959719 0 0.26256900734020372 -0.017077137779551749 0 0.27840791650477342 -0.027798729420087182 0 0.2747839227137826 -0.0090145145465851083 0 0.27840791650477342 -0.027798729420087182 0 0.28978263567342488 -0.014579256425138829 0 0.27840791650477342 -0.027798729420087182 0 0.29217571453890279 -0.027695673222337919 0 0.28732968278939941 -0.034175843925274882 0 0.27840791650477342 -0.027798729420087182 0 0.29217571453890279 -0.027695673222337919 0 0.28978263567342488 -0.014579256425138829 0 0.28978263567342488 -0.014579256425138829 0 0.29732126590702512 -0.021271161780988469 0 0.30190108750609063 -0.01623135261771547 0 0.29217571453890279 -0.027695673222337919 0 0.28978263567342488 -0.014579256425138829 0 0.29732126590702512 -0.021271161780988469 0 0.28615162158156338 0.0093101314714518976 0 0.28978263567342488 -0.014579256425138829 0 0.30337497077494741 -0.0042580161424043677 0 0.28615162158156338 0.0093101314714518976 0 0.2747839227137826 -0.0090145145465851083 0 0.28978263567342488 -0.014579256425138829 0 0.28978263567342488 -0.014579256425138829 0 0.30337497077494741 -0.0042580161424043677 0 0.30190108750609063 -0.01623135261771547 0 0.30337497077494741 -0.0042580161424043677 0 0.30735379005787589 -0.013097293085114399 0 0.30190108750609063 -0.01623135261771547 0 0.31609136354687423 -0.009694482536455315 0 0.30735379005787589 -0.013097293085114399 0 0.3116231186474025 -0.015362582559457671 0 0.31609136354687423 -0.009694482536455315 0 0.30337497077494741 -0.0042580161424043677 0 0.30735379005787589 -0.013097293085114399 0 0.31512547078870717 0.00058050222945548585 0 0.31609136354687423 -0.009694482536455315 0 0.30337497077494741 -0.0042580161424043677 0 0.29217571453890279 -0.027695673222337919 0 0.30480841746649667 -0.023431633729392241 0 0.29405232883338073 -0.040895882873854941 0 0.31030951359741082 -0.024318469329190819 0 0.30480841746649667 -0.023431633729392241 0 0.29405232883338073 -0.040895882873854941 0 0.29217571453890279 -0.027695673222337919 0 0.29732126590702512 -0.021271161780988469 0 0.30480841746649667 -0.023431633729392241 0 0.29732126590702512 -0.021271161780988469 0 0.30190108750609063 -0.01623135261771547 0 0.30480841746649667 -0.023431633729392241 0 0.30837968987978293 -0.018784047587398579 0 0.31030951359741082 -0.024318469329190819 0 0.30480841746649667 -0.023431633729392241 0 0.30190108750609063 -0.01623135261771547 0 0.30837968987978293 -0.018784047587398579 0 0.30480841746649667 -0.023431633729392241 0 0.30735379005787589 -0.013097293085114399 0 0.30190108750609063 -0.01623135261771547 0 0.30837968987978293 -0.018784047587398579 0 0.31466763110507701 -0.019874507028862381 0 0.3116231186474025 -0.015362582559457671 0 0.30837968987978293 -0.018784047587398579 0 0.30735379005787589 -0.013097293085114399 0 0.3116231186474025 -0.015362582559457671 0 0.30837968987978293 -0.018784047587398579 0 0.31466763110507701 -0.019874507028862381 0 0.30837968987978293 -0.018784047587398579 0 0.31030951359741082 -0.024318469329190819 0 0.31466763110507701 -0.019874507028862381 0 0.31030951359741082 -0.024318469329190819 0 0.31030951359741082 -0.024318469329190819 0 0.30480841746649667 -0.023431633729392241 0 0.31714240342858657 -0.03714591201677854 0 0.31030951359741082 -0.024318469329190819 0 0.30081276751917507 -0.038265513799923413 0 0.31714240342858657 -0.03714591201677854 0 0.30081276751917507 -0.038265513799923413 0 0.31095537048005573 -0.048756250082915037 0 0.31030951359741082 -0.024318469329190819 0 0.29405232883338073 -0.040895882873854941 0 0.31030951359741082 -0.024318469329190819 0 0.30081276751917507 -0.038265513799923413 0 0.29405232883338073 -0.040895882873854941 0 0.30081276751917507 -0.038265513799923413 0 0.31095537048005573 -0.048756250082915037 0 0.29628682972714532 -0.050965921321640392 0 0.32343709612320348 -0.059197949277534467 0 0.30190679680618759 -0.062954305206289876 0 0.31095537048005573 -0.048756250082915037 0 0.30190679680618759 -0.062954305206289876 0 0.31095537048005573 -0.048756250082915037 0 0.29628682972714532 -0.050965921321640392 0 0.27779514406935069 -0.057473296418519157 0 0.30081276751917507 -0.038265513799923413 0 0.29628682972714532 -0.050965921321640392 0 0.27779514406935069 -0.057473296418519157 0 0.29628682972714532 -0.050965921321640392 0 0.29096334322066092 -0.059849280225790842 0 0.27779514406935069 -0.057473296418519157 0 0.29405232883338073 -0.040895882873854941 0 0.27779514406935069 -0.057473296418519157 0 0.30081276751917507 -0.038265513799923413 0 0.30190679680618759 -0.062954305206289876 0 0.29628682972714532 -0.050965921321640392 0 0.29096334322066092 -0.059849280225790842 0 0.2878646022799598 -0.068003597956713985 0 0.27779514406935069 -0.057473296418519157 0 0.29096334322066092 -0.059849280225790842 0 0.27779514406935069 -0.057473296418519157 0 0.30081276751917507 -0.038265513799923413 0 0.29405232883338073 -0.040895882873854941 0 0.27779514406935069 -0.057473296418519157 0 0.282202678641152 -0.039158045764984488 0 0.29405232883338073 -0.040895882873854941 0 0.27840791650477342 -0.027798729420087182 0 0.282202678641152 -0.039158045764984488 0 0.28732968278939941 -0.034175843925274882 0 0.282202678641152 -0.039158045764984488 0 0.28732968278939941 -0.034175843925274882 0 0.29405232883338073 -0.040895882873854941 0 0.29217571453890279 -0.027695673222337919 0 0.28732968278939941 -0.034175843925274882 0 0.29405232883338073 -0.040895882873854941 0 0.29331088388336191 -0.20931171352909561 0 0.29887174770419239 -0.22106065421200291 0 0.28515207586010632 -0.21948821104020219 0 0.29331088388336191 -0.20931171352909561 0 0.28515207586010632 -0.21948821104020219 0 0.28014769655213528 -0.20737696554410809 0 0.29331088388336191 -0.20931171352909561 0 0.28834124173505088 -0.19660959650808929 0 0.28014769655213528 -0.20737696554410809 0 0.28834124173505088 -0.19660959650808929 0 0.30074859166323981 -0.20092677328064859 0 0.2920430052790563 -0.1838750507551967 0 0.28834124173505088 -0.19660959650808929 0 0.27484127229590688 -0.19244307126796761 0 0.2920430052790563 -0.1838750507551967 0 0.29331088388336191 -0.20931171352909561 0 0.28834124173505088 -0.19660959650808929 0 0.30074859166323981 -0.20092677328064859 0 0.2920430052790563 -0.1838750507551967 0 0.31322876172737912 -0.19730153279921669 0 0.2920430052790563 -0.1838750507551967 0 0.31840763461248678 -0.18784582215467119 0 0.31322876172737912 -0.19730153279921669 0 0.30074859166323981 -0.20092677328064859 0 0.2920430052790563 -0.1838750507551967 0 0.31322876172737912 -0.19730153279921669 0 0.30074859166323981 -0.20092677328064859 0 0.31099893568115078 -0.20702180958830629 0 0.31322876172737912 -0.19730153279921669 0 0.30074859166323981 -0.20092677328064859 0 0.31099893568115078 -0.20702180958830629 0 0.30503717959288379 -0.21260969868301899 0 0.29331088388336191 -0.20931171352909561 0 0.30074859166323981 -0.20092677328064859 0 0.30503717959288379 -0.21260969868301899 0 0.29331088388336191 -0.20931171352909561 0 0.30503717959288379 -0.21260969868301899 0 0.29887174770419239 -0.22106065421200291 0 0.30503717959288379 -0.21260969868301899 0 0.31105455155379202 -0.2231281946363014 0 0.31355257800714748 -0.21485662151682541 0 0.31099893568115078 -0.20702180958830629 0 0.30503717959288379 -0.21260969868301899 0 0.31355257800714748 -0.21485662151682541 0 0.30503717959288379 -0.21260969868301899 0 0.31105455155379202 -0.2231281946363014 0 0.29887174770419239 -0.22106065421200291 0 0.31105455155379202 -0.2231281946363014 0 0.30454955593001998 -0.22725882366378439 0 0.29887174770419239 -0.22106065421200291 0 0.31121543495535181 -0.23329758286515639 0 0.30454955593001998 -0.22725882366378439 0 0.30277671732808509 -0.2350375159148459 0 0.31105455155379202 -0.2231281946363014 0 0.31121543495535181 -0.23329758286515639 0 0.30454955593001998 -0.22725882366378439 0 0.30454955593001998 -0.22725882366378439 0 0.29887174770419239 -0.22106065421200291 0 0.29197064423340069 -0.23186034538152961 0 0.30454955593001998 -0.22725882366378439 0 0.30277671732808509 -0.2350375159148459 0 0.29197064423340069 -0.23186034538152961 0 0.31171633291391748 -0.24863279325672349 0 0.3073088138215721 -0.24138197400375119 0 0.31754365971678239 -0.24086523520110811 0 0.31171633291391748 -0.24863279325672349 0 0.3073088138215721 -0.24138197400375119 0 0.30257819211255149 -0.2488094059651956 0 0.31121543495535181 -0.23329758286515639 0 0.3073088138215721 -0.24138197400375119 0 0.31754365971678239 -0.24086523520110811 0 0.31121543495535181 -0.23329758286515639 0 0.3073088138215721 -0.24138197400375119 0 0.30277671732808509 -0.2350375159148459 0 0.3073088138215721 -0.24138197400375119 0 0.30277671732808509 -0.2350375159148459 0 0.29802254590274457 -0.2416493108194778 0 0.30277671732808509 -0.2350375159148459 0 0.29802254590274457 -0.2416493108194778 0 0.29197064423340069 -0.23186034538152961 0 0.3073088138215721 -0.24138197400375119 0 0.29802254590274457 -0.2416493108194778 0 0.30257819211255149 -0.2488094059651956 0 0.29802254590274457 -0.2416493108194778 0 0.30257819211255149 -0.2488094059651956 0 0.29306254118803782 -0.25228332337818887 0 0.29802254590274457 -0.2416493108194778 0 0.29004021961214688 -0.24323071364367899 0 0.29306254118803782 -0.25228332337818887 0 0.29004021961214688 -0.24323071364367899 0 0.29306254118803782 -0.25228332337818887 0 0.28532918300569421 -0.250754221665133 0 0.29802254590274457 -0.2416493108194778 0 0.29004021961214688 -0.24323071364367899 0 0.29197064423340069 -0.23186034538152961 0 0.29004021961214688 -0.24323071364367899 0 0.28229909464342567 -0.2399092901251523 0 0.29197064423340069 -0.23186034538152961 0 0.29004021961214688 -0.24323071364367899 0 0.28229909464342567 -0.2399092901251523 0 0.28532918300569421 -0.250754221665133 0 0.28229909464342567 -0.2399092901251523 0 0.27843768703777472 -0.2475622186980867 0 0.28532918300569421 -0.250754221665133 0 0.29887174770419239 -0.22106065421200291 0 0.29197064423340069 -0.23186034538152961 0 0.28515207586010632 -0.21948821104020219 0 0.28229909464342567 -0.2399092901251523 0 0.29197064423340069 -0.23186034538152961 0 0.2777805590491419 -0.23036410234404259 0 0.29197064423340069 -0.23186034538152961 0 0.28515207586010632 -0.21948821104020219 0 0.2777805590491419 -0.23036410234404259 0 0.28515207586010632 -0.21948821104020219 0 0.2777805590491419 -0.23036410234404259 0 0.27178613191934969 -0.21994087477657359 0 0.2777805590491419 -0.23036410234404259 0 0.27217449878338029 -0.24097755078122149 0 0.26536275071732163 -0.23148656440032789 0 0.2777805590491419 -0.23036410234404259 0 0.27178613191934969 -0.21994087477657359 0 0.26536275071732163 -0.23148656440032789 0 0.27843768703777472 -0.2475622186980867 0 0.27217449878338029 -0.24097755078122149 0 0.27257391460034369 -0.25057512247541558 0 0.28229909464342567 -0.2399092901251523 0 0.27843768703777472 -0.2475622186980867 0 0.27217449878338029 -0.24097755078122149 0 0.28229909464342567 -0.2399092901251523 0 0.2777805590491419 -0.23036410234404259 0 0.27217449878338029 -0.24097755078122149 0 0.27217449878338029 -0.24097755078122149 0 0.2621540253298455 -0.2441497914235741 0 0.26536275071732163 -0.23148656440032789 0 0.2621540253298455 -0.2441497914235741 0 0.26615335269546458 -0.25329157539057823 0 0.27257391460034369 -0.25057512247541558 0 0.27217449878338029 -0.24097755078122149 0 0.2621540253298455 -0.2441497914235741 0 0.27257391460034369 -0.25057512247541558 0 0.2621540253298455 -0.2441497914235741 0 0.26536275071732163 -0.23148656440032789 0 0.24911566892364639 -0.23415028430013829 0 0.2621540253298455 -0.2441497914235741 0 0.26615335269546458 -0.25329157539057823 0 0.25918022024245729 -0.25235144889406369 0 0.2621540253298455 -0.2441497914235741 0 0.25143426659746332 -0.24778919941374641 0 0.24911566892364639 -0.23415028430013829 0 0.2621540253298455 -0.2441497914235741 0 0.25143426659746332 -0.24778919941374641 0 0.25918022024245729 -0.25235144889406369 0 0.26536275071732163 -0.23148656440032789 0 0.25700776576854178 -0.21995061100086691 0 0.24911566892364639 -0.23415028430013829 0 0.27178613191934969 -0.21994087477657359 0 0.26536275071732163 -0.23148656440032789 0 0.25700776576854178 -0.21995061100086691 0 0.25700776576854178 -0.21995061100086691 0 0.26487396951590331 -0.20574301196623601 0 0.2497333894385155 -0.20700878973220599 0 0.27178613191934969 -0.21994087477657359 0 0.25700776576854178 -0.21995061100086691 0 0.26487396951590331 -0.20574301196623601 0 0.27178613191934969 -0.21994087477657359 0 0.26487396951590331 -0.20574301196623601 0 0.28014769655213528 -0.20737696554410809 0 0.28515207586010632 -0.21948821104020219 0 0.27178613191934969 -0.21994087477657359 0 0.28014769655213528 -0.20737696554410809 0 0.28834124173505088 -0.19660959650808929 0 0.28014769655213528 -0.20737696554410809 0 0.27484127229590688 -0.19244307126796761 0 0.26487396951590331 -0.20574301196623601 0 0.28014769655213528 -0.20737696554410809 0 0.27484127229590688 -0.19244307126796761 0 0.26487396951590331 -0.20574301196623601 0 0.27484127229590688 -0.19244307126796761 0 0.25303826176319699 -0.18852534679998401 0 0.26487396951590331 -0.20574301196623601 0 0.25303826176319699 -0.18852534679998401 0 0.2497333894385155 -0.20700878973220599 0 0.25303826176319699 -0.18852534679998401 0 0.25356566987203982 -0.1641341326189521 0 0.2708572488307337 -0.1704485687111767 0 0.25356566987203982 -0.1641341326189521 0 0.2708572488307337 -0.1704485687111767 0 0.26493850272201253 -0.14040612252354739 0 0.27484127229590688 -0.19244307126796761 0 0.25303826176319699 -0.18852534679998401 0 0.2708572488307337 -0.1704485687111767 0 0.27484127229590688 -0.19244307126796761 0 0.2708572488307337 -0.1704485687111767 0 0.2920430052790563 -0.1838750507551967 0 0.25153217278082501 -0.1231612647483309 0 0.26493850272201253 -0.14040612252354739 0 0.24450019811140869 -0.1481126461771537 0 0.25153217278082501 -0.1231612647483309 0 0.26493850272201253 -0.14040612252354739 0 0.2652510066121806 -0.12646247351016579 0 0.25356566987203982 -0.1641341326189521 0 0.26493850272201253 -0.14040612252354739 0 0.24450019811140869 -0.1481126461771537 0 0.2708572488307337 -0.1704485687111767 0 0.26493850272201253 -0.14040612252354739 0 0.28431410134584018 -0.15439327907768771 0 0.26493850272201253 -0.14040612252354739 0 0.2844487176724903 -0.132698300767601 0 0.28431410134584018 -0.15439327907768771 0 0.27291969858375847 -0.1158337021530771 0 0.2652510066121806 -0.12646247351016579 0 0.2844487176724903 -0.132698300767601 0 0.26493850272201253 -0.14040612252354739 0 0.2652510066121806 -0.12646247351016579 0 0.2844487176724903 -0.132698300767601 0 0.30180115013913672 -0.11839843949832141 0 0.2844487176724903 -0.132698300767601 0 0.30199625311348721 -0.1422786627129311 0 0.2844487176724903 -0.132698300767601 0 0.28431410134584018 -0.15439327907768771 0 0.30199625311348721 -0.1422786627129311 0 0.28431410134584018 -0.15439327907768771 0 0.30199625311348721 -0.1422786627129311 0 0.30240075104926989 -0.16496362946610779 0 0.30199625311348721 -0.1422786627129311 0 0.30240075104926989 -0.16496362946610779 0 0.31872513415600379 -0.15291708679814101 0 0.30180115013913672 -0.11839843949832141 0 0.30199625311348721 -0.1422786627129311 0 0.32190627618415202 -0.13209161434923619 0 0.2708572488307337 -0.1704485687111767 0 0.2920430052790563 -0.1838750507551967 0 0.28431410134584018 -0.15439327907768771 0 0.2920430052790563 -0.1838750507551967 0 0.30240075104926989 -0.16496362946610779 0 0.2708572488307337 -0.1704485687111767 0 0.28431410134584018 -0.15439327907768771 0 0.2920430052790563 -0.1838750507551967 0 0.2920430052790563 -0.1838750507551967 0 0.30240075104926989 -0.16496362946610779 0 0.31840763461248678 -0.18784582215467119 0 0.30240075104926989 -0.16496362946610779 0 0.31840763461248678 -0.18784582215467119 0 0.30240075104926989 -0.16496362946610779 0 0.31990122230996321 -0.16852342819576441 0 0.31840763461248678 -0.18784582215467119 0 0.31990122230996321 -0.16852342819576441 0 0.3323914685016448 -0.17673217087969079 0 0.31840763461248678 -0.18784582215467119 0 0.30240075104926989 -0.16496362946610779 0 0.31990122230996321 -0.16852342819576441 0 0.31872513415600379 -0.15291708679814101 0 0.31990122230996321 -0.16852342819576441 0 0.32919973509637968 -0.16194880535971931 0 0.31872513415600379 -0.15291708679814101 0 0.31990122230996321 -0.16852342819576441 0 0.32919973509637968 -0.16194880535971931 0 0.3323914685016448 -0.17673217087969079 0 0.32919973509637968 -0.16194880535971931 0 0.33694656718277127 -0.14769638070508739 0 0.34607163497656002 -0.16293860024123 0 0.32919973509637968 -0.16194880535971931 0 0.3323914685016448 -0.17673217087969079 0 0.34607163497656002 -0.16293860024123 0 0.3323914685016448 -0.17673217087969079 0 0.33563722719746308 -0.19283290757193181 0 0.31840763461248678 -0.18784582215467119 0 0.3323914685016448 -0.17673217087969079 0 0.34853632245014748 -0.18191246218255019 0 0.33563722719746308 -0.19283290757193181 0 0.3323914685016448 -0.17673217087969079 0 0.34853632245014748 -0.18191246218255019 0 0.34607163497656002 -0.16293860024123 0 0.32190627618415202 -0.13209161434923619 0 0.31872513415600379 -0.15291708679814101 0 0.33694656718277127 -0.14769638070508739 0 0.30199625311348721 -0.1422786627129311 0 0.32190627618415202 -0.13209161434923619 0 0.31872513415600379 -0.15291708679814101 0 0.32919973509637968 -0.16194880535971931 0 0.31872513415600379 -0.15291708679814101 0 0.33694656718277127 -0.14769638070508739 0 0.32190627618415202 -0.13209161434923619 0 0.33694656718277127 -0.14769638070508739 0 0.34813275304941088 -0.12683634641940189 0 0.33694656718277127 -0.14769638070508739 0 0.34813275304941088 -0.12683634641940189 0 0.35926248150009071 -0.1512362047423042 0 0.33694656718277127 -0.14769638070508739 0 0.35926248150009071 -0.1512362047423042 0 0.34607163497656002 -0.16293860024123 0 0.35926248150009071 -0.1512362047423042 0 0.37750367886529451 -0.1370968529628917 0 0.35926248150009071 -0.1512362047423042 0 0.37750367886529451 -0.1370968529628917 0 0.38537476729177261 -0.15653513032935271 0 0.34813275304941088 -0.12683634641940189 0 0.35926248150009071 -0.1512362047423042 0 0.37750367886529451 -0.1370968529628917 0 0.37176373857123329 -0.11942482032851259 0 0.34813275304941088 -0.12683634641940189 0 0.37750367886529451 -0.1370968529628917 0 0.34853632245014748 -0.18191246218255019 0 0.35825182515559117 -0.1710118249309151 0 0.34607163497656002 -0.16293860024123 0 0.34853632245014748 -0.18191246218255019 0 0.35825182515559117 -0.1710118249309151 0 0.36432826761952952 -0.18842858058566689 0 0.35926248150009071 -0.1512362047423042 0 0.35825182515559117 -0.1710118249309151 0 0.34607163497656002 -0.16293860024123 0 0.35926248150009071 -0.1512362047423042 0 0.37306041923162858 -0.1705432769028242 0 0.38537476729177261 -0.15653513032935271 0 0.35926248150009071 -0.1512362047423042 0 0.35825182515559117 -0.1710118249309151 0 0.37306041923162858 -0.1705432769028242 0 0.37306041923162858 -0.1705432769028242 0 0.36432826761952952 -0.18842858058566689 0 0.38007612447193678 -0.1846224197402484 0 0.35825182515559117 -0.1710118249309151 0 0.37306041923162858 -0.1705432769028242 0 0.36432826761952952 -0.18842858058566689 0 0.36432826761952952 -0.18842858058566689 0 0.3784299025274146 -0.20667504682091231 0 0.38007612447193678 -0.1846224197402484 0 0.36432826761952952 -0.18842858058566689 0 0.36087865113359252 -0.20786759708761501 0 0.3784299025274146 -0.20667504682091231 0 0.36508799535087288 -0.21871258985512149 0 0.37614146811372728 -0.224739690117124 0 0.3784299025274146 -0.20667504682091231 0 0.36087865113359252 -0.20786759708761501 0 0.36508799535087288 -0.21871258985512149 0 0.3784299025274146 -0.20667504682091231 0 0.36087865113359252 -0.20786759708761501 0 0.36508799535087288 -0.21871258985512149 0 0.35602876744926859 -0.2166115045192826 0 0.34617452081619671 -0.21136445421004399 0 0.33441451817570261 -0.21072801484323539 0 0.35119472046778999 -0.22136247509105991 0 0.36087865113359252 -0.20786759708761501 0 0.35602876744926859 -0.2166115045192826 0 0.34617452081619671 -0.21136445421004399 0 0.36087865113359252 -0.20786759708761501 0 0.34617452081619671 -0.21136445421004399 0 0.35049168179494489 -0.1973537072092498 0 0.34617452081619671 -0.21136445421004399 0 0.35049168179494489 -0.1973537072092498 0 0.34167948699607709 -0.20306977095861509 0 0.35602876744926859 -0.2166115045192826 0 0.34617452081619671 -0.21136445421004399 0 0.35119472046778999 -0.22136247509105991 0 0.34617452081619671 -0.21136445421004399 0 0.35119472046778999 -0.22136247509105991 0 0.36432826761952952 -0.18842858058566689 0 0.36087865113359252 -0.20786759708761501 0 0.35049168179494489 -0.1973537072092498 0 0.34853632245014748 -0.18191246218255019 0 0.36432826761952952 -0.18842858058566689 0 0.35049168179494489 -0.1973537072092498 0 0.34853632245014748 -0.18191246218255019 0 0.35049168179494489 -0.1973537072092498 0 0.33563722719746308 -0.19283290757193181 0 0.33563722719746308 -0.19283290757193181 0 0.33441451817570261 -0.21072801484323539 0 0.31840763461248678 -0.18784582215467119 0 0.33563722719746308 -0.19283290757193181 0 0.34167948699607709 -0.20306977095861509 0 0.33441451817570261 -0.21072801484323539 0 0.35049168179494489 -0.1973537072092498 0 0.33563722719746308 -0.19283290757193181 0 0.34167948699607709 -0.20306977095861509 0 0.34617452081619671 -0.21136445421004399 0 0.34167948699607709 -0.20306977095861509 0 0.33441451817570261 -0.21072801484323539 0 0.33441451817570261 -0.21072801484323539 0 0.35119472046778999 -0.22136247509105991 0 0.33441451817570261 -0.21072801484323539 0 0.32633997765142042 -0.21667043940763911 0 0.33027316922206729 -0.22443033811082161 0 0.33441451817570261 -0.21072801484323539 0 0.32009271706686349 -0.21087265879195299 0 0.31322876172737912 -0.19730153279921669 0 0.33441451817570261 -0.21072801484323539 0 0.31322876172737912 -0.19730153279921669 0 0.33441451817570261 -0.21072801484323539 0 0.32633997765142042 -0.21667043940763911 0 0.32009271706686349 -0.21087265879195299 0 0.32633997765142042 -0.21667043940763911 0 0.32009271706686349 -0.21087265879195299 0 0.32057950614104702 -0.22065074588454719 0 0.31355257800714748 -0.21485662151682541 0 0.32009271706686349 -0.21087265879195299 0 0.32057950614104702 -0.22065074588454719 0 0.31099893568115078 -0.20702180958830629 0 0.31355257800714748 -0.21485662151682541 0 0.32009271706686349 -0.21087265879195299 0 0.31099893568115078 -0.20702180958830629 0 0.32009271706686349 -0.21087265879195299 0 0.31322876172737912 -0.19730153279921669 0 0.33441451817570261 -0.21072801484323539 0 0.31840763461248678 -0.18784582215467119 0 0.31322876172737912 -0.19730153279921669 0 0.33441451817570261 -0.21072801484323539 0 0.31840763461248678 -0.18784582215467119 0 0.31754365971678239 -0.24086523520110811 0 0.32039547017796061 -0.23037535430840519 0 0.3317064994787231 -0.2398800291524967 0 0.31754365971678239 -0.24086523520110811 0 0.3317064994787231 -0.2398800291524967 0 0.3217750035898081 -0.25007614838849962 0 0.31171633291391748 -0.24863279325672349 0 0.31754365971678239 -0.24086523520110811 0 0.3217750035898081 -0.25007614838849962 0 0.31121543495535181 -0.23329758286515639 0 0.31754365971678239 -0.24086523520110811 0 0.32039547017796061 -0.23037535430840519 0 0.31105455155379202 -0.2231281946363014 0 0.31121543495535181 -0.23329758286515639 0 0.32039547017796061 -0.23037535430840519 0 0.31105455155379202 -0.2231281946363014 0 0.32057950614104702 -0.22065074588454719 0 0.32039547017796061 -0.23037535430840519 0 0.31105455155379202 -0.2231281946363014 0 0.31355257800714748 -0.21485662151682541 0 0.32057950614104702 -0.22065074588454719 0 0.32633997765142042 -0.21667043940763911 0 0.32057950614104702 -0.22065074588454719 0 0.33027316922206729 -0.22443033811082161 0 0.32057950614104702 -0.22065074588454719 0 0.32039547017796061 -0.23037535430840519 0 0.33027316922206729 -0.22443033811082161 0 0.32039547017796061 -0.23037535430840519 0 0.33027316922206729 -0.22443033811082161 0 0.3317064994787231 -0.2398800291524967 0 0.33027316922206729 -0.22443033811082161 0 0.3317064994787231 -0.2398800291524967 0 0.34651485399509929 -0.22802571146995329 0 0.33441451817570261 -0.21072801484323539 0 0.34651485399509929 -0.22802571146995329 0 0.33441451817570261 -0.21072801484323539 0 0.33027316922206729 -0.22443033811082161 0 0.34651485399509929 -0.22802571146995329 0 0.3317064994787231 -0.2398800291524967 0 0.3452577849176578 -0.24172230784699791 0 0.34651485399509929 -0.22802571146995329 0 0.3317064994787231 -0.2398800291524967 0 0.3217750035898081 -0.25007614838849962 0 0.33126718172301212 -0.25366948099773839 0 0.3317064994787231 -0.2398800291524967 0 0.33126718172301212 -0.25366948099773839 0 0.34419459638231392 -0.25366008266887002 0 0.3317064994787231 -0.2398800291524967 0 0.3452577849176578 -0.24172230784699791 0 0.34419459638231392 -0.25366008266887002 0 0.35861518981449497 -0.24532340809667191 0 0.34651485399509929 -0.22802571146995329 0 0.36127359061118253 -0.24143513377878889 0 0.3452577849176578 -0.24172230784699791 0 0.35861518981449497 -0.24532340809667191 0 0.34651485399509929 -0.22802571146995329 0 0.35861518981449497 -0.24532340809667191 0 0.34651485399509929 -0.22802571146995329 0 0.3452577849176578 -0.24172230784699791 0 0.35861518981449497 -0.24532340809667191 0 0.34419459638231392 -0.25366008266887002 0 0.33441451817570261 -0.21072801484323539 0 0.35119472046778999 -0.22136247509105991 0 0.34651485399509929 -0.22802571146995329 0 0.35119472046778999 -0.22136247509105991 0 0.34651485399509929 -0.22802571146995329 0 0.36127359061118253 -0.24143513377878889 0 0.35119472046778999 -0.22136247509105991 0 0.35479322931245938 -0.2236430315822123 0 0.36127359061118253 -0.24143513377878889 0 0.35119472046778999 -0.22136247509105991 0 0.36127359061118253 -0.24143513377878889 0 0.36508799535087288 -0.21871258985512149 0 0.35602876744926859 -0.2166115045192826 0 0.35479322931245938 -0.2236430315822123 0 0.35602876744926859 -0.2166115045192826 0 0.35119472046778999 -0.22136247509105991 0 0.35479322931245938 -0.2236430315822123 0 0.35119472046778999 -0.22136247509105991 0 0.35479322931245938 -0.2236430315822123 0 0.35479322931245938 -0.2236430315822123 0 0.36649825140928199 -0.2304550654528765 0 0.36127359061118253 -0.24143513377878889 0 0.36649825140928199 -0.2304550654528765 0 0.3820492709095592 -0.24281061363593651 0 0.37614146811372728 -0.224739690117124 0 0.36508799535087288 -0.21871258985512149 0 0.35479322931245938 -0.2236430315822123 0 0.36649825140928199 -0.2304550654528765 0 0.36508799535087288 -0.21871258985512149 0 0.36649825140928199 -0.2304550654528765 0 0.37614146811372728 -0.224739690117124 0 0.36127359061118253 -0.24143513377878889 0 0.3820492709095592 -0.24281061363593651 0 0.37071552563388932 -0.26262110472339117 0 0.35861518981449497 -0.24532340809667191 0 0.36127359061118253 -0.24143513377878889 0 0.37071552563388932 -0.26262110472339117 0 0.36649825140928199 -0.2304550654528765 0 0.36127359061118253 -0.24143513377878889 0 0.3820492709095592 -0.24281061363593651 0 0.3820492709095592 -0.24281061363593651 0 0.3984531923859202 -0.24653197416604361 0 0.38641154119971438 -0.25679816832471858 0 0.3820492709095592 -0.24281061363593651 0 0.3984531923859202 -0.24653197416604361 0 0.39274608106454129 -0.2241134348053555 0 0.39274608106454129 -0.2241134348053555 0 0.41273237230190862 -0.21818036514766781 0 0.40692604267754001 -0.23242378937465269 0 0.3984531923859202 -0.24653197416604361 0 0.39274608106454129 -0.2241134348053555 0 0.40692604267754001 -0.23242378937465269 0 0.3820492709095592 -0.24281061363593651 0 0.39274608106454129 -0.2241134348053555 0 0.37614146811372728 -0.224739690117124 0 0.3820492709095592 -0.24281061363593651 0 0.39274608106454129 -0.2241134348053555 0 0.39274608106454129 -0.2241134348053555 0 0.37614146811372728 -0.224739690117124 0 0.3784299025274146 -0.20667504682091231 0 0.3784299025274146 -0.20667504682091231 0 0.39086987833369308 -0.1912809018473304 0 0.38007612447193678 -0.1846224197402484 0 0.3784299025274146 -0.20667504682091231 0 0.39086987833369308 -0.1912809018473304 0 0.40115317280910512 -0.20595521866736261 0 0.3784299025274146 -0.20667504682091231 0 0.39086987833369308 -0.1912809018473304 0 0.39086987833369308 -0.1912809018473304 0 0.40349030761654292 -0.19273736218574089 0 0.40115317280910512 -0.20595521866736261 0 0.39274608106454129 -0.2241134348053555 0 0.40115317280910512 -0.20595521866736261 0 0.41273237230190862 -0.21818036514766781 0 0.39274608106454129 -0.2241134348053555 0 0.3784299025274146 -0.20667504682091231 0 0.40115317280910512 -0.20595521866736261 0 0.40115317280910512 -0.20595521866736261 0 0.41273237230190862 -0.21818036514766781 0 0.41862832518340248 -0.19782657135452261 0 0.41273237230190862 -0.21818036514766781 0 0.41862832518340248 -0.19782657135452261 0 0.43394679622683652 -0.21976638583529559 0 0.40349030761654292 -0.19273736218574089 0 0.40115317280910512 -0.20595521866736261 0 0.41862832518340248 -0.19782657135452261 0 0.40349030761654292 -0.19273736218574089 0 0.41862832518340248 -0.19782657135452261 0 0.403309854139971 -0.175886756873748 0 0.41862832518340248 -0.19782657135452261 0 0.43369739360351223 -0.18878747953518979 0 0.43776233027957229 -0.20343135501351869 0 0.41862832518340248 -0.19782657135452261 0 0.43369739360351223 -0.18878747953518979 0 0.42186688992577459 -0.1792477739875204 0 0.41862832518340248 -0.19782657135452261 0 0.43394679622683652 -0.21976638583529559 0 0.43776233027957229 -0.20343135501351869 0 0.41862832518340248 -0.19782657135452261 0 0.43394679622683652 -0.21976638583529559 0 0.41273237230190862 -0.21818036514766781 0 0.43394679622683652 -0.21976638583529559 0 0.42216397888650242 -0.22882163945603781 0 0.43394679622683652 -0.21976638583529559 0 0.42216397888650242 -0.22882163945603781 0 0.43083787932319523 -0.23673089349361279 0 0.43083787932319523 -0.23673089349361279 0 0.42882835196177949 -0.24982670302930521 0 0.44926526727026661 -0.24170620031607129 0 0.43083787932319523 -0.23673089349361279 0 0.42882835196177949 -0.24982670302930521 0 0.41619641073388552 -0.24252594825669821 0 0.42216397888650242 -0.22882163945603781 0 0.43083787932319523 -0.23673089349361279 0 0.41619641073388552 -0.24252594825669821 0 0.42216397888650242 -0.22882163945603781 0 0.41619641073388552 -0.24252594825669821 0 0.40692604267754001 -0.23242378937465269 0 0.3984531923859202 -0.24653197416604361 0 0.41619641073388552 -0.24252594825669821 0 0.40692604267754001 -0.23242378937465269 0 0.41273237230190862 -0.21818036514766781 0 0.42216397888650242 -0.22882163945603781 0 0.40692604267754001 -0.23242378937465269 0 0.39574487623049842 -0.1229575011834792 0 0.39824483335091609 -0.14163394893900469 0 0.41365082035528511 -0.13001629491493211 0 0.39574487623049842 -0.1229575011834792 0 0.37750367886529451 -0.1370968529628917 0 0.39574487623049842 -0.1229575011834792 0 0.37176373857123329 -0.11942482032851259 0 0.37750367886529451 -0.1370968529628917 0 0.39574487623049842 -0.1229575011834792 0 0.37750367886529451 -0.1370968529628917 0 0.39824483335091609 -0.14163394893900469 0 0.37750367886529451 -0.1370968529628917 0 0.39824483335091609 -0.14163394893900469 0 0.38537476729177261 -0.15653513032935271 0 0.39824483335091609 -0.14163394893900469 0 0.40272045212014201 -0.15535989879615711 0 0.38537476729177261 -0.15653513032935271 0 0.39824483335091609 -0.14163394893900469 0 0.40272045212014201 -0.15535989879615711 0 0.41284430025344038 -0.14547897723259789 0 0.40272045212014201 -0.15535989879615711 0 0.39849989270123393 -0.1689977102237091 0 0.38537476729177261 -0.15653513032935271 0 0.39849989270123393 -0.1689977102237091 0 0.403309854139971 -0.175886756873748 0 0.41603199664232471 -0.1601434379874733 0 0.40272045212014201 -0.15535989879615711 0 0.39849989270123393 -0.1689977102237091 0 0.41603199664232471 -0.1601434379874733 0 0.37306041923162858 -0.1705432769028242 0 0.38537476729177261 -0.15653513032935271 0 0.38569455111426287 -0.17194682753867671 0 0.39849989270123393 -0.1689977102237091 0 0.38537476729177261 -0.15653513032935271 0 0.38569455111426287 -0.17194682753867671 0 0.38569455111426287 -0.17194682753867671 0 0.38007612447193678 -0.1846224197402484 0 0.39146155187474252 -0.17903560049724901 0 0.37306041923162858 -0.1705432769028242 0 0.38569455111426287 -0.17194682753867671 0 0.38007612447193678 -0.1846224197402484 0 0.39086987833369308 -0.1912809018473304 0 0.38007612447193678 -0.1846224197402484 0 0.39146155187474252 -0.17903560049724901 0 0.39086987833369308 -0.1912809018473304 0 0.39146155187474252 -0.17903560049724901 0 0.403309854139971 -0.175886756873748 0 0.39086987833369308 -0.1912809018473304 0 0.40349030761654292 -0.19273736218574089 0 0.403309854139971 -0.175886756873748 0 0.39086987833369308 -0.1912809018473304 0 0.403309854139971 -0.175886756873748 0 0.39849989270123393 -0.1689977102237091 0 0.39146155187474252 -0.17903560049724901 0 0.403309854139971 -0.175886756873748 0 0.39849989270123393 -0.1689977102237091 0 0.38569455111426287 -0.17194682753867671 0 0.39146155187474252 -0.17903560049724901 0 0.39849989270123393 -0.1689977102237091 0 0.403309854139971 -0.175886756873748 0 0.41862832518340248 -0.19782657135452261 0 0.403309854139971 -0.175886756873748 0 0.41862832518340248 -0.19782657135452261 0 0.403309854139971 -0.175886756873748 0 0.42186688992577459 -0.1792477739875204 0 0.42186688992577459 -0.1792477739875204 0 0.43015853405805909 -0.16292202611878709 0 0.44025944986511401 -0.17507959068151269 0 0.43369739360351223 -0.18878747953518979 0 0.42186688992577459 -0.1792477739875204 0 0.44025944986511401 -0.17507959068151269 0 0.42186688992577459 -0.1792477739875204 0 0.43015853405805909 -0.16292202611878709 0 0.41603199664232471 -0.1601434379874733 0 0.403309854139971 -0.175886756873748 0 0.41603199664232471 -0.1601434379874733 0 0.403309854139971 -0.175886756873748 0 0.42186688992577459 -0.1792477739875204 0 0.41603199664232471 -0.1601434379874733 0 0.41603199664232471 -0.1601434379874733 0 0.41284430025344038 -0.14547897723259789 0 0.42875413914467769 -0.1444001191011981 0 0.40272045212014201 -0.15535989879615711 0 0.41603199664232471 -0.1601434379874733 0 0.41284430025344038 -0.14547897723259789 0 0.43015853405805909 -0.16292202611878709 0 0.41603199664232471 -0.1601434379874733 0 0.42875413914467769 -0.1444001191011981 0 0.43015853405805909 -0.16292202611878709 0 0.42875413914467769 -0.1444001191011981 0 0.44388019471240431 -0.15573920883623091 0 0.41603199664232471 -0.1601434379874733 0 0.42875413914467769 -0.1444001191011981 0 0.42813095842663718 -0.1192876667367317 0 0.42875413914467769 -0.1444001191011981 0 0.44147628164703068 -0.12865680021492301 0 0.42813095842663718 -0.1192876667367317 0 0.42875413914467769 -0.1444001191011981 0 0.41365082035528511 -0.13001629491493211 0 0.42875413914467769 -0.1444001191011981 0 0.44147628164703068 -0.12865680021492301 0 0.41284430025344038 -0.14547897723259789 0 0.42875413914467769 -0.1444001191011981 0 0.41365082035528511 -0.13001629491493211 0 0.39824483335091609 -0.14163394893900469 0 0.41284430025344038 -0.14547897723259789 0 0.41365082035528511 -0.13001629491493211 0 0.45739486048555339 -0.1241621835697562 0 0.45720158592988658 -0.13911429803909331 0 0.47607643507557301 -0.1343078895027166 0 0.45739486048555339 -0.1241621835697562 0 0.45720158592988658 -0.13911429803909331 0 0.44147628164703068 -0.12865680021492301 0 0.42875413914467769 -0.1444001191011981 0 0.44147628164703068 -0.12865680021492301 0 0.44388019471240431 -0.15573920883623091 0 0.45720158592988658 -0.13911429803909331 0 0.44147628164703068 -0.12865680021492301 0 0.44388019471240431 -0.15573920883623091 0 0.45720158592988658 -0.13911429803909331 0 0.4648710792849402 -0.1544667716237359 0 0.47607643507557301 -0.1343078895027166 0 0.45720158592988658 -0.13911429803909331 0 0.44388019471240431 -0.15573920883623091 0 0.4648710792849402 -0.1544667716237359 0 0.44388019471240431 -0.15573920883623091 0 0.4648710792849402 -0.1544667716237359 0 0.45374286727964969 -0.16914144966906211 0 0.4648710792849402 -0.1544667716237359 0 0.45374286727964969 -0.16914144966906211 0 0.47470896063271723 -0.1710786284943609 0 0.44388019471240431 -0.15573920883623091 0 0.45374286727964969 -0.16914144966906211 0 0.44025944986511401 -0.17507959068151269 0 0.43015853405805909 -0.16292202611878709 0 0.44388019471240431 -0.15573920883623091 0 0.44025944986511401 -0.17507959068151269 0 0.45374286727964969 -0.16914144966906211 0 0.44025944986511401 -0.17507959068151269 0 0.44730288942760238 -0.18673381286217969 0 0.43369739360351223 -0.18878747953518979 0 0.44025944986511401 -0.17507959068151269 0 0.44730288942760238 -0.18673381286217969 0 0.45374286727964969 -0.16914144966906211 0 0.44730288942760238 -0.18673381286217969 0 0.46253772935385629 -0.18096153701874079 0 0.45374286727964969 -0.16914144966906211 0 0.46253772935385629 -0.18096153701874079 0 0.47470896063271723 -0.1710786284943609 0 0.48532843790591751 -0.1843530902598895 0 0.47470896063271723 -0.1710786284943609 0 0.47294768736498188 -0.18927902277519629 0 0.46253772935385629 -0.18096153701874079 0 0.47470896063271723 -0.1710786284943609 0 0.47294768736498188 -0.18927902277519629 0 0.48532843790591751 -0.1843530902598895 0 0.49678407372358602 -0.1661346050231885 0 0.47470896063271723 -0.1710786284943609 0 0.48532843790591751 -0.1843530902598895 0 0.5 -0.17278406311142649 0 0.49999999999999623 -0.2019494947406717 0 0.48532843790591751 -0.1843530902598895 0 0.49678407372358602 -0.1661346050231885 0 0.48532843790591751 -0.1843530902598895 0 0.5 -0.17278406311142649 0 0.49678407372358602 -0.1661346050231885 0 0.49678407372358602 -0.1661346050231885 0 0.47470896063271723 -0.1710786284943609 0 0.48370603539271362 -0.15371919604394441 0 0.5 -0.17278406311142649 0 0.49678407372358602 -0.1661346050231885 0 0.5 -0.14361863148218129 0 0.4648710792849402 -0.1544667716237359 0 0.47470896063271723 -0.1710786284943609 0 0.48370603539271362 -0.15371919604394441 0 0.4648710792849402 -0.1544667716237359 0 0.48370603539271362 -0.15371919604394441 0 0.47607643507557301 -0.1343078895027166 0 0.49678407372358602 -0.1661346050231885 0 0.48370603539271362 -0.15371919604394441 0 0.5 -0.14361863148218129 0 0.48370603539271362 -0.15371919604394441 0 0.5 -0.14361863148218129 0 0.47607643507557301 -0.1343078895027166 0 0.5 -0.1144531998529362 0 0.5 -0.14361863148218129 0 0.47607643507557301 -0.1343078895027166 0 0.45730537611314848 -0.23145276510449919 0 0.46156903467925708 -0.22213888790633041 0 0.44926526727026661 -0.24170620031607129 0 0.45730537611314848 -0.23145276510449919 0 0.46156903467925708 -0.22213888790633041 0 0.47865268805657463 -0.23959667890161479 0 0.46156903467925708 -0.22213888790633041 0 0.44926526727026661 -0.24170620031607129 0 0.45730537611314848 -0.23145276510449919 0 0.46711403772747939 -0.2475058013995779 0 0.44926526727026661 -0.24170620031607129 0 0.45730537611314848 -0.23145276510449919 0 0.46711403772747939 -0.2475058013995779 0 0.47865268805657463 -0.23959667890161479 0 0.45730537611314848 -0.23145276510449919 0 0.47865268805657463 -0.23959667890161479 0 0.43394679622683652 -0.21976638583529559 0 0.43083787932319523 -0.23673089349361279 0 0.44926526727026661 -0.24170620031607129 0 0.46156903467925708 -0.22213888790633041 0 0.44926526727026661 -0.24170620031607129 0 0.44795262972070699 -0.2242214133780745 0 0.43394679622683652 -0.21976638583529559 0 0.44926526727026661 -0.24170620031607129 0 0.44795262972070699 -0.2242214133780745 0 0.43394679622683652 -0.21976638583529559 0 0.44926526727026661 -0.24170620031607129 0 0.46156903467925708 -0.22213888790633041 0 0.44795262972070699 -0.2242214133780745 0 0.44702942070646923 -0.2132741794546017 0 0.43394679622683652 -0.21976638583529559 0 0.44795262972070699 -0.2242214133780745 0 0.44702942070646923 -0.2132741794546017 0 0.43776233027957229 -0.20343135501351869 0 0.45581756618391039 -0.203001465255054 0 0.43394679622683652 -0.21976638583529559 0 0.43776233027957229 -0.20343135501351869 0 0.44702942070646923 -0.2132741794546017 0 0.43776233027957229 -0.20343135501351869 0 0.44702942070646923 -0.2132741794546017 0 0.45581756618391039 -0.203001465255054 0 0.43369739360351223 -0.18878747953518979 0 0.44730288942760238 -0.18673381286217969 0 0.43776233027957229 -0.20343135501351869 0 0.44730288942760238 -0.18673381286217969 0 0.43776233027957229 -0.20343135501351869 0 0.45581756618391039 -0.203001465255054 0 0.46253772935385629 -0.18096153701874079 0 0.45581756618391039 -0.203001465255054 0 0.47294768736498188 -0.18927902277519629 0 0.45581756618391039 -0.203001465255054 0 0.47387280208824872 -0.20257157549659019 0 0.45581756618391039 -0.203001465255054 0 0.47294768736498188 -0.18927902277519629 0 0.47387280208824872 -0.20257157549659019 0 0.44730288942760238 -0.18673381286217969 0 0.46253772935385629 -0.18096153701874079 0 0.45581756618391039 -0.203001465255054 0 0.46156903467925708 -0.22213888790633041 0 0.44702942070646923 -0.2132741794546017 0 0.45581756618391039 -0.203001465255054 0 0.46156903467925708 -0.22213888790633041 0 0.47387280208824872 -0.20257157549659019 0 0.46156903467925708 -0.22213888790633041 0 0.45581756618391039 -0.203001465255054 0 0.47387280208824872 -0.20257157549659019 0 0.46156903467925708 -0.22213888790633041 0 0.47387280208824872 -0.20257157549659019 0 0.48069328552816881 -0.22051215099352919 0 0.48532843790591751 -0.1843530902598895 0 0.47294768736498188 -0.18927902277519629 0 0.47387280208824872 -0.20257157549659019 0 0.48532843790591751 -0.1843530902598895 0 0.47387280208824872 -0.20257157549659019 0 0.48532843790591751 -0.1843530902598895 0 0.47387280208824872 -0.20257157549659019 0 0.49999999999999623 -0.2019494947406717 0 0.47387280208824872 -0.20257157549659019 0 0.49999999999999623 -0.2019494947406717 0 0.49999999999999623 -0.2019494947406717 0 0.5 -0.2248450437197011 0 0.48069328552816881 -0.22051215099352919 0 0.47387280208824872 -0.20257157549659019 0 0.49999999999999623 -0.2019494947406717 0 0.48069328552816881 -0.22051215099352919 0 0.5 -0.2248450437197011 0 0.48069328552816881 -0.22051215099352919 0 0.47865268805657463 -0.23959667890161479 0 0.46156903467925708 -0.22213888790633041 0 0.48069328552816881 -0.22051215099352919 0 0.47865268805657463 -0.23959667890161479 0 0.46711403772747939 -0.2475058013995779 0 0.47865268805657463 -0.23959667890161479 0 0.48281854697140941 -0.25754419441568788 0 0.47865268805657463 -0.23959667890161479 0 0.50000000000000067 -0.24774059269873061 0 0.48281854697140941 -0.25754419441568788 0 0.5 -0.2248450437197011 0 0.47865268805657463 -0.23959667890161479 0 0.50000000000000067 -0.24774059269873061 0 0.47865268805657463 -0.23959667890161479 0 0.50000000000000067 -0.24774059269873061 0 0.50000000000000067 -0.24774059269873061 0 0.5 -0.26995066305429821 0 0.48281854697140941 -0.25754419441568788 0 0.5 -0.26995066305429821 0 0.48641676284833468 -0.27514651899227111 0 0.5 -0.29216073340986592 0 0.5 -0.26995066305429821 0 0.48641676284833468 -0.27514651899227111 0 0.48281854697140941 -0.25754419441568788 0 0.48641676284833468 -0.27514651899227111 0 0.46617684484684491 -0.26592773479919068 0 0.48308842242341948 -0.2901492692823131 0 0.46617684484684491 -0.26592773479919068 0 0.48308842242341948 -0.2901492692823131 0 0.48641676284833468 -0.27514651899227111 0 0.48281854697140941 -0.25754419441568788 0 0.46617684484684491 -0.26592773479919068 0 0.46711403772747939 -0.2475058013995779 0 0.48281854697140941 -0.25754419441568788 0 0.46617684484684491 -0.26592773479919068 0 0.44926526727026661 -0.24170620031607129 0 0.46617684484684491 -0.26592773479919068 0 0.46711403772747939 -0.2475058013995779 0 0.44926526727026661 -0.24170620031607129 0 0.46617684484684491 -0.26592773479919068 0 0.46617684484684491 -0.26592773479919068 0 0.44983089263267872 -0.27666000170915922 0 0.45252124851754499 -0.25407613170069998 0 0.44926526727026661 -0.24170620031607129 0 0.46617684484684491 -0.26592773479919068 0 0.45252124851754499 -0.25407613170069998 0 0.46617684484684491 -0.26592773479919068 0 0.44983089263267872 -0.27666000170915922 0 0.46230679701862221 -0.2883484818865471 0 0.44983089263267872 -0.27666000170915922 0 0.43775671327270022 -0.28667381953986509 0 0.43572568610501639 -0.26323889073118889 0 0.44926526727026661 -0.24170620031607129 0 0.43572568610501639 -0.26323889073118889 0 0.42882835196177949 -0.24982670302930521 0 0.44926526727026661 -0.24170620031607129 0 0.43572568610501639 -0.26323889073118889 0 0.44926526727026661 -0.24170620031607129 0 0.45252124851754499 -0.25407613170069998 0 0.43572568610501639 -0.26323889073118889 0 0.44983089263267872 -0.27666000170915922 0 0.45252124851754499 -0.25407613170069998 0 0.43572568610501639 -0.26323889073118889 0 0.44983089263267872 -0.27666000170915922 0 0.45252124851754499 -0.25407613170069998 0 0.44714053674781229 -0.29924387171761829 0 0.44445018086294591 -0.32182774172607742 0 0.44714053674781229 -0.29924387171761829 0 0.46529728844235552 -0.30976153192445433 0 0.44445018086294591 -0.32182774172607742 0 0.44714053674781229 -0.29924387171761829 0 0.44445018086294591 -0.32182774172607742 0 0.42857222772561959 -0.30356306012446532 0 0.44983089263267872 -0.27666000170915922 0 0.44714053674781229 -0.29924387171761829 0 0.46230679701862221 -0.2883484818865471 0 0.44983089263267872 -0.27666000170915922 0 0.44714053674781229 -0.29924387171761829 0 0.43775671327270022 -0.28667381953986509 0 0.44714053674781229 -0.29924387171761829 0 0.43775671327270022 -0.28667381953986509 0 0.42857222772561959 -0.30356306012446532 0 0.44983089263267872 -0.27666000170915922 0 0.44714053674781229 -0.29924387171761829 0 0.44714053674781229 -0.29924387171761829 0 0.46230679701862221 -0.2883484818865471 0 0.46529728844235552 -0.30976153192445433 0 0.48308842242341948 -0.2901492692823131 0 0.49999999999999639 -0.31437080376543358 0 0.48274931713347852 -0.32254127424091322 0 0.46529728844235552 -0.30976153192445433 0 0.48308842242341948 -0.2901492692823131 0 0.48274931713347852 -0.32254127424091322 0 0.46230679701862221 -0.2883484818865471 0 0.46529728844235552 -0.30976153192445433 0 0.48308842242341948 -0.2901492692823131 0 0.46617684484684491 -0.26592773479919068 0 0.46230679701862221 -0.2883484818865471 0 0.48308842242341948 -0.2901492692823131 0 0.48641676284833468 -0.27514651899227111 0 0.48308842242341948 -0.2901492692823131 0 0.5 -0.29216073340986592 0 0.48308842242341948 -0.2901492692823131 0 0.49999999999999639 -0.31437080376543358 0 0.48308842242341948 -0.2901492692823131 0 0.5 -0.29216073340986592 0 0.49999999999999639 -0.31437080376543358 0 0.49999999999999639 -0.31437080376543358 0 0.5 -0.34058573875134479 0 0.48274931713347852 -0.32254127424091322 0 0.5 -0.34058573875134479 0 0.4704834314455465 -0.33502218976662068 0 0.48274931713347852 -0.32254127424091322 0 0.5 -0.34058573875134479 0 0.4704834314455465 -0.33502218976662068 0 0.47781589323190848 -0.35364955210125593 0 0.46529728844235552 -0.30976153192445433 0 0.4704834314455465 -0.33502218976662068 0 0.48274931713347852 -0.32254127424091322 0 0.5 -0.34058573875134479 0 0.5 -0.36680067373725611 0 0.47781589323190848 -0.35364955210125593 0 0.5 -0.36680067373725611 0 0.47781589323190848 -0.35364955210125593 0 0.47171746294589889 -0.37294654367295899 0 0.47171746294589889 -0.37294654367295899 0 0.4557578746926006 -0.36168816175616342 0 0.45212310359672803 -0.37606068830839251 0 0.47781589323190848 -0.35364955210125593 0 0.47171746294589889 -0.37294654367295899 0 0.4557578746926006 -0.36168816175616342 0 0.4704834314455465 -0.33502218976662068 0 0.47781589323190848 -0.35364955210125593 0 0.45731837744969878 -0.34611466571287341 0 0.47781589323190848 -0.35364955210125593 0 0.4557578746926006 -0.36168816175616342 0 0.45731837744969878 -0.34611466571287341 0 0.4557578746926006 -0.36168816175616342 0 0.45731837744969878 -0.34611466571287341 0 0.44175982497807881 -0.34441161173453633 0 0.44175982497807881 -0.34441161173453633 0 0.4387523897169473 -0.36965716656180791 0 0.4557578746926006 -0.36168816175616342 0 0.44175982497807881 -0.34441161173453633 0 0.4387523897169473 -0.36965716656180791 0 0.4557578746926006 -0.36168816175616342 0 0.44175982497807881 -0.34441161173453633 0 0.4557578746926006 -0.36168816175616342 0 0.4387523897169473 -0.36965716656180791 0 0.45212310359672803 -0.37606068830839251 0 0.46529728844235552 -0.30976153192445433 0 0.4704834314455465 -0.33502218976662068 0 0.44445018086294591 -0.32182774172607742 0 0.4704834314455465 -0.33502218976662068 0 0.45731837744969878 -0.34611466571287341 0 0.44445018086294591 -0.32182774172607742 0 0.45731837744969878 -0.34611466571287341 0 0.44175982497807881 -0.34441161173453633 0 0.44445018086294591 -0.32182774172607742 0 0.44175982497807881 -0.34441161173453633 0 0.44445018086294591 -0.32182774172607742 0 0.44445018086294591 -0.32182774172607742 0 0.42466605129105511 -0.32331428445073562 0 0.42857222772561959 -0.30356306012446532 0 0.44175982497807881 -0.34441161173453633 0 0.44445018086294591 -0.32182774172607742 0 0.42466605129105511 -0.32331428445073562 0 0.44175982497807881 -0.34441161173453633 0 0.41225325835188531 -0.33447413704329609 0 0.41573699828640409 -0.35062560929512909 0 0.44175982497807881 -0.34441161173453633 0 0.42466605129105511 -0.32331428445073562 0 0.41225325835188531 -0.33447413704329609 0 0.44175982497807881 -0.34441161173453633 0 0.42466605129105511 -0.32331428445073562 0 0.42466605129105511 -0.32331428445073562 0 0.41225325835188531 -0.33447413704329609 0 0.40560324937088149 -0.32005930681439798 0 0.42466605129105511 -0.32331428445073562 0 0.40560324937088149 -0.32005930681439798 0 0.4075722776040322 -0.30221695716693397 0 0.42466605129105511 -0.32331428445073562 0 0.4075722776040322 -0.30221695716693397 0 0.4387523897169473 -0.36965716656180791 0 0.41573699828640409 -0.35062560929512909 0 0.4136921838755433 -0.37806964234205009 0 0.44175982497807881 -0.34441161173453633 0 0.4387523897169473 -0.36965716656180791 0 0.41573699828640409 -0.35062560929512909 0 0.41573699828640409 -0.35062560929512909 0 0.3997804777363112 -0.37272453228292768 0 0.4136921838755433 -0.37806964234205009 0 0.41573699828640409 -0.35062560929512909 0 0.4136921838755433 -0.37806964234205009 0 0.3997804777363112 -0.37272453228292768 0 0.3904439796985647 -0.3611083550442819 0 0.38567782509003601 -0.37754334516443561 0 0.41573699828640409 -0.35062560929512909 0 0.3997804777363112 -0.37272453228292768 0 0.3904439796985647 -0.3611083550442819 0 0.41573699828640409 -0.35062560929512909 0 0.3904439796985647 -0.3611083550442819 0 0.39048799803147838 -0.34305842679751769 0 0.3904439796985647 -0.3611083550442819 0 0.39048799803147838 -0.34305842679751769 0 0.37047776436842661 -0.35838974597582057 0 0.39048799803147838 -0.34305842679751769 0 0.37212002878019962 -0.34174343944434288 0 0.37047776436842661 -0.35838974597582057 0 0.3904439796985647 -0.3611083550442819 0 0.3787916495420417 -0.3686996929003083 0 0.38567782509003601 -0.37754334516443561 0 0.3904439796985647 -0.3611083550442819 0 0.3787916495420417 -0.3686996929003083 0 0.37047776436842661 -0.35838974597582057 0 0.3787916495420417 -0.3686996929003083 0 0.38567782509003601 -0.37754334516443561 0 0.36856702901113952 -0.37775732541669488 0 0.3904439796985647 -0.3611083550442819 0 0.37047776436842661 -0.35838974597582057 0 0.40560324937088149 -0.32005930681439798 0 0.39464518880614058 -0.32729161333284151 0 0.38887947080129459 -0.31299954207818298 0 0.41225325835188531 -0.33447413704329609 0 0.40560324937088149 -0.32005930681439798 0 0.39464518880614058 -0.32729161333284151 0 0.41225325835188531 -0.33447413704329609 0 0.39464518880614058 -0.32729161333284151 0 0.39048799803147838 -0.34305842679751769 0 0.41225325835188531 -0.33447413704329609 0 0.41573699828640409 -0.35062560929512909 0 0.39048799803147838 -0.34305842679751769 0 0.39464518880614058 -0.32729161333284151 0 0.39048799803147838 -0.34305842679751769 0 0.37773876792872862 -0.32777608744691228 0 0.39048799803147838 -0.34305842679751769 0 0.37773876792872862 -0.32777608744691228 0 0.37212002878019962 -0.34174343944434288 0 0.39464518880614058 -0.32729161333284151 0 0.38887947080129459 -0.31299954207818298 0 0.37773876792872862 -0.32777608744691228 0 0.38887947080129459 -0.31299954207818298 0 0.37773876792872862 -0.32777608744691228 0 0.36533705678267792 -0.31728902237790901 0 0.38887947080129459 -0.31299954207818298 0 0.37553059104105319 -0.30600852212472363 0 0.38938544207023429 -0.29355040802071941 0 0.38887947080129459 -0.31299954207818298 0 0.37553059104105319 -0.30600852212472363 0 0.36533705678267792 -0.31728902237790901 0 0.37553059104105319 -0.30600852212472363 0 0.38938544207023429 -0.29355040802071941 0 0.37692367512760472 -0.29471076959990938 0 0.38887947080129459 -0.31299954207818298 0 0.38938544207023429 -0.29355040802071941 0 0.4075722776040322 -0.30221695716693397 0 0.40560324937088149 -0.32005930681439798 0 0.38887947080129459 -0.31299954207818298 0 0.4075722776040322 -0.30221695716693397 0 0.38938544207023429 -0.29355040802071941 0 0.40346922649133982 -0.28092124053129602 0 0.39151670986022008 -0.27655455415211161 0 0.38938544207023429 -0.29355040802071941 0 0.40346922649133982 -0.28092124053129602 0 0.4075722776040322 -0.30221695716693397 0 0.38938544207023429 -0.29355040802071941 0 0.38160021115960668 -0.28191678606111131 0 0.39151670986022008 -0.27655455415211161 0 0.38938544207023429 -0.29355040802071941 0 0.37692367512760472 -0.29471076959990938 0 0.38160021115960668 -0.28191678606111131 0 0.37692367512760472 -0.29471076959990938 0 0.38160021115960668 -0.28191678606111131 0 0.36864604209967411 -0.28580195190526653 0 0.38160021115960668 -0.28191678606111131 0 0.37302989084798022 -0.26672386484123639 0 0.37183639427018822 -0.27721741139498479 0 0.38160021115960668 -0.28191678606111131 0 0.37302989084798022 -0.26672386484123639 0 0.38461730899149088 -0.26805123045309792 0 0.37071552563388932 -0.26262110472339117 0 0.37302989084798022 -0.26672386484123639 0 0.38160021115960668 -0.28191678606111131 0 0.38461730899149088 -0.26805123045309792 0 0.37302989084798022 -0.26672386484123639 0 0.38461730899149088 -0.26805123045309792 0 0.39558547295702418 -0.26508923090199732 0 0.39151670986022008 -0.27655455415211161 0 0.38160021115960668 -0.28191678606111131 0 0.38461730899149088 -0.26805123045309792 0 0.39151670986022008 -0.27655455415211161 0 0.3820492709095592 -0.24281061363593651 0 0.38641154119971438 -0.25679816832471858 0 0.37071552563388932 -0.26262110472339117 0 0.38461730899149088 -0.26805123045309792 0 0.38641154119971438 -0.25679816832471858 0 0.37071552563388932 -0.26262110472339117 0 0.3820492709095592 -0.24281061363593651 0 0.37071552563388932 -0.26262110472339117 0 0.38461730899149088 -0.26805123045309792 0 0.38641154119971438 -0.25679816832471858 0 0.39558547295702418 -0.26508923090199732 0 0.3984531923859202 -0.24653197416604361 0 0.38641154119971438 -0.25679816832471858 0 0.39558547295702418 -0.26508923090199732 0 0.3984531923859202 -0.24653197416604361 0 0.39558547295702418 -0.26508923090199732 0 0.41488138079531928 -0.26245261976511619 0 0.39558547295702418 -0.26508923090199732 0 0.40346922649133982 -0.28092124053129602 0 0.41488138079531928 -0.26245261976511619 0 0.39558547295702418 -0.26508923090199732 0 0.40346922649133982 -0.28092124053129602 0 0.39151670986022008 -0.27655455415211161 0 0.40346922649133982 -0.28092124053129602 0 0.41488138079531928 -0.26245261976511619 0 0.42218610493976783 -0.28477158114630741 0 0.3984531923859202 -0.24653197416604361 0 0.41619641073388552 -0.24252594825669821 0 0.41488138079531928 -0.26245261976511619 0 0.42882835196177949 -0.24982670302930521 0 0.41619641073388552 -0.24252594825669821 0 0.41488138079531928 -0.26245261976511619 0 0.42882835196177949 -0.24982670302930521 0 0.41488138079531928 -0.26245261976511619 0 0.43572568610501639 -0.26323889073118889 0 0.43775671327270022 -0.28667381953986509 0 0.43572568610501639 -0.26323889073118889 0 0.42218610493976783 -0.28477158114630741 0 0.41488138079531928 -0.26245261976511619 0 0.43572568610501639 -0.26323889073118889 0 0.42218610493976783 -0.28477158114630741 0 0.43572568610501639 -0.26323889073118889 0 0.42218610493976783 -0.28477158114630741 0 0.43775671327270022 -0.28667381953986509 0 0.42218610493976783 -0.28477158114630741 0 0.42857222772561959 -0.30356306012446532 0 0.42466605129105511 -0.32331428445073562 0 0.42857222772561959 -0.30356306012446532 0 0.4075722776040322 -0.30221695716693397 0 0.40346922649133982 -0.28092124053129602 0 0.42218610493976783 -0.28477158114630741 0 0.4075722776040322 -0.30221695716693397 0 0.42218610493976783 -0.28477158114630741 0 0.42857222772561959 -0.30356306012446532 0 0.4075722776040322 -0.30221695716693397 0 0.44868023108569471 -0.5 0 0.44002948392070079 -0.4849855340735596 0 0.42830531416260431 -0.49774537173131422 0 0.44868023108569471 -0.5 0 0.44002948392070079 -0.4849855340735596 0 0.459563856351134 -0.48372993762208327 0 0.44002948392070079 -0.4849855340735596 0 0.459563856351134 -0.48372993762208327 0 0.45491647038434219 -0.45830987676244228 0 0.44002948392070079 -0.4849855340735596 0 0.45491647038434219 -0.45830987676244228 0 0.43205440916269039 -0.46960152301749708 0 0.459563856351134 -0.48372993762208327 0 0.47625825717337539 -0.47350911525369471 0 0.45491647038434219 -0.45830987676244228 0 0.44868023108569471 -0.5 0 0.459563856351134 -0.48372993762208327 0 0.47473798274075518 -0.50000000000000022 0 0.459563856351134 -0.48372993762208327 0 0.47473798274075518 -0.50000000000000022 0 0.47625825717337539 -0.47350911525369471 0 0.47473798274075518 -0.50000000000000022 0 0.47625825717337539 -0.47350911525369471 0 0.47473798274075518 -0.50000000000000022 0 0.48144370404419362 -0.48621772376607142 0 0.47625825717337539 -0.47350911525369471 0 0.5 -0.5 0 0.48708415889486562 -0.4713617798105913 0 0.50000000000000111 -0.44218069236402419 0 0.47473798274075518 -0.50000000000000022 0 0.48144370404419362 -0.48621772376607142 0 0.48769441736777841 -0.49999999999999972 0 0.48144370404419362 -0.48621772376607142 0 0.48769441736777841 -0.49999999999999972 0 0.48708415889486562 -0.4713617798105913 0 0.48769441736777841 -0.49999999999999972 0 0.5 -0.5 0 0.48708415889486562 -0.4713617798105913 0 0.48769441736777841 -0.49999999999999972 0 0.48708415889486562 -0.4713617798105913 0 0.48144370404419362 -0.48621772376607142 0 0.48708415889486562 -0.4713617798105913 0 0.47625825717337539 -0.47350911525369471 0 0.48708415889486562 -0.4713617798105913 0 0.48647390042196248 -0.44272355962118271 0 0.47777853160599482 -0.44701823050738909 0 0.47625825717337539 -0.47350911525369471 0 0.47777853160599482 -0.44701823050738909 0 0.45491647038434219 -0.45830987676244228 0 0.48708415889486562 -0.4713617798105913 0 0.47625825717337539 -0.47350911525369471 0 0.47777853160599482 -0.44701823050738909 0 0.47625825717337539 -0.47350911525369471 0 0.47777853160599482 -0.44701823050738909 0 0.48708415889486562 -0.4713617798105913 0 0.48647390042196248 -0.44272355962118271 0 0.48708415889486562 -0.4713617798105913 0 0.50000000000000111 -0.44218069236402419 0 0.48647390042196248 -0.44272355962118271 0 0.49391258766702351 -0.43904956784245353 0 0.50000000000000111 -0.44218069236402419 0 0.48647390042196248 -0.44272355962118271 0 0.49391258766702351 -0.43904956784245353 0 0.50000000000000178 -0.43604297512947771 0 0.49391258766702351 -0.43904956784245353 0 0.50000000000000111 -0.44218069236402419 0 0.50000000000000178 -0.43604297512947771 0 0.49391258766702351 -0.43904956784245353 0 0.50000000000000111 -0.44218069236402419 0 0.49391258766702351 -0.43904956784245353 0 0.48647390042196248 -0.44272355962118271 0 0.48631230663102237 -0.4351402834008879 0 0.49391258766702351 -0.43904956784245353 0 0.48647390042196248 -0.44272355962118271 0 0.48647390042196248 -0.44272355962118271 0 0.48631230663102237 -0.4351402834008879 0 0.47777853160599482 -0.44701823050738909 0 0.47840639939046919 -0.43607759192430201 0 0.48647390042196248 -0.44272355962118271 0 0.47777853160599482 -0.44701823050738909 0 0.48647390042196248 -0.44272355962118271 0 0.47777853160599482 -0.44701823050738909 0 0.47840639939046919 -0.43607759192430201 0 0.48647390042196248 -0.44272355962118271 0 0.47840639939046919 -0.43607759192430201 0 0.48631230663102237 -0.4351402834008879 0 0.47777853160599482 -0.44701823050738909 0 0.4715690221927562 -0.43916497512178088 0 0.47840639939046919 -0.43607759192430201 0 0.47777853160599482 -0.44701823050738909 0 0.4715690221927562 -0.43916497512178088 0 0.4630961187845421 -0.44068729207420659 0 0.47777853160599482 -0.44701823050738909 0 0.4630961187845421 -0.44068729207420659 0 0.45491647038434219 -0.45830987676244228 0 0.4630961187845421 -0.44068729207420659 0 0.45491647038434219 -0.45830987676244228 0 0.44919895533507892 -0.44201832798099722 0 0.47777853160599482 -0.44701823050738909 0 0.45491647038434219 -0.45830987676244228 0 0.45491647038434219 -0.45830987676244228 0 0.43205440916269039 -0.46960152301749708 0 0.45491647038434219 -0.45830987676244228 0 0.43766953690229032 -0.44989076846206438 0 0.43205440916269039 -0.46960152301749708 0 0.45491647038434219 -0.45830987676244228 0 0.43766953690229032 -0.44989076846206438 0 0.44919895533507892 -0.44201832798099722 0 0.43766953690229032 -0.44989076846206438 0 0.44919895533507892 -0.44201832798099722 0 0.43394206859376949 -0.4310640831691932 0 0.44919895533507892 -0.44201832798099722 0 0.45042440777306442 -0.42811145648347831 0 0.43394206859376949 -0.4310640831691932 0 0.45042440777306442 -0.42811145648347831 0 0.43394206859376949 -0.4310640831691932 0 0.45042440777306442 -0.42811145648347831 0 0.4373342400135094 -0.4216448962593069 0 0.43394206859376949 -0.4310640831691932 0 0.45042440777306442 -0.42811145648347831 0 0.44761005193023168 -0.41523337187506032 0 0.4373342400135094 -0.4216448962593069 0 0.44761005193023168 -0.41523337187506032 0 0.43356943710036089 -0.41012181221965971 0 0.4373342400135094 -0.4216448962593069 0 0.44761005193023168 -0.41523337187506032 0 0.4450352857129749 -0.40233672689887878 0 0.43356943710036089 -0.41012181221965971 0 0.44761005193023168 -0.41523337187506032 0 0.45723069093290242 -0.40447366446258343 0 0.4450352857129749 -0.40233672689887878 0 0.44761005193023168 -0.41523337187506032 0 0.46690674695235929 -0.42515882979776298 0 0.44761005193023168 -0.41523337187506032 0 0.4638999426488461 -0.41379004728473662 0 0.46690674695235929 -0.42515882979776298 0 0.44761005193023168 -0.41523337187506032 0 0.4638999426488461 -0.41379004728473662 0 0.45723069093290242 -0.40447366446258343 0 0.4638999426488461 -0.41379004728473662 0 0.47224029543514312 -0.40437218864178132 0 0.45723069093290242 -0.40447366446258343 0 0.4630961187845421 -0.44068729207420659 0 0.45042440777306442 -0.42811145648347831 0 0.46690674695235929 -0.42515882979776298 0 0.45042440777306442 -0.42811145648347831 0 0.44761005193023168 -0.41523337187506032 0 0.46690674695235929 -0.42515882979776298 0 0.45042440777306442 -0.42811145648347831 0 0.46690674695235929 -0.42515882979776298 0 0.4630961187845421 -0.44068729207420659 0 0.44919895533507892 -0.44201832798099722 0 0.45042440777306442 -0.42811145648347831 0 0.4715690221927562 -0.43916497512178088 0 0.4630961187845421 -0.44068729207420659 0 0.46690674695235929 -0.42515882979776298 0 0.46690674695235929 -0.42515882979776298 0 0.48631230663102237 -0.4351402834008879 0 0.48622144689706198 -0.43087641623143602 0 0.46690674695235929 -0.42515882979776298 0 0.47840639939046919 -0.43607759192430201 0 0.48631230663102237 -0.4351402834008879 0 0.46690674695235929 -0.42515882979776298 0 0.48345337347618039 -0.42219468675342131 0 0.46690674695235929 -0.42515882979776298 0 0.48345337347618039 -0.42219468675342131 0 0.48622144689706198 -0.43087641623143602 0 0.4715690221927562 -0.43916497512178088 0 0.46690674695235929 -0.42515882979776298 0 0.47840639939046919 -0.43607759192430201 0 0.46690674695235929 -0.42515882979776298 0 0.48631230663102237 -0.4351402834008879 0 0.49391258766702351 -0.43904956784245353 0 0.48631230663102237 -0.4351402834008879 0 0.49307954661469761 -0.43101624654474002 0 0.50000000000000178 -0.43604297512947771 0 0.49307954661469761 -0.43101624654474002 0 0.50000000000000155 -0.41923054370907897 0 0.48345337347618039 -0.42219468675342131 0 0.49307954661469761 -0.43101624654474002 0 0.50000000000000155 -0.41923054370907897 0 0.49391258766702351 -0.43904956784245353 0 0.48631230663102237 -0.4351402834008879 0 0.48631230663102237 -0.4351402834008879 0 0.48622144689706198 -0.43087641623143602 0 0.49307954661469761 -0.43101624654474002 0 0.48631230663102237 -0.4351402834008879 0 0.48622144689706198 -0.43087641623143602 0 0.48345337347618039 -0.42219468675342131 0 0.48622144689706198 -0.43087641623143602 0 0.49307954661469761 -0.43101624654474002 0 0.49391258766702351 -0.43904956784245353 0 0.50000000000000178 -0.43604297512947771 0 0.49307954661469761 -0.43101624654474002 0 0.48345337347618039 -0.42219468675342131 0 0.50000000000000155 -0.41923054370907897 0 0.48345337347618039 -0.42219468675342131 0 0.50000000000000155 -0.41923054370907897 0 0.48740936196646262 -0.4058667311476738 0 0.4638999426488461 -0.41379004728473662 0 0.48345337347618039 -0.42219468675342131 0 0.47224029543514312 -0.40437218864178132 0 0.4638999426488461 -0.41379004728473662 0 0.46690674695235929 -0.42515882979776298 0 0.48345337347618039 -0.42219468675342131 0 0.48345337347618039 -0.42219468675342131 0 0.47224029543514312 -0.40437218864178132 0 0.48740936196646262 -0.4058667311476738 0 0.47224029543514312 -0.40437218864178132 0 0.48145409561187108 -0.38987454020502299 0 0.45841384320912459 -0.38948483355280072 0 0.47224029543514312 -0.40437218864178132 0 0.48740936196646262 -0.4058667311476738 0 0.48145409561187108 -0.38987454020502299 0 0.5 -0.39301560872316749 0 0.48740936196646262 -0.4058667311476738 0 0.48145409561187108 -0.38987454020502299 0 0.50000000000000155 -0.41923054370907897 0 0.5 -0.39301560872316749 0 0.48740936196646262 -0.4058667311476738 0 0.5 -0.36680067373725611 0 0.5 -0.39301560872316749 0 0.48145409561187108 -0.38987454020502299 0 0.5 -0.36680067373725611 0 0.47171746294589889 -0.37294654367295899 0 0.48145409561187108 -0.38987454020502299 0 0.47171746294589889 -0.37294654367295899 0 0.48145409561187108 -0.38987454020502299 0 0.45841384320912459 -0.38948483355280072 0 0.47171746294589889 -0.37294654367295899 0 0.45841384320912459 -0.38948483355280072 0 0.45212310359672803 -0.37606068830839251 0 0.47224029543514312 -0.40437218864178132 0 0.45841384320912459 -0.38948483355280072 0 0.45723069093290242 -0.40447366446258343 0 0.45841384320912459 -0.38948483355280072 0 0.45723069093290242 -0.40447366446258343 0 0.4450352857129749 -0.40233672689887878 0 0.45841384320912459 -0.38948483355280072 0 0.4450352857129749 -0.40233672689887878 0 0.43577355749771252 -0.3903091738255749 0 0.4450352857129749 -0.40233672689887878 0 0.43577355749771252 -0.3903091738255749 0 0.43356943710036089 -0.41012181221965971 0 0.45841384320912459 -0.38948483355280072 0 0.45212310359672803 -0.37606068830839251 0 0.43577355749771252 -0.3903091738255749 0 0.4387523897169473 -0.36965716656180791 0 0.45212310359672803 -0.37606068830839251 0 0.43577355749771252 -0.3903091738255749 0 0.4387523897169473 -0.36965716656180791 0 0.43577355749771252 -0.3903091738255749 0 0.4136921838755433 -0.37806964234205009 0 0.43577355749771252 -0.3903091738255749 0 0.41164736946468239 -0.4055136753889711 0 0.43356943710036089 -0.41012181221965971 0 0.43577355749771252 -0.3903091738255749 0 0.41164736946468239 -0.4055136753889711 0 0.4136921838755433 -0.37806964234205009 0 0.41164736946468239 -0.4055136753889711 0 0.4136921838755433 -0.37806964234205009 0 0.41164736946468239 -0.4055136753889711 0 0.4136921838755433 -0.37806964234205009 0 0.39793271168052757 -0.38811045895137081 0 0.3997804777363112 -0.37272453228292768 0 0.4136921838755433 -0.37806964234205009 0 0.39793271168052757 -0.38811045895137081 0 0.3997804777363112 -0.37272453228292768 0 0.39793271168052757 -0.38811045895137081 0 0.38567782509003601 -0.37754334516443561 0 0.38567782509003601 -0.37754334516443561 0 0.37724742248087351 -0.39243473334181461 0 0.36856702901113952 -0.37775732541669488 0 0.39793271168052757 -0.38811045895137081 0 0.38567782509003601 -0.37754334516443561 0 0.37724742248087351 -0.39243473334181461 0 0.39793271168052757 -0.38811045895137081 0 0.39058060610506251 -0.40196083036783681 0 0.37724742248087351 -0.39243473334181461 0 0.39058060610506251 -0.40196083036783681 0 0.37724742248087351 -0.39243473334181461 0 0.37348399658679049 -0.40356263891038968 0 0.37724742248087351 -0.39243473334181461 0 0.37348399658679049 -0.40356263891038968 0 0.41164736946468239 -0.4055136753889711 0 0.39793271168052757 -0.38811045895137081 0 0.39058060610506251 -0.40196083036783681 0 0.41164736946468239 -0.4055136753889711 0 0.39103417174808858 -0.42011042392368808 0 0.40960255505382159 -0.4329577084358921 0 0.41164736946468239 -0.4055136753889711 0 0.39058060610506251 -0.40196083036783681 0 0.39103417174808858 -0.42011042392368808 0 0.39103417174808858 -0.42011042392368808 0 0.37348399658679049 -0.40356263891038968 0 0.39103417174808858 -0.42011042392368808 0 0.36751225385736458 -0.42122021768120671 0 0.37348399658679049 -0.40356263891038968 0 0.39058060610506251 -0.40196083036783681 0 0.39103417174808858 -0.42011042392368808 0 0.37348399658679049 -0.40356263891038968 0 0.39103417174808858 -0.42011042392368808 0 0.37752559140814967 -0.43416594673828263 0 0.39322769801200669 -0.43635457023483198 0 0.39103417174808858 -0.42011042392368808 0 0.37752559140814967 -0.43416594673828263 0 0.36751225385736458 -0.42122021768120671 0 0.39103417174808858 -0.42011042392368808 0 0.40858434690938711 -0.43665820893698643 0 0.39103417174808858 -0.42011042392368808 0 0.39322769801200669 -0.43635457023483198 0 0.40858434690938711 -0.43665820893698643 0 0.39103417174808858 -0.42011042392368808 0 0.40858434690938711 -0.43665820893698643 0 0.40960255505382159 -0.4329577084358921 0 0.41555285970348183 -0.43658529193282097 0 0.42112523467012042 -0.42369375754914312 0 0.42245045414466842 -0.44010689885003412 0 0.40858434690938711 -0.43665820893698643 0 0.40960255505382159 -0.4329577084358921 0 0.41555285970348183 -0.43658529193282097 0 0.40960255505382159 -0.4329577084358921 0 0.41555285970348183 -0.43658529193282097 0 0.42112523467012042 -0.42369375754914312 0 0.41164736946468239 -0.4055136753889711 0 0.40960255505382159 -0.4329577084358921 0 0.41164736946468239 -0.4055136753889711 0 0.40960255505382159 -0.4329577084358921 0 0.42112523467012042 -0.42369375754914312 0 0.41164736946468239 -0.4055136753889711 0 0.42112523467012042 -0.42369375754914312 0 0.43356943710036089 -0.41012181221965971 0 0.42112523467012042 -0.42369375754914312 0 0.43356943710036089 -0.41012181221965971 0 0.4373342400135094 -0.4216448962593069 0 0.42112523467012042 -0.42369375754914312 0 0.43394206859376949 -0.4310640831691932 0 0.42245045414466842 -0.44010689885003412 0 0.42112523467012042 -0.42369375754914312 0 0.4373342400135094 -0.4216448962593069 0 0.43394206859376949 -0.4310640831691932 0 0.43766953690229032 -0.44989076846206438 0 0.43394206859376949 -0.4310640831691932 0 0.42245045414466842 -0.44010689885003412 0 0.43766953690229032 -0.44989076846206438 0 0.42383627980348199 -0.45259112358297071 0 0.42245045414466842 -0.44010689885003412 0 0.42383627980348199 -0.45259112358297071 0 0.41142419380641321 -0.46093662474821828 0 0.43205440916269039 -0.46960152301749708 0 0.43766953690229032 -0.44989076846206438 0 0.42383627980348199 -0.45259112358297071 0 0.43205440916269039 -0.46960152301749708 0 0.42383627980348199 -0.45259112358297071 0 0.41142419380641321 -0.46093662474821828 0 0.41205675324178781 -0.44804217009661429 0 0.41142419380641321 -0.46093662474821828 0 0.41205675324178781 -0.44804217009661429 0 0.39793545250585949 -0.45053462253599319 0 0.42383627980348199 -0.45259112358297071 0 0.42245045414466842 -0.44010689885003412 0 0.41205675324178781 -0.44804217009661429 0 0.41555285970348183 -0.43658529193282097 0 0.42245045414466842 -0.44010689885003412 0 0.41249753394321947 -0.44109372980131162 0 0.42245045414466842 -0.44010689885003412 0 0.41205675324178781 -0.44804217009661429 0 0.41249753394321947 -0.44109372980131162 0 0.41205675324178781 -0.44804217009661429 0 0.41249753394321947 -0.44109372980131162 0 0.40384325571677238 -0.44407607919010211 0 0.40858434690938711 -0.43665820893698643 0 0.41249753394321947 -0.44109372980131162 0 0.40384325571677238 -0.44407607919010211 0 0.40858434690938711 -0.43665820893698643 0 0.41555285970348183 -0.43658529193282097 0 0.41249753394321947 -0.44109372980131162 0 0.39322769801200669 -0.43635457023483198 0 0.40858434690938711 -0.43665820893698643 0 0.40384325571677238 -0.44407607919010211 0 0.41205675324178781 -0.44804217009661429 0 0.40384325571677238 -0.44407607919010211 0 0.39793545250585949 -0.45053462253599319 0 0.39322769801200669 -0.43635457023483198 0 0.40384325571677238 -0.44407607919010211 0 0.39793545250585949 -0.45053462253599319 0 0.37752559140814967 -0.43416594673828263 0 0.39322769801200669 -0.43635457023483198 0 0.37742445673235248 -0.45288292072553349 0 0.39322769801200669 -0.43635457023483198 0 0.39793545250585949 -0.45053462253599319 0 0.37742445673235248 -0.45288292072553349 0 0.37742445673235248 -0.45288292072553349 0 0.39330840233669601 -0.46688804499904202 0 0.39793545250585949 -0.45053462253599319 0 0.37742445673235248 -0.45288292072553349 0 0.39330840233669601 -0.46688804499904202 0 0.37742445673235248 -0.45288292072553349 0 0.39330840233669601 -0.46688804499904202 0 0.37548563579558941 -0.47691317827672558 0 0.41142419380641321 -0.46093662474821828 0 0.39793545250585949 -0.45053462253599319 0 0.39330840233669601 -0.46688804499904202 0 0.41142419380641321 -0.46093662474821828 0 0.39330840233669601 -0.46688804499904202 0 0.40919234794103843 -0.48089316927255138 0 0.39330840233669601 -0.46688804499904202 0 0.38984966203077559 -0.49044658463627572 0 0.40919234794103843 -0.48089316927255138 0 0.39330840233669601 -0.46688804499904202 0 0.40919234794103843 -0.48089316927255138 0 0.39330840233669601 -0.46688804499904202 0 0.37548563579558941 -0.47691317827672558 0 0.38984966203077559 -0.49044658463627572 0 0.38984966203077559 -0.49044658463627572 0 0.3965647277755735 -0.5 0 0.37050697612051292 -0.49999999999999972 0 0.37548563579558941 -0.47691317827672558 0 0.38984966203077559 -0.49044658463627572 0 0.37050697612051292 -0.49999999999999972 0 0.38984966203077559 -0.49044658463627572 0 0.37050697612051292 -0.49999999999999972 0 0.38984966203077559 -0.49044658463627572 0 0.3965647277755735 -0.5 0 0.40919234794103843 -0.48089316927255138 0 0.38984966203077559 -0.49044658463627572 0 0.40919234794103843 -0.48089316927255138 0 0.40919234794103843 -0.48089316927255138 0 0.42739538879675848 -0.48330639952373072 0 0.42830531416260431 -0.49774537173131422 0 0.40919234794103843 -0.48089316927255138 0 0.42262247943063408 -0.5 0 0.42830531416260431 -0.49774537173131422 0 0.3965647277755735 -0.5 0 0.40919234794103843 -0.48089316927255138 0 0.42262247943063408 -0.5 0 0.40919234794103843 -0.48089316927255138 0 0.42830531416260431 -0.49774537173131422 0 0.41142419380641321 -0.46093662474821828 0 0.40919234794103843 -0.48089316927255138 0 0.43205440916269039 -0.46960152301749708 0 0.40919234794103843 -0.48089316927255138 0 0.43205440916269039 -0.46960152301749708 0 0.40919234794103843 -0.48089316927255138 0 0.42739538879675848 -0.48330639952373072 0 0.43205440916269039 -0.46960152301749708 0 0.44002948392070079 -0.4849855340735596 0 0.42739538879675848 -0.48330639952373072 0 0.43205440916269039 -0.46960152301749708 0 0.44868023108569471 -0.5 0 0.42262247943063408 -0.5 0 0.42830531416260431 -0.49774537173131422 0 0.44002948392070079 -0.4849855340735596 0 0.42739538879675848 -0.48330639952373072 0 0.42830531416260431 -0.49774537173131422 0 0.31545845021493152 -0.5 0 0.32688125992518052 -0.48106880924120099 0 0.30450836500294248 -0.48277390769489742 0 0.32688125992518052 -0.48106880924120099 0 0.31543639649992711 -0.46482363722139541 0 0.30450836500294248 -0.48277390769489742 0 0.32688125992518052 -0.48106880924120099 0 0.34295705699572537 -0.47928226713024052 0 0.33832036111001712 -0.45967070670440918 0 0.32688125992518052 -0.48106880924120099 0 0.34295705699572537 -0.47928226713024052 0 0.34298271316772211 -0.5 0 0.31545845021493152 -0.5 0 0.32688125992518052 -0.48106880924120099 0 0.34298271316772211 -0.5 0 0.34295705699572537 -0.47928226713024052 0 0.34298271316772211 -0.5 0 0.35760397067922661 -0.48322932930029489 0 0.34298271316772211 -0.5 0 0.37050697612051292 -0.49999999999999972 0 0.35760397067922661 -0.48322932930029489 0 0.37548563579558941 -0.47691317827672558 0 0.37050697612051292 -0.49999999999999972 0 0.35760397067922661 -0.48322932930029489 0 0.37548563579558941 -0.47691317827672558 0 0.35760397067922661 -0.48322932930029489 0 0.36451589841876192 -0.46527151090627528 0 0.35760397067922661 -0.48322932930029489 0 0.35155398635648849 -0.46840650453411259 0 0.36451589841876192 -0.46527151090627528 0 0.34295705699572537 -0.47928226713024052 0 0.35155398635648849 -0.46840650453411259 0 0.33832036111001712 -0.45967070670440918 0 0.34295705699572537 -0.47928226713024052 0 0.35760397067922661 -0.48322932930029489 0 0.35155398635648849 -0.46840650453411259 0 0.35155398635648849 -0.46840650453411259 0 0.35654724874221322 -0.453642150493068 0 0.33832036111001712 -0.45967070670440918 0 0.35155398635648849 -0.46840650453411259 0 0.35654724874221322 -0.453642150493068 0 0.36451589841876192 -0.46527151090627528 0 0.35155398635648849 -0.46840650453411259 0 0.35654724874221322 -0.453642150493068 0 0.37742445673235248 -0.45288292072553349 0 0.35654724874221322 -0.453642150493068 0 0.36451589841876192 -0.46527151090627528 0 0.37742445673235248 -0.45288292072553349 0 0.37548563579558941 -0.47691317827672558 0 0.36451589841876192 -0.46527151090627528 0 0.37752559140814967 -0.43416594673828263 0 0.37742445673235248 -0.45288292072553349 0 0.36154051112799401 -0.43887779645204228 0 0.37742445673235248 -0.45288292072553349 0 0.35654724874221322 -0.453642150493068 0 0.36154051112799401 -0.43887779645204228 0 0.37742445673235248 -0.45288292072553349 0 0.36154051112799401 -0.43887779645204228 0 0.35654724874221322 -0.453642150493068 0 0.35037137929209511 -0.44345932876458632 0 0.33832036111001712 -0.45967070670440918 0 0.35654724874221322 -0.453642150493068 0 0.36154051112799401 -0.43887779645204228 0 0.35037137929209511 -0.44345932876458632 0 0.35654724874221322 -0.453642150493068 0 0.36154051112799401 -0.43887779645204228 0 0.34033620774926487 -0.44131861552865292 0 0.3219929940712028 -0.4435388682763281 0 0.33340131677176471 -0.43104233739091191 0 0.34033620774926487 -0.44131861552865292 0 0.33832036111001712 -0.45967070670440918 0 0.3219929940712028 -0.4435388682763281 0 0.35037137929209511 -0.44345932876458632 0 0.34033620774926487 -0.44131861552865292 0 0.33832036111001712 -0.45967070670440918 0 0.31543639649992711 -0.46482363722139541 0 0.3219929940712028 -0.4435388682763281 0 0.30360302969266068 -0.45414418916717331 0 0.32688125992518052 -0.48106880924120099 0 0.33832036111001712 -0.45967070670440918 0 0.31543639649992711 -0.46482363722139541 0 0.33832036111001712 -0.45967070670440918 0 0.31543639649992711 -0.46482363722139541 0 0.3219929940712028 -0.4435388682763281 0 0.3219929940712028 -0.4435388682763281 0 0.3128785701089819 -0.42937965992551341 0 0.30700795120534191 -0.44026272176589809 0 0.32332918298495489 -0.43025319242712118 0 0.32284053028107862 -0.42029902018605059 0 0.33340131677176471 -0.43104233739091191 0 0.3219929940712028 -0.4435388682763281 0 0.32332918298495489 -0.43025319242712118 0 0.33340131677176471 -0.43104233739091191 0 0.3219929940712028 -0.4435388682763281 0 0.32332918298495489 -0.43025319242712118 0 0.3128785701089819 -0.42937965992551341 0 0.32332918298495489 -0.43025319242712118 0 0.3128785701089819 -0.42937965992551341 0 0.32284053028107862 -0.42029902018605059 0 0.3128785701089819 -0.42937965992551341 0 0.32284053028107862 -0.42029902018605059 0 0.30831395555912078 -0.41898818295646711 0 0.31584242783196548 -0.41043057797421828 0 0.32284053028107862 -0.42029902018605059 0 0.30831395555912078 -0.41898818295646711 0 0.32888041299389409 -0.41008087504805207 0 0.32078798796335029 -0.40324265356079941 0 0.31584242783196548 -0.41043057797421828 0 0.32888041299389409 -0.41008087504805207 0 0.32078798796335029 -0.40324265356079941 0 0.31584242783196548 -0.41043057797421828 0 0.32284053028107862 -0.42029902018605059 0 0.32888041299389409 -0.41008087504805207 0 0.32284053028107862 -0.42029902018605059 0 0.32888041299389409 -0.41008087504805207 0 0.34123615718526501 -0.42097512873049431 0 0.32888041299389409 -0.41008087504805207 0 0.34516502433622631 -0.41030300931629649 0 0.32078798796335029 -0.40324265356079941 0 0.32888041299389409 -0.41008087504805207 0 0.34123615718526501 -0.42097512873049431 0 0.34516502433622631 -0.41030300931629649 0 0.32888041299389409 -0.41008087504805207 0 0.34123615718526501 -0.42097512873049431 0 0.34033620774926487 -0.44131861552865292 0 0.34123615718526501 -0.42097512873049431 0 0.33340131677176471 -0.43104233739091191 0 0.32284053028107862 -0.42029902018605059 0 0.34123615718526501 -0.42097512873049431 0 0.33340131677176471 -0.43104233739091191 0 0.35037137929209511 -0.44345932876458632 0 0.34033620774926487 -0.44131861552865292 0 0.34123615718526501 -0.42097512873049431 0 0.36154051112799401 -0.43887779645204228 0 0.35037137929209511 -0.44345932876458632 0 0.34123615718526501 -0.42097512873049431 0 0.36154051112799401 -0.43887779645204228 0 0.34123615718526501 -0.42097512873049431 0 0.35449751650550448 -0.41967699189631053 0 0.36154051112799401 -0.43887779645204228 0 0.34123615718526501 -0.42097512873049431 0 0.36154051112799401 -0.43887779645204228 0 0.36410742776193511 -0.42296069758395122 0 0.36751225385736458 -0.42122021768120671 0 0.37752559140814967 -0.43416594673828263 0 0.36154051112799401 -0.43887779645204228 0 0.36751225385736458 -0.42122021768120671 0 0.36154051112799401 -0.43887779645204228 0 0.36410742776193511 -0.42296069758395122 0 0.35449751650550448 -0.41967699189631053 0 0.36154051112799401 -0.43887779645204228 0 0.36751225385736458 -0.42122021768120671 0 0.36410742776193511 -0.42296069758395122 0 0.358845439518861 -0.41359442024627158 0 0.36076409965592221 -0.40573887738089709 0 0.36410742776193511 -0.42296069758395122 0 0.36665629365385449 -0.39712490485756963 0 0.36751225385736458 -0.42122021768120671 0 0.37348399658679049 -0.40356263891038968 0 0.36751225385736458 -0.42122021768120671 0 0.36665629365385449 -0.39712490485756963 0 0.37348399658679049 -0.40356263891038968 0 0.36410742776193511 -0.42296069758395122 0 0.36751225385736458 -0.42122021768120671 0 0.36665629365385449 -0.39712490485756963 0 0.36410742776193511 -0.42296069758395122 0 0.36076409965592221 -0.40573887738089709 0 0.36665629365385449 -0.39712490485756963 0 0.358845439518861 -0.41359442024627158 0 0.35519016001948828 -0.40857969929773591 0 0.35449751650550448 -0.41967699189631053 0 0.358845439518861 -0.41359442024627158 0 0.35519016001948828 -0.40857969929773591 0 0.36076409965592221 -0.40573887738089709 0 0.35519016001948828 -0.40857969929773591 0 0.35449751650550448 -0.41967699189631053 0 0.34516502433622631 -0.41030300931629649 0 0.36410742776193511 -0.42296069758395122 0 0.358845439518861 -0.41359442024627158 0 0.35449751650550448 -0.41967699189631053 0 0.34123615718526501 -0.42097512873049431 0 0.35449751650550448 -0.41967699189631053 0 0.34516502433622631 -0.41030300931629649 0 0.35519016001948828 -0.40857969929773591 0 0.35507291748902092 -0.39881187375323779 0 0.34275123072489522 -0.39726540487560369 0 0.34997796649555779 -0.39094018811539383 0 0.35507291748902092 -0.39881187375323779 0 0.36665629365385449 -0.39712490485756963 0 0.35519016001948828 -0.40857969929773591 0 0.34516502433622631 -0.41030300931629649 0 0.34275123072489522 -0.39726540487560369 0 0.34997796649555779 -0.39094018811539383 0 0.35507291748902092 -0.39881187375323779 0 0.34275123072489522 -0.39726540487560369 0 0.34997796649555779 -0.39094018811539383 0 0.34076602901951991 -0.38574326114311308 0 0.34275123072489522 -0.39726540487560369 0 0.35519016001948828 -0.40857969929773591 0 0.35507291748902092 -0.39881187375323779 0 0.36076409965592221 -0.40573887738089709 0 0.35507291748902092 -0.39881187375323779 0 0.36076409965592221 -0.40573887738089709 0 0.36665629365385449 -0.39712490485756963 0 0.37724742248087351 -0.39243473334181461 0 0.36665629365385449 -0.39712490485756963 0 0.37348399658679049 -0.40356263891038968 0 0.36665629365385449 -0.39712490485756963 0 0.37348399658679049 -0.40356263891038968 0 0.37724742248087351 -0.39243473334181461 0 0.36665629365385449 -0.39712490485756963 0 0.36856702901113952 -0.37775732541669488 0 0.36665629365385449 -0.39712490485756963 0 0.36856702901113952 -0.37775732541669488 0 0.3576186230225411 -0.37792931789251211 0 0.36665629365385449 -0.39712490485756963 0 0.36856702901113952 -0.37775732541669488 0 0.34997796649555779 -0.39094018811539383 0 0.36665629365385449 -0.39712490485756963 0 0.34499223541981161 -0.37669820399118192 0 0.36665629365385449 -0.39712490485756963 0 0.34499223541981161 -0.37669820399118192 0 0.36665629365385449 -0.39712490485756963 0 0.3576186230225411 -0.37792931789251211 0 0.34499223541981161 -0.37669820399118192 0 0.34997796649555779 -0.39094018811539383 0 0.34499223541981161 -0.37669820399118192 0 0.34076602901951991 -0.38574326114311308 0 0.3576186230225411 -0.37792931789251211 0 0.34499223541981161 -0.37669820399118192 0 0.34907174700958782 -0.37349619324734962 0 0.34499223541981161 -0.37669820399118192 0 0.33544736964449401 -0.37665145006727141 0 0.34907174700958782 -0.37349619324734962 0 0.34499223541981161 -0.37669820399118192 0 0.33544736964449401 -0.37665145006727141 0 0.34076602901951991 -0.38574326114311308 0 0.33544736964449401 -0.37665145006727141 0 0.32678329403356032 -0.37966041434875208 0 0.32808144300645509 -0.37058104865045682 0 0.33544736964449401 -0.37665145006727141 0 0.33066134281284087 -0.3871610586661145 0 0.32678329403356032 -0.37966041434875208 0 0.33544736964449401 -0.37665145006727141 0 0.33066134281284087 -0.3871610586661145 0 0.34076602901951991 -0.38574326114311308 0 0.33066134281284087 -0.3871610586661145 0 0.34076602901951991 -0.38574326114311308 0 0.34275123072489522 -0.39726540487560369 0 0.33066134281284087 -0.3871610586661145 0 0.34275123072489522 -0.39726540487560369 0 0.32078798796335029 -0.40324265356079941 0 0.34516502433622631 -0.41030300931629649 0 0.34275123072489522 -0.39726540487560369 0 0.32078798796335029 -0.40324265356079941 0 0.32078798796335029 -0.40324265356079941 0 0.31464251175021052 -0.39775388451687682 0 0.3176372040413693 -0.38151606859671983 0 0.33066134281284087 -0.3871610586661145 0 0.32078798796335029 -0.40324265356079941 0 0.3176372040413693 -0.38151606859671983 0 0.31584242783196548 -0.41043057797421828 0 0.32078798796335029 -0.40324265356079941 0 0.31464251175021052 -0.39775388451687682 0 0.32078798796335029 -0.40324265356079941 0 0.31464251175021052 -0.39775388451687682 0 0.33066134281284087 -0.3871610586661145 0 0.3176372040413693 -0.38151606859671983 0 0.32678329403356032 -0.37966041434875208 0 0.3176372040413693 -0.38151606859671983 0 0.32678329403356032 -0.37966041434875208 0 0.32808144300645509 -0.37058104865045682 0 0.31464251175021052 -0.39775388451687682 0 0.3176372040413693 -0.38151606859671983 0 0.30058695351265469 -0.38520030684873829 0 0.30058695351265469 -0.38520030684873829 0 0.3102400316611974 -0.36832748908401242 0 0.30058695351265469 -0.38520030684873829 0 0.29590687686493788 -0.38100759044194188 0 0.3102400316611974 -0.36832748908401242 0 0.3176372040413693 -0.38151606859671983 0 0.30058695351265469 -0.38520030684873829 0 0.3102400316611974 -0.36832748908401242 0 0.30058695351265469 -0.38520030684873829 0 0.29590687686493788 -0.38100759044194188 0 0.31464251175021052 -0.39775388451687682 0 0.30058695351265469 -0.38520030684873829 0 0.30379865544822632 -0.40571154884943461 0 0.30058695351265469 -0.38520030684873829 0 0.30379865544822632 -0.40571154884943461 0 0.2906875040585134 -0.40250376218604422 0 0.31464251175021052 -0.39775388451687682 0 0.30058695351265469 -0.38520030684873829 0 0.31584242783196548 -0.41043057797421828 0 0.31464251175021052 -0.39775388451687682 0 0.30379865544822632 -0.40571154884943461 0 0.30058695351265469 -0.38520030684873829 0 0.2906875040585134 -0.40250376218604422 0 0.2906875040585134 -0.40250376218604422 0 0.29590687686493788 -0.38100759044194188 0 0.27532293668358038 -0.38815357418349178 0 0.30058695351265469 -0.38520030684873829 0 0.2906875040585134 -0.40250376218604422 0 0.29590687686493788 -0.38100759044194188 0 0.29590687686493788 -0.38100759044194188 0 0.27532293668358038 -0.38815357418349178 0 0.28171566415704741 -0.36828485569923969 0 0.2590976936363843 -0.39674669773623122 0 0.25573174570141222 -0.37238572768261952 0 0.24086606561207591 -0.38754824512353092 0 0.27532293668358038 -0.38815357418349178 0 0.2590976936363843 -0.39674669773623122 0 0.25573174570141222 -0.37238572768261952 0 0.2906875040585134 -0.40250376218604422 0 0.27532293668358038 -0.38815357418349178 0 0.26677435863990501 -0.41203274912420751 0 0.27532293668358038 -0.38815357418349178 0 0.2590976936363843 -0.39674669773623122 0 0.26677435863990501 -0.41203274912420751 0 0.2906875040585134 -0.40250376218604422 0 0.28081316966382658 -0.41976331838415321 0 0.26677435863990501 -0.41203274912420751 0 0.28081316966382658 -0.41976331838415321 0 0.26677435863990501 -0.41203274912420751 0 0.27170375112556788 -0.42659758496729377 0 0.26677435863990501 -0.41203274912420751 0 0.26133467011006289 -0.42557829313150192 0 0.27170375112556788 -0.42659758496729377 0 0.26677435863990501 -0.41203274912420751 0 0.26133467011006289 -0.42557829313150192 0 0.2439753512001355 -0.42175142990410092 0 0.2590976936363843 -0.39674669773623122 0 0.26677435863990501 -0.41203274912420751 0 0.2439753512001355 -0.42175142990410092 0 0.26133467011006289 -0.42557829313150192 0 0.27170375112556788 -0.42659758496729377 0 0.26288521947464372 -0.44193140853040558 0 0.26133467011006289 -0.42557829313150192 0 0.26288521947464372 -0.44193140853040558 0 0.2439753512001355 -0.42175142990410092 0 0.26288521947464372 -0.44193140853040558 0 0.2439753512001355 -0.42175142990410092 0 0.26288521947464372 -0.44193140853040558 0 0.24582850601093659 -0.43770451171011848 0 0.2439753512001355 -0.42175142990410092 0 0.28081316966382658 -0.41976331838415321 0 0.27170375112556788 -0.42659758496729377 0 0.28865594584414578 -0.43300370307406377 0 0.28865594584414578 -0.43300370307406377 0 0.26288521947464372 -0.44193140853040558 0 0.27170375112556788 -0.42659758496729377 0 0.28865594584414578 -0.43300370307406377 0 0.26288521947464372 -0.44193140853040558 0 0.28865594584414578 -0.43300370307406377 0 0.30137268052705118 -0.42977017036791509 0 0.29509682812219479 -0.44285243593854012 0 0.28865594584414578 -0.43300370307406377 0 0.29562083581577531 -0.41815504904457967 0 0.30137268052705118 -0.42977017036791509 0 0.28081316966382658 -0.41976331838415321 0 0.28865594584414578 -0.43300370307406377 0 0.29562083581577531 -0.41815504904457967 0 0.2906875040585134 -0.40250376218604422 0 0.28081316966382658 -0.41976331838415321 0 0.30379865544822632 -0.40571154884943461 0 0.2906875040585134 -0.40250376218604422 0 0.29562083581577531 -0.41815504904457967 0 0.2906875040585134 -0.40250376218604422 0 0.28081316966382658 -0.41976331838415321 0 0.29562083581577531 -0.41815504904457967 0 0.30379865544822632 -0.40571154884943461 0 0.29562083581577531 -0.41815504904457967 0 0.30831395555912078 -0.41898818295646711 0 0.31584242783196548 -0.41043057797421828 0 0.30379865544822632 -0.40571154884943461 0 0.30831395555912078 -0.41898818295646711 0 0.3128785701089819 -0.42937965992551341 0 0.30831395555912078 -0.41898818295646711 0 0.30137268052705118 -0.42977017036791509 0 0.3128785701089819 -0.42937965992551341 0 0.30137268052705118 -0.42977017036791509 0 0.30700795120534191 -0.44026272176589809 0 0.29562083581577531 -0.41815504904457967 0 0.30831395555912078 -0.41898818295646711 0 0.30137268052705118 -0.42977017036791509 0 0.3219929940712028 -0.4435388682763281 0 0.30700795120534191 -0.44026272176589809 0 0.30360302969266068 -0.45414418916717331 0 0.30700795120534191 -0.44026272176589809 0 0.30360302969266068 -0.45414418916717331 0 0.29509682812219479 -0.44285243593854012 0 0.30137268052705118 -0.42977017036791509 0 0.30700795120534191 -0.44026272176589809 0 0.29509682812219479 -0.44285243593854012 0 0.31543639649992711 -0.46482363722139541 0 0.30360302969266068 -0.45414418916717331 0 0.29277233374288592 -0.46999435996118327 0 0.30360302969266068 -0.45414418916717331 0 0.28932378437625589 -0.45281710269509512 0 0.29277233374288592 -0.46999435996118327 0 0.28932378437625589 -0.45281710269509512 0 0.27635413339366699 -0.45381616192733809 0 0.29277233374288592 -0.46999435996118327 0 0.28932378437625589 -0.45281710269509512 0 0.29509682812219479 -0.44285243593854012 0 0.27956166163695317 -0.44338928951792028 0 0.28932378437625589 -0.45281710269509512 0 0.27956166163695317 -0.44338928951792028 0 0.27635413339366699 -0.45381616192733809 0 0.30360302969266068 -0.45414418916717331 0 0.28932378437625589 -0.45281710269509512 0 0.29509682812219479 -0.44285243593854012 0 0.28865594584414578 -0.43300370307406377 0 0.29509682812219479 -0.44285243593854012 0 0.27956166163695317 -0.44338928951792028 0 0.27956166163695317 -0.44338928951792028 0 0.26772471611511311 -0.44709595739711699 0 0.26288521947464372 -0.44193140853040558 0 0.28865594584414578 -0.43300370307406377 0 0.27956166163695317 -0.44338928951792028 0 0.26288521947464372 -0.44193140853040558 0 0.27956166163695317 -0.44338928951792028 0 0.26772471611511311 -0.44709595739711699 0 0.27635413339366699 -0.45381616192733809 0 0.26772471611511311 -0.44709595739711699 0 0.26569590684863958 -0.45439390851974132 0 0.27635413339366699 -0.45381616192733809 0 0.25911985539779281 -0.45013127018378618 0 0.25667734910858281 -0.45608485647008279 0 0.24209486279291159 -0.44913377365296359 0 0.26288521947464372 -0.44193140853040558 0 0.24582850601093659 -0.43770451171011848 0 0.24209486279291159 -0.44913377365296359 0 0.26288521947464372 -0.44193140853040558 0 0.24209486279291159 -0.44913377365296359 0 0.26288521947464372 -0.44193140853040558 0 0.25911985539779281 -0.45013127018378618 0 0.24209486279291159 -0.44913377365296359 0 0.26772471611511311 -0.44709595739711699 0 0.26288521947464372 -0.44193140853040558 0 0.26772471611511311 -0.44709595739711699 0 0.26288521947464372 -0.44193140853040558 0 0.25911985539779281 -0.45013127018378618 0 0.26772471611511311 -0.44709595739711699 0 0.25911985539779281 -0.45013127018378618 0 0.26569590684863958 -0.45439390851974132 0 0.26894972453231741 -0.46544161956596392 0 0.24512711532174869 -0.46088887917074461 0 0.25667734910858281 -0.45608485647008279 0 0.26894972453231741 -0.46544161956596392 0 0.24512711532174869 -0.46088887917074461 0 0.26894972453231741 -0.46544161956596392 0 0.25313498888367358 -0.47183159477686332 0 0.24512711532174869 -0.46088887917074461 0 0.25667734910858281 -0.45608485647008279 0 0.26894972453231741 -0.46544161956596392 0 0.26569590684863958 -0.45439390851974132 0 0.25911985539779281 -0.45013127018378618 0 0.25667734910858281 -0.45608485647008279 0 0.26569590684863958 -0.45439390851974132 0 0.26894972453231741 -0.46544161956596392 0 0.27635413339366699 -0.45381616192733809 0 0.29277233374288592 -0.46999435996118327 0 0.26894972453231741 -0.46544161956596392 0 0.29277233374288592 -0.46999435996118327 0 0.26894972453231741 -0.46544161956596392 0 0.26569590684863958 -0.45439390851974132 0 0.27635413339366699 -0.45381616192733809 0 0.26894972453231741 -0.46544161956596392 0 0.27960145450206297 -0.48270731202589062 0 0.26177178575703358 -0.48061463335438209 0 0.26894972453231741 -0.46544161956596392 0 0.27960145450206297 -0.48270731202589062 0 0.29277233374288592 -0.46999435996118327 0 0.26894972453231741 -0.46544161956596392 0 0.26177178575703358 -0.48061463335438209 0 0.25313498888367358 -0.47183159477686332 0 0.26177178575703358 -0.48061463335438209 0 0.25313498888367358 -0.47183159477686332 0 0.24676283655776399 -0.48309264040319277 0 0.26177178575703358 -0.48061463335438209 0 0.26040992430935012 -0.5 0 0.24676283655776399 -0.48309264040319277 0 0.27960145450206297 -0.48270731202589062 0 0.26040992430935012 -0.5 0 0.28793418726214071 -0.5 0 0.27960145450206297 -0.48270731202589062 0 0.26177178575703358 -0.48061463335438209 0 0.26040992430935012 -0.5 0 0.27960145450206297 -0.48270731202589062 0 0.28793418726214071 -0.5 0 0.30450836500294248 -0.48277390769489742 0 0.27960145450206297 -0.48270731202589062 0 0.29277233374288592 -0.46999435996118327 0 0.30450836500294248 -0.48277390769489742 0 0.31543639649992711 -0.46482363722139541 0 0.29277233374288592 -0.46999435996118327 0 0.30450836500294248 -0.48277390769489742 0 0.31545845021493152 -0.5 0 0.28793418726214071 -0.5 0 0.30450836500294248 -0.48277390769489742 0 0.33555525305948752 -0.28725229477371478 0 0.32904903462212282 -0.27804280579642709 0 0.34554652161988308 -0.27869626035274681 0 0.33555525305948752 -0.28725229477371478 0 0.32359110571866412 -0.29722871998805611 0 0.35167477808268421 -0.29590282673908758 0 0.32359110571866412 -0.29722871998805611 0 0.35167477808268421 -0.29590282673908758 0 0.33555525305948752 -0.28725229477371478 0 0.32359110571866412 -0.29722871998805611 0 0.32555480174016838 -0.2867180253100774 0 0.33555525305948752 -0.28725229477371478 0 0.32555480174016838 -0.2867180253100774 0 0.32904903462212282 -0.27804280579642709 0 0.32359110571866412 -0.29722871998805611 0 0.3252411831188497 -0.31217155971442051 0 0.35167477808268421 -0.29590282673908758 0 0.3252411831188497 -0.31217155971442051 0 0.35167477808268421 -0.29590282673908758 0 0.33702984751047782 -0.32150100805695248 0 0.32359110571866412 -0.29722871998805611 0 0.3252411831188497 -0.31217155971442051 0 0.31021015392181922 -0.31188982261633907 0 0.32555480174016838 -0.2867180253100774 0 0.30024488977903302 -0.29344129737411362 0 0.32359110571866412 -0.29722871998805611 0 0.32555480174016838 -0.2867180253100774 0 0.30024488977903302 -0.29344129737411362 0 0.32078869540727112 -0.28132008695497451 0 0.32555480174016838 -0.2867180253100774 0 0.32904903462212282 -0.27804280579642709 0 0.32078869540727112 -0.28132008695497451 0 0.32555480174016838 -0.2867180253100774 0 0.31147682722738779 -0.28472267542417928 0 0.32078869540727112 -0.28132008695497451 0 0.31707411803940561 -0.27579684128921411 0 0.31147682722738779 -0.28472267542417928 0 0.31707411803940561 -0.27579684128921411 0 0.31147682722738779 -0.28472267542417928 0 0.3096030141426202 -0.27789135799909881 0 0.31707411803940561 -0.27579684128921411 0 0.31559295578461161 -0.26610482310508898 0 0.32442900574481842 -0.26955512058754061 0 0.31707411803940561 -0.27579684128921411 0 0.31559295578461161 -0.26610482310508898 0 0.30832577637751968 -0.2711480086401224 0 0.32078869540727112 -0.28132008695497451 0 0.31707411803940561 -0.27579684128921411 0 0.32904903462212282 -0.27804280579642709 0 0.31707411803940561 -0.27579684128921411 0 0.32442900574481842 -0.26955512058754061 0 0.32904903462212282 -0.27804280579642709 0 0.31171633291391748 -0.24863279325672349 0 0.31466740911354052 -0.25732267375503692 0 0.3217750035898081 -0.25007614838849962 0 0.31466740911354052 -0.25732267375503692 0 0.32374893859287351 -0.26008667796789442 0 0.3217750035898081 -0.25007614838849962 0 0.31559295578461161 -0.26610482310508898 0 0.31466740911354052 -0.25732267375503692 0 0.32374893859287351 -0.26008667796789442 0 0.31559295578461161 -0.26610482310508898 0 0.32442900574481842 -0.26955512058754061 0 0.32374893859287351 -0.26008667796789442 0 0.32374893859287351 -0.26008667796789442 0 0.3217750035898081 -0.25007614838849962 0 0.33126718172301212 -0.25366948099773839 0 0.32374893859287351 -0.26008667796789442 0 0.33126718172301212 -0.25366948099773839 0 0.33627911296028162 -0.26530257677361607 0 0.32442900574481842 -0.26955512058754061 0 0.32374893859287351 -0.26008667796789442 0 0.33627911296028162 -0.26530257677361607 0 0.33126718172301212 -0.25366948099773839 0 0.33627911296028162 -0.26530257677361607 0 0.34419459638231392 -0.25366008266887002 0 0.33627911296028162 -0.26530257677361607 0 0.32904903462212282 -0.27804280579642709 0 0.34554652161988308 -0.27869626035274681 0 0.32442900574481842 -0.26955512058754061 0 0.33627911296028162 -0.26530257677361607 0 0.32904903462212282 -0.27804280579642709 0 0.33627911296028162 -0.26530257677361607 0 0.34554652161988308 -0.27869626035274681 0 0.35335848852303259 -0.26373477336191631 0 0.34554652161988308 -0.27869626035274681 0 0.35335848852303259 -0.26373477336191631 0 0.36119515185828688 -0.27926196573123951 0 0.33627911296028162 -0.26530257677361607 0 0.35335848852303259 -0.26373477336191631 0 0.34419459638231392 -0.25366008266887002 0 0.35861518981449497 -0.24532340809667191 0 0.35335848852303259 -0.26373477336191631 0 0.34419459638231392 -0.25366008266887002 0 0.35861518981449497 -0.24532340809667191 0 0.35335848852303259 -0.26373477336191631 0 0.37071552563388932 -0.26262110472339117 0 0.36127359061118253 -0.24143513377878889 0 0.37071552563388932 -0.26262110472339117 0 0.35861518981449497 -0.24532340809667191 0 0.37071552563388932 -0.26262110472339117 0 0.37071552563388932 -0.26262110472339117 0 0.37302989084798022 -0.26672386484123639 0 0.35335848852303259 -0.26373477336191631 0 0.37071552563388932 -0.26262110472339117 0 0.36119515185828688 -0.27926196573123951 0 0.37071552563388932 -0.26262110472339117 0 0.36119515185828688 -0.27926196573123951 0 0.37071552563388932 -0.26262110472339117 0 0.36119515185828688 -0.27926196573123951 0 0.37302989084798022 -0.26672386484123639 0 0.36119515185828688 -0.27926196573123951 0 0.37302989084798022 -0.26672386484123639 0 0.37183639427018822 -0.27721741139498479 0 0.36119515185828688 -0.27926196573123951 0 0.37183639427018822 -0.27721741139498479 0 0.36864604209967411 -0.28580195190526653 0 0.37692367512760472 -0.29471076959990938 0 0.36864604209967411 -0.28580195190526653 0 0.35167477808268421 -0.29590282673908758 0 0.38160021115960668 -0.28191678606111131 0 0.37183639427018822 -0.27721741139498479 0 0.36864604209967411 -0.28580195190526653 0 0.36119515185828688 -0.27926196573123951 0 0.36864604209967411 -0.28580195190526653 0 0.35167477808268421 -0.29590282673908758 0 0.37692367512760472 -0.29471076959990938 0 0.35167477808268421 -0.29590282673908758 0 0.33555525305948752 -0.28725229477371478 0 0.34554652161988308 -0.27869626035274681 0 0.35167477808268421 -0.29590282673908758 0 0.34554652161988308 -0.27869626035274681 0 0.36119515185828688 -0.27926196573123951 0 0.35167477808268421 -0.29590282673908758 0 0.36119515185828688 -0.27926196573123951 0 0.35167477808268421 -0.29590282673908758 0 0.35167477808268421 -0.29590282673908758 0 0.33702984751047782 -0.32150100805695248 0 0.35167477808268421 -0.29590282673908758 0 0.36533705678267792 -0.31728902237790901 0 0.33702984751047782 -0.32150100805695248 0 0.35167477808268421 -0.29590282673908758 0 0.36464699131523809 -0.30267278346703408 0 0.36533705678267792 -0.31728902237790901 0 0.37692367512760472 -0.29471076959990938 0 0.35167477808268421 -0.29590282673908758 0 0.36464699131523809 -0.30267278346703408 0 0.37553059104105319 -0.30600852212472363 0 0.37692367512760472 -0.29471076959990938 0 0.36464699131523809 -0.30267278346703408 0 0.37553059104105319 -0.30600852212472363 0 0.36464699131523809 -0.30267278346703408 0 0.36533705678267792 -0.31728902237790901 0 0.37773876792872862 -0.32777608744691228 0 0.36533705678267792 -0.31728902237790901 0 0.35716212220589921 -0.33614800162225061 0 0.37773876792872862 -0.32777608744691228 0 0.37212002878019962 -0.34174343944434288 0 0.35716212220589921 -0.33614800162225061 0 0.37212002878019962 -0.34174343944434288 0 0.35716212220589921 -0.33614800162225061 0 0.36224276236311159 -0.34794381471324992 0 0.35716212220589921 -0.33614800162225061 0 0.33702984751047782 -0.32150100805695248 0 0.33783671654866632 -0.34093248845220331 0 0.36533705678267792 -0.31728902237790901 0 0.35716212220589921 -0.33614800162225061 0 0.33702984751047782 -0.32150100805695248 0 0.37047776436842661 -0.35838974597582057 0 0.34921113409792093 -0.35549407181058551 0 0.35880581001831119 -0.36456996194976499 0 0.36856702901113952 -0.37775732541669488 0 0.37047776436842661 -0.35838974597582057 0 0.3787916495420417 -0.3686996929003083 0 0.36856702901113952 -0.37775732541669488 0 0.37047776436842661 -0.35838974597582057 0 0.36856702901113952 -0.37775732541669488 0 0.37047776436842661 -0.35838974597582057 0 0.35880581001831119 -0.36456996194976499 0 0.36856702901113952 -0.37775732541669488 0 0.3576186230225411 -0.37792931789251211 0 0.35880581001831119 -0.36456996194976499 0 0.37047776436842661 -0.35838974597582057 0 0.36224276236311159 -0.34794381471324992 0 0.34921113409792093 -0.35549407181058551 0 0.37047776436842661 -0.35838974597582057 0 0.34921113409792093 -0.35549407181058551 0 0.37212002878019962 -0.34174343944434288 0 0.37047776436842661 -0.35838974597582057 0 0.37212002878019962 -0.34174343944434288 0 0.37047776436842661 -0.35838974597582057 0 0.36224276236311159 -0.34794381471324992 0 0.35716212220589921 -0.33614800162225061 0 0.34921113409792093 -0.35549407181058551 0 0.33783671654866632 -0.34093248845220331 0 0.35716212220589921 -0.33614800162225061 0 0.36224276236311159 -0.34794381471324992 0 0.34921113409792093 -0.35549407181058551 0 0.34921113409792093 -0.35549407181058551 0 0.35880581001831119 -0.36456996194976499 0 0.34625829873830882 -0.36153965616326261 0 0.35880581001831119 -0.36456996194976499 0 0.34625829873830882 -0.36153965616326261 0 0.34907174700958782 -0.37349619324734962 0 0.3576186230225411 -0.37792931789251211 0 0.35880581001831119 -0.36456996194976499 0 0.34907174700958782 -0.37349619324734962 0 0.34907174700958782 -0.37349619324734962 0 0.32794450382741519 -0.3525983976453505 0 0.33544736964449401 -0.37665145006727141 0 0.34907174700958782 -0.37349619324734962 0 0.32808144300645509 -0.37058104865045682 0 0.34907174700958782 -0.37349619324734962 0 0.32794450382741519 -0.3525983976453505 0 0.32808144300645509 -0.37058104865045682 0 0.34625829873830882 -0.36153965616326261 0 0.34907174700958782 -0.37349619324734962 0 0.32794450382741519 -0.3525983976453505 0 0.34921113409792093 -0.35549407181058551 0 0.32794450382741519 -0.3525983976453505 0 0.33783671654866632 -0.34093248845220331 0 0.34921113409792093 -0.35549407181058551 0 0.34625829873830882 -0.36153965616326261 0 0.32794450382741519 -0.3525983976453505 0 0.34921113409792093 -0.35549407181058551 0 0.32794450382741519 -0.3525983976453505 0 0.32238491693826982 -0.34709918937481649 0 0.32794450382741519 -0.3525983976453505 0 0.33783671654866632 -0.34093248845220331 0 0.32238491693826982 -0.34709918937481649 0 0.31986792787746537 -0.35149868734689338 0 0.32794450382741519 -0.3525983976453505 0 0.32238491693826982 -0.34709918937481649 0 0.32794450382741519 -0.3525983976453505 0 0.32238491693826982 -0.34709918937481649 0 0.31986792787746537 -0.35149868734689338 0 0.31986792787746537 -0.35149868734689338 0 0.30636312974202301 -0.34965986781742442 0 0.32238491693826982 -0.34709918937481649 0 0.31385619996890651 -0.34513958416529872 0 0.31986792787746537 -0.35149868734689338 0 0.31385619996890651 -0.34513958416529872 0 0.31986792787746537 -0.35149868734689338 0 0.30636312974202301 -0.34965986781742442 0 0.31986792787746537 -0.35149868734689338 0 0.32794450382741519 -0.3525983976453505 0 0.31986792787746537 -0.35149868734689338 0 0.32794450382741519 -0.3525983976453505 0 0.32260147327244798 -0.36163093211019481 0 0.3176372040413693 -0.38151606859671983 0 0.32808144300645509 -0.37058104865045682 0 0.3102400316611974 -0.36832748908401242 0 0.32260147327244798 -0.36163093211019481 0 0.32808144300645509 -0.37058104865045682 0 0.3102400316611974 -0.36832748908401242 0 0.32794450382741519 -0.3525983976453505 0 0.32260147327244798 -0.36163093211019481 0 0.32808144300645509 -0.37058104865045682 0 0.31986792787746537 -0.35149868734689338 0 0.32260147327244798 -0.36163093211019481 0 0.3102400316611974 -0.36832748908401242 0 0.31986792787746537 -0.35149868734689338 0 0.3102400316611974 -0.36832748908401242 0 0.32238491693826982 -0.34709918937481649 0 0.33702984751047782 -0.32150100805695248 0 0.32238491693826982 -0.34709918937481649 0 0.33702984751047782 -0.32150100805695248 0 0.33783671654866632 -0.34093248845220331 0 0.32238491693826982 -0.34709918937481649 0 0.30656827056481067 -0.33145431606259618 0 0.32238491693826982 -0.34709918937481649 0 0.33702984751047782 -0.32150100805695248 0 0.32028687441084558 -0.32482317916502512 0 0.32238491693826982 -0.34709918937481649 0 0.32028687441084558 -0.32482317916502512 0 0.30656827056481067 -0.33145431606259618 0 0.32238491693826982 -0.34709918937481649 0 0.31385619996890651 -0.34513958416529872 0 0.30656827056481067 -0.33145431606259618 0 0.3252411831188497 -0.31217155971442051 0 0.33702984751047782 -0.32150100805695248 0 0.32028687441084558 -0.32482317916502512 0 0.3252411831188497 -0.31217155971442051 0 0.32028687441084558 -0.32482317916502512 0 0.31021015392181922 -0.31188982261633907 0 0.32028687441084558 -0.32482317916502512 0 0.30656827056481067 -0.33145431606259618 0 0.31021015392181922 -0.31188982261633907 0 0.30656827056481067 -0.33145431606259618 0 0.29075162419135359 -0.31580944275037398 0 0.2994909900250729 -0.30893538612981669 0 0.30656827056481067 -0.33145431606259618 0 0.29075162419135359 -0.31580944275037398 0 0.30656827056481067 -0.33145431606259618 0 0.31021015392181922 -0.31188982261633907 0 0.2994909900250729 -0.30893538612981669 0 0.30656827056481067 -0.33145431606259618 0 0.30636312974202301 -0.34965986781742442 0 0.29592152816030942 -0.34617207375523462 0 0.31385619996890651 -0.34513958416529872 0 0.30656827056481067 -0.33145431606259618 0 0.30636312974202301 -0.34965986781742442 0 0.30656827056481067 -0.33145431606259618 0 0.29333155947919459 -0.33709158213161772 0 0.29592152816030942 -0.34617207375523462 0 0.30656827056481067 -0.33145431606259618 0 0.29333155947919459 -0.33709158213161772 0 0.28822914244315012 -0.3291462308941947 0 0.29333155947919459 -0.33709158213161772 0 0.28345067506119881 -0.33985929436366707 0 0.29592152816030942 -0.34617207375523462 0 0.29333155947919459 -0.33709158213161772 0 0.28345067506119881 -0.33985929436366707 0 0.28822914244315012 -0.3291462308941947 0 0.28345067506119881 -0.33985929436366707 0 0.28822914244315012 -0.3291462308941947 0 0.27694224433743603 -0.33021025781877827 0 0.28822914244315012 -0.3291462308941947 0 0.27982465306735382 -0.32064968840487679 0 0.27694224433743603 -0.33021025781877827 0 0.29075162419135359 -0.31580944275037398 0 0.27375905785109389 -0.31266545239260762 0 0.27982465306735382 -0.32064968840487679 0 0.28822914244315012 -0.3291462308941947 0 0.29075162419135359 -0.31580944275037398 0 0.27982465306735382 -0.32064968840487679 0 0.30656827056481067 -0.33145431606259618 0 0.28822914244315012 -0.3291462308941947 0 0.29075162419135359 -0.31580944275037398 0 0.3102400316611974 -0.36832748908401242 0 0.30219403737592021 -0.36076703199438942 0 0.30636312974202301 -0.34965986781742442 0 0.29590687686493788 -0.38100759044194188 0 0.3102400316611974 -0.36832748908401242 0 0.29805729150289478 -0.36717696339586192 0 0.30219403737592021 -0.36076703199438942 0 0.29805729150289478 -0.36717696339586192 0 0.29411569659756548 -0.35790380768025898 0 0.3102400316611974 -0.36832748908401242 0 0.30219403737592021 -0.36076703199438942 0 0.29805729150289478 -0.36717696339586192 0 0.31986792787746537 -0.35149868734689338 0 0.3102400316611974 -0.36832748908401242 0 0.30636312974202301 -0.34965986781742442 0 0.30219403737592021 -0.36076703199438942 0 0.30636312974202301 -0.34965986781742442 0 0.29411569659756548 -0.35790380768025898 0 0.30636312974202301 -0.34965986781742442 0 0.29592152816030942 -0.34617207375523462 0 0.29411569659756548 -0.35790380768025898 0 0.28345067506119881 -0.33985929436366707 0 0.29592152816030942 -0.34617207375523462 0 0.28643003962161279 -0.35071543375648501 0 0.28345067506119881 -0.33985929436366707 0 0.28643003962161279 -0.35071543375648501 0 0.27599929219473712 -0.34808252985062649 0 0.28643003962161279 -0.35071543375648501 0 0.29411569659756548 -0.35790380768025898 0 0.28600630072781402 -0.36066630419665108 0 0.28643003962161279 -0.35071543375648501 0 0.28600630072781402 -0.36066630419665108 0 0.28001528232890188 -0.35599312585859588 0 0.29592152816030942 -0.34617207375523462 0 0.28643003962161279 -0.35071543375648501 0 0.29411569659756548 -0.35790380768025898 0 0.29411569659756548 -0.35790380768025898 0 0.29117943234374372 -0.36698663723839342 0 0.28600630072781402 -0.36066630419665108 0 0.29805729150289478 -0.36717696339586192 0 0.29411569659756548 -0.35790380768025898 0 0.29117943234374372 -0.36698663723839342 0 0.29117943234374372 -0.36698663723839342 0 0.28600630072781402 -0.36066630419665108 0 0.28171566415704741 -0.36828485569923969 0 0.28600630072781402 -0.36066630419665108 0 0.28171566415704741 -0.36828485569923969 0 0.28001528232890188 -0.35599312585859588 0 0.29590687686493788 -0.38100759044194188 0 0.28171566415704741 -0.36828485569923969 0 0.29590687686493788 -0.38100759044194188 0 0.29117943234374372 -0.36698663723839342 0 0.28171566415704741 -0.36828485569923969 0 0.29590687686493788 -0.38100759044194188 0 0.29805729150289478 -0.36717696339586192 0 0.29117943234374372 -0.36698663723839342 0 0.27532293668358038 -0.38815357418349178 0 0.27729168531528281 -0.36431866123301182 0 0.25573174570141222 -0.37238572768261952 0 0.27532293668358038 -0.38815357418349178 0 0.28171566415704741 -0.36828485569923969 0 0.27729168531528281 -0.36431866123301182 0 0.27729168531528281 -0.36431866123301182 0 0.26731775737439267 -0.35580011483677598 0 0.25573174570141222 -0.37238572768261952 0 0.28171566415704741 -0.36828485569923969 0 0.27729168531528281 -0.36431866123301182 0 0.28001528232890188 -0.35599312585859588 0 0.28171566415704741 -0.36828485569923969 0 0.27729168531528281 -0.36431866123301182 0 0.27729168531528281 -0.36431866123301182 0 0.26731775737439267 -0.35580011483677598 0 0.28643003962161279 -0.35071543375648501 0 0.28001528232890188 -0.35599312585859588 0 0.27599929219473712 -0.34808252985062649 0 0.27729168531528281 -0.36431866123301182 0 0.26731775737439267 -0.35580011483677598 0 0.28001528232890188 -0.35599312585859588 0 0.26731775737439267 -0.35580011483677598 0 0.28001528232890188 -0.35599312585859588 0 0.27599929219473712 -0.34808252985062649 0 0.27599929219473712 -0.34808252985062649 0 0.26738733094374029 -0.34716779051451918 0 0.27160189040457272 -0.33832850643937679 0 0.26731775737439267 -0.35580011483677598 0 0.27599929219473712 -0.34808252985062649 0 0.26738733094374029 -0.34716779051451918 0 0.25840792970885818 -0.34794417986824822 0 0.25573174570141222 -0.37238572768261952 0 0.24339662750178079 -0.35418437305464179 0 0.26731775737439267 -0.35580011483677598 0 0.25840792970885818 -0.34794417986824822 0 0.25573174570141222 -0.37238572768261952 0 0.26738733094374029 -0.34716779051451918 0 0.25840792970885818 -0.34794417986824822 0 0.26355284137302742 -0.34181248422409333 0 0.26731775737439267 -0.35580011483677598 0 0.26738733094374029 -0.34716779051451918 0 0.25840792970885818 -0.34794417986824822 0 0.26731775737439267 -0.35580011483677598 0 0.25840792970885818 -0.34794417986824822 0 0.27982465306735382 -0.32064968840487679 0 0.27694224433743603 -0.33021025781877827 0 0.26227895851729688 -0.32283868186457682 0 0.27375905785109389 -0.31266545239260762 0 0.26227895851729688 -0.32283868186457682 0 0.26100507566156772 -0.30386487950506019 0 0.27375905785109389 -0.31266545239260762 0 0.27982465306735382 -0.32064968840487679 0 0.26227895851729688 -0.32283868186457682 0 0.27160189040457272 -0.33832850643937679 0 0.26355284137302742 -0.34181248422409333 0 0.26227895851729688 -0.32283868186457682 0 0.28345067506119881 -0.33985929436366707 0 0.27599929219473712 -0.34808252985062649 0 0.27160189040457272 -0.33832850643937679 0 0.28345067506119881 -0.33985929436366707 0 0.27694224433743603 -0.33021025781877827 0 0.27160189040457272 -0.33832850643937679 0 0.26738733094374029 -0.34716779051451918 0 0.27160189040457272 -0.33832850643937679 0 0.26355284137302742 -0.34181248422409333 0 0.27694224433743603 -0.33021025781877827 0 0.27160189040457272 -0.33832850643937679 0 0.26227895851729688 -0.32283868186457682 0 0.26355284137302742 -0.34181248422409333 0 0.26227895851729688 -0.32283868186457682 0 0.25840792970885818 -0.34794417986824822 0 0.25366620046169841 -0.33285271160519531 0 0.23965845613081829 -0.33141247458140161 0 0.26355284137302742 -0.34181248422409333 0 0.25366620046169841 -0.33285271160519531 0 0.26227895851729688 -0.32283868186457682 0 0.25840792970885818 -0.34794417986824822 0 0.26355284137302742 -0.34181248422409333 0 0.25366620046169841 -0.33285271160519531 0 0.26227895851729688 -0.32283868186457682 0 0.26100507566156772 -0.30386487950506019 0 0.26227895851729688 -0.32283868186457682 0 0.25123812652807559 -0.31846488372117171 0 0.26100507566156772 -0.30386487950506019 0 0.25366620046169841 -0.33285271160519531 0 0.26227895851729688 -0.32283868186457682 0 0.25123812652807559 -0.31846488372117171 0 0.25123812652807559 -0.31846488372117171 0 0.25070374123613348 -0.30660130443104072 0 0.26100507566156772 -0.30386487950506019 0 0.25070374123613348 -0.30660130443104072 0 0.26100507566156772 -0.30386487950506019 0 0.25070374123613348 -0.30660130443104072 0 0.25297983090189469 -0.29837275064123681 0 0.26100507566156772 -0.30386487950506019 0 0.26100507566156772 -0.30386487950506019 0 0.25974808018628243 -0.28514260562596339 0 0.27493497781789772 -0.30016456943815062 0 0.26100507566156772 -0.30386487950506019 0 0.25974808018628243 -0.28514260562596339 0 0.25297983090189469 -0.29837275064123681 0 0.26100507566156772 -0.30386487950506019 0 0.25974808018628243 -0.28514260562596339 0 0.25974808018628243 -0.28514260562596339 0 0.24797830072704741 -0.29281725717050783 0 0.2424496568013797 -0.28549626221877328 0 0.25297983090189469 -0.29837275064123681 0 0.25974808018628243 -0.28514260562596339 0 0.24797830072704741 -0.29281725717050783 0 0.25974808018628243 -0.28514260562596339 0 0.27183979550838983 -0.2852349611458016 0 0.26924667469131952 -0.27662398550814382 0 0.25974808018628243 -0.28514260562596339 0 0.27183979550838983 -0.2852349611458016 0 0.27493497781789772 -0.30016456943815062 0 0.25974808018628243 -0.28514260562596339 0 0.27493497781789772 -0.30016456943815062 0 0.27183979550838983 -0.2852349611458016 0 0.28019493906043702 -0.286088095732077 0 0.27493497781789772 -0.30016456943815062 0 0.27183979550838983 -0.2852349611458016 0 0.28019493906043702 -0.286088095732077 0 0.27816897979240141 -0.27686416788136459 0 0.29075162419135359 -0.31580944275037398 0 0.27375905785109389 -0.31266545239260762 0 0.27493497781789772 -0.30016456943815062 0 0.27375905785109389 -0.31266545239260762 0 0.26100507566156772 -0.30386487950506019 0 0.27493497781789772 -0.30016456943815062 0 0.26100507566156772 -0.30386487950506019 0 0.27493497781789772 -0.30016456943815062 0 0.29075162419135359 -0.31580944275037398 0 0.27493497781789772 -0.30016456943815062 0 0.27493497781789772 -0.30016456943815062 0 0.29017125634724189 -0.3058660028888418 0 0.29550743335464402 -0.29855461323702659 0 0.29075162419135359 -0.31580944275037398 0 0.27493497781789772 -0.30016456943815062 0 0.29017125634724189 -0.3058660028888418 0 0.27493497781789772 -0.30016456943815062 0 0.29550743335464402 -0.29855461323702659 0 0.30024488977903302 -0.29344129737411362 0 0.29075162419135359 -0.31580944275037398 0 0.29017125634724189 -0.3058660028888418 0 0.2994909900250729 -0.30893538612981669 0 0.29017125634724189 -0.3058660028888418 0 0.29550743335464402 -0.29855461323702659 0 0.2994909900250729 -0.30893538612981669 0 0.27493497781789772 -0.30016456943815062 0 0.30024488977903302 -0.29344129737411362 0 0.27493497781789772 -0.30016456943815062 0 0.28902807314834089 -0.28767718436549272 0 0.30024488977903302 -0.29344129737411362 0 0.28019493906043702 -0.286088095732077 0 0.27493497781789772 -0.30016456943815062 0 0.28902807314834089 -0.28767718436549272 0 0.28019493906043702 -0.286088095732077 0 0.28902807314834089 -0.28767718436549272 0 0.28646806618083381 -0.27880247363021138 0 0.28902807314834089 -0.28767718436549272 0 0.29529761996151282 -0.27960529187599081 0 0.28646806618083381 -0.27880247363021138 0 0.28902807314834089 -0.28767718436549272 0 0.29680709147959328 -0.28614311472406417 0 0.29529761996151282 -0.27960529187599081 0 0.28902807314834089 -0.28767718436549272 0 0.29680709147959328 -0.28614311472406417 0 0.30024488977903302 -0.29344129737411362 0 0.32555480174016838 -0.2867180253100774 0 0.30024488977903302 -0.29344129737411362 0 0.31147682722738779 -0.28472267542417928 0 0.32359110571866412 -0.29722871998805611 0 0.29550743335464402 -0.29855461323702659 0 0.30024488977903302 -0.29344129737411362 0 0.29680709147959328 -0.28614311472406417 0 0.30024488977903302 -0.29344129737411362 0 0.30265778302948632 -0.28384868528065982 0 0.29680709147959328 -0.28614311472406417 0 0.30265778302948632 -0.28384868528065982 0 0.29529761996151282 -0.27960529187599081 0 0.30265778302948632 -0.28384868528065982 0 0.31147682722738779 -0.28472267542417928 0 0.3096030141426202 -0.27789135799909881 0 0.30024488977903302 -0.29344129737411362 0 0.30265778302948632 -0.28384868528065982 0 0.31147682722738779 -0.28472267542417928 0 0.32359110571866412 -0.29722871998805611 0 0.29550743335464402 -0.29855461323702659 0 0.31021015392181922 -0.31188982261633907 0 0.32359110571866412 -0.29722871998805611 0 0.29550743335464402 -0.29855461323702659 0 0.29550743335464402 -0.29855461323702659 0 0.31021015392181922 -0.31188982261633907 0 0.2994909900250729 -0.30893538612981669 0 0.30058919506181792 -0.25586283781993141 0 0.30584586362664351 -0.26161143966644818 0 0.29593230122887731 -0.26163806034475262 0 0.30584586362664351 -0.26161143966644818 0 0.30041543927587039 -0.26926099435642031 0 0.29593230122887731 -0.26163806034475262 0 0.30257819211255149 -0.2488094059651956 0 0.30058919506181792 -0.25586283781993141 0 0.29306254118803782 -0.25228332337818887 0 0.30257819211255149 -0.2488094059651956 0 0.30058919506181792 -0.25586283781993141 0 0.30756684783129529 -0.25436235776480021 0 0.30058919506181792 -0.25586283781993141 0 0.30756684783129529 -0.25436235776480021 0 0.30584586362664351 -0.26161143966644818 0 0.31171633291391748 -0.24863279325672349 0 0.30257819211255149 -0.2488094059651956 0 0.30756684783129529 -0.25436235776480021 0 0.31171633291391748 -0.24863279325672349 0 0.31466740911354052 -0.25732267375503692 0 0.30756684783129529 -0.25436235776480021 0 0.31466740911354052 -0.25732267375503692 0 0.30756684783129529 -0.25436235776480021 0 0.30584586362664351 -0.26161143966644818 0 0.31559295578461161 -0.26610482310508898 0 0.31466740911354052 -0.25732267375503692 0 0.30584586362664351 -0.26161143966644818 0 0.30584586362664351 -0.26161143966644818 0 0.30832577637751968 -0.2711480086401224 0 0.30041543927587039 -0.26926099435642031 0 0.31559295578461161 -0.26610482310508898 0 0.30584586362664351 -0.26161143966644818 0 0.30832577637751968 -0.2711480086401224 0 0.30265778302948632 -0.28384868528065982 0 0.3096030141426202 -0.27789135799909881 0 0.30229285222709851 -0.27581280716184808 0 0.31707411803940561 -0.27579684128921411 0 0.30832577637751968 -0.2711480086401224 0 0.3096030141426202 -0.27789135799909881 0 0.30832577637751968 -0.2711480086401224 0 0.3096030141426202 -0.27789135799909881 0 0.30229285222709851 -0.27581280716184808 0 0.30265778302948632 -0.28384868528065982 0 0.30229285222709851 -0.27581280716184808 0 0.29529761996151282 -0.27960529187599081 0 0.30229285222709851 -0.27581280716184808 0 0.2976367322126649 -0.27392960061011978 0 0.29529761996151282 -0.27960529187599081 0 0.30832577637751968 -0.2711480086401224 0 0.30229285222709851 -0.27581280716184808 0 0.30041543927587039 -0.26926099435642031 0 0.30229285222709851 -0.27581280716184808 0 0.2976367322126649 -0.27392960061011978 0 0.30041543927587039 -0.26926099435642031 0 0.29254101738617788 -0.27103930904622042 0 0.28847558375157939 -0.2642962437836483 0 0.29593230122887731 -0.26163806034475262 0 0.2976367322126649 -0.27392960061011978 0 0.30041543927587039 -0.26926099435642031 0 0.29254101738617788 -0.27103930904622042 0 0.30041543927587039 -0.26926099435642031 0 0.29254101738617788 -0.27103930904622042 0 0.29593230122887731 -0.26163806034475262 0 0.2976367322126649 -0.27392960061011978 0 0.29254101738617788 -0.27103930904622042 0 0.29529761996151282 -0.27960529187599081 0 0.29254101738617788 -0.27103930904622042 0 0.29529761996151282 -0.27960529187599081 0 0.28646806618083381 -0.27880247363021138 0 0.28019493906043702 -0.286088095732077 0 0.28646806618083381 -0.27880247363021138 0 0.27816897979240141 -0.27686416788136459 0 0.28646806618083381 -0.27880247363021138 0 0.28347693767789822 -0.27044098925205118 0 0.27816897979240141 -0.27686416788136459 0 0.28347693767789822 -0.27044098925205118 0 0.28847558375157939 -0.2642962437836483 0 0.27960648359465362 -0.26377092782333122 0 0.29254101738617788 -0.27103930904622042 0 0.28646806618083381 -0.27880247363021138 0 0.28347693767789822 -0.27044098925205118 0 0.29254101738617788 -0.27103930904622042 0 0.28347693767789822 -0.27044098925205118 0 0.28847558375157939 -0.2642962437836483 0 0.28427260618205752 -0.25856206313017188 0 0.28847558375157939 -0.2642962437836483 0 0.27960648359465362 -0.26377092782333122 0 0.28427260618205752 -0.25856206313017188 0 0.28847558375157939 -0.2642962437836483 0 0.29023835049674063 -0.25822254846248399 0 0.28847558375157939 -0.2642962437836483 0 0.29023835049674063 -0.25822254846248399 0 0.29593230122887731 -0.26163806034475262 0 0.29023835049674063 -0.25822254846248399 0 0.29593230122887731 -0.26163806034475262 0 0.29306254118803782 -0.25228332337818887 0 0.30058919506181792 -0.25586283781993141 0 0.29593230122887731 -0.26163806034475262 0 0.29306254118803782 -0.25228332337818887 0 0.29023835049674063 -0.25822254846248399 0 0.29306254118803782 -0.25228332337818887 0 0.28532918300569421 -0.250754221665133 0 0.28427260618205752 -0.25856206313017188 0 0.29023835049674063 -0.25822254846248399 0 0.28532918300569421 -0.250754221665133 0 0.28427260618205752 -0.25856206313017188 0 0.28532918300569421 -0.250754221665133 0 0.27866383698050312 -0.25525750584467971 0 0.27866383698050312 -0.25525750584467971 0 0.27187249871498498 -0.26033681621358767 0 0.27257391460034369 -0.25057512247541558 0 0.27843768703777472 -0.2475622186980867 0 0.28532918300569421 -0.250754221665133 0 0.27866383698050312 -0.25525750584467971 0 0.27843768703777472 -0.2475622186980867 0 0.27866383698050312 -0.25525750584467971 0 0.27257391460034369 -0.25057512247541558 0 0.28427260618205752 -0.25856206313017188 0 0.27866383698050312 -0.25525750584467971 0 0.27960648359465362 -0.26377092782333122 0 0.27866383698050312 -0.25525750584467971 0 0.27960648359465362 -0.26377092782333122 0 0.27187249871498498 -0.26033681621358767 0 0.27960648359465362 -0.26377092782333122 0 0.27187249871498498 -0.26033681621358767 0 0.274113781098138 -0.2689319541396169 0 0.27187249871498498 -0.26033681621358767 0 0.26625097147852972 -0.26822512722340047 0 0.26522012189941441 -0.25984177575405099 0 0.27187249871498498 -0.26033681621358767 0 0.26615335269546458 -0.25329157539057823 0 0.26522012189941441 -0.25984177575405099 0 0.27187249871498498 -0.26033681621358767 0 0.26615335269546458 -0.25329157539057823 0 0.27257391460034369 -0.25057512247541558 0 0.27816897979240141 -0.27686416788136459 0 0.274113781098138 -0.2689319541396169 0 0.26924667469131952 -0.27662398550814382 0 0.28347693767789822 -0.27044098925205118 0 0.27960648359465362 -0.26377092782333122 0 0.274113781098138 -0.2689319541396169 0 0.28347693767789822 -0.27044098925205118 0 0.27816897979240141 -0.27686416788136459 0 0.274113781098138 -0.2689319541396169 0 0.274113781098138 -0.2689319541396169 0 0.26625097147852972 -0.26822512722340047 0 0.26924667469131952 -0.27662398550814382 0 0.27187249871498498 -0.26033681621358767 0 0.274113781098138 -0.2689319541396169 0 0.26625097147852972 -0.26822512722340047 0 0.27183979550838983 -0.2852349611458016 0 0.27816897979240141 -0.27686416788136459 0 0.26924667469131952 -0.27662398550814382 0 0.25974808018628243 -0.28514260562596339 0 0.26625097147852972 -0.26822512722340047 0 0.25798867564231792 -0.25893721795045999 0 0.25974808018628243 -0.28514260562596339 0 0.25798867564231792 -0.25893721795045999 0 0.2473861784520596 -0.27291495749097999 0 0.25974808018628243 -0.28514260562596339 0 0.26625097147852972 -0.26822512722340047 0 0.26924667469131952 -0.27662398550814382 0 0.25974808018628243 -0.28514260562596339 0 0.25798867564231792 -0.25893721795045999 0 0.25974808018628243 -0.28514260562596339 0 0.2473861784520596 -0.27291495749097999 0 0.25918022024245729 -0.25235144889406369 0 0.26522012189941441 -0.25984177575405099 0 0.25798867564231792 -0.25893721795045999 0 0.26615335269546458 -0.25329157539057823 0 0.25918022024245729 -0.25235144889406369 0 0.26522012189941441 -0.25984177575405099 0 0.26625097147852972 -0.26822512722340047 0 0.26522012189941441 -0.25984177575405099 0 0.25798867564231792 -0.25893721795045999 0 0.25798867564231792 -0.25893721795045999 0 0.25127795685287257 -0.26048092430604952 0 0.2473861784520596 -0.27291495749097999 0 0.25798867564231792 -0.25893721795045999 0 0.25127795685287257 -0.26048092430604952 0 0.25329224927731792 -0.25475508289641102 0 0.25127795685287257 -0.26048092430604952 0 0.25329224927731792 -0.25475508289641102 0 0.24658012705147789 -0.25421662391773531 0 0.25918022024245729 -0.25235144889406369 0 0.25798867564231792 -0.25893721795045999 0 0.25329224927731792 -0.25475508289641102 0 0.25143426659746332 -0.24778919941374641 0 0.25918022024245729 -0.25235144889406369 0 0.25329224927731792 -0.25475508289641102 0 0.25143426659746332 -0.24778919941374641 0 0.25329224927731792 -0.25475508289641102 0 0.24658012705147789 -0.25421662391773531 0 0.25127795685287257 -0.26048092430604952 0 0.23999978769483621 -0.25777050040599092 0 0.23361606832064241 -0.26780992435059958 0 0.25143426659746332 -0.24778919941374641 0 0.24658012705147789 -0.25421662391773531 0 0.23833075635283299 -0.24797382414986241 0 0.25127795685287257 -0.26048092430604952 0 0.24658012705147789 -0.25421662391773531 0 0.23999978769483621 -0.25777050040599092 0 0.25127795685287257 -0.26048092430604952 0 0.23361606832064241 -0.26780992435059958 0 0.23999978769483621 -0.25777050040599092 0 0.23361606832064241 -0.26780992435059958 0 0.23019402989635479 -0.25837120530570762 0 0.24658012705147789 -0.25421662391773531 0 0.23999978769483621 -0.25777050040599092 0 0.23833075635283299 -0.24797382414986241 0 0.23999978769483621 -0.25777050040599092 0 0.23019402989635479 -0.25837120530570762 0 0.23833075635283299 -0.24797382414986241 0 0.25974808018628243 -0.28514260562596339 0 0.2473861784520596 -0.27291495749097999 0 0.2424496568013797 -0.28549626221877328 0 0.25127795685287257 -0.26048092430604952 0 0.2473861784520596 -0.27291495749097999 0 0.23361606832064241 -0.26780992435059958 0 0.2473861784520596 -0.27291495749097999 0 0.2351397403363156 -0.27774996836292898 0 0.23361606832064241 -0.26780992435059958 0 0.2473861784520596 -0.27291495749097999 0 0.2351397403363156 -0.27774996836292898 0 0.2424496568013797 -0.28549626221877328 0 0.2269551283208798 -0.27458622411059808 0 0.23361606832064241 -0.26780992435059958 0 0.2159541797884123 -0.2751389243951502 0 0.23361606832064241 -0.26780992435059958 0 0.22109538044069549 -0.26442155585303528 0 0.2159541797884123 -0.2751389243951502 0 0.23361606832064241 -0.26780992435059958 0 0.2159541797884123 -0.2751389243951502 0 0.2351397403363156 -0.27774996836292898 0 0.22869816838379389 -0.28022126897943178 0 0.2269551283208798 -0.27458622411059808 0 0.2351397403363156 -0.27774996836292898 0 0.22869816838379389 -0.28022126897943178 0 0.2321486252129607 -0.2846265421854744 0 0.2351397403363156 -0.27774996836292898 0 0.2269551283208798 -0.27458622411059808 0 0.23361606832064241 -0.26780992435059958 0 0.2269551283208798 -0.27458622411059808 0 0.22197860644184411 -0.27714914953108277 0 0.2175157699515487 -0.27567474314723511 0 0.2269551283208798 -0.27458622411059808 0 0.2175157699515487 -0.27567474314723511 0 0.2159541797884123 -0.2751389243951502 0 0.2269551283208798 -0.27458622411059808 0 0.22197860644184411 -0.27714914953108277 0 0.22386924493420979 -0.27983032839893679 0 0.22197860644184411 -0.27714914953108277 0 0.21963635686569119 -0.2790972541566496 0 0.2175157699515487 -0.27567474314723511 0 0.22197860644184411 -0.27714914953108277 0 0.21963635686569119 -0.2790972541566496 0 0.22386924493420979 -0.27983032839893679 0 0.21963635686569119 -0.2790972541566496 0 0.22386924493420979 -0.27983032839893679 0 0.22066920280653651 -0.2823584496633304 0 0.22869816838379389 -0.28022126897943178 0 0.2269551283208798 -0.27458622411059808 0 0.22386924493420979 -0.27983032839893679 0 0.23019402989635479 -0.25837120530570762 0 0.23833075635283299 -0.24797382414986241 0 0.21637229943374339 -0.24791817189244519 0 0.23019402989635479 -0.25837120530570762 0 0.22109538044069549 -0.26442155585303528 0 0.21637229943374339 -0.24791817189244519 0 0.23361606832064241 -0.26780992435059958 0 0.23019402989635479 -0.25837120530570762 0 0.22109538044069549 -0.26442155585303528 0 0.20644868714854339 -0.25882569468436228 0 0.20934032476432679 -0.27286955332126811 0 0.21637229943374339 -0.24791817189244519 0 0.20934032476432679 -0.27286955332126811 0 0.21637229943374339 -0.24791817189244519 0 0.22109538044069549 -0.26442155585303528 0 0.20934032476432679 -0.27286955332126811 0 0.21637229943374339 -0.24791817189244519 0 0.22109538044069549 -0.26442155585303528 0 0.2159541797884123 -0.2751389243951502 0 0.20934032476432679 -0.27286955332126811 0 0.2159541797884123 -0.2751389243951502 0 0.20774014520839421 -0.27854743077842398 0 0.21425288432383119 -0.28264063842211429 0 0.2159541797884123 -0.2751389243951502 0 0.20774014520839421 -0.27854743077842398 0 0.2159541797884123 -0.2751389243951502 0 0.20774014520839421 -0.27854743077842398 0 0.20934032476432679 -0.27286955332126811 0 0.21963635686569119 -0.2790972541566496 0 0.2175157699515487 -0.27567474314723511 0 0.21425288432383119 -0.28264063842211429 0 0.2175157699515487 -0.27567474314723511 0 0.2159541797884123 -0.2751389243951502 0 0.21425288432383119 -0.28264063842211429 0 0.2175157699515487 -0.27567474314723511 0 0.2159541797884123 -0.2751389243951502 0 0.2159541797884123 -0.2751389243951502 0 0.20934032476432679 -0.27286955332126811 0 0.20774014520839421 -0.27854743077842398 0 0.20934032476432679 -0.27286955332126811 0 0.20774014520839421 -0.27854743077842398 0 0.20934032476432679 -0.27286955332126811 0 0.202112779692463 -0.2738970611699787 0 0.20644868714854339 -0.25882569468436228 0 0.20934032476432679 -0.27286955332126811 0 0.20195922091034579 -0.26691373448159439 0 0.20934032476432679 -0.27286955332126811 0 0.1959038654029073 -0.26825918431574169 0 0.20934032476432679 -0.27286955332126811 0 0.1959038654029073 -0.26825918431574169 0 0.202112779692463 -0.2738970611699787 0 0.20934032476432679 -0.27286955332126811 0 0.1959038654029073 -0.26825918431574169 0 0.20195922091034579 -0.26691373448159439 0 0.20774014520839421 -0.27854743077842398 0 0.19533660471886241 -0.28369441993728761 0 0.1959038654029073 -0.26825918431574169 0 0.202112779692463 -0.2738970611699787 0 0.19533660471886241 -0.28369441993728761 0 0.20774014520839421 -0.27854743077842398 0 0.202112779692463 -0.2738970611699787 0 0.19533660471886241 -0.28369441993728761 0 0.1959038654029073 -0.26825918431574169 0 0.19533660471886241 -0.28369441993728761 0 0.1959038654029073 -0.26825918431574169 0 0.19533660471886241 -0.28369441993728761 0 0.18449621752656761 -0.27367505195713621 0 0.1959038654029073 -0.26825918431574169 0 0.19694444217526691 -0.2399449575141554 0 0.19038010371744371 -0.24735532658709611 0 0.1959038654029073 -0.26825918431574169 0 0.19694444217526691 -0.2399449575141554 0 0.1959038654029073 -0.26825918431574169 0 0.19038010371744371 -0.24735532658709611 0 0.20644868714854339 -0.25882569468436228 0 0.1959038654029073 -0.26825918431574169 0 0.19694444217526691 -0.2399449575141554 0 0.1959038654029073 -0.26825918431574169 0 0.18658771310562211 -0.25928744720448937 0 0.19038010371744371 -0.24735532658709611 0 0.20644868714854339 -0.25882569468436228 0 0.1959038654029073 -0.26825918431574169 0 0.20195922091034579 -0.26691373448159439 0 0.20215950897473769 -0.29834906400770939 0 0.19540566821163211 -0.32231354979044252 0 0.20215950897473769 -0.29834906400770939 0 0.19540566821163211 -0.32231354979044252 0 0.18663973258069361 -0.30261973696981331 0 0.20215950897473769 -0.29834906400770939 0 0.18867435784547229 -0.28645899449243339 0 0.18663973258069361 -0.30261973696981331 0 0.20774014520839421 -0.27854743077842398 0 0.20215950897473769 -0.29834906400770939 0 0.19508224743190231 -0.29061551418320558 0 0.18867435784547229 -0.28645899449243339 0 0.19533660471886241 -0.28369441993728761 0 0.18449621752656761 -0.27367505195713621 0 0.19508224743190231 -0.29061551418320558 0 0.19533660471886241 -0.28369441993728761 0 0.19508224743190231 -0.29061551418320558 0 0.18867435784547229 -0.28645899449243339 0 0.19533660471886241 -0.28369441993728761 0 0.18867435784547229 -0.28645899449243339 0 0.19533660471886241 -0.28369441993728761 0 0.20774014520839421 -0.27854743077842398 0 0.19508224743190231 -0.29061551418320558 0 0.19533660471886241 -0.28369441993728761 0 0.20215950897473769 -0.29834906400770939 0 0.18867435784547229 -0.28645899449243339 0 0.20215950897473769 -0.29834906400770939 0 0.19508224743190231 -0.29061551418320558 0 0.18867435784547229 -0.28645899449243339 0 0.20774014520839421 -0.27854743077842398 0 0.20215950897473769 -0.29834906400770939 0 0.20215950897473769 -0.29834906400770939 0 0.21425288432383119 -0.28264063842211429 0 0.21771501621223449 -0.29326150158486908 0 0.20774014520839421 -0.27854743077842398 0 0.20215950897473769 -0.29834906400770939 0 0.21425288432383119 -0.28264063842211429 0 0.21425288432383119 -0.28264063842211429 0 0.21771501621223449 -0.29326150158486908 0 0.22074419692681271 -0.28702014065069947 0 0.21963635686569119 -0.2790972541566496 0 0.21425288432383119 -0.28264063842211429 0 0.22066920280653651 -0.2823584496633304 0 0.21425288432383119 -0.28264063842211429 0 0.22066920280653651 -0.2823584496633304 0 0.22074419692681271 -0.28702014065069947 0 0.20215950897473769 -0.29834906400770939 0 0.22090898255277849 -0.31488076929455477 0 0.20215950897473769 -0.29834906400770939 0 0.22090898255277849 -0.31488076929455477 0 0.19540566821163211 -0.32231354979044252 0 0.20215950897473769 -0.29834906400770939 0 0.21771501621223449 -0.29326150158486908 0 0.22090898255277849 -0.31488076929455477 0 0.21771501621223449 -0.29326150158486908 0 0.2288728536485895 -0.30257419285879222 0 0.22090898255277849 -0.31488076929455477 0 0.2288728536485895 -0.30257419285879222 0 0.23855000441908719 -0.3125843486544207 0 0.22090898255277849 -0.31488076929455477 0 0.2288728536485895 -0.30257419285879222 0 0.2263820852644563 -0.29256329355980137 0 0.23458123966767169 -0.29681102647328039 0 0.22869816838379389 -0.28022126897943178 0 0.22386924493420979 -0.27983032839893679 0 0.22538821535479969 -0.28382171433858377 0 0.22386924493420979 -0.27983032839893679 0 0.22538821535479969 -0.28382171433858377 0 0.22066920280653651 -0.2823584496633304 0 0.22538821535479969 -0.28382171433858377 0 0.22066920280653651 -0.2823584496633304 0 0.22074419692681271 -0.28702014065069947 0 0.22538821535479969 -0.28382171433858377 0 0.22074419692681271 -0.28702014065069947 0 0.22773269177201319 -0.28780140070431448 0 0.21771501621223449 -0.29326150158486908 0 0.22074419692681271 -0.28702014065069947 0 0.2263820852644563 -0.29256329355980137 0 0.21771501621223449 -0.29326150158486908 0 0.2288728536485895 -0.30257419285879222 0 0.2263820852644563 -0.29256329355980137 0 0.22074419692681271 -0.28702014065069947 0 0.2263820852644563 -0.29256329355980137 0 0.22773269177201319 -0.28780140070431448 0 0.2263820852644563 -0.29256329355980137 0 0.2340003361010364 -0.29097531278701388 0 0.23458123966767169 -0.29681102647328039 0 0.2263820852644563 -0.29256329355980137 0 0.2340003361010364 -0.29097531278701388 0 0.22773269177201319 -0.28780140070431448 0 0.22538821535479969 -0.28382171433858377 0 0.22773269177201319 -0.28780140070431448 0 0.2321486252129607 -0.2846265421854744 0 0.2340003361010364 -0.29097531278701388 0 0.22773269177201319 -0.28780140070431448 0 0.2321486252129607 -0.2846265421854744 0 0.22869816838379389 -0.28022126897943178 0 0.22538821535479969 -0.28382171433858377 0 0.2321486252129607 -0.2846265421854744 0 0.2340003361010364 -0.29097531278701388 0 0.2321486252129607 -0.2846265421854744 0 0.2424496568013797 -0.28549626221877328 0 0.2351397403363156 -0.27774996836292898 0 0.2321486252129607 -0.2846265421854744 0 0.2424496568013797 -0.28549626221877328 0 0.2340003361010364 -0.29097531278701388 0 0.24016616782778599 -0.29381416392344301 0 0.2424496568013797 -0.28549626221877328 0 0.2340003361010364 -0.29097531278701388 0 0.23458123966767169 -0.29681102647328039 0 0.24016616782778599 -0.29381416392344301 0 0.24016616782778599 -0.29381416392344301 0 0.24797830072704741 -0.29281725717050783 0 0.23991786641812771 -0.30157246703956331 0 0.24016616782778599 -0.29381416392344301 0 0.24797830072704741 -0.29281725717050783 0 0.2424496568013797 -0.28549626221877328 0 0.2288728536485895 -0.30257419285879222 0 0.23991786641812771 -0.30157246703956331 0 0.23855000441908719 -0.3125843486544207 0 0.2288728536485895 -0.30257419285879222 0 0.23458123966767169 -0.29681102647328039 0 0.23991786641812771 -0.30157246703956331 0 0.23458123966767169 -0.29681102647328039 0 0.24016616782778599 -0.29381416392344301 0 0.23991786641812771 -0.30157246703956331 0 0.25297983090189469 -0.29837275064123681 0 0.24797830072704741 -0.29281725717050783 0 0.23991786641812771 -0.30157246703956331 0 0.25070374123613348 -0.30660130443104072 0 0.25297983090189469 -0.29837275064123681 0 0.23991786641812771 -0.30157246703956331 0 0.25070374123613348 -0.30660130443104072 0 0.23991786641812771 -0.30157246703956331 0 0.23855000441908719 -0.3125843486544207 0 0.25123812652807559 -0.31846488372117171 0 0.25070374123613348 -0.30660130443104072 0 0.23855000441908719 -0.3125843486544207 0 0.25123812652807559 -0.31846488372117171 0 0.23855000441908719 -0.3125843486544207 0 0.23965845613081829 -0.33141247458140161 0 0.25366620046169841 -0.33285271160519531 0 0.25123812652807559 -0.31846488372117171 0 0.23965845613081829 -0.33141247458140161 0 0.25840792970885818 -0.34794417986824822 0 0.2440242939159028 -0.33793982812939699 0 0.23965845613081829 -0.33141247458140161 0 0.2440242939159028 -0.33793982812939699 0 0.23965845613081829 -0.33141247458140161 0 0.21971498106376819 -0.33012668895991742 0 0.25840792970885818 -0.34794417986824822 0 0.23965845613081829 -0.33141247458140161 0 0.21971498106376819 -0.33012668895991742 0 0.23330376038033501 -0.34336420463758283 0 0.2260791390398883 -0.35120592840637521 0 0.2440242939159028 -0.33793982812939699 0 0.21971498106376819 -0.33012668895991742 0 0.2440242939159028 -0.33793982812939699 0 0.21971498106376819 -0.33012668895991742 0 0.23330376038033501 -0.34336420463758283 0 0.23965845613081829 -0.33141247458140161 0 0.21971498106376819 -0.33012668895991742 0 0.22090898255277849 -0.31488076929455477 0 0.23855000441908719 -0.3125843486544207 0 0.23965845613081829 -0.33141247458140161 0 0.22090898255277849 -0.31488076929455477 0 0.23965845613081829 -0.33141247458140161 0 0.22090898255277849 -0.31488076929455477 0 0.25573174570141222 -0.37238572768261952 0 0.24339662750178079 -0.35418437305464179 0 0.2331310476830448 -0.3677433750009258 0 0.2440242939159028 -0.33793982812939699 0 0.23330376038033501 -0.34336420463758283 0 0.24339662750178079 -0.35418437305464179 0 0.25840792970885818 -0.34794417986824822 0 0.2440242939159028 -0.33793982812939699 0 0.24339662750178079 -0.35418437305464179 0 0.24339662750178079 -0.35418437305464179 0 0.2260791390398883 -0.35120592840637521 0 0.2331310476830448 -0.3677433750009258 0 0.23330376038033501 -0.34336420463758283 0 0.24339662750178079 -0.35418437305464179 0 0.2260791390398883 -0.35120592840637521 0 0.2260791390398883 -0.35120592840637521 0 0.2331310476830448 -0.3677433750009258 0 0.21426750685273169 -0.36102727676281071 0 0.2331310476830448 -0.3677433750009258 0 0.21426750685273169 -0.36102727676281071 0 0.20615561465112051 -0.38139147265149048 0 0.21426750685273169 -0.36102727676281071 0 0.19888780215358279 -0.35958814585222171 0 0.20615561465112051 -0.38139147265149048 0 0.2260791390398883 -0.35120592840637521 0 0.21426750685273169 -0.36102727676281071 0 0.20773221107336129 -0.34537391883464141 0 0.21426750685273169 -0.36102727676281071 0 0.20773221107336129 -0.34537391883464141 0 0.19888780215358279 -0.35958814585222171 0 0.18911411698130981 -0.34463770508205671 0 0.19888780215358279 -0.35958814585222171 0 0.1828225657509876 -0.36696186037367112 0 0.20773221107336129 -0.34537391883464141 0 0.18911411698130981 -0.34463770508205671 0 0.19888780215358279 -0.35958814585222171 0 0.19888780215358279 -0.35958814585222171 0 0.1828225657509876 -0.36696186037367112 0 0.20615561465112051 -0.38139147265149048 0 0.21971498106376819 -0.33012668895991742 0 0.22090898255277849 -0.31488076929455477 0 0.19540566821163211 -0.32231354979044252 0 0.21971498106376819 -0.33012668895991742 0 0.19540566821163211 -0.32231354979044252 0 0.21971498106376819 -0.33012668895991742 0 0.20773221107336129 -0.34537391883464141 0 0.19540566821163211 -0.32231354979044252 0 0.21971498106376819 -0.33012668895991742 0 0.2260791390398883 -0.35120592840637521 0 0.20773221107336129 -0.34537391883464141 0 0.18911411698130981 -0.34463770508205671 0 0.19540566821163211 -0.32231354979044252 0 0.20773221107336129 -0.34537391883464141 0 0.18911411698130981 -0.34463770508205671 0 0.19540566821163211 -0.32231354979044252 0 0.19540566821163211 -0.32231354979044252 0 0.17069079571075851 -0.31437006164744302 0 0.19540566821163211 -0.32231354979044252 0 0.17069079571075851 -0.31437006164744302 0 0.18663973258069361 -0.30261973696981331 0 0.19540566821163211 -0.32231354979044252 0 0.1757467201330162 -0.33203339853937808 0 0.17069079571075851 -0.31437006164744302 0 0.18911411698130981 -0.34463770508205671 0 0.1757467201330162 -0.33203339853937808 0 0.16589785038433519 -0.34725293024044668 0 0.18911411698130981 -0.34463770508205671 0 0.19540566821163211 -0.32231354979044252 0 0.1757467201330162 -0.33203339853937808 0 0.1757467201330162 -0.33203339853937808 0 0.16589785038433519 -0.34725293024044668 0 0.15278074797523561 -0.32767436588499932 0 0.17069079571075851 -0.31437006164744302 0 0.15278074797523561 -0.32767436588499932 0 0.14597592320988331 -0.30642657350444807 0 0.1757467201330162 -0.33203339853937808 0 0.17069079571075851 -0.31437006164744302 0 0.15278074797523561 -0.32767436588499932 0 0.1828225657509876 -0.36696186037367112 0 0.15039156997241929 -0.36479706674777962 0 0.1569744912430453 -0.38359765292191961 0 0.1828225657509876 -0.36696186037367112 0 0.16589785038433519 -0.34725293024044668 0 0.15039156997241929 -0.36479706674777962 0 0.18911411698130981 -0.34463770508205671 0 0.1828225657509876 -0.36696186037367112 0 0.16589785038433519 -0.34725293024044668 0 0.18911411698130981 -0.34463770508205671 0 0.1828225657509876 -0.36696186037367112 0 0.15039156997241929 -0.36479706674777962 0 0.14667822768304281 -0.3457585980593999 0 0.11632791681951959 -0.36711727995928811 0 0.15039156997241929 -0.36479706674777962 0 0.13385353291822599 -0.37793595710899769 0 0.11632791681951959 -0.36711727995928811 0 0.16589785038433519 -0.34725293024044668 0 0.15039156997241929 -0.36479706674777962 0 0.14667822768304281 -0.3457585980593999 0 0.14667822768304281 -0.3457585980593999 0 0.12667610778984401 -0.3394979018465194 0 0.11632791681951959 -0.36711727995928811 0 0.15278074797523561 -0.32767436588499932 0 0.13702429876016861 -0.31187852373375041 0 0.14597592320988331 -0.30642657350444807 0 0.14667822768304281 -0.3457585980593999 0 0.15278074797523561 -0.32767436588499932 0 0.12667610778984401 -0.3394979018465194 0 0.16589785038433519 -0.34725293024044668 0 0.14667822768304281 -0.3457585980593999 0 0.15278074797523561 -0.32767436588499932 0 0.12667610778984401 -0.3394979018465194 0 0.13702429876016861 -0.31187852373375041 0 0.15278074797523561 -0.32767436588499932 0 0.12667610778984401 -0.3394979018465194 0 0.13702429876016861 -0.31187852373375041 0 0.12667610778984401 -0.3394979018465194 0 0.13702429876016861 -0.31187852373375041 0 0.1195923907648492 -0.31578461612278819 0 0.13702429876016861 -0.31187852373375041 0 0.1212610507090081 -0.29848308536145329 0 0.1195923907648492 -0.31578461612278819 0 0.14597592320988331 -0.30642657350444807 0 0.1212610507090081 -0.29848308536145329 0 0.13702429876016861 -0.31187852373375041 0 0.14597592320988331 -0.30642657350444807 0 0.1212610507090081 -0.29848308536145329 0 0.14597592320988331 -0.30642657350444807 0 0.144126651977387 -0.29220733113191949 0 0.1212610507090081 -0.29848308536145329 0 0.14597592320988331 -0.30642657350444807 0 0.144126651977387 -0.29220733113191949 0 0.1601372688631641 -0.29566081726784937 0 0.15493849713532079 -0.28500657929764378 0 0.144126651977387 -0.29220733113191949 0 0.1601372688631641 -0.29566081726784937 0 0.15493849713532079 -0.28500657929764378 0 0.144126651977387 -0.29220733113191949 0 0.14422761199887441 -0.27839685282443238 0 0.144126651977387 -0.29220733113191949 0 0.13263554959180521 -0.28452374394732821 0 0.1212610507090081 -0.29848308536145329 0 0.144126651977387 -0.29220733113191949 0 0.13263554959180521 -0.28452374394732821 0 0.14422761199887441 -0.27839685282443238 0 0.13263554959180521 -0.28452374394732821 0 0.12979379718899109 -0.27291628726155981 0 0.1204331481654583 -0.27872240562612333 0 0.12979379718899109 -0.27291628726155981 0 0.131436706906709 -0.26312350717575161 0 0.1216372810812828 -0.26467991258782791 0 0.12979379718899109 -0.27291628726155981 0 0.1397319768008404 -0.26816598762809352 0 0.14422761199887441 -0.27839685282443238 0 0.12979379718899109 -0.27291628726155981 0 0.1397319768008404 -0.26816598762809352 0 0.131436706906709 -0.26312350717575161 0 0.13263554959180521 -0.28452374394732821 0 0.12979379718899109 -0.27291628726155981 0 0.14422761199887441 -0.27839685282443238 0 0.12903626199286899 -0.25346210742832143 0 0.131436706906709 -0.26312350717575161 0 0.1369842174695616 -0.25639324097295502 0 0.12903626199286899 -0.25346210742832143 0 0.131436706906709 -0.26312350717575161 0 0.1216372810812828 -0.26467991258782791 0 0.1397319768008404 -0.26816598762809352 0 0.131436706906709 -0.26312350717575161 0 0.1369842174695616 -0.25639324097295502 0 0.1369842174695616 -0.25639324097295502 0 0.1425664307512606 -0.2499578410125623 0 0.13431594935557631 -0.2489770844462042 0 0.12903626199286899 -0.25346210742832143 0 0.1369842174695616 -0.25639324097295502 0 0.13431594935557631 -0.2489770844462042 0 0.14538167287151449 -0.26064031156737871 0 0.15027714804140829 -0.25260357163612601 0 0.1541778526243274 -0.26839933562170198 0 0.1369842174695616 -0.25639324097295502 0 0.14538167287151449 -0.26064031156737871 0 0.1425664307512606 -0.2499578410125623 0 0.14538167287151449 -0.26064031156737871 0 0.15027714804140829 -0.25260357163612601 0 0.1425664307512606 -0.2499578410125623 0 0.15027714804140829 -0.25260357163612601 0 0.1425664307512606 -0.2499578410125623 0 0.1397319768008404 -0.26816598762809352 0 0.1369842174695616 -0.25639324097295502 0 0.14538167287151449 -0.26064031156737871 0 0.15493849713532079 -0.28500657929764378 0 0.14422761199887441 -0.27839685282443238 0 0.1541778526243274 -0.26839933562170198 0 0.1397319768008404 -0.26816598762809352 0 0.14422761199887441 -0.27839685282443238 0 0.1541778526243274 -0.26839933562170198 0 0.1397319768008404 -0.26816598762809352 0 0.14538167287151449 -0.26064031156737871 0 0.1541778526243274 -0.26839933562170198 0 0.15493849713532079 -0.28500657929764378 0 0.1541778526243274 -0.26839933562170198 0 0.1672786769287655 -0.28277733744249078 0 0.1541778526243274 -0.26839933562170198 0 0.1694757529434423 -0.26953128306427743 0 0.1672786769287655 -0.28277733744249078 0 0.15027714804140829 -0.25260357163612601 0 0.1694757529434423 -0.26953128306427743 0 0.15027714804140829 -0.25260357163612601 0 0.1694757529434423 -0.26953128306427743 0 0.17309050672215631 -0.26043137797593852 0 0.15027714804140829 -0.25260357163612601 0 0.17309050672215631 -0.26043137797593852 0 0.15027714804140829 -0.25260357163612601 0 0.17309050672215631 -0.26043137797593852 0 0.16345997852390681 -0.24666503200669751 0 0.15027714804140829 -0.25260357163612601 0 0.1541778526243274 -0.26839933562170198 0 0.1694757529434423 -0.26953128306427743 0 0.17664944540245781 -0.2516724249431368 0 0.17309050672215631 -0.26043137797593852 0 0.16345997852390681 -0.24666503200669751 0 0.1959038654029073 -0.26825918431574169 0 0.17309050672215631 -0.26043137797593852 0 0.18658771310562211 -0.25928744720448937 0 0.1959038654029073 -0.26825918431574169 0 0.17309050672215631 -0.26043137797593852 0 0.17664944540245781 -0.2516724249431368 0 0.17309050672215631 -0.26043137797593852 0 0.18658771310562211 -0.25928744720448937 0 0.17664944540245781 -0.2516724249431368 0 0.18658771310562211 -0.25928744720448937 0 0.19038010371744371 -0.24735532658709611 0 0.18867435784547229 -0.28645899449243339 0 0.1694757529434423 -0.26953128306427743 0 0.18449621752656761 -0.27367505195713621 0 0.18867435784547229 -0.28645899449243339 0 0.1694757529434423 -0.26953128306427743 0 0.1672786769287655 -0.28277733744249078 0 0.18867435784547229 -0.28645899449243339 0 0.1694757529434423 -0.26953128306427743 0 0.1959038654029073 -0.26825918431574169 0 0.17309050672215631 -0.26043137797593852 0 0.18449621752656761 -0.27367505195713621 0 0.1694757529434423 -0.26953128306427743 0 0.17309050672215631 -0.26043137797593852 0 0.18449621752656761 -0.27367505195713621 0 0.18867435784547229 -0.28645899449243339 0 0.17626833216086829 -0.29160701491103691 0 0.18867435784547229 -0.28645899449243339 0 0.17626833216086829 -0.29160701491103691 0 0.1672786769287655 -0.28277733744249078 0 0.18867435784547229 -0.28645899449243339 0 0.17626833216086829 -0.29160701491103691 0 0.18663973258069361 -0.30261973696981331 0 0.17069079571075851 -0.31437006164744302 0 0.17626833216086829 -0.29160701491103691 0 0.18663973258069361 -0.30261973696981331 0 0.17069079571075851 -0.31437006164744302 0 0.17626833216086829 -0.29160701491103691 0 0.1601372688631641 -0.29566081726784937 0 0.17069079571075851 -0.31437006164744302 0 0.14597592320988331 -0.30642657350444807 0 0.17069079571075851 -0.31437006164744302 0 0.14597592320988331 -0.30642657350444807 0 0.1601372688631641 -0.29566081726784937 0 0.17626833216086829 -0.29160701491103691 0 0.1601372688631641 -0.29566081726784937 0 0.1672786769287655 -0.28277733744249078 0 0.15493849713532079 -0.28500657929764378 0 0.1601372688631641 -0.29566081726784937 0 0.1672786769287655 -0.28277733744249078 0 0.1941477167449166 -0.4840282160909295 0 0.20536139840376841 -0.5 0 0.1778371354509776 -0.5 0 0.1941477167449166 -0.4840282160909295 0 0.21260063364449031 -0.47196068423685211 0 0.19609647420746501 -0.46506891102041892 0 0.1941477167449166 -0.4840282160909295 0 0.21260063364449031 -0.47196068423685211 0 0.2167812874081009 -0.48799422861861858 0 0.1941477167449166 -0.4840282160909295 0 0.2167812874081009 -0.48799422861861858 0 0.20536139840376841 -0.5 0 0.2167812874081009 -0.48799422861861858 0 0.20536139840376841 -0.5 0 0.2328856613565593 -0.5 0 0.2167812874081009 -0.48799422861861858 0 0.2328856613565593 -0.5 0 0.22971115101468201 -0.47790167353475688 0 0.26040992430935012 -0.5 0 0.2328856613565593 -0.5 0 0.24676283655776399 -0.48309264040319277 0 0.2328856613565593 -0.5 0 0.24676283655776399 -0.48309264040319277 0 0.22971115101468201 -0.47790167353475688 0 0.24676283655776399 -0.48309264040319277 0 0.24122410665486871 -0.47174326487204959 0 0.22971115101468201 -0.47790167353475688 0 0.25313498888367358 -0.47183159477686332 0 0.24676283655776399 -0.48309264040319277 0 0.24122410665486871 -0.47174326487204959 0 0.22971115101468201 -0.47790167353475688 0 0.22289491503771849 -0.4676056615244516 0 0.23186531188945109 -0.46696219690048613 0 0.21260063364449031 -0.47196068423685211 0 0.2167812874081009 -0.48799422861861858 0 0.22971115101468201 -0.47790167353475688 0 0.21260063364449031 -0.47196068423685211 0 0.22971115101468201 -0.47790167353475688 0 0.22289491503771849 -0.4676056615244516 0 0.24122410665486871 -0.47174326487204959 0 0.22971115101468201 -0.47790167353475688 0 0.23186531188945109 -0.46696219690048613 0 0.22130450611118041 -0.45633613877552448 0 0.23186531188945109 -0.46696219690048613 0 0.24512711532174869 -0.46088887917074461 0 0.21260063364449031 -0.47196068423685211 0 0.22289491503771849 -0.4676056615244516 0 0.22130450611118041 -0.45633613877552448 0 0.22289491503771849 -0.4676056615244516 0 0.22130450611118041 -0.45633613877552448 0 0.23186531188945109 -0.46696219690048613 0 0.22130450611118041 -0.45633613877552448 0 0.24512711532174869 -0.46088887917074461 0 0.22130450611118041 -0.45633613877552448 0 0.21993462640090899 -0.44979352434379383 0 0.21578635569323101 -0.45528156469035119 0 0.24122410665486871 -0.47174326487204959 0 0.23186531188945109 -0.46696219690048613 0 0.24512711532174869 -0.46088887917074461 0 0.22130450611118041 -0.45633613877552448 0 0.24512711532174869 -0.46088887917074461 0 0.24209486279291159 -0.44913377365296359 0 0.25667734910858281 -0.45608485647008279 0 0.24512711532174869 -0.46088887917074461 0 0.24209486279291159 -0.44913377365296359 0 0.25313498888367358 -0.47183159477686332 0 0.24122410665486871 -0.47174326487204959 0 0.24512711532174869 -0.46088887917074461 0 0.24209486279291159 -0.44913377365296359 0 0.23435859057605549 -0.43800143475300402 0 0.22786925699966071 -0.44711573938160087 0 0.24582850601093659 -0.43770451171011848 0 0.24209486279291159 -0.44913377365296359 0 0.23435859057605549 -0.43800143475300402 0 0.22130450611118041 -0.45633613877552448 0 0.24209486279291159 -0.44913377365296359 0 0.22130450611118041 -0.45633613877552448 0 0.24209486279291159 -0.44913377365296359 0 0.22786925699966071 -0.44711573938160087 0 0.23435859057605549 -0.43800143475300402 0 0.22786925699966071 -0.44711573938160087 0 0.22165369911724711 -0.44231382538271891 0 0.22130450611118041 -0.45633613877552448 0 0.22786925699966071 -0.44711573938160087 0 0.21993462640090899 -0.44979352434379383 0 0.22786925699966071 -0.44711573938160087 0 0.21993462640090899 -0.44979352434379383 0 0.22165369911724711 -0.44231382538271891 0 0.22165369911724711 -0.44231382538271891 0 0.21213300964071519 -0.44594956839882438 0 0.21348366143732239 -0.43530400560562099 0 0.21213300964071519 -0.44594956839882438 0 0.20192065831130759 -0.43861271016960962 0 0.20258620655931189 -0.45053280286836039 0 0.21213300964071519 -0.44594956839882438 0 0.20192065831130759 -0.43861271016960962 0 0.21348366143732239 -0.43530400560562099 0 0.21213300964071519 -0.44594956839882438 0 0.21578635569323101 -0.45528156469035119 0 0.20258620655931189 -0.45053280286836039 0 0.21993462640090899 -0.44979352434379383 0 0.22165369911724711 -0.44231382538271891 0 0.21213300964071519 -0.44594956839882438 0 0.21993462640090899 -0.44979352434379383 0 0.21213300964071519 -0.44594956839882438 0 0.21578635569323101 -0.45528156469035119 0 0.21260063364449031 -0.47196068423685211 0 0.22130450611118041 -0.45633613877552448 0 0.19609647420746501 -0.46506891102041892 0 0.22130450611118041 -0.45633613877552448 0 0.21578635569323101 -0.45528156469035119 0 0.19609647420746501 -0.46506891102041892 0 0.22130450611118041 -0.45633613877552448 0 0.19609647420746501 -0.46506891102041892 0 0.21578635569323101 -0.45528156469035119 0 0.19609647420746501 -0.46506891102041892 0 0.20258620655931189 -0.45053280286836039 0 0.22130450611118041 -0.45633613877552448 0 0.21578635569323101 -0.45528156469035119 0 0.19609647420746501 -0.46506891102041892 0 0.18813227713287309 -0.44714894035174829 0 0.20258620655931189 -0.45053280286836039 0 0.18813227713287309 -0.44714894035174829 0 0.20192065831130759 -0.43861271016960962 0 0.18960259805544519 -0.42784423580025721 0 0.18813227713287309 -0.44714894035174829 0 0.20192065831130759 -0.43861271016960962 0 0.20258620655931189 -0.45053280286836039 0 0.20792216226228449 -0.41955632339881321 0 0.225065482925628 -0.4015714512777957 0 0.1932844718015142 -0.4050133805491104 0 0.20192065831130759 -0.43861271016960962 0 0.18960259805544519 -0.42784423580025721 0 0.20792216226228449 -0.41955632339881321 0 0.18960259805544519 -0.42784423580025721 0 0.20792216226228449 -0.41955632339881321 0 0.1932844718015142 -0.4050133805491104 0 0.20792216226228449 -0.41955632339881321 0 0.21348366143732239 -0.43530400560562099 0 0.22378877785505791 -0.43008760067813961 0 0.20792216226228449 -0.41955632339881321 0 0.22378877785505791 -0.43008760067813961 0 0.2238212853532528 -0.41738982683922088 0 0.20192065831130759 -0.43861271016960962 0 0.20792216226228449 -0.41955632339881321 0 0.21348366143732239 -0.43530400560562099 0 0.22378877785505791 -0.43008760067813961 0 0.2439753512001355 -0.42175142990410092 0 0.2238212853532528 -0.41738982683922088 0 0.23435859057605549 -0.43800143475300402 0 0.22378877785505791 -0.43008760067813961 0 0.2439753512001355 -0.42175142990410092 0 0.22165369911724711 -0.44231382538271891 0 0.21348366143732239 -0.43530400560562099 0 0.22378877785505791 -0.43008760067813961 0 0.23435859057605549 -0.43800143475300402 0 0.22165369911724711 -0.44231382538271891 0 0.22378877785505791 -0.43008760067813961 0 0.24582850601093659 -0.43770451171011848 0 0.23435859057605549 -0.43800143475300402 0 0.2439753512001355 -0.42175142990410092 0 0.2439753512001355 -0.42175142990410092 0 0.225065482925628 -0.4015714512777957 0 0.20792216226228449 -0.41955632339881321 0 0.2238212853532528 -0.41738982683922088 0 0.225065482925628 -0.4015714512777957 0 0.2439753512001355 -0.42175142990410092 0 0.2238212853532528 -0.41738982683922088 0 0.225065482925628 -0.4015714512777957 0 0.2331310476830448 -0.3677433750009258 0 0.24086606561207591 -0.38754824512353092 0 0.20615561465112051 -0.38139147265149048 0 0.225065482925628 -0.4015714512777957 0 0.24086606561207591 -0.38754824512353092 0 0.20615561465112051 -0.38139147265149048 0 0.2439753512001355 -0.42175142990410092 0 0.225065482925628 -0.4015714512777957 0 0.24086606561207591 -0.38754824512353092 0 0.2590976936363843 -0.39674669773623122 0 0.2439753512001355 -0.42175142990410092 0 0.24086606561207591 -0.38754824512353092 0 0.25573174570141222 -0.37238572768261952 0 0.2331310476830448 -0.3677433750009258 0 0.24086606561207591 -0.38754824512353092 0 0.225065482925628 -0.4015714512777957 0 0.20615561465112051 -0.38139147265149048 0 0.1932844718015142 -0.4050133805491104 0 0.225065482925628 -0.4015714512777957 0 0.20615561465112051 -0.38139147265149048 0 0.20615561465112051 -0.38139147265149048 0 0.1932844718015142 -0.4050133805491104 0 0.1765310145206655 -0.38928601566528531 0 0.1828225657509876 -0.36696186037367112 0 0.20615561465112051 -0.38139147265149048 0 0.1765310145206655 -0.38928601566528531 0 0.1828225657509876 -0.36696186037367112 0 0.1765310145206655 -0.38928601566528531 0 0.1569744912430453 -0.38359765292191961 0 0.1828225657509876 -0.36696186037367112 0 0.1765310145206655 -0.38928601566528531 0 0.1932844718015142 -0.4050133805491104 0 0.1765310145206655 -0.38928601566528531 0 0.17862786516759371 -0.4141381845149491 0 0.1765310145206655 -0.38928601566528531 0 0.1606222071292871 -0.40208976161640131 0 0.17862786516759371 -0.4141381845149491 0 0.1765310145206655 -0.38928601566528531 0 0.1606222071292871 -0.40208976161640131 0 0.1569744912430453 -0.38359765292191961 0 0.13385353291822599 -0.37793595710899769 0 0.1381181315032238 -0.39742209011302848 0 0.1059797258491951 -0.39473665807205688 0 0.15039156997241929 -0.36479706674777962 0 0.1569744912430453 -0.38359765292191961 0 0.13385353291822599 -0.37793595710899769 0 0.1569744912430453 -0.38359765292191961 0 0.13385353291822599 -0.37793595710899769 0 0.1381181315032238 -0.39742209011302848 0 0.1606222071292871 -0.40208976161640131 0 0.1381181315032238 -0.39742209011302848 0 0.14569359731717871 -0.415432972000847 0 0.1606222071292871 -0.40208976161640131 0 0.1569744912430453 -0.38359765292191961 0 0.1381181315032238 -0.39742209011302848 0 0.1606222071292871 -0.40208976161640131 0 0.14569359731717871 -0.415432972000847 0 0.16212028732754791 -0.41911851669554812 0 0.1381181315032238 -0.39742209011302848 0 0.14569359731717871 -0.415432972000847 0 0.1249657873123091 -0.41490563998984409 0 0.14569359731717871 -0.415432972000847 0 0.13827451805798949 -0.43264706631154148 0 0.1249657873123091 -0.41490563998984409 0 0.13827451805798949 -0.43264706631154148 0 0.1168726045127894 -0.43192423344731667 0 0.1249657873123091 -0.41490563998984409 0 0.14569359731717871 -0.415432972000847 0 0.13827451805798949 -0.43264706631154148 0 0.15494038526785761 -0.43138283023037682 0 0.14569359731717871 -0.415432972000847 0 0.15494038526785761 -0.43138283023037682 0 0.16212028732754791 -0.41911851669554812 0 0.16212028732754791 -0.41911851669554812 0 0.17862786516759371 -0.4141381845149491 0 0.16918074817150799 -0.4394878902517057 0 0.15494038526785761 -0.43138283023037682 0 0.16212028732754791 -0.41911851669554812 0 0.16918074817150799 -0.4394878902517057 0 0.1606222071292871 -0.40208976161640131 0 0.16212028732754791 -0.41911851669554812 0 0.17862786516759371 -0.4141381845149491 0 0.18960259805544519 -0.42784423580025721 0 0.1932844718015142 -0.4050133805491104 0 0.17862786516759371 -0.4141381845149491 0 0.18960259805544519 -0.42784423580025721 0 0.17862786516759371 -0.4141381845149491 0 0.16918074817150799 -0.4394878902517057 0 0.18813227713287309 -0.44714894035174829 0 0.17496942813864691 -0.45596472579036418 0 0.16918074817150799 -0.4394878902517057 0 0.18813227713287309 -0.44714894035174829 0 0.18960259805544519 -0.42784423580025721 0 0.16918074817150799 -0.4394878902517057 0 0.19609647420746501 -0.46506891102041892 0 0.17496942813864691 -0.45596472579036418 0 0.17088844230375 -0.47380168326531408 0 0.19609647420746501 -0.46506891102041892 0 0.18813227713287309 -0.44714894035174829 0 0.17496942813864691 -0.45596472579036418 0 0.17496942813864691 -0.45596472579036418 0 0.15054919887763851 -0.45431620406263362 0 0.17088844230375 -0.47380168326531408 0 0.17496942813864691 -0.45596472579036418 0 0.16918074817150799 -0.4394878902517057 0 0.15054919887763851 -0.45431620406263362 0 0.15494038526785761 -0.43138283023037682 0 0.16918074817150799 -0.4394878902517057 0 0.15054919887763851 -0.45431620406263362 0 0.13827451805798949 -0.43264706631154148 0 0.15494038526785761 -0.43138283023037682 0 0.15054919887763851 -0.45431620406263362 0 0.13827451805798949 -0.43264706631154148 0 0.12854200147657679 -0.44881465175620078 0 0.15054919887763851 -0.45431620406263362 0 0.13827451805798949 -0.43264706631154148 0 0.12854200147657679 -0.44881465175620078 0 0.1168726045127894 -0.43192423344731667 0 0.12854200147657679 -0.44881465175620078 0 0.1350707603468061 -0.46361197939982479 0 0.15054919887763851 -0.45431620406263362 0 0.1350707603468061 -0.46361197939982479 0 0.12742183160909451 -0.47531032909802429 0 0.1210100563839803 -0.46164477217705641 0 0.12854200147657679 -0.44881465175620078 0 0.1350707603468061 -0.46361197939982479 0 0.1210100563839803 -0.46164477217705641 0 0.1350707603468061 -0.46361197939982479 0 0.15054919887763851 -0.45431620406263362 0 0.14568041040003499 -0.48253445551020929 0 0.15054919887763851 -0.45431620406263362 0 0.14568041040003499 -0.48253445551020929 0 0.17088844230375 -0.47380168326531408 0 0.14568041040003499 -0.48253445551020929 0 0.12742183160909451 -0.47531032909802429 0 0.12047237849632 -0.49126722775510462 0 0.1350707603468061 -0.46361197939982479 0 0.14568041040003499 -0.48253445551020929 0 0.12742183160909451 -0.47531032909802429 0 0.14568041040003499 -0.48253445551020929 0 0.1227886095453958 -0.5 0 0.12047237849632 -0.49126722775510462 0 0.14568041040003499 -0.48253445551020929 0 0.1503128724981867 -0.5 0 0.1227886095453958 -0.5 0 0.14568041040003499 -0.48253445551020929 0 0.12047237849632 -0.49126722775510462 0 0.14568041040003499 -0.48253445551020929 0 0.1503128724981867 -0.5 0 0.1615747262578012 -0.4876658534447576 0 0.1615747262578012 -0.4876658534447576 0 0.17088844230375 -0.47380168326531408 0 0.1778371354509776 -0.5 0 0.1503128724981867 -0.5 0 0.1615747262578012 -0.4876658534447576 0 0.1778371354509776 -0.5 0 0.14568041040003499 -0.48253445551020929 0 0.1615747262578012 -0.4876658534447576 0 0.17088844230375 -0.47380168326531408 0 0.14568041040003499 -0.48253445551020929 0 0.17088844230375 -0.47380168326531408 0 0.1941477167449166 -0.4840282160909295 0 0.19609647420746501 -0.46506891102041892 0 0.17088844230375 -0.47380168326531408 0 0.19609647420746501 -0.46506891102041892 0 0.17088844230375 -0.47380168326531408 0 0.1941477167449166 -0.4840282160909295 0 0.17088844230375 -0.47380168326531408 0 0.1778371354509776 -0.5 0 0.065559448601512638 -0.5 0 0.067430192224570459 -0.47733623107848377 0 0.082411465586891539 -0.48399171951456549 0 0.067430192224570459 -0.47733623107848377 0 0.082411465586891539 -0.48399171951456549 0 0.080196056811316085 -0.46704775481456368 0 0.082411465586891539 -0.48399171951456549 0 0.097405737828569747 -0.47424173191156871 0 0.080196056811316085 -0.46704775481456368 0 0.065559448601512638 -0.5 0 0.082411465586891539 -0.48399171951456549 0 0.095264346592604951 -0.49999999999999989 0 0.082411465586891539 -0.48399171951456549 0 0.095264346592604951 -0.49999999999999989 0 0.097405737828569747 -0.47424173191156871 0 0.095264346592604951 -0.49999999999999989 0 0.12047237849632 -0.49126722775510462 0 0.095264346592604951 -0.49999999999999989 0 0.12047237849632 -0.49126722775510462 0 0.112634413358929 -0.47776470868381821 0 0.095264346592604951 -0.49999999999999989 0 0.1227886095453958 -0.5 0 0.12047237849632 -0.49126722775510462 0 0.12742183160909451 -0.47531032909802429 0 0.112634413358929 -0.47776470868381821 0 0.1210100563839803 -0.46164477217705641 0 0.12742183160909451 -0.47531032909802429 0 0.12047237849632 -0.49126722775510462 0 0.112634413358929 -0.47776470868381821 0 0.095264346592604951 -0.49999999999999989 0 0.112634413358929 -0.47776470868381821 0 0.097405737828569747 -0.47424173191156871 0 0.112634413358929 -0.47776470868381821 0 0.097405737828569747 -0.47424173191156871 0 0.1092166223563011 -0.46400542908158487 0 0.097405737828569747 -0.47424173191156871 0 0.1092166223563011 -0.46400542908158487 0 0.091549171794701539 -0.45153038387175742 0 0.1092166223563011 -0.46400542908158487 0 0.1093235261569811 -0.44906463737454472 0 0.091549171794701539 -0.45153038387175742 0 0.112634413358929 -0.47776470868381821 0 0.1092166223563011 -0.46400542908158487 0 0.1210100563839803 -0.46164477217705641 0 0.12854200147657679 -0.44881465175620078 0 0.1210100563839803 -0.46164477217705641 0 0.1093235261569811 -0.44906463737454472 0 0.1092166223563011 -0.46400542908158487 0 0.1210100563839803 -0.46164477217705641 0 0.1093235261569811 -0.44906463737454472 0 0.12854200147657679 -0.44881465175620078 0 0.1093235261569811 -0.44906463737454472 0 0.1168726045127894 -0.43192423344731667 0 0.1093235261569811 -0.44906463737454472 0 0.096744667211084101 -0.43314405344505258 0 0.1168726045127894 -0.43192423344731667 0 0.1093235261569811 -0.44906463737454472 0 0.091549171794701539 -0.45153038387175742 0 0.096744667211084101 -0.43314405344505258 0 0.091549171794701539 -0.45153038387175742 0 0.075431999981226933 -0.45375645229751449 0 0.069062691845642163 -0.43648023784130457 0 0.091549171794701539 -0.45153038387175742 0 0.069062691845642163 -0.43648023784130457 0 0.096744667211084101 -0.43314405344505258 0 0.097405737828569747 -0.47424173191156871 0 0.091549171794701539 -0.45153038387175742 0 0.080196056811316085 -0.46704775481456368 0 0.091549171794701539 -0.45153038387175742 0 0.080196056811316085 -0.46704775481456368 0 0.075431999981226933 -0.45375645229751449 0 0.080196056811316085 -0.46704775481456368 0 0.075431999981226933 -0.45375645229751449 0 0.060920079473247922 -0.45996743266243251 0 0.067430192224570459 -0.47733623107848377 0 0.080196056811316085 -0.46704775481456368 0 0.060920079473247922 -0.45996743266243251 0 0.075431999981226933 -0.45375645229751449 0 0.069062691845642163 -0.43648023784130457 0 0.060920079473247922 -0.45996743266243251 0 0.069062691845642163 -0.43648023784130457 0 0.087102459684636868 -0.41674712275330889 0 0.059059985297593161 -0.40850078607829182 0 0.087102459684636868 -0.41674712275330889 0 0.08232321451277537 -0.39627868586668469 0 0.059059985297593161 -0.40850078607829182 0 0.069062691845642163 -0.43648023784130457 0 0.087102459684636868 -0.41674712275330889 0 0.096744667211084101 -0.43314405344505258 0 0.096744667211084101 -0.43314405344505258 0 0.1168726045127894 -0.43192423344731667 0 0.1063330489140029 -0.41829154154151582 0 0.087102459684636868 -0.41674712275330889 0 0.096744667211084101 -0.43314405344505258 0 0.1063330489140029 -0.41829154154151582 0 0.1168726045127894 -0.43192423344731667 0 0.1249657873123091 -0.41490563998984409 0 0.1063330489140029 -0.41829154154151582 0 0.1249657873123091 -0.41490563998984409 0 0.1063330489140029 -0.41829154154151582 0 0.1059797258491951 -0.39473665807205688 0 0.087102459684636868 -0.41674712275330889 0 0.1063330489140029 -0.41829154154151582 0 0.1059797258491951 -0.39473665807205688 0 0.1381181315032238 -0.39742209011302848 0 0.1249657873123091 -0.41490563998984409 0 0.1059797258491951 -0.39473665807205688 0 0.1059797258491951 -0.39473665807205688 0 0.11632791681951959 -0.36711727995928811 0 0.13385353291822599 -0.37793595710899769 0 0.1059797258491951 -0.39473665807205688 0 0.11632791681951959 -0.36711727995928811 0 0.1059797258491951 -0.39473665807205688 0 0.091608639279214671 -0.37560527361487922 0 0.11632791681951959 -0.36711727995928811 0 0.1059797258491951 -0.39473665807205688 0 0.091608639279214671 -0.37560527361487922 0 0.08232321451277537 -0.39627868586668469 0 0.091608639279214671 -0.37560527361487922 0 0.08232321451277537 -0.39627868586668469 0 0.066324698568829832 -0.3822035196787969 0 0.087102459684636868 -0.41674712275330889 0 0.1059797258491951 -0.39473665807205688 0 0.08232321451277537 -0.39627868586668469 0 0.08232321451277537 -0.39627868586668469 0 0.066324698568829832 -0.3822035196787969 0 0.059059985297593161 -0.40850078607829182 0 0.066324698568829832 -0.3822035196787969 0 0.049055839900257463 -0.37746566703989048 0 0.040431265269072258 -0.39325305455837678 0 0.066324698568829832 -0.3822035196787969 0 0.040431265269072258 -0.39325305455837678 0 0.059059985297593161 -0.40850078607829182 0 0.040431265269072258 -0.39325305455837678 0 0.03419478779286643 -0.41532916316523211 0 0.059059985297593161 -0.40850078607829182 0 0.049055839900257463 -0.37746566703989048 0 0.040431265269072258 -0.39325305455837678 0 0.033600004962601571 -0.37475637910123588 0 0.040431265269072258 -0.39325305455837678 0 0.023666178759470888 -0.38827906301799348 0 0.033600004962601571 -0.37475637910123588 0 0.023666178759470888 -0.38827906301799348 0 0.0089110281326635777 -0.37995103884739662 0 0.019944095431654991 -0.37260160596898828 0 0.023666178759470888 -0.38827906301799348 0 0.033600004962601571 -0.37475637910123588 0 0.019944095431654991 -0.37260160596898828 0 -0.0056360938850787152 -0.38607414576439381 0 -0.0030508565299749478 -0.40163911683637288 0 0.0089110281326635777 -0.37995103884739662 0 -0.00024599811553788209 -0.37123979155157932 0 -0.0056360938850787152 -0.38607414576439381 0 0.0089110281326635777 -0.37995103884739662 0 0.0089110281326635777 -0.37995103884739662 0 0.017117361601886521 -0.4062368038271974 0 -0.0030508565299749478 -0.40163911683637288 0 0.0089110281326635777 -0.37995103884739662 0 0.017117361601886521 -0.4062368038271974 0 0.040431265269072258 -0.39325305455837678 0 0.023666178759470888 -0.38827906301799348 0 0.017117361601886521 -0.4062368038271974 0 0.040431265269072258 -0.39325305455837678 0 0.017117361601886521 -0.4062368038271974 0 0.03419478779286643 -0.41532916316523211 0 0.023666178759470888 -0.38827906301799348 0 0.0089110281326635777 -0.37995103884739662 0 0.017117361601886521 -0.4062368038271974 0 0.017117361601886521 -0.4062368038271974 0 0.025323695071109421 -0.43252256880699819 0 0.0082330861129023339 -0.43819651569704587 0 0.017117361601886521 -0.4062368038271974 0 0.025323695071109421 -0.43252256880699819 0 0.03419478779286643 -0.41532916316523211 0 0.017117361601886521 -0.4062368038271974 0 0.025323695071109421 -0.43252256880699819 0 -0.006928175898192333 -0.42788875077507749 0 0.017117361601886521 -0.4062368038271974 0 0.0082330861129023339 -0.43819651569704587 0 -0.0030508565299749478 -0.40163911683637288 0 -0.006928175898192333 -0.42788875077507749 0 0.017117361601886521 -0.4062368038271974 0 0.025323695071109421 -0.43252256880699819 0 0.043782173971808551 -0.43213367178334239 0 0.03419478779286643 -0.41532916316523211 0 0.043782173971808551 -0.43213367178334239 0 0.03419478779286643 -0.41532916316523211 0 0.059059985297593161 -0.40850078607829182 0 0.043782173971808551 -0.43213367178334239 0 0.059059985297593161 -0.40850078607829182 0 0.069062691845642163 -0.43648023784130457 0 0.043782173971808551 -0.43213367178334239 0 0.059059985297593161 -0.40850078607829182 0 0.069062691845642163 -0.43648023784130457 0 0.060920079473247922 -0.45996743266243251 0 0.045713952095470009 -0.45013721776726662 0 0.069062691845642163 -0.43648023784130457 0 0.043782173971808551 -0.43213367178334239 0 0.045713952095470009 -0.45013721776726662 0 0.060920079473247922 -0.45996743266243251 0 0.045713952095470009 -0.45013721776726662 0 0.044963137711942193 -0.47500780851675167 0 0.045713952095470009 -0.45013721776726662 0 0.028504362646023941 -0.45576655748839301 0 0.044963137711942193 -0.47500780851675167 0 0.043782173971808551 -0.43213367178334239 0 0.028504362646023941 -0.45576655748839301 0 0.043782173971808551 -0.43213367178334239 0 0.045713952095470009 -0.45013721776726662 0 0.028504362646023941 -0.45576655748839301 0 0.025323695071109421 -0.43252256880699819 0 0.043782173971808551 -0.43213367178334239 0 0.028504362646023941 -0.45576655748839301 0 0.025323695071109421 -0.43252256880699819 0 0.0082330861129023339 -0.43819651569704587 0 0.028504362646023941 -0.45576655748839301 0 -0.006928175898192333 -0.42788875077507749 0 0.0082330861129023339 -0.43819651569704587 0 0.00018356116932998889 -0.45460021365762759 0 0.0082330861129023339 -0.43819651569704587 0 0.00018356116932998889 -0.45460021365762759 0 0.028504362646023941 -0.45576655748839301 0 0.00018356116932998889 -0.45460021365762759 0 0.028504362646023941 -0.45576655748839301 0 0.0132265513202393 -0.47939944319344369 0 0.028504362646023941 -0.45576655748839301 0 0.0132265513202393 -0.47939944319344369 0 0.028504362646023941 -0.45576655748839301 0 0.0132265513202393 -0.47939944319344369 0 0.044963137711942193 -0.47500780851675167 0 -0.01125188331078086 -0.47583166011634043 0 0.00018356116932998889 -0.45460021365762759 0 0.0132265513202393 -0.47939944319344369 0 -0.01125188331078086 -0.47583166011634043 0 0.0132265513202393 -0.47939944319344369 0 0.0061496526193284273 -0.5 0 0.0132265513202393 -0.47939944319344369 0 0.0061496526193284273 -0.5 0 0.035854550610420421 -0.5 0 0.0132265513202393 -0.47939944319344369 0 0.035854550610420421 -0.5 0 0.044963137711942193 -0.47500780851675167 0 0.065559448601512638 -0.5 0 0.067430192224570459 -0.47733623107848377 0 0.044963137711942193 -0.47500780851675167 0 0.067430192224570459 -0.47733623107848377 0 0.060920079473247922 -0.45996743266243251 0 0.044963137711942193 -0.47500780851675167 0 0.065559448601512638 -0.5 0 0.035854550610420421 -0.5 0 0.044963137711942193 -0.47500780851675167 0 0.089840334351325171 -0.29776256249865768 0 0.070199909016827086 -0.28598452716220202 0 0.081531464292497274 -0.28935331027453037 0 0.071831305707257626 -0.28259610907546368 0 0.09654617820813291 -0.29053959721845851 0 0.071831305707257626 -0.28259610907546368 0 0.08449133211067679 -0.27877046837401881 0 0.09654617820813291 -0.29053959721845851 0 0.081531464292497274 -0.28935331027453037 0 0.089840334351325171 -0.29776256249865768 0 0.070199909016827086 -0.28598452716220202 0 0.071831305707257626 -0.28259610907546368 0 0.09654617820813291 -0.29053959721845851 0 0.08449133211067679 -0.27877046837401881 0 0.095751664491309882 -0.27965354718217272 0 0.09654617820813291 -0.29053959721845851 0 0.081531464292497274 -0.28935331027453037 0 0.089840334351325171 -0.29776256249865768 0 0.09654617820813291 -0.29053959721845851 0 0.089840334351325171 -0.29776256249865768 0 0.083457162131803264 -0.30454837250372663 0 0.073707507395077559 -0.29651568023294322 0 0.089840334351325171 -0.29776256249865768 0 0.083457162131803264 -0.30454837250372663 0 0.095184632239271566 -0.3075842632325006 0 0.083457162131803264 -0.30454837250372663 0 0.095184632239271566 -0.3075842632325006 0 0.086057060340490987 -0.31481853711975272 0 0.083457162131803264 -0.30454837250372663 0 0.072955918559156577 -0.30620793927650741 0 0.086057060340490987 -0.31481853711975272 0 0.072955918559156577 -0.30620793927650741 0 0.06529010433671549 -0.30022868522527602 0 0.073707507395077559 -0.29651568023294322 0 0.083457162131803264 -0.30454837250372663 0 0.072955918559156577 -0.30620793927650741 0 0.073707507395077559 -0.29651568023294322 0 0.072955918559156577 -0.30620793927650741 0 0.06529010433671549 -0.30022868522527602 0 0.059597386015003202 -0.30931944116854748 0 0.072955918559156577 -0.30620793927650741 0 0.072761420371114591 -0.31792361383037038 0 0.059597386015003202 -0.30931944116854748 0 0.06529010433671549 -0.30022868522527602 0 0.064603240330643061 -0.29295397044308619 0 0.073707507395077559 -0.29651568023294322 0 0.064603240330643061 -0.29295397044308619 0 0.073707507395077559 -0.29651568023294322 0 0.070199909016827086 -0.28598452716220202 0 0.089840334351325171 -0.29776256249865768 0 0.073707507395077559 -0.29651568023294322 0 0.070199909016827086 -0.28598452716220202 0 0.081531464292497274 -0.28935331027453037 0 0.071831305707257626 -0.28259610907546368 0 0.070199909016827086 -0.28598452716220202 0 0.064603240330643061 -0.29295397044308619 0 0.070199909016827086 -0.28598452716220202 0 0.056833253271372883 -0.28715423792635097 0 0.06960259183916645 -0.27165413813118577 0 0.064037040012199689 -0.26165385736732433 0 0.088645699996003691 -0.26910178443662658 0 0.071831305707257626 -0.28259610907546368 0 0.070199909016827086 -0.28598452716220202 0 0.050559483682329258 -0.27420649182574558 0 0.071831305707257626 -0.28259610907546368 0 0.06960259183916645 -0.27165413813118577 0 0.050559483682329258 -0.27420649182574558 0 0.071831305707257626 -0.28259610907546368 0 0.06960259183916645 -0.27165413813118577 0 0.08449133211067679 -0.27877046837401881 0 0.064037040012199689 -0.26165385736732433 0 0.088645699996003691 -0.26910178443662658 0 0.064037040012199689 -0.26165385736732433 0 0.088645699996003691 -0.26910178443662658 0 0.077056326583040818 -0.24878137367569911 0 0.064037040012199689 -0.26165385736732433 0 0.056063541621038521 -0.24362041398438261 0 0.077056326583040818 -0.24878137367569911 0 0.092927874553834333 -0.25142727875471849 0 0.088645699996003691 -0.26910178443662658 0 0.077056326583040818 -0.24878137367569911 0 0.06960259183916645 -0.27165413813118577 0 0.08449133211067679 -0.27877046837401881 0 0.088645699996003691 -0.26910178443662658 0 0.06960259183916645 -0.27165413813118577 0 0.088645699996003691 -0.26910178443662658 0 0.08449133211067679 -0.27877046837401881 0 0.088645699996003691 -0.26910178443662658 0 0.095751664491309882 -0.27965354718217272 0 0.088645699996003691 -0.26910178443662658 0 0.1051414905386433 -0.26689084851222727 0 0.10453942408073109 -0.27391209503137481 0 0.095751664491309882 -0.27965354718217272 0 0.10453942408073109 -0.27391209503137481 0 0.10153096897268141 -0.28231959738687751 0 0.088645699996003691 -0.26910178443662658 0 0.095751664491309882 -0.27965354718217272 0 0.10453942408073109 -0.27391209503137481 0 0.088645699996003691 -0.26910178443662658 0 0.1051414905386433 -0.26689084851222727 0 0.088645699996003691 -0.26910178443662658 0 0.10453942408073109 -0.27391209503137481 0 0.1051414905386433 -0.26689084851222727 0 0.10453942408073109 -0.27391209503137481 0 0.1140380253797153 -0.27119015611926328 0 0.10453942408073109 -0.27391209503137481 0 0.10928660911055189 -0.28517315011550431 0 0.10153096897268141 -0.28231959738687751 0 0.092927874553834333 -0.25142727875471849 0 0.088645699996003691 -0.26910178443662658 0 0.1024252553920903 -0.25724726699802292 0 0.088645699996003691 -0.26910178443662658 0 0.1051414905386433 -0.26689084851222727 0 0.1024252553920903 -0.25724726699802292 0 0.092927874553834333 -0.25142727875471849 0 0.1024252553920903 -0.25724726699802292 0 0.1039377824829307 -0.2473607053338055 0 0.1051414905386433 -0.26689084851222727 0 0.1024252553920903 -0.25724726699802292 0 0.1102399949151124 -0.26060409139878588 0 0.1024252553920903 -0.25724726699802292 0 0.1117559526484331 -0.25359833749706578 0 0.1039377824829307 -0.2473607053338055 0 0.1024252553920903 -0.25724726699802292 0 0.1117559526484331 -0.25359833749706578 0 0.1102399949151124 -0.26060409139878588 0 0.1051414905386433 -0.26689084851222727 0 0.1102399949151124 -0.26060409139878588 0 0.1216372810812828 -0.26467991258782791 0 0.1117559526484331 -0.25359833749706578 0 0.1206729215231577 -0.25104549537699072 0 0.1138730097407424 -0.2461866768253986 0 0.1117559526484331 -0.25359833749706578 0 0.1102399949151124 -0.26060409139878588 0 0.1216372810812828 -0.26467991258782791 0 0.12903626199286899 -0.25346210742832143 0 0.1216372810812828 -0.26467991258782791 0 0.1206729215231577 -0.25104549537699072 0 0.1117559526484331 -0.25359833749706578 0 0.1216372810812828 -0.26467991258782791 0 0.1206729215231577 -0.25104549537699072 0 0.1051414905386433 -0.26689084851222727 0 0.1216372810812828 -0.26467991258782791 0 0.1140380253797153 -0.27119015611926328 0 0.10453942408073109 -0.27391209503137481 0 0.1204331481654583 -0.27872240562612333 0 0.1051414905386433 -0.26689084851222727 0 0.1216372810812828 -0.26467991258782791 0 0.10453942408073109 -0.27391209503137481 0 0.1204331481654583 -0.27872240562612333 0 0.10928660911055189 -0.28517315011550431 0 0.10453942408073109 -0.27391209503137481 0 0.1140380253797153 -0.27119015611926328 0 0.1204331481654583 -0.27872240562612333 0 0.1216372810812828 -0.26467991258782791 0 0.1140380253797153 -0.27119015611926328 0 0.1204331481654583 -0.27872240562612333 0 0.12979379718899109 -0.27291628726155981 0 0.1216372810812828 -0.26467991258782791 0 0.1204331481654583 -0.27872240562612333 0 0.1204331481654583 -0.27872240562612333 0 0.10928660911055189 -0.28517315011550431 0 0.1212610507090081 -0.29848308536145329 0 0.13263554959180521 -0.28452374394732821 0 0.1204331481654583 -0.27872240562612333 0 0.1212610507090081 -0.29848308536145329 0 0.09654617820813291 -0.29053959721845851 0 0.1021459735517211 -0.30056228767489129 0 0.1212610507090081 -0.29848308536145329 0 0.10928660911055189 -0.28517315011550431 0 0.09654617820813291 -0.29053959721845851 0 0.10153096897268141 -0.28231959738687751 0 0.10928660911055189 -0.28517315011550431 0 0.09654617820813291 -0.29053959721845851 0 0.1212610507090081 -0.29848308536145329 0 0.09654617820813291 -0.29053959721845851 0 0.1212610507090081 -0.29848308536145329 0 0.089840334351325171 -0.29776256249865768 0 0.09654617820813291 -0.29053959721845851 0 0.1021459735517211 -0.30056228767489129 0 0.095751664491309882 -0.27965354718217272 0 0.09654617820813291 -0.29053959721845851 0 0.10153096897268141 -0.28231959738687751 0 0.089840334351325171 -0.29776256249865768 0 0.095184632239271566 -0.3075842632325006 0 0.1021459735517211 -0.30056228767489129 0 0.095184632239271566 -0.3075842632325006 0 0.1078976722508676 -0.30844193006338633 0 0.105102824314358 -0.32062163960883172 0 0.095184632239271566 -0.3075842632325006 0 0.1021459735517211 -0.30056228767489129 0 0.1078976722508676 -0.30844193006338633 0 0.1021459735517211 -0.30056228767489129 0 0.1078976722508676 -0.30844193006338633 0 0.1212610507090081 -0.29848308536145329 0 0.1078976722508676 -0.30844193006338633 0 0.1212610507090081 -0.29848308536145329 0 0.1195923907648492 -0.31578461612278819 0 0.12667610778984401 -0.3394979018465194 0 0.1195923907648492 -0.31578461612278819 0 0.105102824314358 -0.32062163960883172 0 0.1078976722508676 -0.30844193006338633 0 0.1195923907648492 -0.31578461612278819 0 0.105102824314358 -0.32062163960883172 0 0.12667610778984401 -0.3394979018465194 0 0.105102824314358 -0.32062163960883172 0 0.098421469616832888 -0.34666281674144928 0 0.105102824314358 -0.32062163960883172 0 0.098421469616832888 -0.34666281674144928 0 0.093037382909055277 -0.32931132509891309 0 0.105102824314358 -0.32062163960883172 0 0.086057060340490987 -0.31481853711975272 0 0.093037382909055277 -0.32931132509891309 0 0.095184632239271566 -0.3075842632325006 0 0.105102824314358 -0.32062163960883172 0 0.086057060340490987 -0.31481853711975272 0 0.12667610778984401 -0.3394979018465194 0 0.11632791681951959 -0.36711727995928811 0 0.12667610778984401 -0.3394979018465194 0 0.11632791681951959 -0.36711727995928811 0 0.098421469616832888 -0.34666281674144928 0 0.091608639279214671 -0.37560527361487922 0 0.11632791681951959 -0.36711727995928811 0 0.098421469616832888 -0.34666281674144928 0 0.091608639279214671 -0.37560527361487922 0 0.066324698568829832 -0.3822035196787969 0 0.076577456985558096 -0.35799251544438349 0 0.091608639279214671 -0.37560527361487922 0 0.098421469616832888 -0.34666281674144928 0 0.076577456985558096 -0.35799251544438349 0 0.098421469616832888 -0.34666281674144928 0 0.076577456985558096 -0.35799251544438349 0 0.078680018747287098 -0.33330134172473669 0 0.076577456985558096 -0.35799251544438349 0 0.078680018747287098 -0.33330134172473669 0 0.062679519953781446 -0.34170063728850769 0 0.076577456985558096 -0.35799251544438349 0 0.062679519953781446 -0.34170063728850769 0 0.050958685135782118 -0.35966005255027622 0 0.066324698568829832 -0.3822035196787969 0 0.076577456985558096 -0.35799251544438349 0 0.050958685135782118 -0.35966005255027622 0 0.086057060340490987 -0.31481853711975272 0 0.078680018747287098 -0.33330134172473669 0 0.072761420371114591 -0.31792361383037038 0 0.086057060340490987 -0.31481853711975272 0 0.093037382909055277 -0.32931132509891309 0 0.078680018747287098 -0.33330134172473669 0 0.098421469616832888 -0.34666281674144928 0 0.093037382909055277 -0.32931132509891309 0 0.078680018747287098 -0.33330134172473669 0 0.078680018747287098 -0.33330134172473669 0 0.062679519953781446 -0.34170063728850769 0 0.061225821054176441 -0.32469994654978018 0 0.078680018747287098 -0.33330134172473669 0 0.072761420371114591 -0.31792361383037038 0 0.061225821054176441 -0.32469994654978018 0 0.072955918559156577 -0.30620793927650741 0 0.086057060340490987 -0.31481853711975272 0 0.072761420371114591 -0.31792361383037038 0 0.072761420371114591 -0.31792361383037038 0 0.061225821054176441 -0.32469994654978018 0 0.059597386015003202 -0.30931944116854748 0 0.061225821054176441 -0.32469994654978018 0 0.046556241257517082 -0.33325695941685851 0 0.044096494921116773 -0.31684450805357189 0 0.061225821054176441 -0.32469994654978018 0 0.044096494921116773 -0.31684450805357189 0 0.059597386015003202 -0.30931944116854748 0 0.062679519953781446 -0.34170063728850769 0 0.061225821054176441 -0.32469994654978018 0 0.046556241257517082 -0.33325695941685851 0 0.046556241257517082 -0.33325695941685851 0 0.03202037601852379 -0.34499454068613072 0 0.030065366586288871 -0.32422798920023999 0 0.044096494921116773 -0.31684450805357189 0 0.030065366586288871 -0.32422798920023999 0 0.029838355233514351 -0.30786305752068821 0 0.046556241257517082 -0.33325695941685851 0 0.044096494921116773 -0.31684450805357189 0 0.030065366586288871 -0.32422798920023999 0 0.066324698568829832 -0.3822035196787969 0 0.049055839900257463 -0.37746566703989048 0 0.050958685135782118 -0.35966005255027622 0 0.062679519953781446 -0.34170063728850769 0 0.046556241257517082 -0.33325695941685851 0 0.050958685135782118 -0.35966005255027622 0 0.046556241257517082 -0.33325695941685851 0 0.050958685135782118 -0.35966005255027622 0 0.03202037601852379 -0.34499454068613072 0 0.050958685135782118 -0.35966005255027622 0 0.03202037601852379 -0.34499454068613072 0 0.02701309957473691 -0.36025324032458239 0 0.050958685135782118 -0.35966005255027622 0 0.03202037601852379 -0.34499454068613072 0 0.049055839900257463 -0.37746566703989048 0 0.050958685135782118 -0.35966005255027622 0 0.033600004962601571 -0.37475637910123588 0 0.050958685135782118 -0.35966005255027622 0 0.033600004962601571 -0.37475637910123588 0 0.02701309957473691 -0.36025324032458239 0 0.019944095431654991 -0.37260160596898828 0 0.02701309957473691 -0.36025324032458239 0 0.010528259395883579 -0.36261323690550418 0 0.033600004962601571 -0.37475637910123588 0 0.019944095431654991 -0.37260160596898828 0 0.02701309957473691 -0.36025324032458239 0 0.02701309957473691 -0.36025324032458239 0 0.01502717650397546 -0.34689362673535912 0 0.010528259395883579 -0.36261323690550418 0 0.03202037601852379 -0.34499454068613072 0 0.02701309957473691 -0.36025324032458239 0 0.01502717650397546 -0.34689362673535912 0 -0.0054738040968354334 -0.33820831142802682 0 0.010528259395883579 -0.36261323690550418 0 -0.0054738040968354334 -0.33820831142802682 0 0.00070469466344070218 -0.35366527386759589 0 0.010528259395883579 -0.36261323690550418 0 -0.0054738040968354334 -0.33820831142802682 0 0.01502717650397546 -0.34689362673535912 0 0.010528259395883579 -0.36261323690550418 0 0.0089110281326635777 -0.37995103884739662 0 0.00070469466344070218 -0.35366527386759589 0 -0.00024599811553788209 -0.37123979155157932 0 0.0089110281326635777 -0.37995103884739662 0 0.00070469466344070218 -0.35366527386759589 0 0.0089110281326635777 -0.37995103884739662 0 0.00070469466344070218 -0.35366527386759589 0 0.010528259395883579 -0.36261323690550418 0 0.0089110281326635777 -0.37995103884739662 0 0.019944095431654991 -0.37260160596898828 0 0.010528259395883579 -0.36261323690550418 0 0.030065366586288871 -0.32422798920023999 0 0.01556803846613254 -0.31229977466713921 0 0.029838355233514351 -0.30786305752068821 0 0.030065366586288871 -0.32422798920023999 0 0.01308206690126551 -0.33032902882198523 0 0.01556803846613254 -0.31229977466713921 0 0.03202037601852379 -0.34499454068613072 0 0.01502717650397546 -0.34689362673535912 0 0.01308206690126551 -0.33032902882198523 0 0.03202037601852379 -0.34499454068613072 0 0.030065366586288871 -0.32422798920023999 0 0.01308206690126551 -0.33032902882198523 0 0.03202037601852379 -0.34499454068613072 0 0.01308206690126551 -0.33032902882198523 0 -0.0054738040968354334 -0.33820831142802682 0 0.01502717650397546 -0.34689362673535912 0 0.01308206690126551 -0.33032902882198523 0 -0.0058562422159927369 -0.31566351695783967 0 0.01308206690126551 -0.33032902882198523 0 -0.0058562422159927369 -0.31566351695783967 0 -0.0054738040968354334 -0.33820831142802682 0 0.01308206690126551 -0.33032902882198523 0 -0.0058562422159927369 -0.31566351695783967 0 0.01308206690126551 -0.33032902882198523 0 0.01556803846613254 -0.31229977466713921 0 -0.001672395886785232 -0.28903979919491629 0 0.01556803846613254 -0.31229977466713921 0 0.0187416931647349 -0.2974915725875335 0 -0.001672395886785232 -0.28903979919491629 0 0.01556803846613254 -0.31229977466713921 0 -0.0099433396684511944 -0.30138064144538018 0 -0.001672395886785232 -0.28903979919491629 0 0.01556803846613254 -0.31229977466713921 0 -0.001672395886785232 -0.28903979919491629 0 0.017789716485280681 -0.28406018111269032 0 0.0080328050355413533 -0.27844408171548718 0 -0.001672395886785232 -0.28903979919491629 0 0.017789716485280681 -0.28406018111269032 0 0.0187416931647349 -0.2974915725875335 0 0.017789716485280681 -0.28406018111269032 0 0.0187416931647349 -0.2974915725875335 0 0.032954124805868949 -0.29441498440716712 0 0.017789716485280681 -0.28406018111269032 0 0.032954124805868949 -0.29441498440716712 0 0.029015201977494409 -0.28045600562234851 0 0.01556803846613254 -0.31229977466713921 0 0.0187416931647349 -0.2974915725875335 0 0.029838355233514351 -0.30786305752068821 0 0.0187416931647349 -0.2974915725875335 0 0.029838355233514351 -0.30786305752068821 0 0.032954124805868949 -0.29441498440716712 0 0.044096494921116773 -0.31684450805357189 0 0.029838355233514351 -0.30786305752068821 0 0.043881274033922217 -0.30246798515792161 0 0.029838355233514351 -0.30786305752068821 0 0.043881274033922217 -0.30246798515792161 0 0.032954124805868949 -0.29441498440716712 0 0.032954124805868949 -0.29441498440716712 0 0.045643463001704673 -0.28854348313968142 0 0.035891443315276113 -0.27617245382703381 0 0.032954124805868949 -0.29441498440716712 0 0.035891443315276113 -0.27617245382703381 0 0.029015201977494409 -0.28045600562234851 0 0.032954124805868949 -0.29441498440716712 0 0.035891443315276113 -0.27617245382703381 0 0.043881274033922217 -0.30246798515792161 0 0.032954124805868949 -0.29441498440716712 0 0.045643463001704673 -0.28854348313968142 0 0.070199909016827086 -0.28598452716220202 0 0.056833253271372883 -0.28715423792635097 0 0.050559483682329258 -0.27420649182574558 0 0.045643463001704673 -0.28854348313968142 0 0.056833253271372883 -0.28715423792635097 0 0.055586469383697087 -0.29614639500529572 0 0.043881274033922217 -0.30246798515792161 0 0.045643463001704673 -0.28854348313968142 0 0.055586469383697087 -0.29614639500529572 0 0.045643463001704673 -0.28854348313968142 0 0.056833253271372883 -0.28715423792635097 0 0.050559483682329258 -0.27420649182574558 0 0.064603240330643061 -0.29295397044308619 0 0.056833253271372883 -0.28715423792635097 0 0.055586469383697087 -0.29614639500529572 0 0.06529010433671549 -0.30022868522527602 0 0.064603240330643061 -0.29295397044308619 0 0.055586469383697087 -0.29614639500529572 0 0.043881274033922217 -0.30246798515792161 0 0.055586469383697087 -0.29614639500529572 0 0.059597386015003202 -0.30931944116854748 0 0.06529010433671549 -0.30022868522527602 0 0.055586469383697087 -0.29614639500529572 0 0.059597386015003202 -0.30931944116854748 0 0.044096494921116773 -0.31684450805357189 0 0.043881274033922217 -0.30246798515792161 0 0.059597386015003202 -0.30931944116854748 0 0.064037040012199689 -0.26165385736732433 0 0.03942838002839609 -0.25420593029802058 0 0.056063541621038521 -0.24362041398438261 0 0.064037040012199689 -0.26165385736732433 0 0.050559483682329258 -0.27420649182574558 0 0.03942838002839609 -0.25420593029802058 0 0.064037040012199689 -0.26165385736732433 0 0.03942838002839609 -0.25420593029802058 0 0.06960259183916645 -0.27165413813118577 0 0.050559483682329258 -0.27420649182574558 0 0.06960259183916645 -0.27165413813118577 0 0.064037040012199689 -0.26165385736732433 0 0.050559483682329258 -0.27420649182574558 0 0.070199909016827086 -0.28598452716220202 0 0.050559483682329258 -0.27420649182574558 0 0.050559483682329258 -0.27420649182574558 0 0.035891443315276113 -0.27617245382703381 0 0.037471719738319739 -0.26635797818195228 0 0.050559483682329258 -0.27420649182574558 0 0.037471719738319739 -0.26635797818195228 0 0.050559483682329258 -0.27420649182574558 0 0.035891443315276113 -0.27617245382703381 0 0.045643463001704673 -0.28854348313968142 0 0.050559483682329258 -0.27420649182574558 0 0.035891443315276113 -0.27617245382703381 0 0.035891443315276113 -0.27617245382703381 0 0.033620783312707882 -0.27647679109167139 0 0.03222858804504232 -0.27221398725061979 0 0.033620783312707882 -0.27647679109167139 0 0.03222858804504232 -0.27221398725061979 0 0.0284641509034863 -0.27439449834855578 0 0.035891443315276113 -0.27617245382703381 0 0.033620783312707882 -0.27647679109167139 0 0.035891443315276113 -0.27617245382703381 0 0.033620783312707882 -0.27647679109167139 0 0.029015201977494409 -0.28045600562234851 0 0.037471719738319739 -0.26635797818195228 0 0.03222858804504232 -0.27221398725061979 0 0.025694842955422681 -0.26766821480388592 0 0.035891443315276113 -0.27617245382703381 0 0.037471719738319739 -0.26635797818195228 0 0.035891443315276113 -0.27617245382703381 0 0.037471719738319739 -0.26635797818195228 0 0.03222858804504232 -0.27221398725061979 0 0.050559483682329258 -0.27420649182574558 0 0.037471719738319739 -0.26635797818195228 0 0.03942838002839609 -0.25420593029802058 0 0.037471719738319739 -0.26635797818195228 0 0.03942838002839609 -0.25420593029802058 0 0.037471719738319739 -0.26635797818195228 0 0.03942838002839609 -0.25420593029802058 0 0.021303747614659391 -0.25666231509176302 0 0.037471719738319739 -0.26635797818195228 0 0.021303747614659391 -0.25666231509176302 0 0.037471719738319739 -0.26635797818195228 0 0.021303747614659391 -0.25666231509176302 0 0.025694842955422681 -0.26766821480388592 0 0.03942838002839609 -0.25420593029802058 0 0.01823264062606501 -0.24779093974785071 0 0.03942838002839609 -0.25420593029802058 0 0.021303747614659391 -0.25666231509176302 0 0.01823264062606501 -0.24779093974785071 0 0.01815528751655613 -0.26386868131177849 0 0.021303747614659391 -0.25666231509176302 0 0.025694842955422681 -0.26766821480388592 0 0.01815528751655613 -0.26386868131177849 0 0.021303747614659391 -0.25666231509176302 0 0.0097192396090850786 -0.25993642970176212 0 0.033620783312707882 -0.27647679109167139 0 0.029015201977494409 -0.28045600562234851 0 0.0284641509034863 -0.27439449834855578 0 0.029015201977494409 -0.28045600562234851 0 0.0284641509034863 -0.27439449834855578 0 0.023135119102871159 -0.27542187922420158 0 0.0284641509034863 -0.27439449834855578 0 0.025694842955422681 -0.26766821480388592 0 0.023135119102871159 -0.27542187922420158 0 0.03222858804504232 -0.27221398725061979 0 0.0284641509034863 -0.27439449834855578 0 0.025694842955422681 -0.26766821480388592 0 0.01815528751655613 -0.26386868131177849 0 0.025694842955422681 -0.26766821480388592 0 0.014748867143384669 -0.2709824177262572 0 0.025694842955422681 -0.26766821480388592 0 0.023135119102871159 -0.27542187922420158 0 0.014748867143384669 -0.2709824177262572 0 0.017789716485280681 -0.28406018111269032 0 0.029015201977494409 -0.28045600562234851 0 0.023135119102871159 -0.27542187922420158 0 0.017789716485280681 -0.28406018111269032 0 0.023135119102871159 -0.27542187922420158 0 0.014748867143384669 -0.2709824177262572 0 -0.001672395886785232 -0.28903979919491629 0 0.0080328050355413533 -0.27844408171548718 0 0.0012650324002853009 -0.26969392882808513 0 0.017789716485280681 -0.28406018111269032 0 0.0080328050355413533 -0.27844408171548718 0 0.014748867143384669 -0.2709824177262572 0 0.0080328050355413533 -0.27844408171548718 0 0.014748867143384669 -0.2709824177262572 0 0.0012650324002853009 -0.26969392882808513 0 0.014748867143384669 -0.2709824177262572 0 0.0012650324002853009 -0.26969392882808513 0 0.0097192396090850786 -0.25993642970176212 0 0.021303747614659391 -0.25666231509176302 0 0.0097192396090850786 -0.25993642970176212 0 0.0051357754909989034 -0.24696665200157411 0 0.021303747614659391 -0.25666231509176302 0 0.0051357754909989034 -0.24696665200157411 0 0.01823264062606501 -0.24779093974785071 0 0.021303747614659391 -0.25666231509176302 0 0.0051357754909989034 -0.24696665200157411 0 0.01815528751655613 -0.26386868131177849 0 0.014748867143384669 -0.2709824177262572 0 0.0097192396090850786 -0.25993642970176212 0 -0.0037676009972298589 -0.25546460003562632 0 0.0012650324002853009 -0.26969392882808513 0 0.0097192396090850786 -0.25993642970176212 0 -0.0037676009972298589 -0.25546460003562632 0 0.0097192396090850786 -0.25993642970176212 0 0.0051357754909989034 -0.24696665200157411 0 -0.0029630987762654971 -0.24137594919767921 0 0.0086927904450992896 -0.23909920926165609 0 0.01823264062606501 -0.24779093974785071 0 -0.0029630987762654971 -0.24137594919767921 0 0.0051357754909989034 -0.24696665200157411 0 0.01823264062606501 -0.24779093974785071 0 -0.0029630987762654971 -0.24137594919767921 0 0.01823264062606501 -0.24779093974785071 0 0.0086927904450992896 -0.23909920926165609 0 0.015380730248236191 -0.23665891212818169 0 0.01823264062606501 -0.24779093974785071 0 0.0086927904450992896 -0.23909920926165609 0 0.015380730248236191 -0.23665891212818169 0 0.0041208896823614616 -0.23057103597291281 0 -0.0029630987762654971 -0.24137594919767921 0 0.0086927904450992896 -0.23909920926165609 0 0.0041208896823614616 -0.23057103597291281 0 0.0041208896823614616 -0.23057103597291281 0 0.02225376786309027 -0.2262352559955724 0 0.0099342152993651192 -0.2106144727812147 0 0.015380730248236191 -0.23665891212818169 0 0.0041208896823614616 -0.23057103597291281 0 0.02225376786309027 -0.2262352559955724 0 0.02225376786309027 -0.2262352559955724 0 0.02695960938375307 -0.20353573601804381 0 0.043591848936401063 -0.22834826160105501 0 0.03942838002839609 -0.25420593029802058 0 0.030223279440906511 -0.24041302833337699 0 0.01823264062606501 -0.24779093974785071 0 0.015380730248236191 -0.23665891212818169 0 0.02225376786309027 -0.2262352559955724 0 0.030223279440906511 -0.24041302833337699 0 0.015380730248236191 -0.23665891212818169 0 0.030223279440906511 -0.24041302833337699 0 0.01823264062606501 -0.24779093974785071 0 -0.01070764475568931 -0.18871689110466081 0 0.0093347905219219006 -0.19230756749936781 0 0.0099342152993651192 -0.2106144727812147 0 0.0093347905219219006 -0.19230756749936781 0 0.0099342152993651192 -0.2106144727812147 0 0.02695960938375307 -0.20353573601804381 0 0.02225376786309027 -0.2262352559955724 0 0.0099342152993651192 -0.2106144727812147 0 0.02695960938375307 -0.20353573601804381 0 0.02695960938375307 -0.20353573601804381 0 0.038777565067345407 -0.18098195034956371 0 0.018578459390080931 -0.18178806989193799 0 0.0093347905219219006 -0.19230756749936781 0 0.02695960938375307 -0.20353573601804381 0 0.018578459390080931 -0.18178806989193799 0 0.047755317844405849 -0.20249059290408911 0 0.068618739516871932 -0.2102280532928715 0 0.061555995479001341 -0.17437673818576269 0 0.02695960938375307 -0.20353573601804381 0 0.047755317844405849 -0.20249059290408911 0 0.038777565067345407 -0.18098195034956371 0 0.047755317844405849 -0.20249059290408911 0 0.043591848936401063 -0.22834826160105501 0 0.02695960938375307 -0.20353573601804381 0 0.047755317844405849 -0.20249059290408911 0 0.043591848936401063 -0.22834826160105501 0 0.047755317844405849 -0.20249059290408911 0 0.043591848936401063 -0.22834826160105501 0 0.068618739516871932 -0.2102280532928715 0 0.03942838002839609 -0.25420593029802058 0 0.030223279440906511 -0.24041302833337699 0 0.043591848936401063 -0.22834826160105501 0 0.03942838002839609 -0.25420593029802058 0 0.043591848936401063 -0.22834826160105501 0 0.056063541621038521 -0.24362041398438261 0 0.03942838002839609 -0.25420593029802058 0 0.043591848936401063 -0.22834826160105501 0 0.02225376786309027 -0.2262352559955724 0 0.030223279440906511 -0.24041302833337699 0 0.043591848936401063 -0.22834826160105501 0 0.043591848936401063 -0.22834826160105501 0 0.070966164052119501 -0.23064929325455641 0 0.068618739516871932 -0.2102280532928715 0 0.043591848936401063 -0.22834826160105501 0 0.056063541621038521 -0.24362041398438261 0 0.070966164052119501 -0.23064929325455641 0 0.056063541621038521 -0.24362041398438261 0 0.077056326583040818 -0.24878137367569911 0 0.070966164052119501 -0.23064929325455641 0 0.077056326583040818 -0.24878137367569911 0 0.092878267428806144 -0.23447722117737271 0 0.070966164052119501 -0.23064929325455641 0 0.092927874553834333 -0.25142727875471849 0 0.077056326583040818 -0.24878137367569911 0 0.092878267428806144 -0.23447722117737271 0 0.092878267428806144 -0.23447722117737271 0 0.070966164052119501 -0.23064929325455641 0 0.08485130473026091 -0.21654968888599491 0 0.092878267428806144 -0.23447722117737271 0 0.08485130473026091 -0.21654968888599491 0 0.1032890171293407 -0.2111733987309988 0 0.070966164052119501 -0.23064929325455641 0 0.068618739516871932 -0.2102280532928715 0 0.08485130473026091 -0.21654968888599491 0 0.068618739516871932 -0.2102280532928715 0 0.082422506304171056 -0.19277506845838069 0 0.061555995479001341 -0.17437673818576269 0 0.082422506304171056 -0.19277506845838069 0 0.1032890171293407 -0.2111733987309988 0 0.082422506304171056 -0.19277506845838069 0 0.08485130473026091 -0.21654968888599491 0 0.1032890171293407 -0.2111733987309988 0 0.068618739516871932 -0.2102280532928715 0 0.082422506304171056 -0.19277506845838069 0 0.08485130473026091 -0.21654968888599491 0 0.082422506304171056 -0.19277506845838069 0 0.1032890171293407 -0.2111733987309988 0 0.11336324313313791 -0.1929243194269652 0 0.11336324313313791 -0.1929243194269652 0 0.12075699680342419 -0.2125329804658119 0 0.13186209510086119 -0.2025322016544257 0 0.1032890171293407 -0.2111733987309988 0 0.12075699680342419 -0.2125329804658119 0 0.12415552795451019 -0.22957172900361711 0 0.1032890171293407 -0.2111733987309988 0 0.11336324313313791 -0.1929243194269652 0 0.12075699680342419 -0.2125329804658119 0 0.1032890171293407 -0.2111733987309988 0 0.12415552795451019 -0.22957172900361711 0 0.1089901383417238 -0.2384281316975744 0 0.1032890171293407 -0.2111733987309988 0 0.12415552795451019 -0.22957172900361711 0 0.12415552795451019 -0.22957172900361711 0 0.1089901383417238 -0.2384281316975744 0 0.12415552795451019 -0.22957172900361711 0 0.1217885987790958 -0.24142154113282069 0 0.1089901383417238 -0.2384281316975744 0 0.1206729215231577 -0.25104549537699072 0 0.1217885987790958 -0.24142154113282069 0 0.1138730097407424 -0.2461866768253986 0 0.1206729215231577 -0.25104549537699072 0 0.1217885987790958 -0.24142154113282069 0 0.1285193151480771 -0.24469918824912659 0 0.1117559526484331 -0.25359833749706578 0 0.1138730097407424 -0.2461866768253986 0 0.1039377824829307 -0.2473607053338055 0 0.1217885987790958 -0.24142154113282069 0 0.1138730097407424 -0.2461866768253986 0 0.1089901383417238 -0.2384281316975744 0 0.092878267428806144 -0.23447722117737271 0 0.1089901383417238 -0.2384281316975744 0 0.1039377824829307 -0.2473607053338055 0 0.092927874553834333 -0.25142727875471849 0 0.092878267428806144 -0.23447722117737271 0 0.1039377824829307 -0.2473607053338055 0 0.1138730097407424 -0.2461866768253986 0 0.1089901383417238 -0.2384281316975744 0 0.1039377824829307 -0.2473607053338055 0 0.092878267428806144 -0.23447722117737271 0 0.1032890171293407 -0.2111733987309988 0 0.1089901383417238 -0.2384281316975744 0 0.1109844071791186 -0.14451373860099631 0 0.1140981411329401 -0.160318739719921 0 0.089530624012526178 -0.15260657733446251 0 0.1109844071791186 -0.14451373860099631 0 0.089530624012526178 -0.15260657733446251 0 0.091420662539376696 -0.1284368183015972 0 0.1109844071791186 -0.14451373860099631 0 0.089530624012526178 -0.15260657733446251 0 0.1109844071791186 -0.14451373860099631 0 0.091420662539376696 -0.1284368183015972 0 0.11341959945555349 -0.1198679163152221 0 0.1109844071791186 -0.14451373860099631 0 0.11341959945555349 -0.1198679163152221 0 0.13243819034571089 -0.13642089986752959 0 0.1109844071791186 -0.14451373860099631 0 0.13243819034571089 -0.13642089986752959 0 0.1109844071791186 -0.14451373860099631 0 0.1230623871309196 -0.14895335695444839 0 0.13243819034571089 -0.13642089986752959 0 0.1109844071791186 -0.14451373860099631 0 0.1230623871309196 -0.14895335695444839 0 0.1140981411329401 -0.160318739719921 0 0.1230623871309196 -0.14895335695444839 0 0.1140981411329401 -0.160318739719921 0 0.12887174430618481 -0.1592005579403753 0 0.1140981411329401 -0.160318739719921 0 0.13036691970352299 -0.18086637979740061 0 0.12887174430618481 -0.1592005579403753 0 0.11336324313313791 -0.1929243194269652 0 0.1017727644653684 -0.17577182769184299 0 0.13036691970352299 -0.18086637979740061 0 0.1140981411329401 -0.160318739719921 0 0.1017727644653684 -0.17577182769184299 0 0.13036691970352299 -0.18086637979740061 0 0.082422506304171056 -0.19277506845838069 0 0.11336324313313791 -0.1929243194269652 0 0.1017727644653684 -0.17577182769184299 0 0.1140981411329401 -0.160318739719921 0 0.1017727644653684 -0.17577182769184299 0 0.089530624012526178 -0.15260657733446251 0 0.080671746221400151 -0.17124592554767551 0 0.068076840845933725 -0.16069941606792859 0 0.089530624012526178 -0.15260657733446251 0 0.068076840845933725 -0.16069941606792859 0 0.089530624012526178 -0.15260657733446251 0 0.1017727644653684 -0.17577182769184299 0 0.080671746221400151 -0.17124592554767551 0 0.089530624012526178 -0.15260657733446251 0 0.082422506304171056 -0.19277506845838069 0 0.1017727644653684 -0.17577182769184299 0 0.080671746221400151 -0.17124592554767551 0 0.082422506304171056 -0.19277506845838069 0 0.080671746221400151 -0.17124592554767551 0 0.061555995479001341 -0.17437673818576269 0 0.082422506304171056 -0.19277506845838069 0 0.061555995479001341 -0.17437673818576269 0 0.080671746221400151 -0.17124592554767551 0 0.068076840845933725 -0.16069941606792859 0 0.061555995479001341 -0.17437673818576269 0 0.068076840845933725 -0.16069941606792859 0 0.089530624012526178 -0.15260657733446251 0 0.071295635117029618 -0.1367493390311714 0 0.068076840845933725 -0.16069941606792859 0 0.071295635117029618 -0.1367493390311714 0 0.056463195311278143 -0.14361371547042431 0 0.089530624012526178 -0.15260657733446251 0 0.091420662539376696 -0.1284368183015972 0 0.071295635117029618 -0.1367493390311714 0 0.091420662539376696 -0.1284368183015972 0 0.071295635117029618 -0.1367493390311714 0 0.069694843366783332 -0.1126370124657279 0 0.040689484653831647 -0.1559784079131446 0 0.01982297382866199 -0.13758007764052649 0 0.045790820628317561 -0.1210276988694528 0 0.056463195311278143 -0.14361371547042431 0 0.040689484653831647 -0.1559784079131446 0 0.045790820628317561 -0.1210276988694528 0 0.071295635117029618 -0.1367493390311714 0 0.056463195311278143 -0.14361371547042431 0 0.045790820628317561 -0.1210276988694528 0 0.068076840845933725 -0.16069941606792859 0 0.056463195311278143 -0.14361371547042431 0 0.040689484653831647 -0.1559784079131446 0 0.047755317844405849 -0.20249059290408911 0 0.061555995479001341 -0.17437673818576269 0 0.038777565067345407 -0.18098195034956371 0 0.040689484653831647 -0.1559784079131446 0 0.061555995479001341 -0.17437673818576269 0 0.038777565067345407 -0.18098195034956371 0 0.068076840845933725 -0.16069941606792859 0 0.040689484653831647 -0.1559784079131446 0 0.061555995479001341 -0.17437673818576269 0 0.040689484653831647 -0.1559784079131446 0 0.061555995479001341 -0.17437673818576269 0 0.040689484653831647 -0.1559784079131446 0 0.038777565067345407 -0.18098195034956371 0 0.017342825313188651 -0.16159566359566491 0 0.038777565067345407 -0.18098195034956371 0 0.018578459390080931 -0.18178806989193799 0 0.017342825313188651 -0.16159566359566491 0 -0.0024628466161756421 -0.1602726340402203 0 0.017342825313188651 -0.16159566359566491 0 0.0028716684178432539 -0.176104986180316 0 -0.01070764475568931 -0.18871689110466081 0 0.0093347905219219006 -0.19230756749936781 0 0.0028716684178432539 -0.176104986180316 0 0.018578459390080931 -0.18178806989193799 0 0.017342825313188651 -0.16159566359566491 0 0.0028716684178432539 -0.176104986180316 0 0.0093347905219219006 -0.19230756749936781 0 0.018578459390080931 -0.18178806989193799 0 0.0028716684178432539 -0.176104986180316 0 0.040689484653831647 -0.1559784079131446 0 0.017342825313188651 -0.16159566359566491 0 0.01982297382866199 -0.13758007764052649 0 0.040689484653831647 -0.1559784079131446 0 0.01982297382866199 -0.13758007764052649 0 -0.0035679149115061628 -0.14124214058008361 0 -0.0024628466161756421 -0.1602726340402203 0 0.017342825313188651 -0.16159566359566491 0 -0.0035679149115061628 -0.14124214058008361 0 0.017342825313188651 -0.16159566359566491 0 0.01982297382866199 -0.13758007764052649 0 -0.001043536996507721 -0.1191817473679085 0 0.01982297382866199 -0.13758007764052649 0 0.015686923743491881 -0.1206111404556811 0 -0.001043536996507721 -0.1191817473679085 0 -0.0035679149115061628 -0.14124214058008361 0 0.01982297382866199 -0.13758007764052649 0 -0.001043536996507721 -0.1191817473679085 0 0.01982297382866199 -0.13758007764052649 0 -0.001043536996507721 -0.1191817473679085 0 0.0046327842355795186 -0.1097690924407289 0 0.015686923743491881 -0.1206111404556811 0 0.0046327842355795186 -0.1097690924407289 0 0.015686923743491881 -0.1206111404556811 0 0.01492788339026305 -0.1050887188810003 0 0.01982297382866199 -0.13758007764052649 0 0.015686923743491881 -0.1206111404556811 0 0.029736165386098318 -0.11283289575548119 0 0.015686923743491881 -0.1206111404556811 0 0.029736165386098318 -0.11283289575548119 0 0.01492788339026305 -0.1050887188810003 0 0.025213303022391331 -0.099743927573230876 0 0.01492788339026305 -0.1050887188810003 0 0.016804065840755378 -0.08827403666453143 0 0.029736165386098318 -0.11283289575548119 0 0.025213303022391331 -0.099743927573230876 0 0.01492788339026305 -0.1050887188810003 0 0.01492788339026305 -0.1050887188810003 0 0.0013244843624020371 -0.094741037539600739 0 0.016804065840755378 -0.08827403666453143 0 0.0046327842355795186 -0.1097690924407289 0 0.01492788339026305 -0.1050887188810003 0 0.0013244843624020371 -0.094741037539600739 0 0.0013244843624020371 -0.094741037539600739 0 0.0030420178430166892 -0.078936690626402614 0 0.016804065840755378 -0.08827403666453143 0 0.0030420178430166892 -0.078936690626402614 0 0.0146637776422533 -0.072896953850064866 0 0.016804065840755378 -0.08827403666453143 0 0.0030420178430166892 -0.078936690626402614 0 0.0146637776422533 -0.072896953850064866 0 0.002171372446112714 -0.058618858002487888 0 0.0146637776422533 -0.072896953850064866 0 0.002171372446112714 -0.058618858002487888 0 0.01555452117937692 -0.059262408920646152 0 0.0146637776422533 -0.072896953850064866 0 0.023750759848435971 -0.066075036479633004 0 0.030707663688686038 -0.080061373599117747 0 0.0146637776422533 -0.072896953850064866 0 0.023750759848435971 -0.066075036479633004 0 0.01555452117937692 -0.059262408920646152 0 0.023750759848435971 -0.066075036479633004 0 0.030707663688686038 -0.080061373599117747 0 0.037495395218885237 -0.064812448276693232 0 0.025213303022391331 -0.099743927573230876 0 0.016804065840755378 -0.08827403666453143 0 0.030707663688686038 -0.080061373599117747 0 0.0146637776422533 -0.072896953850064866 0 0.016804065840755378 -0.08827403666453143 0 0.030707663688686038 -0.080061373599117747 0 0.025213303022391331 -0.099743927573230876 0 0.030707663688686038 -0.080061373599117747 0 0.039818674157096973 -0.097891350657800982 0 0.030707663688686038 -0.080061373599117747 0 0.047897886096722471 -0.076921575742445653 0 0.039818674157096973 -0.097891350657800982 0 0.037495395218885237 -0.064812448276693232 0 0.047897886096722471 -0.076921575742445653 0 0.052720605879770552 -0.06028916088505816 0 0.030707663688686038 -0.080061373599117747 0 0.037495395218885237 -0.064812448276693232 0 0.047897886096722471 -0.076921575742445653 0 0.047897886096722471 -0.076921575742445653 0 0.052720605879770552 -0.06028916088505816 0 0.063642447792521775 -0.069171224461213016 0 0.047897886096722471 -0.076921575742445653 0 0.062135481343351583 -0.088663829471390329 0 0.039818674157096973 -0.097891350657800982 0 0.047897886096722471 -0.076921575742445653 0 0.062135481343351583 -0.088663829471390329 0 0.063642447792521775 -0.069171224461213016 0 0.062135481343351583 -0.088663829471390329 0 0.054359954873887353 -0.105054972866093 0 0.039818674157096973 -0.097891350657800982 0 0.062135481343351583 -0.088663829471390329 0 0.054359954873887353 -0.105054972866093 0 0.069694843366783332 -0.1126370124657279 0 0.054359954873887353 -0.105054972866093 0 0.045790820628317561 -0.1210276988694528 0 0.069694843366783332 -0.1126370124657279 0 0.045790820628317561 -0.1210276988694528 0 0.069694843366783332 -0.1126370124657279 0 0.071295635117029618 -0.1367493390311714 0 0.045790820628317561 -0.1210276988694528 0 0.069694843366783332 -0.1126370124657279 0 0.01982297382866199 -0.13758007764052649 0 0.029736165386098318 -0.11283289575548119 0 0.045790820628317561 -0.1210276988694528 0 0.029736165386098318 -0.11283289575548119 0 0.045790820628317561 -0.1210276988694528 0 0.039818674157096973 -0.097891350657800982 0 0.054359954873887353 -0.105054972866093 0 0.045790820628317561 -0.1210276988694528 0 0.039818674157096973 -0.097891350657800982 0 0.029736165386098318 -0.11283289575548119 0 0.025213303022391331 -0.099743927573230876 0 0.039818674157096973 -0.097891350657800982 0 0.016380542671817849 -9.4010737341792714e-05 0 0.012275101599124399 -0.018275795654806051 0 0.031324439248817088 -0.0054374493414821234 0 0.0038335246810187419 0.0028210596814118639 0 0.016380542671817849 -9.4010737341792714e-05 0 0.012275101599124399 -0.018275795654806051 0 -0.015120462510579869 -0.0097122517518174346 0 0.0038335246810187419 0.0028210596814118639 0 0.012275101599124399 -0.018275795654806051 0 -0.0039213121239204214 -0.024019612186942811 0 0.012275101599124399 -0.018275795654806051 0 0.0064710913855901032 -0.02805553134041756 0 -0.0039213121239204214 -0.024019612186942811 0 -0.0015365045248385699 -0.037671365160683951 0 0.0064710913855901032 -0.02805553134041756 0 0.012275101599124399 -0.018275795654806051 0 0.0064710913855901032 -0.02805553134041756 0 0.019067080591995009 -0.032255352359237453 0 0.012275101599124399 -0.018275795654806051 0 0.039670665708829177 -0.026839339557793201 0 0.012275101599124399 -0.018275795654806051 0 0.019067080591995009 -0.032255352359237453 0 0.039670665708829177 -0.026839339557793201 0 0.012275101599124399 -0.018275795654806051 0 0.039670665708829177 -0.026839339557793201 0 0.031324439248817088 -0.0054374493414821234 0 0.019067080591995009 -0.032255352359237453 0 0.039670665708829177 -0.026839339557793201 0 0.019067080591995009 -0.032255352359237453 0 0.01359492694841675 -0.046625031095016388 0 0.032187500986261122 -0.040269964360212428 0 0.019067080591995009 -0.032255352359237453 0 0.032187500986261122 -0.040269964360212428 0 0.039670665708829177 -0.026839339557793201 0 -0.0015365045248385699 -0.037671365160683951 0 0.0064710913855901032 -0.02805553134041756 0 0.019067080591995009 -0.032255352359237453 0 -0.0015365045248385699 -0.037671365160683951 0 0.019067080591995009 -0.032255352359237453 0 -0.0015365045248385699 -0.037671365160683951 0 0.019067080591995009 -0.032255352359237453 0 0.01359492694841675 -0.046625031095016388 0 -0.0015365045248385699 -0.037671365160683951 0 0.01359492694841675 -0.046625031095016388 0 -0.0015365045248385699 -0.037671365160683951 0 0.01359492694841675 -0.046625031095016388 0 0.002171372446112714 -0.058618858002487888 0 0.01359492694841675 -0.046625031095016388 0 0.002171372446112714 -0.058618858002487888 0 0.01555452117937692 -0.059262408920646152 0 0.023750759848435971 -0.066075036479633004 0 0.01555452117937692 -0.059262408920646152 0 0.026827075383781849 -0.053845331550711431 0 0.01359492694841675 -0.046625031095016388 0 0.026827075383781849 -0.053845331550711431 0 0.032187500986261122 -0.040269964360212428 0 0.01359492694841675 -0.046625031095016388 0 0.01555452117937692 -0.059262408920646152 0 0.026827075383781849 -0.053845331550711431 0 0.023750759848435971 -0.066075036479633004 0 0.037495395218885237 -0.064812448276693232 0 0.026827075383781849 -0.053845331550711431 0 0.026827075383781849 -0.053845331550711431 0 0.043213769296177373 -0.050984479935178129 0 0.032187500986261122 -0.040269964360212428 0 0.037495395218885237 -0.064812448276693232 0 0.026827075383781849 -0.053845331550711431 0 0.043213769296177373 -0.050984479935178129 0 0.037495395218885237 -0.064812448276693232 0 0.043213769296177373 -0.050984479935178129 0 0.052720605879770552 -0.06028916088505816 0 0.052720605879770552 -0.06028916088505816 0 0.066458959598475642 -0.054293261998741273 0 0.063642447792521775 -0.069171224461213016 0 0.052720605879770552 -0.06028916088505816 0 0.057615177275840868 -0.045551974896077707 0 0.066458959598475642 -0.054293261998741273 0 0.043213769296177373 -0.050984479935178129 0 0.052720605879770552 -0.06028916088505816 0 0.057615177275840868 -0.045551974896077707 0 0.059877431769627058 -0.033155746389431008 0 0.046411183475584858 -0.039194496143551798 0 0.039670665708829177 -0.026839339557793201 0 0.057615177275840868 -0.045551974896077707 0 0.059877431769627058 -0.033155746389431008 0 0.046411183475584858 -0.039194496143551798 0 0.043213769296177373 -0.050984479935178129 0 0.057615177275840868 -0.045551974896077707 0 0.046411183475584858 -0.039194496143551798 0 0.046411183475584858 -0.039194496143551798 0 0.032187500986261122 -0.040269964360212428 0 0.039670665708829177 -0.026839339557793201 0 0.043213769296177373 -0.050984479935178129 0 0.046411183475584858 -0.039194496143551798 0 0.032187500986261122 -0.040269964360212428 0 0.039670665708829177 -0.026839339557793201 0 0.053599348116351128 -0.023177941708891609 0 0.044774687725317633 -0.011640521022762069 0 0.039670665708829177 -0.026839339557793201 0 0.053599348116351128 -0.023177941708891609 0 0.059877431769627058 -0.033155746389431008 0 0.039670665708829177 -0.026839339557793201 0 0.053599348116351128 -0.023177941708891609 0 0.053599348116351128 -0.023177941708891609 0 0.059532994407347432 -0.0083949225991459733 0 0.066053125471971008 -0.02454513494456597 0 0.059877431769627058 -0.033155746389431008 0 0.039670665708829177 -0.026839339557793201 0 0.059877431769627058 -0.033155746389431008 0 0.053599348116351128 -0.023177941708891609 0 0.066053125471971008 -0.02454513494456597 0 0.053599348116351128 -0.023177941708891609 0 0.059532994407347432 -0.0083949225991459733 0 0.044774687725317633 -0.011640521022762069 0 0.045938678210594802 0.01228610618558118 0 0.059532994407347432 -0.0083949225991459733 0 0.044774687725317633 -0.011640521022762069 0 0.039670665708829177 -0.026839339557793201 0 0.031324439248817088 -0.0054374493414821234 0 0.044774687725317633 -0.011640521022762069 0 0.045938678210594802 0.01228610618558118 0 0.031324439248817088 -0.0054374493414821234 0 0.044774687725317633 -0.011640521022762069 0 0.073788251262878413 0.0040560700056532298 0 0.092203167308598344 -0.01393686192881549 0 0.077171655236104059 -0.018524910804293949 0 0.073788251262878413 0.0040560700056532298 0 0.059532994407347432 -0.0083949225991459733 0 0.077171655236104059 -0.018524910804293949 0 0.077171655236104059 -0.018524910804293949 0 0.066053125471971008 -0.02454513494456597 0 0.080084197830425405 -0.039472153221067327 0 0.059532994407347432 -0.0083949225991459733 0 0.077171655236104059 -0.018524910804293949 0 0.066053125471971008 -0.02454513494456597 0 0.092203167308598344 -0.01393686192881549 0 0.077171655236104059 -0.018524910804293949 0 0.092249926358720563 -0.030082813944256138 0 0.077171655236104059 -0.018524910804293949 0 0.092249926358720563 -0.030082813944256138 0 0.080084197830425405 -0.039472153221067327 0 0.080084197830425405 -0.039472153221067327 0 0.1002909638912237 -0.045788560052703653 0 0.092249926358720563 -0.030082813944256138 0 0.080084197830425405 -0.039472153221067327 0 0.1002909638912237 -0.045788560052703653 0 0.059877431769627058 -0.033155746389431008 0 0.080084197830425405 -0.039472153221067327 0 0.057615177275840868 -0.045551974896077707 0 0.059877431769627058 -0.033155746389431008 0 0.080084197830425405 -0.039472153221067327 0 0.057615177275840868 -0.045551974896077707 0 0.080084197830425405 -0.039472153221067327 0 0.066458959598475642 -0.054293261998741273 0 0.059877431769627058 -0.033155746389431008 0 0.066053125471971008 -0.02454513494456597 0 0.080084197830425405 -0.039472153221067327 0 0.066458959598475642 -0.054293261998741273 0 0.080896170393100028 -0.057219950651484497 0 0.063642447792521775 -0.069171224461213016 0 0.080084197830425405 -0.039472153221067327 0 0.066458959598475642 -0.054293261998741273 0 0.080896170393100028 -0.057219950651484497 0 0.080896170393100028 -0.057219950651484497 0 0.1002909638912237 -0.045788560052703653 0 0.096022270429670667 -0.063051329019883556 0 0.080084197830425405 -0.039472153221067327 0 0.080896170393100028 -0.057219950651484497 0 0.1002909638912237 -0.045788560052703653 0 0.10749989945748741 -0.056064994843569867 0 0.1002909638912237 -0.045788560052703653 0 0.096022270429670667 -0.063051329019883556 0 0.10749989945748741 -0.056064994843569867 0 0.1112531431459747 -0.046529789480353433 0 0.1002909638912237 -0.045788560052703653 0 0.10749989945748741 -0.056064994843569867 0 0.096022270429670667 -0.063051329019883556 0 0.1100380533248777 -0.066823483183395649 0 0.10749989945748741 -0.056064994843569867 0 0.1176546488180238 -0.054447378666736733 0 0.1100380533248777 -0.066823483183395649 0 0.1176546488180238 -0.054447378666736733 0 0.1100380533248777 -0.066823483183395649 0 0.1237285979821439 -0.063030597353105025 0 0.1176546488180238 -0.054447378666736733 0 0.1237285979821439 -0.063030597353105025 0 0.12505513276252361 -0.054353057183426257 0 0.1176546488180238 -0.054447378666736733 0 0.118168204413926 -0.044622065944994967 0 0.12538623105721269 -0.04812442225268982 0 0.1176546488180238 -0.054447378666736733 0 0.12505513276252361 -0.054353057183426257 0 0.12538623105721269 -0.04812442225268982 0 0.10749989945748741 -0.056064994843569867 0 0.1176546488180238 -0.054447378666736733 0 0.1112531431459747 -0.046529789480353433 0 0.1176546488180238 -0.054447378666736733 0 0.1112531431459747 -0.046529789480353433 0 0.118168204413926 -0.044622065944994967 0 0.1112531431459747 -0.046529789480353433 0 0.118168204413926 -0.044622065944994967 0 0.1088613146243593 -0.02923203344062722 0 0.1088613146243593 -0.02923203344062722 0 0.12551946194012009 -0.044527204952439108 0 0.118168204413926 -0.044622065944994967 0 0.1088613146243593 -0.02923203344062722 0 0.12551946194012009 -0.044527204952439108 0 0.118168204413926 -0.044622065944994967 0 0.12551946194012009 -0.044527204952439108 0 0.12538623105721269 -0.04812442225268982 0 0.1112531431459747 -0.046529789480353433 0 0.1002909638912237 -0.045788560052703653 0 0.1088613146243593 -0.02923203344062722 0 0.092249926358720563 -0.030082813944256138 0 0.1002909638912237 -0.045788560052703653 0 0.1088613146243593 -0.02923203344062722 0 0.092203167308598344 -0.01393686192881549 0 0.1088613146243593 -0.02923203344062722 0 0.092203167308598344 -0.01393686192881549 0 0.1088613146243593 -0.02923203344062722 0 0.1090956319150638 -0.0097810016364484054 0 0.092203167308598344 -0.01393686192881549 0 0.092249926358720563 -0.030082813944256138 0 0.1088613146243593 -0.02923203344062722 0 0.1088613146243593 -0.02923203344062722 0 0.1090956319150638 -0.0097810016364484054 0 0.12648733369378609 -0.018394787747486589 0 0.1088613146243593 -0.02923203344062722 0 0.12648733369378609 -0.018394787747486589 0 0.12551946194012009 -0.044527204952439108 0 0.11566825232464489 0.0022947270128303768 0 0.1274552054474524 0.0077376294574659759 0 0.12648733369378609 -0.018394787747486589 0 0.11566825232464489 0.0022947270128303768 0 0.1090956319150638 -0.0097810016364484054 0 0.12648733369378609 -0.018394787747486589 0 0.1029464362136215 0.0089179659296784383 0 0.092203167308598344 -0.01393686192881549 0 0.1090956319150638 -0.0097810016364484054 0 0.093598866105249104 -0.104246326062003 0 0.069694843366783332 -0.1126370124657279 0 0.080650666957106251 -0.090485073425852297 0 0.093598866105249104 -0.104246326062003 0 0.069694843366783332 -0.1126370124657279 0 0.091420662539376696 -0.1284368183015972 0 0.093598866105249104 -0.104246326062003 0 0.069694843366783332 -0.1126370124657279 0 0.062135481343351583 -0.088663829471390329 0 0.069694843366783332 -0.1126370124657279 0 0.080650666957106251 -0.090485073425852297 0 0.062135481343351583 -0.088663829471390329 0 0.078878182816283032 -0.071543175155298219 0 0.080650666957106251 -0.090485073425852297 0 0.062135481343351583 -0.088663829471390329 0 0.063642447792521775 -0.069171224461213016 0 0.078878182816283032 -0.071543175155298219 0 0.080896170393100028 -0.057219950651484497 0 0.063642447792521775 -0.069171224461213016 0 0.078878182816283032 -0.071543175155298219 0 0.080896170393100028 -0.057219950651484497 0 0.078878182816283032 -0.071543175155298219 0 0.096022270429670667 -0.063051329019883556 0 0.078878182816283032 -0.071543175155298219 0 0.099027705952389605 -0.081363703410257601 0 0.096022270429670667 -0.063051329019883556 0 0.078878182816283032 -0.071543175155298219 0 0.080650666957106251 -0.090485073425852297 0 0.099027705952389605 -0.081363703410257601 0 0.093598866105249104 -0.104246326062003 0 0.080650666957106251 -0.090485073425852297 0 0.099027705952389605 -0.081363703410257601 0 0.099027705952389605 -0.081363703410257601 0 0.1100380533248777 -0.066823483183395649 0 0.11753657968199541 -0.07924738812078036 0 0.099027705952389605 -0.081363703410257601 0 0.096022270429670667 -0.063051329019883556 0 0.1100380533248777 -0.066823483183395649 0 0.1100380533248777 -0.066823483183395649 0 0.1237285979821439 -0.063030597353105025 0 0.11753657968199541 -0.07924738812078036 0 0.1237285979821439 -0.063030597353105025 0 0.11753657968199541 -0.07924738812078036 0 0.13311343224371211 -0.080013520263291976 0 0.099027705952389605 -0.081363703410257601 0 0.11753657968199541 -0.07924738812078036 0 0.117502888843715 -0.09585563965827805 0 0.11753657968199541 -0.07924738812078036 0 0.117502888843715 -0.09585563965827805 0 0.13311343224371211 -0.080013520263291976 0 0.117502888843715 -0.09585563965827805 0 0.11341959945555349 -0.1198679163152221 0 0.1327758112947108 -0.1082172100654108 0 0.093598866105249104 -0.104246326062003 0 0.117502888843715 -0.09585563965827805 0 0.11341959945555349 -0.1198679163152221 0 0.093598866105249104 -0.104246326062003 0 0.099027705952389605 -0.081363703410257601 0 0.117502888843715 -0.09585563965827805 0 0.093598866105249104 -0.104246326062003 0 0.117502888843715 -0.09585563965827805 0 0.091420662539376696 -0.1284368183015972 0 0.093598866105249104 -0.104246326062003 0 0.11341959945555349 -0.1198679163152221 0 0.11341959945555349 -0.1198679163152221 0 0.1327758112947108 -0.1082172100654108 0 0.13243819034571089 -0.13642089986752959 0 0.1327758112947108 -0.1082172100654108 0 0.13243819034571089 -0.13642089986752959 0 0.14178745248414151 -0.1215450709206894 0 0.1327758112947108 -0.1082172100654108 0 0.13243819034571089 -0.13642089986752959 0 0.15238600540049391 -0.11157615038406229 0 0.16666141544558971 -0.12351114686397981 0 0.14954980289565031 -0.129966023365755 0 0.14178745248414151 -0.1215450709206894 0 0.15238600540049391 -0.11157615038406229 0 0.1327758112947108 -0.1082172100654108 0 0.14178745248414151 -0.1215450709206894 0 0.15238600540049391 -0.11157615038406229 0 0.14954980289565031 -0.129966023365755 0 0.15238600540049391 -0.11157615038406229 0 0.1452306458912288 -0.094426959827692891 0 0.16302915166097451 -0.096202810106628206 0 0.15238600540049391 -0.11157615038406229 0 0.1452306458912288 -0.094426959827692891 0 0.1327758112947108 -0.1082172100654108 0 0.1452306458912288 -0.094426959827692891 0 0.1327758112947108 -0.1082172100654108 0 0.13311343224371211 -0.080013520263291976 0 0.1327758112947108 -0.1082172100654108 0 0.13311343224371211 -0.080013520263291976 0 0.117502888843715 -0.09585563965827805 0 0.1327758112947108 -0.1082172100654108 0 0.13311343224371211 -0.080013520263291976 0 0.1237285979821439 -0.063030597353105025 0 0.13311343224371211 -0.080013520263291976 0 0.133451053192714 -0.051809830461173448 0 0.13311343224371211 -0.080013520263291976 0 0.15477105919529019 -0.071385425649584167 0 0.133451053192714 -0.051809830461173448 0 0.13311343224371211 -0.080013520263291976 0 0.133451053192714 -0.051809830461173448 0 0.1452306458912288 -0.094426959827692891 0 0.13311343224371211 -0.080013520263291976 0 0.15477105919529019 -0.071385425649584167 0 0.1452306458912288 -0.094426959827692891 0 0.15477105919529019 -0.071385425649584167 0 0.16302915166097451 -0.096202810106628206 0 0.17116129009472469 -0.080520350084694811 0 0.17704611208936361 -0.095733690848902653 0 0.16302915166097451 -0.096202810106628206 0 0.15477105919529019 -0.071385425649584167 0 0.17116129009472469 -0.080520350084694811 0 0.16302915166097451 -0.096202810106628206 0 0.15477105919529019 -0.071385425649584167 0 0.17116129009472469 -0.080520350084694811 0 0.17615564185299179 -0.058250284267017408 0 0.17615564185299179 -0.058250284267017408 0 0.1913075321882701 -0.061426345565270948 0 0.18750429363983021 -0.077323627927451496 0 0.17116129009472469 -0.080520350084694811 0 0.17615564185299179 -0.058250284267017408 0 0.18750429363983021 -0.077323627927451496 0 0.17704611208936361 -0.095733690848902653 0 0.1910701302791066 -0.097627420441627769 0 0.18750429363983021 -0.077323627927451496 0 0.17116129009472469 -0.080520350084694811 0 0.17704611208936361 -0.095733690848902653 0 0.18750429363983021 -0.077323627927451496 0 0.17704611208936361 -0.095733690848902653 0 0.1814241923135671 -0.1127730571833821 0 0.16809327907161961 -0.1094354321733923 0 0.17704611208936361 -0.095733690848902653 0 0.1814241923135671 -0.1127730571833821 0 0.1910701302791066 -0.097627420441627769 0 0.1814241923135671 -0.1127730571833821 0 0.16666141544558971 -0.12351114686397981 0 0.18469844227573501 -0.12999493965264131 0 0.1814241923135671 -0.1127730571833821 0 0.16809327907161961 -0.1094354321733923 0 0.16666141544558971 -0.12351114686397981 0 0.15238600540049391 -0.11157615038406229 0 0.16809327907161961 -0.1094354321733923 0 0.16666141544558971 -0.12351114686397981 0 0.15238600540049391 -0.11157615038406229 0 0.16809327907161961 -0.1094354321733923 0 0.16302915166097451 -0.096202810106628206 0 0.17704611208936361 -0.095733690848902653 0 0.16809327907161961 -0.1094354321733923 0 0.16302915166097451 -0.096202810106628206 0 0.1451183973694046 -0.014535420665751831 0 0.15233585962607921 -0.023531950342314849 0 0.15901711775268429 -0.006544852682459551 0 0.1451183973694046 -0.014535420665751831 0 0.14319412215549979 -0.0041842003619043198 0 0.15901711775268429 -0.006544852682459551 0 0.1493895168637106 0.0071916650305739582 0 0.14319412215549979 -0.0041842003619043198 0 0.15901711775268429 -0.006544852682459551 0 0.1451183973694046 -0.014535420665751831 0 0.14319412215549979 -0.0041842003619043198 0 0.1363818066390631 -0.012825069777916739 0 0.1274552054474524 0.0077376294574659759 0 0.1363818066390631 -0.012825069777916739 0 0.12648733369378609 -0.018394787747486589 0 0.1274552054474524 0.0077376294574659759 0 0.14319412215549979 -0.0041842003619043198 0 0.1363818066390631 -0.012825069777916739 0 0.1274552054474524 0.0077376294574659759 0 0.12648733369378609 -0.018394787747486589 0 0.12648733369378609 -0.018394787747486589 0 0.13378912309923799 -0.023568636295763959 0 0.12551946194012009 -0.044527204952439108 0 0.1363818066390631 -0.012825069777916739 0 0.13378912309923799 -0.023568636295763959 0 0.1428208235289691 -0.023884922261350489 0 0.1363818066390631 -0.012825069777916739 0 0.12648733369378609 -0.018394787747486589 0 0.13378912309923799 -0.023568636295763959 0 0.13378912309923799 -0.023568636295763959 0 0.1428208235289691 -0.023884922261350489 0 0.14409306501546801 -0.032832159324514887 0 0.1428208235289691 -0.023884922261350489 0 0.15233585962607921 -0.023531950342314849 0 0.14409306501546801 -0.032832159324514887 0 0.1451183973694046 -0.014535420665751831 0 0.1363818066390631 -0.012825069777916739 0 0.1428208235289691 -0.023884922261350489 0 0.1451183973694046 -0.014535420665751831 0 0.1428208235289691 -0.023884922261350489 0 0.15233585962607921 -0.023531950342314849 0 0.1459669106666982 -0.043721012410638027 0 0.14409306501546801 -0.032832159324514887 0 0.133451053192714 -0.051809830461173448 0 0.15233585962607921 -0.023531950342314849 0 0.15598400767115719 -0.03815237576277563 0 0.14409306501546801 -0.032832159324514887 0 0.15598400767115719 -0.03815237576277563 0 0.1459669106666982 -0.043721012410638027 0 0.14409306501546801 -0.032832159324514887 0 0.15598400767115719 -0.03815237576277563 0 0.1459669106666982 -0.043721012410638027 0 0.1503395167874535 -0.052089684094088137 0 0.13378912309923799 -0.023568636295763959 0 0.14409306501546801 -0.032832159324514887 0 0.133451053192714 -0.051809830461173448 0 0.12648733369378609 -0.018394787747486589 0 0.12551946194012009 -0.044527204952439108 0 0.13378912309923799 -0.023568636295763959 0 0.133451053192714 -0.051809830461173448 0 0.13378912309923799 -0.023568636295763959 0 0.12551946194012009 -0.044527204952439108 0 0.133451053192714 -0.051809830461173448 0 0.12551946194012009 -0.044527204952439108 0 0.12538623105721269 -0.04812442225268982 0 0.133451053192714 -0.051809830461173448 0 0.12505513276252361 -0.054353057183426257 0 0.12538623105721269 -0.04812442225268982 0 0.12551946194012009 -0.044527204952439108 0 0.133451053192714 -0.051809830461173448 0 0.12538623105721269 -0.04812442225268982 0 0.12551946194012009 -0.044527204952439108 0 0.133451053192714 -0.051809830461173448 0 0.1237285979821439 -0.063030597353105025 0 0.133451053192714 -0.051809830461173448 0 0.12505513276252361 -0.054353057183426257 0 0.1459669106666982 -0.043721012410638027 0 0.133451053192714 -0.051809830461173448 0 0.1503395167874535 -0.052089684094088137 0 0.15477105919529019 -0.071385425649584167 0 0.1503395167874535 -0.052089684094088137 0 0.16331422904290299 -0.049727031505400407 0 0.15477105919529019 -0.071385425649584167 0 0.133451053192714 -0.051809830461173448 0 0.1503395167874535 -0.052089684094088137 0 0.15477105919529019 -0.071385425649584167 0 0.133451053192714 -0.051809830461173448 0 0.16331422904290299 -0.049727031505400407 0 0.17615564185299179 -0.058250284267017408 0 0.17295313833246201 -0.039955711608878633 0 0.15477105919529019 -0.071385425649584167 0 0.16331422904290299 -0.049727031505400407 0 0.17615564185299179 -0.058250284267017408 0 0.17615564185299179 -0.058250284267017408 0 0.17295313833246201 -0.039955711608878633 0 0.1964517290426796 -0.046815199215181499 0 0.17295313833246201 -0.039955711608878633 0 0.18722621651501301 -0.0274337235086109 0 0.1964517290426796 -0.046815199215181499 0 0.15598400767115719 -0.03815237576277563 0 0.17295313833246201 -0.039955711608878633 0 0.16733588168254901 -0.02421579787973854 0 0.15598400767115719 -0.03815237576277563 0 0.16331422904290299 -0.049727031505400407 0 0.17295313833246201 -0.039955711608878633 0 0.15598400767115719 -0.03815237576277563 0 0.1503395167874535 -0.052089684094088137 0 0.16331422904290299 -0.049727031505400407 0 0.15233585962607921 -0.023531950342314849 0 0.16733588168254901 -0.02421579787973854 0 0.15901711775268429 -0.006544852682459551 0 0.15233585962607921 -0.023531950342314849 0 0.15598400767115719 -0.03815237576277563 0 0.16733588168254901 -0.02421579787973854 0 0.16733588168254901 -0.02421579787973854 0 0.18722621651501301 -0.0274337235086109 0 0.17801785224868311 -0.010519948110449449 0 0.17295313833246201 -0.039955711608878633 0 0.16733588168254901 -0.02421579787973854 0 0.18722621651501301 -0.0274337235086109 0 0.18722621651501301 -0.0274337235086109 0 0.17801785224868311 -0.010519948110449449 0 0.19372963240977259 -0.0092869345902538755 0 0.1859869084017956 0.0024433714559852532 0 0.17801785224868311 -0.010519948110449449 0 0.19372963240977259 -0.0092869345902538755 0 0.17415294238970491 0.003088488330222813 0 0.1859869084017956 0.0024433714559852532 0 0.17801785224868311 -0.010519948110449449 0 0.17415294238970491 0.003088488330222813 0 0.17801785224868311 -0.010519948110449449 0 0.15901711775268429 -0.006544852682459551 0 0.16733588168254901 -0.02421579787973854 0 0.17801785224868311 -0.010519948110449449 0 0.15901711775268429 -0.006544852682459551 0 0.2181200160463545 0.0011720216127723371 0 0.19959946491814479 0.0046282397502151107 0 0.20688660925052221 -0.0063339662240384726 0 0.2181200160463545 0.0011720216127723371 0 0.21519968397116779 -0.01401679076414288 0 0.20688660925052221 -0.0063339662240384726 0 0.21519968397116779 -0.01401679076414288 0 0.20688660925052221 -0.0063339662240384726 0 0.2046004531485866 -0.01939613659224176 0 0.19959946491814479 0.0046282397502151107 0 0.20688660925052221 -0.0063339662240384726 0 0.19372963240977259 -0.0092869345902538755 0 0.19959946491814479 0.0046282397502151107 0 0.1859869084017956 0.0024433714559852532 0 0.19372963240977259 -0.0092869345902538755 0 0.20688660925052221 -0.0063339662240384726 0 0.19372963240977259 -0.0092869345902538755 0 0.2046004531485866 -0.01939613659224176 0 0.18722621651501301 -0.0274337235086109 0 0.2046004531485866 -0.01939613659224176 0 0.20402533800369199 -0.033437396864454301 0 0.18722621651501301 -0.0274337235086109 0 0.19372963240977259 -0.0092869345902538755 0 0.2046004531485866 -0.01939613659224176 0 0.2046004531485866 -0.01939613659224176 0 0.21654582887267779 -0.027209786912546181 0 0.20402533800369199 -0.033437396864454301 0 0.21519968397116779 -0.01401679076414288 0 0.2046004531485866 -0.01939613659224176 0 0.21654582887267779 -0.027209786912546181 0 0.21658310950984219 -0.041715113266169272 0 0.20402533800369199 -0.033437396864454301 0 0.1964517290426796 -0.046815199215181499 0 0.21654582887267779 -0.027209786912546181 0 0.21658310950984219 -0.041715113266169272 0 0.20402533800369199 -0.033437396864454301 0 0.18722621651501301 -0.0274337235086109 0 0.20402533800369199 -0.033437396864454301 0 0.1964517290426796 -0.046815199215181499 0 0.17615564185299179 -0.058250284267017408 0 0.1964517290426796 -0.046815199215181499 0 0.1913075321882701 -0.061426345565270948 0 0.1964517290426796 -0.046815199215181499 0 0.1913075321882701 -0.061426345565270948 0 0.2057553749878 -0.064644990184223691 0 0.21658310950984219 -0.041715113266169272 0 0.1964517290426796 -0.046815199215181499 0 0.21787033991829879 -0.056344382123945838 0 0.1964517290426796 -0.046815199215181499 0 0.21787033991829879 -0.056344382123945838 0 0.2057553749878 -0.064644990184223691 0 0.21658310950984219 -0.041715113266169272 0 0.21787033991829879 -0.056344382123945838 0 0.23252096269528791 -0.057360119139088853 0 0.21787033991829879 -0.056344382123945838 0 0.23252096269528791 -0.057360119139088853 0 0.2236738840233283 -0.070680006629756445 0 0.23252096269528791 -0.057360119139088853 0 0.24341039940362891 -0.042173740244686897 0 0.24612108748217501 -0.07017583377114911 0 0.24341039940362891 -0.042173740244686897 0 0.24612108748217501 -0.07017583377114911 0 0.25519944218403839 -0.055937302381494691 0 0.24341039940362891 -0.042173740244686897 0 0.24612108748217501 -0.07017583377114911 0 0.23252096269528791 -0.057360119139088853 0 0.24341039940362891 -0.042173740244686897 0 0.2298245430403047 -0.033723666855004393 0 0.21658310950984219 -0.041715113266169272 0 0.23252096269528791 -0.057360119139088853 0 0.2298245430403047 -0.033723666855004393 0 0.21654582887267779 -0.027209786912546181 0 0.21658310950984219 -0.041715113266169272 0 0.2298245430403047 -0.033723666855004393 0 0.2298245430403047 -0.033723666855004393 0 0.22918724643530841 -0.019711594849310409 0 0.24069971132508289 -0.0141716467182247 0 0.21654582887267779 -0.027209786912546181 0 0.2298245430403047 -0.033723666855004393 0 0.22918724643530841 -0.019711594849310409 0 0.21519968397116779 -0.01401679076414288 0 0.21654582887267779 -0.027209786912546181 0 0.22918724643530841 -0.019711594849310409 0 0.25218648869958882 -0.02329869203001355 0 0.24341039940362891 -0.042173740244686897 0 0.24069971132508289 -0.0141716467182247 0 0.24341039940362891 -0.042173740244686897 0 0.24069971132508289 -0.0141716467182247 0 0.24341039940362891 -0.042173740244686897 0 0.2298245430403047 -0.033723666855004393 0 0.24069971132508289 -0.0141716467182247 0 0.25218648869958882 -0.02329869203001355 0 0.25266044236801027 -0.0098448912506446801 0 0.24069971132508289 -0.0141716467182247 0 0.23798902324653681 0.01383044680823774 0 0.24069971132508289 -0.0141716467182247 0 0.2493448423645083 0.0014051681544095839 0 0.25266044236801027 -0.0098448912506446801 0 0.24069971132508289 -0.0141716467182247 0 0.2181200160463545 0.0011720216127723371 0 0.22918724643530841 -0.019711594849310409 0 0.23129756664408271 0.0034871144361431051 0 0.24069971132508289 -0.0141716467182247 0 0.22937412415085151 -0.0050609707787374596 0 0.2181200160463545 0.0011720216127723371 0 0.22918724643530841 -0.019711594849310409 0 0.22937412415085151 -0.0050609707787374596 0 0.2181200160463545 0.0011720216127723371 0 0.21519968397116779 -0.01401679076414288 0 0.22918724643530841 -0.019711594849310409 0 0.22918724643530841 -0.019711594849310409 0 0.24069971132508289 -0.0141716467182247 0 0.22937412415085151 -0.0050609707787374596 0 0.22579893665580589 0.002145308586464775 0 0.2181200160463545 0.0011720216127723371 0 0.22937412415085151 -0.0050609707787374596 0 0.21082035324201789 -0.1098617621101894 0 0.2025907044208696 -0.10043485518361139 0 0.21238953075634009 -0.092536187231589642 0 0.21082035324201789 -0.1098617621101894 0 0.21238953075634009 -0.092536187231589642 0 0.2217638174191989 -0.098394303956811466 0 0.21082035324201789 -0.1098617621101894 0 0.1968773974380032 -0.11537582777528189 0 0.2025907044208696 -0.10043485518361139 0 0.21082035324201789 -0.1098617621101894 0 0.1968773974380032 -0.11537582777528189 0 0.2091420818328763 -0.12747866452626741 0 0.21082035324201789 -0.1098617621101894 0 0.22840117212215111 -0.10784021488978859 0 0.2091420818328763 -0.12747866452626741 0 0.1814241923135671 -0.1127730571833821 0 0.1968773974380032 -0.11537582777528189 0 0.18469844227573501 -0.12999493965264131 0 0.1968773974380032 -0.11537582777528189 0 0.2091420818328763 -0.12747866452626741 0 0.19766395109203011 -0.1303243812714871 0 0.1814241923135671 -0.1127730571833821 0 0.1968773974380032 -0.11537582777528189 0 0.1910701302791066 -0.097627420441627769 0 0.1910701302791066 -0.097627420441627769 0 0.2025907044208696 -0.10043485518361139 0 0.20207580534393399 -0.083830488883139515 0 0.1968773974380032 -0.11537582777528189 0 0.1910701302791066 -0.097627420441627769 0 0.2025907044208696 -0.10043485518361139 0 0.1910701302791066 -0.097627420441627769 0 0.20207580534393399 -0.083830488883139515 0 0.18750429363983021 -0.077323627927451496 0 0.1913075321882701 -0.061426345565270948 0 0.18750429363983021 -0.077323627927451496 0 0.2057553749878 -0.064644990184223691 0 0.20207580534393399 -0.083830488883139515 0 0.18750429363983021 -0.077323627927451496 0 0.2057553749878 -0.064644990184223691 0 0.20207580534393399 -0.083830488883139515 0 0.2057553749878 -0.064644990184223691 0 0.2139074416720638 -0.07950058034064203 0 0.2057553749878 -0.064644990184223691 0 0.2139074416720638 -0.07950058034064203 0 0.2236738840233283 -0.070680006629756445 0 0.21787033991829879 -0.056344382123945838 0 0.2057553749878 -0.064644990184223691 0 0.2236738840233283 -0.070680006629756445 0 0.2025907044208696 -0.10043485518361139 0 0.20207580534393399 -0.083830488883139515 0 0.21238953075634009 -0.092536187231589642 0 0.20207580534393399 -0.083830488883139515 0 0.2139074416720638 -0.07950058034064203 0 0.21238953075634009 -0.092536187231589642 0 0.2139074416720638 -0.07950058034064203 0 0.21238953075634009 -0.092536187231589642 0 0.2236620081554844 -0.085781557011526857 0 0.2236620081554844 -0.085781557011526857 0 0.23391225679941699 -0.094092757206668848 0 0.2217638174191989 -0.098394303956811466 0 0.21238953075634009 -0.092536187231589642 0 0.2236620081554844 -0.085781557011526857 0 0.2217638174191989 -0.098394303956811466 0 0.2139074416720638 -0.07950058034064203 0 0.2236620081554844 -0.085781557011526857 0 0.2236738840233283 -0.070680006629756445 0 0.2236620081554844 -0.085781557011526857 0 0.2236738840233283 -0.070680006629756445 0 0.23632511826255839 -0.07948550670369281 0 0.2236620081554844 -0.085781557011526857 0 0.23632511826255839 -0.07948550670369281 0 0.23391225679941699 -0.094092757206668848 0 0.2236738840233283 -0.070680006629756445 0 0.2346602631158374 -0.069425366560921797 0 0.23632511826255839 -0.07948550670369281 0 0.23252096269528791 -0.057360119139088853 0 0.2236738840233283 -0.070680006629756445 0 0.2346602631158374 -0.069425366560921797 0 0.23252096269528791 -0.057360119139088853 0 0.2346602631158374 -0.069425366560921797 0 0.24612108748217501 -0.07017583377114911 0 0.2346602631158374 -0.069425366560921797 0 0.24612108748217501 -0.07017583377114911 0 0.23632511826255839 -0.07948550670369281 0 0.2507869405063915 -0.080011144606320195 0 0.24612108748217501 -0.07017583377114911 0 0.23632511826255839 -0.07948550670369281 0 0.2507869405063915 -0.080011144606320195 0 0.24766026241142591 -0.088201765253309902 0 0.23391225679941699 -0.094092757206668848 0 0.2507869405063915 -0.080011144606320195 0 0.23391225679941699 -0.094092757206668848 0 0.2507869405063915 -0.080011144606320195 0 0.23632511826255839 -0.07948550670369281 0 0.23391225679941699 -0.094092757206668848 0 0.24766026241142591 -0.088201765253309902 0 0.23391225679941699 -0.094092757206668848 0 0.22840117212215111 -0.10784021488978859 0 0.2450942160685709 -0.1019414555228059 0 0.22840117212215111 -0.10784021488978859 0 0.24145071203087429 -0.115435474970793 0 0.24766026241142591 -0.088201765253309902 0 0.22840117212215111 -0.10784021488978859 0 0.25856414745024231 -0.09820988331950839 0 0.2450942160685709 -0.1019414555228059 0 0.24145071203087429 -0.115435474970793 0 0.24766026241142591 -0.088201765253309902 0 0.2450942160685709 -0.1019414555228059 0 0.22840117212215111 -0.10784021488978859 0 0.25351509400142769 -0.092934925890948539 0 0.24766026241142591 -0.088201765253309902 0 0.2450942160685709 -0.1019414555228059 0 0.23391225679941699 -0.094092757206668848 0 0.22840117212215111 -0.10784021488978859 0 0.2217638174191989 -0.098394303956811466 0 0.21082035324201789 -0.1098617621101894 0 0.22840117212215111 -0.10784021488978859 0 0.2217638174191989 -0.098394303956811466 0 0.22840117212215111 -0.10784021488978859 0 0.24145071203087429 -0.115435474970793 0 0.22433727661150549 -0.1326610666220768 0 0.22840117212215111 -0.10784021488978859 0 0.22433727661150549 -0.1326610666220768 0 0.2091420818328763 -0.12747866452626741 0 0.24145071203087429 -0.115435474970793 0 0.22433727661150549 -0.1326610666220768 0 0.22840117212215111 -0.10784021488978859 0 0.2091420818328763 -0.12747866452626741 0 0.25153217278082501 -0.1231612647483309 0 0.24145071203087429 -0.115435474970793 0 0.23840861661417589 -0.1324207377444169 0 0.25153217278082501 -0.1231612647483309 0 0.24450019811140869 -0.1481126461771537 0 0.25153217278082501 -0.1231612647483309 0 0.23840861661417589 -0.1324207377444169 0 0.24450019811140869 -0.1481126461771537 0 0.24145071203087429 -0.115435474970793 0 0.23840861661417589 -0.1324207377444169 0 0.22433727661150549 -0.1326610666220768 0 0.23840861661417589 -0.1324207377444169 0 0.24450019811140869 -0.1481126461771537 0 0.22954564692575971 -0.14292101135287921 0 0.24450019811140869 -0.1481126461771537 0 0.22954564692575971 -0.14292101135287921 0 0.22816314975605789 -0.1569309826437805 0 0.22954564692575971 -0.14292101135287921 0 0.21993542816986539 -0.14971217017984559 0 0.2148442826392068 -0.1396533439106967 0 0.22954564692575971 -0.14292101135287921 0 0.21993542816986539 -0.14971217017984559 0 0.22816314975605789 -0.1569309826437805 0 0.21993542816986539 -0.14971217017984559 0 0.2163366732770671 -0.15922340236161189 0 0.22816314975605789 -0.1569309826437805 0 0.23840861661417589 -0.1324207377444169 0 0.22954564692575971 -0.14292101135287921 0 0.22433727661150549 -0.1326610666220768 0 0.22954564692575971 -0.14292101135287921 0 0.22433727661150549 -0.1326610666220768 0 0.2148442826392068 -0.1396533439106967 0 0.2091420818328763 -0.12747866452626741 0 0.2032656516951018 -0.1394801197698369 0 0.19766395109203011 -0.1303243812714871 0 0.2091420818328763 -0.12747866452626741 0 0.2032656516951018 -0.1394801197698369 0 0.2148442826392068 -0.1396533439106967 0 0.22433727661150549 -0.1326610666220768 0 0.2091420818328763 -0.12747866452626741 0 0.2148442826392068 -0.1396533439106967 0 0.21993542816986539 -0.14971217017984559 0 0.2148442826392068 -0.1396533439106967 0 0.2101103116407291 -0.15001988577940881 0 0.21993542816986539 -0.14971217017984559 0 0.2101103116407291 -0.15001988577940881 0 0.2163366732770671 -0.15922340236161189 0 0.2101103116407291 -0.15001988577940881 0 0.19897754632738421 -0.15192753251243299 0 0.20665458406866041 -0.16138777270799701 0 0.2032656516951018 -0.1394801197698369 0 0.2148442826392068 -0.1396533439106967 0 0.2101103116407291 -0.15001988577940881 0 0.2032656516951018 -0.1394801197698369 0 0.2101103116407291 -0.15001988577940881 0 0.19897754632738421 -0.15192753251243299 0 0.2032656516951018 -0.1394801197698369 0 0.19897754632738421 -0.15192753251243299 0 0.19287232899879489 -0.14102092651787429 0 0.19897754632738421 -0.15192753251243299 0 0.18834389981877869 -0.15081186676675179 0 0.19186359600146369 -0.1574896857824408 0 0.18834389981877869 -0.15081186676675179 0 0.19186359600146369 -0.1574896857824408 0 0.18481943334762341 -0.1578535630579464 0 0.18834389981877869 -0.15081186676675179 0 0.19287232899879489 -0.14102092651787429 0 0.18394907341415931 -0.14314796415843589 0 0.19897754632738421 -0.15192753251243299 0 0.18834389981877869 -0.15081186676675179 0 0.19287232899879489 -0.14102092651787429 0 0.19287232899879489 -0.14102092651787429 0 0.19766395109203011 -0.1303243812714871 0 0.18469844227573501 -0.12999493965264131 0 0.1968773974380032 -0.11537582777528189 0 0.19766395109203011 -0.1303243812714871 0 0.18469844227573501 -0.12999493965264131 0 0.2032656516951018 -0.1394801197698369 0 0.19287232899879489 -0.14102092651787429 0 0.19766395109203011 -0.1303243812714871 0 0.19897906206292729 -0.18458269065944 0 0.1948717895376289 -0.17551777543912611 0 0.1994957716419607 -0.17052295705788281 0 0.19897906206292729 -0.18458269065944 0 0.1994957716419607 -0.17052295705788281 0 0.19897906206292729 -0.18458269065944 0 0.20313453063243869 -0.17209751071247761 0 0.19897906206292729 -0.18458269065944 0 0.1994957716419607 -0.17052295705788281 0 0.20313453063243869 -0.17209751071247761 0 0.19897906206292729 -0.18458269065944 0 0.18767071240209271 -0.18662875874863991 0 0.19099639786504069 -0.18006259261186819 0 0.19897906206292729 -0.18458269065944 0 0.19099639786504069 -0.18006259261186819 0 0.1948717895376289 -0.17551777543912611 0 0.18767071240209271 -0.18662875874863991 0 0.19099639786504069 -0.18006259261186819 0 0.18463910282758411 -0.1795441870804686 0 0.19099639786504069 -0.18006259261186819 0 0.18882132249497199 -0.17403955113166619 0 0.18463910282758411 -0.1795441870804686 0 0.19099639786504069 -0.18006259261186819 0 0.1948717895376289 -0.17551777543912611 0 0.18882132249497199 -0.17403955113166619 0 0.1948717895376289 -0.17551777543912611 0 0.18882132249497199 -0.17403955113166619 0 0.1935245490444702 -0.16837778531648509 0 0.18882132249497199 -0.17403955113166619 0 0.1935245490444702 -0.16837778531648509 0 0.1858584411954563 -0.16896491084380441 0 0.1935245490444702 -0.16837778531648509 0 0.18858322256175561 -0.16302500116746779 0 0.1976609992239608 -0.16222570450937851 0 0.1935245490444702 -0.16837778531648509 0 0.18858322256175561 -0.16302500116746779 0 0.1858584411954563 -0.16896491084380441 0 0.18858322256175561 -0.16302500116746779 0 0.19186359600146369 -0.1574896857824408 0 0.1976609992239608 -0.16222570450937851 0 0.18858322256175561 -0.16302500116746779 0 0.19186359600146369 -0.1574896857824408 0 0.18481943334762341 -0.1578535630579464 0 0.19897754632738421 -0.15192753251243299 0 0.1976609992239608 -0.16222570450937851 0 0.20665458406866041 -0.16138777270799701 0 0.19897754632738421 -0.15192753251243299 0 0.19186359600146369 -0.1574896857824408 0 0.1976609992239608 -0.16222570450937851 0 0.1976609992239608 -0.16222570450937851 0 0.20347591794583089 -0.16631674914219349 0 0.20665458406866041 -0.16138777270799701 0 0.1948717895376289 -0.17551777543912611 0 0.1935245490444702 -0.16837778531648509 0 0.1994957716419607 -0.17052295705788281 0 0.1935245490444702 -0.16837778531648509 0 0.1987153031078725 -0.1666761566527353 0 0.1994957716419607 -0.17052295705788281 0 0.1935245490444702 -0.16837778531648509 0 0.1976609992239608 -0.16222570450937851 0 0.1987153031078725 -0.1666761566527353 0 0.1987153031078725 -0.1666761566527353 0 0.1994957716419607 -0.17052295705788281 0 0.20347591794583089 -0.16631674914219349 0 0.1976609992239608 -0.16222570450937851 0 0.1987153031078725 -0.1666761566527353 0 0.20347591794583089 -0.16631674914219349 0 0.1994957716419607 -0.17052295705788281 0 0.20347591794583089 -0.16631674914219349 0 0.20313453063243869 -0.17209751071247761 0 0.20694574959162751 -0.16942212394451539 0 0.20665458406866041 -0.16138777270799701 0 0.21179492209022749 -0.16799412661489591 0 0.20694574959162751 -0.16942212394451539 0 0.20347591794583089 -0.16631674914219349 0 0.20665458406866041 -0.16138777270799701 0 0.20694574959162751 -0.16942212394451539 0 0.21179492209022749 -0.16799412661489591 0 0.20887633201277639 -0.17622465982464711 0 0.20694574959162751 -0.16942212394451539 0 0.20347591794583089 -0.16631674914219349 0 0.20313453063243869 -0.17209751071247761 0 0.20665458406866041 -0.16138777270799701 0 0.2163366732770671 -0.15922340236161189 0 0.21179492209022749 -0.16799412661489591 0 0.2101103116407291 -0.15001988577940881 0 0.20665458406866041 -0.16138777270799701 0 0.2163366732770671 -0.15922340236161189 0 0.21179492209022749 -0.16799412661489591 0 0.20887633201277639 -0.17622465982464711 0 0.2199585143847288 -0.1699111750984785 0 0.2163366732770671 -0.15922340236161189 0 0.21179492209022749 -0.16799412661489591 0 0.2199585143847288 -0.1699111750984785 0 0.19897906206292729 -0.18458269065944 0 0.20887633201277639 -0.17622465982464711 0 0.21736632479318349 -0.18343151108206859 0 0.20887633201277639 -0.17622465982464711 0 0.21736632479318349 -0.18343151108206859 0 0.2199585143847288 -0.1699111750984785 0 0.19897906206292729 -0.18458269065944 0 0.20887633201277639 -0.17622465982464711 0 0.20313453063243869 -0.17209751071247761 0 0.20694574959162751 -0.16942212394451539 0 0.20887633201277639 -0.17622465982464711 0 0.20313453063243869 -0.17209751071247761 0 0.21736632479318349 -0.18343151108206859 0 0.23746822344199239 -0.17306402760597661 0 0.23043624877257601 -0.19801540903479961 0 0.23746822344199239 -0.17306402760597661 0 0.23043624877257601 -0.19801540903479961 0 0.21736632479318349 -0.18343151108206859 0 0.2199585143847288 -0.1699111750984785 0 0.23746822344199239 -0.17306402760597661 0 0.2199585143847288 -0.1699111750984785 0 0.22816314975605789 -0.1569309826437805 0 0.23746822344199239 -0.17306402760597661 0 0.2163366732770671 -0.15922340236161189 0 0.2199585143847288 -0.1699111750984785 0 0.22816314975605789 -0.1569309826437805 0 0.24450019811140869 -0.1481126461771537 0 0.22816314975605789 -0.1569309826437805 0 0.23746822344199239 -0.17306402760597661 0 0.25356566987203982 -0.1641341326189521 0 0.24450019811140869 -0.1481126461771537 0 0.23746822344199239 -0.17306402760597661 0 0.24450019811140869 -0.1481126461771537 0 0.23746822344199239 -0.17306402760597661 0 0.25303826176319699 -0.18852534679998401 0 0.23746822344199239 -0.17306402760597661 0 0.23043624877257601 -0.19801540903479961 0 0.25303826176319699 -0.18852534679998401 0 0.25356566987203982 -0.1641341326189521 0 0.23746822344199239 -0.17306402760597661 0 0.25303826176319699 -0.18852534679998401 0 0.2497333894385155 -0.20700878973220599 0 0.23043624877257601 -0.19801540903479961 0 0.25700776576854178 -0.21995061100086691 0 0.2497333894385155 -0.20700878973220599 0 0.2411746840965143 -0.22137414082971971 0 0.2497333894385155 -0.20700878973220599 0 0.23043624877257601 -0.19801540903479961 0 0.2411746840965143 -0.22137414082971971 0 0.23043624877257601 -0.19801540903479961 0 0.22340427410315969 -0.22296679046362239 0 0.23043624877257601 -0.19801540903479961 0 0.2411746840965143 -0.22137414082971971 0 0.22340427410315969 -0.22296679046362239 0 0.23043624877257601 -0.19801540903479961 0 0.22340427410315969 -0.22296679046362239 0 0.21215811400273499 -0.1998346334092668 0 0.21736632479318349 -0.18343151108206859 0 0.23043624877257601 -0.19801540903479961 0 0.21215811400273499 -0.1998346334092668 0 0.25143426659746332 -0.24778919941374641 0 0.23833075635283299 -0.24797382414986241 0 0.24911566892364639 -0.23415028430013829 0 0.23833075635283299 -0.24797382414986241 0 0.24911566892364639 -0.23415028430013829 0 0.2336795365819794 -0.23487664232715769 0 0.25700776576854178 -0.21995061100086691 0 0.24911566892364639 -0.23415028430013829 0 0.2411746840965143 -0.22137414082971971 0 0.24911566892364639 -0.23415028430013829 0 0.2411746840965143 -0.22137414082971971 0 0.2336795365819794 -0.23487664232715769 0 0.2411746840965143 -0.22137414082971971 0 0.22340427410315969 -0.22296679046362239 0 0.2336795365819794 -0.23487664232715769 0 0.23833075635283299 -0.24797382414986241 0 0.2336795365819794 -0.23487664232715769 0 0.21637229943374339 -0.24791817189244519 0 0.22340427410315969 -0.22296679046362239 0 0.2336795365819794 -0.23487664232715769 0 0.21637229943374339 -0.24791817189244519 0 0.22340427410315969 -0.22296679046362239 0 0.21637229943374339 -0.24791817189244519 0 0.22340427410315969 -0.22296679046362239 0 0.21637229943374339 -0.24791817189244519 0 0.19694444217526691 -0.2399449575141554 0 0.20644868714854339 -0.25882569468436228 0 0.21637229943374339 -0.24791817189244519 0 0.19694444217526691 -0.2399449575141554 0 0.22340427410315969 -0.22296679046362239 0 0.19694444217526691 -0.2399449575141554 0 0.19796175211909639 -0.21226382408679759 0 0.19694444217526691 -0.2399449575141554 0 0.19796175211909639 -0.21226382408679759 0 0.19694444217526691 -0.2399449575141554 0 0.19796175211909639 -0.21226382408679759 0 0.1848330752034508 -0.22708456223267859 0 0.19038010371744371 -0.24735532658709611 0 0.1848330752034508 -0.22708456223267859 0 0.19694444217526691 -0.2399449575141554 0 0.19038010371744371 -0.24735532658709611 0 0.1848330752034508 -0.22708456223267859 0 0.19897906206292729 -0.18458269065944 0 0.21736632479318349 -0.18343151108206859 0 0.21215811400273499 -0.1998346334092668 0 0.22340427410315969 -0.22296679046362239 0 0.21215811400273499 -0.1998346334092668 0 0.19796175211909639 -0.21226382408679759 0 0.1919060686331901 -0.20583362644605971 0 0.1848330752034508 -0.22708456223267859 0 0.19796175211909639 -0.21226382408679759 0 0.1919060686331901 -0.20583362644605971 0 0.1848330752034508 -0.22708456223267859 0 0.19897906206292729 -0.18458269065944 0 0.19796175211909639 -0.21226382408679759 0 0.1919060686331901 -0.20583362644605971 0 0.19897906206292729 -0.18458269065944 0 0.1919060686331901 -0.20583362644605971 0 0.19897906206292729 -0.18458269065944 0 0.1919060686331901 -0.20583362644605971 0 0.18795340488931139 -0.19453693076370671 0 0.19897906206292729 -0.18458269065944 0 0.19796175211909639 -0.21226382408679759 0 0.19897906206292729 -0.18458269065944 0 0.21215811400273499 -0.1998346334092668 0 0.19796175211909639 -0.21226382408679759 0 0.19897906206292729 -0.18458269065944 0 0.18767071240209271 -0.18662875874863991 0 0.18795340488931139 -0.19453693076370671 0 0.18795340488931139 -0.19453693076370671 0 0.18172928272201569 -0.19167599216620321 0 0.17860995208145361 -0.19777100901887409 0 0.18767071240209271 -0.18662875874863991 0 0.18172928272201569 -0.19167599216620321 0 0.1794305944660651 -0.1848884015832197 0 0.18767071240209271 -0.18662875874863991 0 0.18795340488931139 -0.19453693076370671 0 0.18172928272201569 -0.19167599216620321 0 0.1750324227501911 -0.19126958203231459 0 0.1770593181852434 -0.19867656031471151 0 0.16437838830620261 -0.1907003599190486 0 0.18172928272201569 -0.19167599216620321 0 0.1750324227501911 -0.19126958203231459 0 0.1794305944660651 -0.1848884015832197 0 0.18172928272201569 -0.19167599216620321 0 0.1750324227501911 -0.19126958203231459 0 0.17860995208145361 -0.19777100901887409 0 0.1750324227501911 -0.19126958203231459 0 0.1770593181852434 -0.19867656031471151 0 0.1750324227501911 -0.19126958203231459 0 0.1770593181852434 -0.19867656031471151 0 0.17860995208145361 -0.19777100901887409 0 0.1770593181852434 -0.19867656031471151 0 0.17860995208145361 -0.19777100901887409 0 0.1919060686331901 -0.20583362644605971 0 0.1770593181852434 -0.19867656031471151 0 0.17860995208145361 -0.19777100901887409 0 0.1919060686331901 -0.20583362644605971 0 0.18795340488931139 -0.19453693076370671 0 0.17860995208145361 -0.19777100901887409 0 0.1919060686331901 -0.20583362644605971 0 0.1770593181852434 -0.19867656031471151 0 0.1848330752034508 -0.22708456223267859 0 0.1770593181852434 -0.19867656031471151 0 0.1704379247293808 -0.21847097189000619 0 0.1848330752034508 -0.22708456223267859 0 0.1770593181852434 -0.19867656031471151 0 0.1848330752034508 -0.22708456223267859 0 0.1770593181852434 -0.19867656031471151 0 0.1704379247293808 -0.21847097189000619 0 0.15520829434172231 -0.21143729191308211 0 0.1770593181852434 -0.19867656031471151 0 0.15520829434172231 -0.21143729191308211 0 0.1770593181852434 -0.19867656031471151 0 0.16437838830620261 -0.1907003599190486 0 0.15520829434172231 -0.21143729191308211 0 0.17664944540245781 -0.2516724249431368 0 0.17193340575519661 -0.23638200376154991 0 0.1848330752034508 -0.22708456223267859 0 0.17664944540245781 -0.2516724249431368 0 0.1848330752034508 -0.22708456223267859 0 0.17664944540245781 -0.2516724249431368 0 0.19038010371744371 -0.24735532658709611 0 0.1848330752034508 -0.22708456223267859 0 0.1704379247293808 -0.21847097189000619 0 0.17193340575519661 -0.23638200376154991 0 0.1848330752034508 -0.22708456223267859 0 0.1704379247293808 -0.21847097189000619 0 0.17193340575519661 -0.23638200376154991 0 0.16215913521453221 -0.2306613908803089 0 0.1704379247293808 -0.21847097189000619 0 0.16215913521453221 -0.2306613908803089 0 0.15520829434172231 -0.21143729191308211 0 0.16215913521453221 -0.2306613908803089 0 0.16345997852390681 -0.24666503200669751 0 0.14837344946173739 -0.2317852272677052 0 0.17193340575519661 -0.23638200376154991 0 0.16215913521453221 -0.2306613908803089 0 0.16345997852390681 -0.24666503200669751 0 0.17664944540245781 -0.2516724249431368 0 0.17193340575519661 -0.23638200376154991 0 0.16345997852390681 -0.24666503200669751 0 0.15027714804140829 -0.25260357163612601 0 0.14837344946173739 -0.2317852272677052 0 0.1343483243296843 -0.23855887763058159 0 0.15027714804140829 -0.25260357163612601 0 0.1425664307512606 -0.2499578410125623 0 0.1343483243296843 -0.23855887763058159 0 0.15027714804140829 -0.25260357163612601 0 0.16345997852390681 -0.24666503200669751 0 0.14837344946173739 -0.2317852272677052 0 0.15027714804140829 -0.25260357163612601 0 0.1343483243296843 -0.23855887763058159 0 0.14837344946173739 -0.2317852272677052 0 0.13335727049820029 -0.22419802351145091 0 0.15520829434172231 -0.21143729191308211 0 0.16215913521453221 -0.2306613908803089 0 0.14837344946173739 -0.2317852272677052 0 0.15520829434172231 -0.21143729191308211 0 0.12075699680342419 -0.2125329804658119 0 0.12415552795451019 -0.22957172900361711 0 0.13335727049820029 -0.22419802351145091 0 0.12415552795451019 -0.22957172900361711 0 0.13335727049820029 -0.22419802351145091 0 0.12415552795451019 -0.22957172900361711 0 0.13335727049820029 -0.22419802351145091 0 0.1343483243296843 -0.23855887763058159 0 0.12415552795451019 -0.22957172900361711 0 0.1343483243296843 -0.23855887763058159 0 0.14837344946173739 -0.2317852272677052 0 0.13335727049820029 -0.22419802351145091 0 0.1343483243296843 -0.23855887763058159 0 0.13335727049820029 -0.22419802351145091 0 0.1343483243296843 -0.23855887763058159 0 0.1344735214161133 -0.24037304456805561 0 0.1343483243296843 -0.23855887763058159 0 0.1217885987790958 -0.24142154113282069 0 0.1343483243296843 -0.23855887763058159 0 0.1285193151480771 -0.24469918824912659 0 0.12415552795451019 -0.22957172900361711 0 0.1217885987790958 -0.24142154113282069 0 0.1343483243296843 -0.23855887763058159 0 0.1344735214161133 -0.24037304456805561 0 0.1343483243296843 -0.23855887763058159 0 0.1285193151480771 -0.24469918824912659 0 0.12903626199286899 -0.25346210742832143 0 0.1206729215231577 -0.25104549537699072 0 0.1285193151480771 -0.24469918824912659 0 0.1344735214161133 -0.24037304456805561 0 0.1285193151480771 -0.24469918824912659 0 0.13431594935557631 -0.2489770844462042 0 0.12903626199286899 -0.25346210742832143 0 0.1285193151480771 -0.24469918824912659 0 0.13431594935557631 -0.2489770844462042 0 0.1425664307512606 -0.2499578410125623 0 0.1344735214161133 -0.24037304456805561 0 0.1343483243296843 -0.23855887763058159 0 0.1425664307512606 -0.2499578410125623 0 0.1344735214161133 -0.24037304456805561 0 0.13431594935557631 -0.2489770844462042 0 0.14753139260950909 -0.18855182940693929 0 0.15520829434172231 -0.21143729191308211 0 0.13186209510086119 -0.2025322016544257 0 0.16437838830620261 -0.1907003599190486 0 0.14753139260950909 -0.18855182940693929 0 0.15520829434172231 -0.21143729191308211 0 0.13335727049820029 -0.22419802351145091 0 0.15520829434172231 -0.21143729191308211 0 0.12075699680342419 -0.2125329804658119 0 0.13335727049820029 -0.22419802351145091 0 0.13186209510086119 -0.2025322016544257 0 0.13335727049820029 -0.22419802351145091 0 0.13186209510086119 -0.2025322016544257 0 0.13335727049820029 -0.22419802351145091 0 0.15520829434172231 -0.21143729191308211 0 0.13186209510086119 -0.2025322016544257 0 0.13186209510086119 -0.2025322016544257 0 0.13036691970352299 -0.18086637979740061 0 0.14753139260950909 -0.18855182940693929 0 0.13186209510086119 -0.2025322016544257 0 0.13036691970352299 -0.18086637979740061 0 0.11336324313313791 -0.1929243194269652 0 0.13186209510086119 -0.2025322016544257 0 0.13036691970352299 -0.18086637979740061 0 0.14753139260950909 -0.18855182940693929 0 0.13036691970352299 -0.18086637979740061 0 0.14434256364043921 -0.169097474989855 0 0.14753139260950909 -0.18855182940693929 0 0.14434256364043921 -0.169097474989855 0 0.15903009456430611 -0.1766772681678242 0 0.14813541210470099 -0.1573254395910457 0 0.15769573279483939 -0.15441945035485649 0 0.15787139131531441 -0.16390122712262009 0 0.14434256364043921 -0.169097474989855 0 0.14813541210470099 -0.1573254395910457 0 0.15787139131531441 -0.16390122712262009 0 0.14434256364043921 -0.169097474989855 0 0.15903009456430611 -0.1766772681678242 0 0.15787139131531441 -0.16390122712262009 0 0.14434256364043921 -0.169097474989855 0 0.14813541210470099 -0.1573254395910457 0 0.13874637144525381 -0.15714676410980069 0 0.14434256364043921 -0.169097474989855 0 0.13874637144525381 -0.15714676410980069 0 0.12887174430618481 -0.1592005579403753 0 0.13036691970352299 -0.18086637979740061 0 0.12887174430618481 -0.1592005579403753 0 0.13036691970352299 -0.18086637979740061 0 0.14434256364043921 -0.169097474989855 0 0.12887174430618481 -0.1592005579403753 0 0.1230623871309196 -0.14895335695444839 0 0.12887174430618481 -0.1592005579403753 0 0.13171020885879139 -0.1510275264184735 0 0.1230623871309196 -0.14895335695444839 0 0.13237025680944811 -0.14209583321970171 0 0.13243819034571089 -0.13642089986752959 0 0.1230623871309196 -0.14895335695444839 0 0.13171020885879139 -0.1510275264184735 0 0.13237025680944811 -0.14209583321970171 0 0.13171020885879139 -0.1510275264184735 0 0.13237025680944811 -0.14209583321970171 0 0.14067192831615249 -0.14908282160925401 0 0.13237025680944811 -0.14209583321970171 0 0.14214680206121699 -0.1399536299359633 0 0.14067192831615249 -0.14908282160925401 0 0.13874637144525381 -0.15714676410980069 0 0.12887174430618481 -0.1592005579403753 0 0.13171020885879139 -0.1510275264184735 0 0.13874637144525381 -0.15714676410980069 0 0.13171020885879139 -0.1510275264184735 0 0.14067192831615249 -0.14908282160925401 0 0.13237025680944811 -0.14209583321970171 0 0.13243819034571089 -0.13642089986752959 0 0.13237025680944811 -0.14209583321970171 0 0.13243819034571089 -0.13642089986752959 0 0.14214680206121699 -0.1399536299359633 0 0.13243819034571089 -0.13642089986752959 0 0.14954980289565031 -0.129966023365755 0 0.14178745248414151 -0.1215450709206894 0 0.13243819034571089 -0.13642089986752959 0 0.14954980289565031 -0.129966023365755 0 0.13243819034571089 -0.13642089986752959 0 0.14214680206121699 -0.1399536299359633 0 0.14954980289565031 -0.129966023365755 0 0.14214680206121699 -0.1399536299359633 0 0.14954980289565031 -0.129966023365755 0 0.15188239999225711 -0.1448552528662429 0 0.14954980289565031 -0.129966023365755 0 0.15188239999225711 -0.1448552528662429 0 0.16191579883927151 -0.13669543182122659 0 0.14813541210470099 -0.1573254395910457 0 0.14067192831615249 -0.14908282160925401 0 0.15188239999225711 -0.1448552528662429 0 0.14813541210470099 -0.1573254395910457 0 0.13874637144525381 -0.15714676410980069 0 0.14067192831615249 -0.14908282160925401 0 0.14214680206121699 -0.1399536299359633 0 0.14067192831615249 -0.14908282160925401 0 0.15188239999225711 -0.1448552528662429 0 0.14813541210470099 -0.1573254395910457 0 0.15188239999225711 -0.1448552528662429 0 0.15769573279483939 -0.15441945035485649 0 0.15188239999225711 -0.1448552528662429 0 0.15769573279483939 -0.15441945035485649 0 0.16306132293396819 -0.14654397338559971 0 0.15769573279483939 -0.15441945035485649 0 0.16306132293396819 -0.14654397338559971 0 0.1678815595530895 -0.1557644464599271 0 0.15188239999225711 -0.1448552528662429 0 0.16306132293396819 -0.14654397338559971 0 0.16191579883927151 -0.13669543182122659 0 0.16306132293396819 -0.14654397338559971 0 0.16191579883927151 -0.13669543182122659 0 0.1741943337483669 -0.14165520157256439 0 0.16306132293396819 -0.14654397338559971 0 0.1678815595530895 -0.1557644464599271 0 0.1741943337483669 -0.14165520157256439 0 0.16666141544558971 -0.12351114686397981 0 0.14954980289565031 -0.129966023365755 0 0.16191579883927151 -0.13669543182122659 0 0.16666141544558971 -0.12351114686397981 0 0.16191579883927151 -0.13669543182122659 0 0.1741943337483669 -0.14165520157256439 0 0.16666141544558971 -0.12351114686397981 0 0.14954980289565031 -0.129966023365755 0 0.16666141544558971 -0.12351114686397981 0 0.18469844227573501 -0.12999493965264131 0 0.1741943337483669 -0.14165520157256439 0 0.19287232899879489 -0.14102092651787429 0 0.18469844227573501 -0.12999493965264131 0 0.18394907341415931 -0.14314796415843589 0 0.18469844227573501 -0.12999493965264131 0 0.1741943337483669 -0.14165520157256439 0 0.18394907341415931 -0.14314796415843589 0 0.1678815595530895 -0.1557644464599271 0 0.1796363622291211 -0.15225688628234779 0 0.1741943337483669 -0.14165520157256439 0 0.1796363622291211 -0.15225688628234779 0 0.1741943337483669 -0.14165520157256439 0 0.18394907341415931 -0.14314796415843589 0 0.18834389981877869 -0.15081186676675179 0 0.1796363622291211 -0.15225688628234779 0 0.18394907341415931 -0.14314796415843589 0 0.18834389981877869 -0.15081186676675179 0 0.1796363622291211 -0.15225688628234779 0 0.18481943334762341 -0.1578535630579464 0 0.1796363622291211 -0.15225688628234779 0 0.18481943334762341 -0.1578535630579464 0 0.17929521677329549 -0.16282770482847991 0 0.18858322256175561 -0.16302500116746779 0 0.18481943334762341 -0.1578535630579464 0 0.17929521677329549 -0.16282770482847991 0 0.1678815595530895 -0.1557644464599271 0 0.17929521677329549 -0.16282770482847991 0 0.169999157459026 -0.1694117454241848 0 0.1678815595530895 -0.1557644464599271 0 0.1796363622291211 -0.15225688628234779 0 0.17929521677329549 -0.16282770482847991 0 0.17929521677329549 -0.16282770482847991 0 0.18024172471854941 -0.17261674271407909 0 0.169999157459026 -0.1694117454241848 0 0.17929521677329549 -0.16282770482847991 0 0.1858584411954563 -0.16896491084380441 0 0.18024172471854941 -0.17261674271407909 0 0.18858322256175561 -0.16302500116746779 0 0.17929521677329549 -0.16282770482847991 0 0.1858584411954563 -0.16896491084380441 0 0.18882132249497199 -0.17403955113166619 0 0.18463910282758411 -0.1795441870804686 0 0.18024172471854941 -0.17261674271407909 0 0.18882132249497199 -0.17403955113166619 0 0.1858584411954563 -0.16896491084380441 0 0.18024172471854941 -0.17261674271407909 0 0.18463910282758411 -0.1795441870804686 0 0.18024172471854941 -0.17261674271407909 0 0.17804324690097981 -0.17831041673656589 0 0.18767071240209271 -0.18662875874863991 0 0.18463910282758411 -0.1795441870804686 0 0.1794305944660651 -0.1848884015832197 0 0.18463910282758411 -0.1795441870804686 0 0.1794305944660651 -0.1848884015832197 0 0.17804324690097981 -0.17831041673656589 0 0.1750324227501911 -0.19126958203231459 0 0.1794305944660651 -0.1848884015832197 0 0.17169646181151929 -0.18028652039433229 0 0.1794305944660651 -0.1848884015832197 0 0.17804324690097981 -0.17831041673656589 0 0.17169646181151929 -0.18028652039433229 0 0.18024172471854941 -0.17261674271407909 0 0.17499514772251859 -0.17515635631729051 0 0.169999157459026 -0.1694117454241848 0 0.17499514772251859 -0.17515635631729051 0 0.17169646181151929 -0.18028652039433229 0 0.169999157459026 -0.1694117454241848 0 0.18024172471854941 -0.17261674271407909 0 0.17804324690097981 -0.17831041673656589 0 0.17499514772251859 -0.17515635631729051 0 0.17804324690097981 -0.17831041673656589 0 0.17499514772251859 -0.17515635631729051 0 0.17169646181151929 -0.18028652039433229 0 0.17169646181151929 -0.18028652039433229 0 0.15903009456430611 -0.1766772681678242 0 0.169999157459026 -0.1694117454241848 0 0.16437838830620261 -0.1907003599190486 0 0.14753139260950909 -0.18855182940693929 0 0.15903009456430611 -0.1766772681678242 0 0.1750324227501911 -0.19126958203231459 0 0.16437838830620261 -0.1907003599190486 0 0.17169646181151929 -0.18028652039433229 0 0.16437838830620261 -0.1907003599190486 0 0.17169646181151929 -0.18028652039433229 0 0.15903009456430611 -0.1766772681678242 0 0.15903009456430611 -0.1766772681678242 0 0.15787139131531441 -0.16390122712262009 0 0.169999157459026 -0.1694117454241848 0 0.15769573279483939 -0.15441945035485649 0 0.1678815595530895 -0.1557644464599271 0 0.15787139131531441 -0.16390122712262009 0 0.1678815595530895 -0.1557644464599271 0 0.15787139131531441 -0.16390122712262009 0 0.169999157459026 -0.1694117454241848 0 
</DataArray>
</Points>
<Cells>
<DataArray type="UInt32" Name="connectivity" format="ascii">
0 1 2 3 4 5 6 7 8 9 10 11 12 13 14 15 16 17 18 19 20 21 22 23 24 25 26 27 28 29 30 31 32 33 34 35 36 37 38 39 40 41 42 43 44 45 46 47 48 49 50 51 52 53 54 55 56 57 58 59 60 61 62 63 64 65 66 67 68 69 70 71 72 73 74 75 76 77 78 79 80 81 82 83 84 85 86 87 88 89 90 91 92 93 94 95 96 97 98 99 100 101 102 103 104 105 106 107 108 109 110 111 112 113 114 115 116 117 118 119 120 121 122 123 124 125 126 127 128 129 130 131 132 133 134 135 136 137 138 139 140 141 142 143 144 145 146 147 148 149 150 151 152 153 154 155 156 157 158 159 160 161 162 163 164 165 166 167 168 169 170 171 172 173 174 175 176 177 178 179 180 181 182 183 184 185 186 187 188 189 190 191 192 193 194 195 196 197 198 199 200 201 202 203 204 205 206 207 208 209 210 211 212 213 214 215 216 217 218 219 220 221 222 223 224 225 226 227 228 229 230 231 232 233 234 235 236 237 238 239 240 241 242 243 244 245 246 247 248 249 250 251 252 253 254 255 256 257 258 259 260 261 262 263 264 265 266 267 268 269 270 271 272 273 274 275 276 277 278 279 280 281 282 283 284 285 286 287 288 289 290 291 292 293 294 295 296 297 298 299 300 301 302 303 304 305 306 307 308 309 310 311 312 313 314 315 316 317 318 319 320 321 322 323 324 325 326 327 328 329 330 331 332 333 334 335 336 337 338 339 340 341 342 343 344 345 346 347 348 349 350 351 352 353 354 355 356 357 358 359 360 361 362 363 364 365 366 367 368 369 370 371 372 373 374 375 376 377 378 379 380 381 382 383 384 385 386 387 388 389 390 391 392 393 394 395 396 397 398 399 400 401 402 403 404 405 406 407 408 409 410 411 412 413 414 415 416 417 418 419 420 421 422 423 424 425 426 427 428 429 430 431 432 433 434 435 436 437 438 439 440 441 442 443 444 445 446 447 448 449 450 451 452 453 454 455 456 457 458 459 460 461 462 463 464 465 466 467 468 469 470 471 472 473 474 475 476 477 478 479 480 481 482 483 484 485 486 487 488 489 490 491 492 493 494 495 496 497 498 499 500 501 502 503 504 505 506 507 508 509 510 511 512 513 514 515 516 517 518 519 520 521 522 523 524 525 526 527 528 529 530 531 532 533 534 535 536 537 538 539 540 541 542 543 544 545 546 547 548 549 550 551 552 553 554 555 556 557 558 559 560 561 562 563 564 565 566 567 568 569 570 571 572 573 574 575 576 577 578 579 580 581 582 583 584 585 586 587 588 589 590 591 592 593 594 595 596 597 598 599 600 601 602 603 604 605 606 607 608 609 610 611 612 613 614 615 616 617 618 619 620 621 622 623 624 625 626 627 628 629 630 631 632 633 634 635 636 637 638 639 640 641 642 643 644 645 646 647 648 649 650 651 652 653 654 655 656 657 658 659 660 661 662 663 664 665 666 667 668 669 670 671 672 673 674 675 676 677 678 679 680 681 682 683 684 685 686 687 688 689 690 691 692 693 694 695 696 697 698 699 700 701 702 703 704 705 706 707 708 709 710 711 712 713 714 715 716 717 718 719 720 721 722 723 724 725 726 727 728 729 730 731 732 733 734 735 736 737 738 739 740 741 742 743 744 745 746 747 748 749 750 751 752 753 754 755 756 757 758 759 760 761 762 763 764 765 766 767 768 769 770 771 772 773 774 775 776 777 778 779 780 781 782 783 784 785 786 787 788 789 790 791 792 793 794 795 796 797 798 799 800 801 802 803 804 805 806 807 808 809 810 811 812 813 814 815 816 817 818 819 820 821 822 823 824 825 826 827 828 829 830 831 832 833 834 835 836 837 838 839 840 841 842 843 844 845 846 847 848 849 850 851 852 853 854 855 856 857 858 859 860 861 862 863 864 865 866 867 868 869 870 871 872 873 874 875 876 877 878 879 880 881 882 883 884 885 886 887 888 889 890 891 892 893 894 895 896 897 898 899 900 901 902 903 904 905 906 907 908 909 910 911 912 913 914 915 916 917 918 919 920 921 922 923 924 925 926 927 928 929 930 931 932 933 934 935 936 937 938 939 940 941 942 943 944 945 946 947 948 949 950 951 952 953 954 955 956 957 958 959 960 961 962 963 964 965 966 967 968 969 970 971 972 973 974 975 976 977 978 979 980 981 982 983 984 985 986 987 988 989 990 991 992 993 994 995 996 997 998 999 1000 1001 1002 1003 1004 1005 1006 1007 1008 1009 1010 1011 1012 1013 1014 1015 1016 1017 1018 1019 1020 1021 1022 1023 1024 1025 1026 1027 1028 1029 1030 1031 1032 1033 1034 1035 1036 1037 1038 1039 1040 1041 1042 1043 1044 1045 1046 1047 1048 1049 1050 1051 1052 1053 1054 1055 1056 1057 1058 1059 1060 1061 1062 1063 1064 1065 1066 1067 1068 1069 1070 1071 1072 1073 1074 1075 1076 1077 1078 1079 1080 1081 1082 1083 1084 1085 1086 1087 1088 1089 1090 1091 1092 1093 1094 1095 1096 1097 1098 1099 1100 1101 1102 1103 1104 1105 1106 1107 1108 1109 1110 1111 1112 1113 1114 1115 1116 1117 1118 1119 1120 1121 1122 1123 1124 1125 1126 1127 1128 1129 1130 1131 1132 1133 1134 1135 1136 1137 1138 1139 1140 1141 1142 1143 1144 1145 1146 1147 1148 1149 1150 1151 1152 1153 1154 1155 1156 1157 1158 1159 1160 1161 1162 1163 1164 1165 1166 1167 1168 1169 1170 1171 1172 1173 1174 1175 1176 1177 1178 1179 1180 1181 1182 1183 1184 1185 1186 1187 1188 1189 1190 1191 1192 1193 1194 1195 1196 1197 1198 1199 1200 1201 1202 1203 1204 1205 1206 1207 1208 1209 1210 1211 1212 1213 1214 1215 1216 1217 1218 1219 1220 1221 1222 1223 1224 1225 1226 1227 1228 1229 1230 1231 1232 1233 1234 1235 1236 1237 1238 1239 1240 1241 1242 1243 1244 1245 1246 1247 1248 1249 1250 1251 1252 1253 1254 1255 1256 1257 1258 1259 1260 1261 1262 1263 1264 1265 1266 1267 1268 1269 1270 1271 1272 1273 1274 1275 1276 1277 1278 1279 1280 1281 1282 1283 1284 1285 1286 1287 1288 1289 1290 1291 1292 1293 1294 1295 1296 1297 1298 1299 1300 1301 1302 1303 1304 1305 1306 1307 1308 1309 1310 1311 1312 1313 1314 1315 1316 1317 1318 1319 1320 1321 1322 1323 1324 1325 1326 1327 1328 1329 1330 1331 1332 1333 1334 1335 1336 1337 1338 1339 1340 1341 1342 1343 1344 1345 1346 1347 1348 1349 1350 1351 1352 1353 1354 1355 1356 1357 1358 1359 1360 1361 1362 1363 1364 1365 1366 1367 1368 1369 1370 1371 1372 1373 1374 1375 1376 1377 1378 1379 1380 1381 1382 1383 1384 1385 1386 1387 1388 1389 1390 1391 1392 1393 1394 1395 1396 1397 1398 1399 1400 1401 1402 1403 1404 1405 1406 1407 1408 1409 1410 1411 1412 1413 1414 1415 1416 1417 1418 1419 1420 1421 1422 1423 1424 1425 1426 1427 1428 1429 1430 1431 1432 1433 1434 1435 1436 1437 1438 1439 1440 1441 1442 1443 1444 1445 1446 1447 1448 1449 1450 1451 1452 1453 1454 1455 1456 1457 1458 1459 1460 1461 1462 1463 1464 1465 1466 1467 1468 1469 1470 1471 1472 1473 1474 1475 1476 1477 1478 1479 1480 1481 1482 1483 1484 1485 1486 1487 1488 1489 1490 1491 1492 1493 1494 1495 1496 1497 1498 1499 1500 1501 1502 1503 1504 1505 1506 1507 1508 1509 1510 1511 1512 1513 1514 1515 1516 1517 1518 1519 1520 1521 1522 1523 1524 1525 1526 1527 1528 1529 1530 1531 1532 1533 1534 1535 1536 1537 1538 1539 1540 1541 1542 1543 1544 1545 1546 1547 1548 1549 1550 1551 1552 1553 1554 1555 1556 1557 1558 1559 1560 1561 1562 1563 1564 1565 1566 1567 1568 1569 1570 1571 1572 1573 1574 1575 1576 1577 1578 1579 1580 1581 1582 1583 1584 1585 1586 1587 1588 1589 1590 1591 1592 1593 1594 1595 1596 1597 1598 1599 1600 1601 1602 1603 1604 1605 1606 1607 1608 1609 1610 1611 1612 1613 1614 1615 1616 1617 1618 1619 1620 1621 1622 1623 1624 1625 1626 1627 1628 1629 1630 1631 1632 1633 1634 1635 1636 1637 1638 1639 1640 1641 1642 1643 1644 1645 1646 1647 1648 1649 1650 1651 1652 1653 1654 1655 1656 1657 1658 1659 1660 1661 1662 1663 1664 1665 1666 1667 1668 1669 1670 1671 1672 1673 1674 1675 1676 1677 1678 1679 1680 1681 1682 1683 1684 1685 1686 1687 1688 1689 1690 1691 1692 1693 1694 1695 1696 1697 1698 1699 1700 1701 1702 1703 1704 1705 1706 1707 1708 1709 1710 1711 1712 1713 1714 1715 1716 1717 1718 1719 1720 1721 1722 1723 1724 1725 1726 1727 1728 1729 1730 1731 1732 1733 1734 1735 1736 1737 1738 1739 1740 1741 1742 1743 1744 1745 1746 1747 1748 1749 1750 1751 1752 1753 1754 1755 1756 1757 1758 1759 1760 1761 1762 1763 1764 1765 1766 1767 1768 1769 1770 1771 1772 1773 1774 1775 1776 1777 1778 1779 1780 1781 1782 1783 1784 1785 1786 1787 1788 1789 1790 1791 1792 1793 1794 1795 1796 1797 1798 1799 1800 1801 1802 1803 1804 1805 1806 1807 1808 1809 1810 1811 1812 1813 1814 1815 1816 1817 1818 1819 1820 1821 1822 1823 1824 1825 1826 1827 1828 1829 1830 1831 1832 1833 1834 1835 1836 1837 1838 1839 1840 1841 1842 1843 1844 1845 1846 1847 1848 1849 1850 1851 1852 1853 1854 1855 1856 1857 1858 1859 1860 1861 1862 1863 1864 1865 1866 1867 1868 1869 1870 1871 1872 1873 1874 1875 1876 1877 1878 1879 1880 1881 1882 1883 1884 1885 1886 1887 1888 1889 1890 1891 1892 1893 1894 1895 1896 1897 1898 1899 1900 1901 1902 1903 1904 1905 1906 1907 1908 1909 1910 1911 1912 1913 1914 1915 1916 1917 1918 1919 1920 1921 1922 1923 1924 1925 1926 1927 1928 1929 1930 1931 1932 1933 1934 1935 1936 1937 1938 1939 1940 1941 1942 1943 1944 1945 1946 1947 1948 1949 1950 1951 1952 1953 1954 1955 1956 1957 1958 1959 1960 1961 1962 1963 1964 1965 1966 1967 1968 1969 1970 1971 1972 1973 1974 1975 1976 1977 1978 1979 1980 1981 1982 1983 1984 1985 1986 1987 1988 1989 1990 1991 1992 1993 1994 1995 1996 1997 1998 1999 2000 2001 2002 2003 2004 2005 2006 2007 2008 2009 2010 2011 2012 2013 2014 2015 2016 2017 2018 2019 2020 2021 2022 2023 2024 2025 2026 2027 2028 2029 2030 2031 2032 2033 2034 2035 2036 2037 2038 2039 2040 2041 2042 2043 2044 2045 2046 2047 2048 2049 2050 2051 2052 2053 2054 2055 2056 2057 2058 2059 2060 2061 2062 2063 2064 2065 2066 2067 2068 2069 2070 2071 2072 2073 2074 2075 2076 2077 2078 2079 2080 2081 2082 2083 2084 2085 2086 2087 2088 2089 2090 2091 2092 2093 2094 2095 2096 2097 2098 2099 2100 2101 2102 2103 2104 2105 2106 2107 2108 2109 2110 2111 2112 2113 2114 2115 2116 2117 2118 2119 2120 2121 2122 2123 2124 2125 2126 2127 2128 2129 2130 2131 2132 2133 2134 2135 2136 2137 2138 2139 2140 2141 2142 2143 2144 2145 2146 2147 2148 2149 2150 2151 2152 2153 2154 2155 2156 2157 2158 2159 2160 2161 2162 2163 2164 2165 2166 2167 2168 2169 2170 2171 2172 2173 2174 2175 2176 2177 2178 2179 2180 2181 2182 2183 2184 2185 2186 2187 2188 2189 2190 2191 2192 2193 2194 2195 2196 2197 2198 2199 2200 2201 2202 2203 2204 2205 2206 2207 2208 2209 2210 2211 2212 2213 2214 2215 2216 2217 2218 2219 2220 2221 2222 2223 2224 2225 2226 2227 2228 2229 2230 2231 2232 2233 2234 2235 2236 2237 2238 2239 2240 2241 2242 2243 2244 2245 2246 2247 2248 2249 2250 2251 2252 2253 2254 2255 2256 2257 2258 2259 2260 2261 2262 2263 2264 2265 2266 2267 2268 2269 2270 2271 2272 2273 2274 2275 2276 2277 2278 2279 2280 2281 2282 2283 2284 2285 2286 2287 2288 2289 2290 2291 2292 2293 2294 2295 2296 2297 2298 2299 2300 2301 2302 2303 2304 2305 2306 2307 2308 2309 2310 2311 2312 2313 2314 2315 2316 2317 2318 2319 2320 2321 2322 2323 2324 2325 2326 2327 2328 2329 2330 2331 2332 2333 2334 2335 2336 2337 2338 2339 2340 2341 2342 2343 2344 2345 2346 2347 2348 2349 2350 2351 2352 2353 2354 2355 2356 2357 2358 2359 2360 2361 2362 2363 2364 2365 2366 2367 2368 2369 2370 2371 2372 2373 2374 2375 2376 2377 2378 2379 2380 2381 2382 2383 2384 2385 2386 2387 2388 2389 2390 2391 2392 2393 2394 2395 2396 2397 2398 2399 2400 2401 2402 2403 2404 2405 2406 2407 2408 2409 2410 2411 2412 2413 2414 2415 2416 2417 2418 2419 2420 2421 2422 2423 2424 2425 2426 2427 2428 2429 2430 2431 2432 2433 2434 2435 2436 2437 2438 2439 2440 2441 2442 2443 2444 2445 2446 2447 2448 2449 2450 2451 2452 2453 2454 2455 2456 2457 2458 2459 2460 2461 2462 2463 2464 2465 2466 2467 2468 2469 2470 2471 2472 2473 2474 2475 2476 2477 2478 2479 2480 2481 2482 2483 2484 2485 2486 2487 2488 2489 2490 2491 2492 2493 2494 2495 2496 2497 2498 2499 2500 2501 2502 2503 2504 2505 2506 2507 2508 2509 2510 2511 2512 2513 2514 2515 2516 2517 2518 2519 2520 2521 2522 2523 2524 2525 2526 2527 2528 2529 2530 2531 2532 2533 2534 2535 2536 2537 2538 2539 2540 2541 2542 2543 2544 2545 2546 2547 2548 2549 2550 2551 2552 2553 2554 2555 2556 2557 2558 2559 2560 2561 2562 2563 2564 2565 2566 2567 2568 2569 2570 2571 2572 2573 2574 2575 2576 2577 2578 2579 2580 2581 2582 2583 2584 2585 2586 2587 2588 2589 2590 2591 2592 2593 2594 2595 2596 2597 2598 2599 2600 2601 2602 2603 2604 2605 2606 2607 2608 2609 2610 2611 2612 2613 2614 2615 2616 2617 2618 2619 2620 2621 2622 2623 2624 2625 2626 2627 2628 2629 2630 2631 2632 2633 2634 2635 2636 2637 2638 2639 2640 2641 2642 2643 2644 2645 2646 2647 2648 2649 2650 2651 2652 2653 2654 2655 2656 2657 2658 2659 2660 2661 2662 2663 2664 2665 2666 2667 2668 2669 2670 2671 2672 2673 2674 2675 2676 2677 2678 2679 2680 2681 2682 2683 2684 2685 2686 2687 2688 2689 2690 2691 2692 2693 2694 2695 2696 2697 2698 2699 2700 2701 2702 2703 2704 2705 2706 2707 2708 2709 2710 2711 2712 2713 2714 2715 2716 2717 2718 2719 2720 2721 2722 2723 2724 2725 2726 2727 2728 2729 2730 2731 2732 2733 2734 2735 2736 2737 2738 2739 2740 2741 2742 2743 2744 2745 2746 2747 2748 2749 2750 2751 2752 2753 2754 2755 2756 2757 2758 2759 2760 2761 2762 2763 2764 2765 2766 2767 2768 2769 2770 2771 2772 2773 2774 2775 2776 2777 2778 2779 2780 2781 2782 2783 2784 2785 2786 2787 2788 2789 2790 2791 2792 2793 2794 2795 2796 2797 2798 2799 2800 2801 2802 2803 2804 2805 2806 2807 2808 2809 2810 2811 2812 2813 2814 2815 2816 2817 2818 2819 2820 2821 2822 2823 2824 2825 2826 2827 2828 2829 2830 2831 2832 2833 2834 2835 2836 2837 2838 2839 2840 2841 2842 2843 2844 2845 2846 2847 2848 2849 2850 2851 2852 2853 2854 2855 2856 2857 2858 2859 2860 2861 2862 2863 2864 2865 2866 2867 2868 2869 2870 2871 2872 2873 2874 2875 2876 2877 2878 2879 2880 2881 2882 2883 2884 2885 2886 2887 2888 2889 2890 2891 2892 2893 2894 2895 2896 2897 2898 2899 2900 2901 2902 2903 2904 2905 2906 2907 2908 2909 2910 2911 2912 2913 2914 2915 2916 2917 2918 2919 2920 2921 2922 2923 2924 2925 2926 2927 2928 2929 2930 2931 2932 2933 2934 2935 2936 2937 2938 2939 2940 2941 2942 2943 2944 2945 2946 2947 2948 2949 2950 2951 2952 2953 2954 2955 2956 2957 2958 2959 2960 2961 2962 2963 2964 2965 2966 2967 2968 2969 2970 2971 2972 2973 2974 2975 2976 2977 2978 2979 2980 2981 2982 2983 2984 2985 2986 2987 2988 2989 2990 2991 2992 2993 2994 2995 2996 2997 2998 2999 3000 3001 3002 3003 3004 3005 3006 3007 3008 3009 3010 3011 3012 3013 3014 3015 3016 3017 3018 3019 3020 3021 3022 3023 3024 3025 3026 3027 3028 3029 3030 3031 3032 3033 3034 3035 3036 3037 3038 3039 3040 3041 3042 3043 3044 3045 3046 3047 3048 3049 3050 3051 3052 3053 3054 3055 3056 3057 3058 3059 3060 3061 3062 3063 3064 3065 3066 3067 3068 3069 3070 3071 3072 3073 3074 3075 3076 3077 3078 3079 3080 3081 3082 3083 3084 3085 3086 3087 3088 3089 3090 3091 3092 3093 3094 3095 3096 3097 3098 3099 3100 3101 3102 3103 3104 3105 3106 3107 3108 3109 3110 3111 3112 3113 3114 3115 3116 3117 3118 3119 3120 3121 3122 3123 3124 3125 3126 3127 3128 3129 3130 3131 3132 3133 3134 3135 3136 3137 3138 3139 3140 3141 3142 3143 3144 3145 3146 3147 3148 3149 3150 3151 3152 3153 3154 3155 3156 3157 3158 3159 3160 3161 3162 3163 3164 3165 3166 3167 3168 3169 3170 3171 3172 3173 3174 3175 3176 3177 3178 3179 3180 3181 3182 3183 3184 3185 3186 3187 3188 3189 3190 3191 3192 3193 3194 3195 3196 3197 3198 3199 3200 3201 3202 3203 3204 3205 3206 3207 3208 3209 3210 3211 3212 3213 3214 3215 3216 3217 3218 3219 3220 3221 3222 3223 3224 3225 3226 3227 3228 3229 3230 3231 3232 3233 3234 3235 3236 3237 3238 3239 3240 3241 3242 3243 3244 3245 3246 3247 3248 3249 3250 3251 3252 3253 3254 3255 3256 3257 3258 3259 3260 3261 3262 3263 3264 3265 3266 3267 3268 3269 3270 3271 3272 3273 3274 3275 3276 3277 3278 3279 3280 3281 3282 3283 3284 3285 3286 3287 3288 3289 3290 3291 3292 3293 3294 3295 3296 3297 3298 3299 3300 3301 3302 3303 3304 3305 3306 3307 3308 3309 3310 3311 3312 3313 3314 3315 3316 3317 3318 3319 3320 3321 3322 3323 3324 3325 3326 3327 3328 3329 3330 3331 3332 3333 3334 3335 3336 3337 3338 3339 3340 3341 3342 3343 3344 3345 3346 3347 3348 3349 3350 3351 3352 3353 3354 3355 3356 3357 3358 3359 3360 3361 3362 3363 3364 3365 3366 3367 3368 3369 3370 3371 3372 3373 3374 3375 3376 3377 3378 3379 3380 3381 3382 3383 3384 3385 3386 3387 3388 3389 3390 3391 3392 3393 3394 3395 3396 3397 3398 3399 3400 3401 3402 3403 3404 3405 3406 3407 3408 3409 3410 3411 3412 3413 3414 3415 3416 3417 3418 3419 3420 3421 3422 3423 3424 3425 3426 3427 3428 3429 3430 3431 3432 3433 3434 3435 3436 3437 3438 3439 3440 3441 3442 3443 3444 3445 3446 3447 3448 3449 3450 3451 3452 3453 3454 3455 3456 3457 3458 3459 3460 3461 3462 3463 3464 3465 3466 3467 3468 3469 3470 3471 3472 3473 3474 3475 3476 3477 3478 3479 3480 3481 3482 3483 3484 3485 3486 3487 3488 3489 3490 3491 3492 3493 3494 3495 3496 3497 3498 3499 3500 3501 3502 3503 3504 3505 3506 3507 3508 3509 3510 3511 3512 3513 3514 3515 3516 3517 3518 3519 3520 3521 3522 3523 3524 3525 3526 3527 3528 3529 3530 3531 3532 3533 3534 3535 3536 3537 3538 3539 3540 3541 3542 3543 3544 3545 3546 3547 3548 3549 3550 3551 3552 3553 3554 3555 3556 3557 3558 3559 3560 3561 3562 3563 3564 3565 3566 3567 3568 3569 3570 3571 3572 3573 3574 3575 3576 3577 3578 3579 3580 3581 3582 3583 3584 3585 3586 3587 3588 3589 3590 3591 3592 3593 3594 3595 3596 3597 3598 3599 3600 3601 3602 3603 3604 3605 3606 3607 3608 3609 3610 3611 3612 3613 3614 3615 3616 3617 3618 3619 3620 3621 3622 3623 3624 3625 3626 3627 3628 3629 3630 3631 3632 3633 3634 3635 3636 3637 3638 3639 3640 3641 3642 3643 3644 3645 3646 3647 3648 3649 3650 3651 3652 3653 3654 3655 3656 3657 3658 3659 3660 3661 3662 3663 3664 3665 3666 3667 3668 3669 3670 3671 3672 3673 3674 3675 3676 3677 3678 3679 3680 3681 3682 3683 3684 3685 3686 3687 3688 3689 3690 3691 3692 3693 3694 3695 3696 3697 3698 3699 3700 3701 3702 3703 3704 3705 3706 3707 3708 3709 3710 3711 3712 3713 3714 3715 3716 3717 3718 3719 3720 3721 3722 3723 3724 3725 3726 3727 3728 3729 3730 3731 3732 3733 3734 3735 3736 3737 3738 3739 3740 3741 3742 3743 3744 3745 3746 3747 3748 3749 3750 3751 3752 3753 3754 3755 3756 3757 3758 3759 3760 3761 3762 3763 3764 3765 3766 3767 3768 3769 3770 3771 3772 3773 3774 3775 3776 3777 3778 3779 3780 3781 3782 3783 3784 3785 3786 3787 3788 3789 3790 3791 3792 3793 3794 3795 3796 3797 3798 3799 3800 3801 3802 3803 3804 3805 3806 3807 3808 3809 3810 3811 3812 3813 3814 3815 3816 3817 3818 3819 3820 3821 3822 3823 3824 3825 3826 3827 3828 3829 3830 3831 3832 3833 3834 3835 3836 3837 3838 3839 3840 3841 3842 3843 3844 3845 3846 3847 3848 3849 3850 3851 3852 3853 3854 3855 3856 3857 3858 3859 3860 3861 3862 3863 3864 3865 3866 3867 3868 3869 3870 3871 3872 3873 3874 3875 3876 3877 3878 3879 3880 3881 3882 3883 3884 3885 3886 3887 3888 3889 3890 3891 3892 3893 3894 3895 3896 3897 3898 3899 3900 3901 3902 3903 3904 3905 3906 3907 3908 3909 3910 3911 3912 3913 3914 3915 3916 3917 3918 3919 3920 3921 3922 3923 3924 3925 3926 3927 3928 3929 3930 3931 3932 3933 3934 3935 3936 3937 3938 3939 3940 3941 3942 3943 3944 3945 3946 3947 3948 3949 3950 3951 3952 3953 3954 3955 3956 3957 3958 3959 3960 3961 3962 3963 3964 3965 3966 3967 3968 3969 3970 3971 3972 3973 3974 3975 3976 3977 3978 3979 3980 3981 3982 3983 3984 3985 3986 3987 3988 3989 3990 3991 3992 3993 3994 3995 3996 3997 3998 3999 4000 4001 4002 4003 4004 4005 4006 4007 4008 4009 4010 4011 4012 4013 4014 4015 4016 4017 4018 4019 4020 4021 4022 4023 4024 4025 4026 4027 4028 4029 4030 4031 4032 4033 4034 4035 4036 4037 4038 4039 4040 4041 4042 4043 4044 4045 4046 4047 4048 4049 4050 4051 4052 4053 4054 4055 4056 4057 4058 4059 4060 4061 4062 4063 4064 4065 4066 4067 4068 4069 4070 4071 4072 4073 4074 4075 4076 4077 4078 4079 4080 4081 4082 4083 4084 4085 4086 4087 4088 4089 4090 4091 4092 4093 4094 4095 4096 4097 4098 4099 4100 4101 4102 4103 4104 4105 4106 4107 4108 4109 4110 4111 4112 4113 4114 4115 4116 4117 4118 4119 4120 4121 4122 4123 4124 4125 4126 4127 4128 4129 4130 4131 4132 4133 4134 4135 4136 4137 4138 4139 4140 4141 4142 4143 4144 4145 4146 4147 4148 4149 4150 4151 4152 4153 4154 4155 4156 4157 4158 4159 4160 4161 4162 4163 4164 4165 4166 4167 4168 4169 4170 4171 4172 4173 4174 4175 4176 4177 4178 4179 4180 4181 4182 4183 4184 4185 4186 4187 4188 4189 4190 4191 4192 4193 4194 4195 4196 4197 4198 4199 4200 4201 4202 4203 4204 4205 4206 4207 4208 4209 4210 4211 4212 4213 4214 4215 4216 4217 4218 4219 4220 4221 4222 4223 4224 4225 4226 4227 4228 4229 4230 4231 4232 4233 4234 4235 4236 4237 4238 4239 4240 4241 4242 4243 4244 4245 4246 4247 4248 4249 4250 4251 4252 4253 4254 4255 4256 4257 4258 4259 4260 4261 4262 4263 4264 4265 4266 4267 4268 4269 4270 4271 4272 4273 4274 4275 4276 4277 4278 4279 4280 4281 4282 4283 4284 4285 4286 4287 4288 4289 4290 4291 4292 4293 4294 4295 4296 4297 4298 4299 4300 4301 4302 4303 4304 4305 4306 4307 4308 4309 4310 4311 4312 4313 4314 4315 4316 4317 4318 4319 4320 4321 4322 4323 4324 4325 4326 4327 4328 4329 4330 4331 4332 4333 4334 4335 4336 4337 4338 4339 4340 4341 4342 4343 4344 4345 4346 4347 4348 4349 4350 4351 4352 4353 4354 4355 4356 4357 4358 4359 4360 4361 4362 4363 4364 4365 4366 4367 4368 4369 4370 4371 4372 4373 4374 4375 4376 4377 4378 4379 4380 4381 4382 4383 4384 4385 4386 4387 4388 4389 4390 4391 4392 4393 4394 4395 4396 4397 4398 4399 4400 4401 4402 4403 4404 4405 4406 4407 4408 4409 4410 4411 4412 4413 4414 4415 4416 4417 4418 4419 4420 4421 4422 4423 4424 4425 4426 4427 4428 4429 4430 4431 4432 4433 4434 4435 4436 4437 4438 4439 4440 4441 4442 4443 4444 4445 4446 4447 4448 4449 4450 4451 4452 4453 4454 4455 4456 4457 4458 4459 4460 4461 4462 4463 4464 4465 4466 4467 4468 4469 4470 4471 4472 4473 4474 4475 4476 4477 4478 4479 4480 4481 4482 4483 4484 4485 4486 4487 4488 4489 4490 4491 4492 4493 4494 4495 4496 4497 4498 4499 4500 4501 4502 4503 4504 4505 4506 4507 4508 4509 4510 4511 4512 4513 4514 4515 4516 4517 4518 4519 4520 4521 4522 4523 4524 4525 4526 4527 4528 4529 4530 4531 4532 4533 4534 4535 4536 4537 4538 4539 4540 4541 4542 4543 4544 4545 4546 4547 4548 4549 4550 4551 4552 4553 4554 4555 4556 4557 4558 4559 4560 4561 4562 4563 4564 4565 4566 4567 4568 4569 4570 4571 4572 4573 4574 4575 4576 4577 4578 4579 4580 4581 4582 4583 4584 4585 4586 4587 4588 4589 4590 4591 4592 4593 4594 4595 4596 4597 4598 4599 4600 4601 4602 4603 4604 4605 4606 4607 4608 4609 4610 4611 4612 4613 4614 4615 4616 4617 4618 4619 4620 4621 4622 4623 4624 4625 4626 4627 4628 4629 4630 4631 4632 4633 4634 4635 4636 4637 4638 4639 4640 4641 4642 4643 4644 4645 4646 4647 4648 4649 4650 4651 4652 4653 4654 4655 4656 4657 4658 4659 4660 4661 4662 4663 4664 4665 4666 4667 4668 4669 4670 4671 4672 4673 4674 4675 4676 4677 4678 4679 4680 4681 4682 4683 4684 4685 4686 4687 4688 4689 4690 4691 4692 4693 4694 4695 4696 4697 4698 4699 4700 4701 4702 4703 4704 4705 4706 4707 4708 4709 4710 4711 4712 4713 4714 4715 4716 4717 4718 4719 4720 4721 4722 4723 4724 4725 4726 4727 4728 4729 4730 4731 4732 4733 4734 4735 4736 4737 4738 4739 4740 4741 4742 4743 4744 4745 4746 4747 4748 4749 4750 4751 4752 4753 4754 4755 4756 4757 4758 4759 4760 4761 4762 4763 4764 4765 4766 4767 4768 4769 4770 4771 4772 4773 4774 4775 4776 4777 4778 4779 4780 4781 4782 4783 4784 4785 4786 4787 4788 4789 4790 4791 4792 4793 4794 4795 4796 4797 4798 4799 4800 4801 4802 4803 4804 4805 4806 4807 4808 4809 4810 4811 4812 4813 4814 4815 4816 4817 4818 4819 4820 4821 4822 4823 4824 4825 4826 4827 4828 4829 4830 4831 4832 4833 4834 4835 4836 4837 4838 4839 4840 4841 4842 4843 4844 4845 4846 4847 4848 4849 4850 4851 4852 4853 4854 4855 4856 4857 4858 4859 4860 4861 4862 4863 4864 4865 4866 4867 4868 4869 4870 4871 4872 4873 4874 4875 4876 4877 4878 4879 4880 4881 4882 4883 4884 4885 4886 4887 4888 4889 4890 4891 4892 4893 4894 4895 4896 4897 4898 4899 4900 4901 4902 4903 4904 4905 4906 4907 4908 4909 4910 4911 4912 4913 4914 4915 4916 4917 4918 4919 4920 4921 4922 4923 4924 4925 4926 4927 4928 4929 4930 4931 4932 4933 4934 4935 4936 4937 4938 4939 4940 4941 4942 4943 4944 4945 4946 4947 4948 4949 4950 4951 4952 4953 4954 4955 4956 4957 4958 4959 4960 4961 4962 4963 4964 4965 4966 4967 4968 4969 4970 4971 4972 4973 4974 4975 4976 4977 4978 4979 4980 4981 4982 4983 4984 4985 4986 4987 4988 4989 4990 4991 4992 4993 4994 4995 4996 4997 4998 4999 5000 5001 5002 5003 5004 5005 5006 5007 5008 5009 5010 5011 5012 5013 5014 5015 5016 5017 5018 5019 5020 5021 5022 5023 5024 5025 5026 5027 5028 5029 5030 5031 5032 5033 5034 5035 5036 5037 5038 5039 5040 5041 5042 5043 5044 5045 5046 5047 5048 5049 5050 5051 5052 5053 5054 5055 5056 5057 5058 5059 5060 5061 5062 5063 5064 5065 5066 5067 5068 5069 5070 5071 5072 5073 5074 5075 5076 5077 5078 5079 5080 5081 5082 5083 5084 5085 5086 5087 5088 5089 5090 5091 5092 5093 5094 5095 5096 5097 5098 5099 5100 5101 5102 5103 5104 5105 5106 5107 5108 5109 5110 5111 5112 5113 5114 5115 5116 5117 5118 5119 5120 5121 5122 5123 5124 5125 5126 5127 5128 5129 5130 5131 5132 5133 5134 5135 5136 5137 5138 5139 5140 5141 5142 5143 5144 5145 5146 5147 5148 5149 5150 5151 5152 5153 5154 5155 5156 5157 5158 5159 5160 5161 5162 5163 5164 5165 5166 5167 5168 5169 5170 5171 5172 5173 5174 5175 5176 5177 5178 5179 5180 5181 5182 5183 5184 5185 5186 5187 5188 5189 5190 5191 5192 5193 5194 5195 5196 5197 5198 5199 5200 5201 5202 5203 5204 5205 5206 5207 5208 5209 5210 5211 5212 5213 5214 5215 5216 5217 5218 5219 5220 5221 5222 5223 5224 5225 5226 5227 5228 5229 5230 5231 5232 5233 5234 5235 5236 5237 5238 5239 5240 5241 5242 5243 5244 5245 5246 5247 5248 5249 5250 5251 5252 5253 5254 5255 5256 5257 5258 5259 5260 5261 5262 5263 5264 5265 5266 5267 5268 5269 5270 5271 5272 5273 5274 5275 5276 5277 5278 5279 5280 5281 5282 5283 5284 5285 5286 5287 5288 5289 5290 5291 5292 5293 5294 5295 5296 5297 5298 5299 5300 5301 5302 5303 5304 5305 5306 5307 5308 5309 5310 5311 5312 5313 5314 5315 5316 5317 5318 5319 5320 5321 5322 5323 5324 5325 5326 5327 5328 5329 5330 5331 5332 5333 5334 5335 5336 5337 5338 5339 5340 5341 5342 5343 5344 5345 5346 5347 5348 5349 5350 5351 5352 5353 5354 5355 5356 5357 5358 5359 5360 5361 5362 5363 5364 5365 5366 5367 5368 5369 5370 5371 5372 5373 5374 5375 5376 5377 5378 5379 5380 5381 5382 5383 5384 5385 5386 5387 5388 5389 5390 5391 5392 5393 5394 5395 5396 5397 5398 5399 5400 5401 5402 5403 5404 5405 5406 5407 5408 5409 5410 5411 5412 5413 5414 5415 5416 5417 5418 5419 5420 5421 5422 5423 5424 5425 5426 5427 5428 5429 5430 5431 5432 5433 5434 5435 5436 5437 5438 5439 5440 5441 5442 5443 5444 5445 5446 5447 5448 5449 5450 5451 5452 5453 5454 5455 5456 5457 5458 5459 5460 5461 5462 5463 5464 5465 5466 5467 5468 5469 5470 5471 5472 5473 5474 5475 5476 5477 5478 5479 5480 5481 5482 5483 5484 5485 5486 5487 5488 5489 5490 5491 5492 5493 5494 5495 5496 5497 5498 5499 5500 5501 5502 5503 5504 5505 5506 5507 5508 5509 5510 5511 5512 5513 5514 5515 5516 5517 5518 5519 5520 5521 5522 5523 5524 5525 5526 5527 5528 5529 5530 5531 5532 5533 5534 5535 5536 5537 5538 5539 5540 5541 5542 5543 5544 5545 5546 5547 5548 5549 5550 5551 5552 5553 5554 5555 5556 5557 5558 5559 5560 5561 5562 5563 5564 5565 5566 5567 5568 5569 5570 5571 5572 5573 5574 5575 5576 5577 5578 5579 5580 5581 5582 5583 5584 5585 5586 5587 5588 5589 5590 5591 5592 5593 5594 5595 5596 5597 5598 5599 5600 5601 5602 5603 5604 5605 5606 5607 5608 5609 5610 5611 5612 5613 5614 5615 5616 5617 5618 5619 5620 5621 5622 5623 5624 5625 5626 5627 5628 5629 5630 5631 5632 5633 5634 5635 5636 5637 5638 5639 5640 5641 5642 5643 5644 5645 5646 5647 5648 5649 5650 5651 5652 5653 5654 5655 5656 5657 5658 5659 5660 5661 5662 5663 5664 5665 5666 5667 5668 5669 5670 5671 5672 5673 5674 5675 5676 5677 5678 5679 5680 5681 5682 5683 5684 5685 5686 5687 5688 5689 5690 5691 5692 5693 5694 5695 5696 5697 5698 5699 5700 5701 5702 5703 5704 5705 5706 5707 5708 5709 5710 5711 5712 5713 5714 5715 5716 5717 5718 5719 5720 5721 5722 5723 5724 5725 5726 5727 5728 5729 5730 5731 5732 5733 5734 5735 5736 5737 5738 5739 5740 5741 5742 5743 5744 5745 5746 5747 5748 5749 5750 5751 5752 5753 5754 5755 5756 5757 5758 5759 5760 5761 5762 5763 5764 5765 5766 5767 5768 5769 5770 5771 5772 5773 5774 5775 5776 5777 5778 5779 5780 5781 5782 5783 5784 5785 5786 5787 5788 5789 5790 5791 5792 5793 5794 5795 5796 5797 5798 5799 5800 5801 5802 5803 5804 5805 5806 5807 5808 5809 5810 5811 5812 5813 5814 5815 5816 5817 5818 5819 5820 5821 5822 5823 5824 5825 5826 5827 5828 5829 5830 5831 5832 5833 5834 5835 5836 5837 5838 5839 5840 5841 5842 5843 5844 5845 5846 5847 5848 5849 5850 5851 5852 5853 5854 5855 5856 5857 5858 5859 5860 5861 5862 5863 5864 5865 5866 5867 5868 5869 5870 5871 5872 5873 5874 5875 5876 5877 5878 5879 5880 5881 5882 5883 5884 5885 5886 5887 5888 5889 5890 5891 5892 5893 5894 5895 5896 5897 5898 5899 5900 5901 5902 5903 5904 5905 5906 5907 5908 5909 5910 5911 5912 5913 5914 5915 5916 5917 5918 5919 5920 5921 5922 5923 5924 5925 5926 5927 5928 5929 5930 5931 5932 5933 5934 5935 5936 5937 5938 5939 5940 5941 5942 5943 5944 5945 5946 5947 5948 5949 5950 5951 5952 5953 5954 5955 5956 5957 5958 5959 5960 5961 5962 5963 5964 5965 5966 5967 5968 5969 5970 5971 5972 5973 5974 5975 5976 5977 5978 5979 5980 5981 5982 5983 5984 5985 5986 5987 5988 5989 5990 5991 5992 5993 5994 5995 5996 5997 5998 5999 6000 6001 6002 6003 6004 6005 6006 6007 6008 6009 6010 6011 6012 6013 6014 6015 6016 6017 6018 6019 6020 6021 6022 6023 6024 6025 6026 6027 6028 6029 6030 6031 6032 6033 6034 6035 6036 6037 6038 6039 6040 6041 6042 6043 6044 6045 6046 6047 6048 6049 6050 6051 6052 6053 6054 6055 6056 6057 6058 6059 6060 6061 6062 6063 6064 6065 6066 6067 6068 6069 6070 6071 6072 6073 6074 6075 6076 6077 6078 6079 6080 6081 6082 6083 6084 6085 6086 6087 6088 6089 6090 6091 6092 6093 6094 6095 6096 6097 6098 6099 6100 6101 6102 6103 6104 6105 6106 6107 6108 6109 6110 6111 6112 6113 6114 6115 6116 6117 6118 6119 6120 6121 6122 6123 6124 6125 6126 6127 6128 6129 6130 6131 6132 6133 6134 6135 6136 6137 6138 6139 6140 6141 6142 6143 6144 6145 6146 6147 6148 6149 6150 6151 6152 6153 6154 6155 6156 6157 6158 6159 6160 6161 6162 6163 6164 6165 6166 6167 6168 6169 6170 6171 6172 6173 6174 6175 6176 6177 6178 6179 6180 6181 6182 6183 6184 6185 6186 6187 6188 6189 6190 6191 6192 6193 6194 6195 6196 6197 6198 6199 6200 6201 6202 6203 6204 6205 6206 6207 6208 6209 6210 6211 6212 6213 6214 6215 6216 6217 6218 6219 6220 6221 6222 6223 6224 6225 6226 6227 6228 6229 6230 6231 6232 6233 6234 6235 6236 6237 6238 6239 6240 6241 6242 6243 6244 6245 6246 6247 6248 6249 6250 6251 6252 6253 6254 6255 6256 6257 6258 6259 6260 6261 6262 6263 6264 6265 6266 6267 6268 6269 6270 6271 6272 6273 6274 6275 6276 6277 6278 6279 6280 6281 6282 6283 6284 6285 6286 6287 6288 6289 6290 6291 6292 6293 6294 6295 6296 6297 6298 6299 6300 6301 6302 6303 6304 6305 6306 6307 6308 6309 6310 6311 6312 6313 6314 6315 6316 6317 6318 6319 6320 6321 6322 6323 6324 6325 6326 6327 6328 6329 6330 6331 6332 6333 6334 6335 6336 6337 6338 6339 6340 6341 6342 6343 6344 6345 6346 6347 6348 6349 6350 6351 6352 6353 6354 6355 6356 6357 6358 6359 6360 6361 6362 6363 6364 6365 6366 6367 6368 6369 6370 6371 6372 6373 6374 6375 6376 6377 6378 6379 6380 6381 6382 6383 6384 6385 6386 6387 6388 6389 6390 6391 6392 6393 6394 6395 6396 6397 6398 6399 6400 6401 6402 6403 6404 6405 6406 6407 6408 6409 6410 6411 6412 6413 6414 6415 6416 6417 6418 6419 6420 6421 6422 6423 6424 6425 6426 6427 6428 6429 6430 6431 6432 6433 6434 6435 6436 6437 6438 6439 6440 6441 6442 6443 6444 6445 6446 6447 6448 6449 6450 6451 6452 6453 6454 6455 6456 6457 6458 6459 6460 6461 6462 6463 6464 6465 6466 6467 6468 6469 6470 6471 6472 6473 6474 6475 6476 6477 6478 6479 6480 6481 6482 6483 6484 6485 6486 6487 6488 6489 6490 6491 6492 6493 6494 6495 6496 6497 6498 6499 6500 6501 6502 6503 6504 6505 6506 6507 6508 6509 6510 6511 6512 6513 6514 6515 6516 6517 6518 6519 6520 6521 6522 6523 6524 6525 6526 6527 6528 6529 6530 6531 6532 6533 6534 6535 6536 6537 6538 6539 6540 6541 6542 6543 6544 6545 6546 6547 6548 6549 6550 6551 6552 6553 6554 6555 6556 6557 6558 6559 6560 6561 6562 6563 6564 6565 6566 6567 6568 6569 6570 6571 6572 6573 6574 6575 6576 6577 6578 6579 6580 6581 6582 6583 6584 6585 6586 6587 6588 6589 6590 6591 6592 6593 6594 6595 6596 6597 6598 6599 6600 6601 6602 6603 6604 6605 6606 6607 6608 6609 6610 6611 6612 6613 6614 6615 6616 6617 6618 6619 6620 6621 6622 6623 6624 6625 6626 6627 6628 6629 6630 6631 6632 6633 6634 6635 6636 6637 6638 6639 6640 6641 6642 6643 6644 6645 6646 6647 6648 6649 6650 6651 6652 6653 6654 6655 6656 6657 6658 6659 6660 6661 6662 6663 6664 6665 6666 6667 6668 6669 6670 6671 6672 6673 6674 6675 6676 6677 6678 6679 6680 6681 6682 6683 6684 6685 6686 6687 6688 6689 6690 6691 6692 6693 6694 6695 6696 6697 6698 6699 6700 6701 6702 6703 6704 6705 6706 6707 6708 6709 6710 6711 6712 6713 6714 6715 6716 6717 6718 6719 6720 6721 6722 6723 6724 6725 6726 6727 6728 6729 6730 6731 6732 6733 6734 6735 6736 6737 6738 6739 6740 6741 6742 6743 6744 6745 6746 6747 6748 6749 6750 6751 6752 6753 6754 6755 6756 6757 6758 6759 6760 6761 6762 6763 6764 6765 6766 6767 6768 6769 6770 6771 6772 6773 6774 6775 6776 6777 6778 6779 6780 6781 6782 6783 6784 6785 6786 6787 6788 6789 6790 6791 6792 6793 6794 6795 6796 6797 6798 6799 6800 6801 6802 6803 6804 6805 6806 6807 6808 6809 6810 6811 6812 6813 6814 6815 6816 6817 6818 6819 6820 6821 6822 6823 6824 6825 6826 6827 6828 6829 6830 6831 6832 6833 6834 6835 6836 6837 6838 6839 6840 6841 6842 6843 6844 6845 6846 6847 6848 6849 6850 6851 6852 6853 6854 6855 6856 6857 6858 6859 6860 6861 6862 6863 6864 6865 6866 6867 6868 6869 6870 6871 6872 6873 6874 6875 6876 6877 6878 6879 6880 6881 6882 6883 6884 6885 6886 6887 6888 6889 6890 6891 6892 6893 6894 6895 6896 6897 6898 6899 6900 6901 6902 6903 6904 6905 6906 6907 6908 6909 6910 6911 6912 6913 6914 6915 6916 6917 6918 6919 6920 6921 6922 6923 6924 6925 6926 6927 6928 6929 6930 6931 6932 6933 6934 6935 6936 6937 6938 6939 6940 6941 6942 6943 6944 6945 6946 6947 6948 6949 6950 6951 6952 6953 6954 6955 6956 6957 6958 6959 6960 6961 6962 6963 6964 6965 6966 6967 6968 6969 6970 6971 6972 6973 6974 6975 6976 6977 6978 6979 6980 6981 6982 6983 6984 6985 6986 6987 6988 6989 6990 6991 6992 6993 6994 6995 6996 6997 6998 6999 7000 7001 7002 7003 7004 7005 7006 7007 7008 7009 7010 7011 7012 7013 7014 7015 7016 7017 7018 7019 7020 7021 7022 7023 7024 7025 7026 7027 7028 7029 7030 7031 7032 7033 7034 7035 7036 7037 7038 7039 7040 7041 7042 7043 7044 7045 7046 7047 7048 7049 7050 7051 7052 7053 7054 7055 7056 7057 7058 7059 7060 7061 7062 7063 7064 7065 7066 7067 7068 7069 7070 7071 7072 7073 7074 7075 7076 7077 7078 7079 7080 7081 7082 7083 7084 7085 7086 7087 7088 7089 7090 7091 7092 7093 7094 7095 7096 7097 7098 7099 7100 7101 7102 7103 7104 7105 7106 7107 7108 7109 7110 7111 7112 7113 7114 7115 7116 7117 7118 7119 7120 7121 7122 7123 7124 7125 7126 7127 7128 7129 7130 7131 7132 7133 7134 7135 7136 7137 7138 7139 7140 7141 7142 7143 7144 7145 7146 7147 7148 7149 7150 7151 7152 7153 7154 7155 7156 7157 7158 7159 7160 7161 7162 7163 7164 7165 7166 7167 7168 7169 7170 7171 7172 7173 7174 7175 7176 7177 7178 7179 7180 7181 7182 7183 7184 7185 7186 7187 7188 7189 7190 7191 7192 7193 7194 7195 7196 7197 7198 7199 7200 7201 7202 7203 7204 7205 7206 7207 7208 7209 7210 7211 7212 7213 7214 7215 7216 7217 7218 7219 7220 7221 7222 7223 7224 7225 7226 7227 7228 7229 7230 7231 7232 7233 7234 7235 7236 7237 7238 7239 7240 7241 7242 7243 7244 7245 7246 7247 7248 7249 7250 7251 7252 7253 7254 7255 7256 7257 7258 7259 7260 7261 7262 7263 7264 7265 7266 7267 7268 7269 7270 7271 7272 7273 7274 7275 7276 7277 7278 7279 7280 7281 7282 7283 7284 7285 7286 7287 7288 7289 7290 7291 7292 7293 7294 7295 7296 7297 7298 7299 7300 7301 7302 7303 7304 7305 7306 7307 7308 7309 7310 7311 7312 7313 7314 7315 7316 7317 7318 7319 7320 7321 7322 7323 7324 7325 7326 7327 7328 7329 7330 7331 7332 7333 7334 7335 7336 7337 7338 7339 7340 7341 7342 7343 7344 7345 7346 7347 7348 7349 7350 7351 7352 7353 7354 7355 7356 7357 7358 7359 7360 7361 7362 7363 7364 7365 7366 7367 7368 7369 7370 7371 7372 7373 7374 7375 7376 7377 7378 7379 7380 7381 7382 7383 7384 7385 7386 7387 7388 7389 7390 7391 7392 7393 7394 7395 7396 7397 7398 7399 7400 7401 7402 7403 7404 7405 7406 7407 7408 7409 7410 7411 7412 7413 7414 7415 7416 7417 7418 7419 7420 7421 7422 7423 7424 7425 7426 7427 7428 7429 7430 7431 7432 7433 7434 7435 7436 7437 7438 7439 7440 7441 7442 7443 7444 7445 7446 7447 7448 7449 7450 7451 7452 7453 7454 7455 7456 7457 7458 7459 7460 7461 7462 7463 7464 7465 7466 7467 7468 7469 7470 7471 7472 7473 7474 7475 7476 7477 7478 7479 7480 7481 7482 7483 7484 7485 7486 7487 7488 7489 7490 7491 7492 7493 7494 7495 7496 7497 7498 7499 7500 7501 7502 7503 7504 7505 7506 7507 7508 7509 7510 7511 7512 7513 7514 7515 7516 7517 7518 7519 7520 7521 7522 7523 7524 7525 7526 7527 7528 7529 7530 7531 7532 7533 7534 7535 7536 7537 7538 7539 7540 7541 7542 7543 7544 7545 7546 7547 7548 7549 7550 7551 7552 7553 7554 7555 7556 7557 7558 7559 7560 7561 7562 7563 7564 7565 7566 7567 7568 7569 7570 7571 7572 7573 7574 7575 7576 7577 7578 7579 7580 7581 7582 7583 7584 7585 7586 7587 7588 7589 7590 7591 7592 7593 7594 7595 7596 7597 7598 7599 7600 7601 7602 7603 7604 7605 7606 7607 7608 7609 7610 7611 7612 7613 7614 7615 7616 7617 7618 7619 7620 7621 7622 7623 7624 7625 7626 7627 7628 7629 7630 7631 7632 7633 7634 7635 7636 7637 7638 7639 7640 7641 7642 7643 7644 7645 7646 7647 7648 7649 7650 7651 7652 7653 7654 7655 7656 7657 7658 7659 7660 7661 7662 7663 7664 7665 7666 7667 7668 7669 7670 7671 7672 7673 7674 7675 7676 7677 7678 7679 7680 7681 7682 7683 7684 7685 7686 7687 7688 7689 7690 7691 7692 7693 7694 7695 7696 7697 7698 7699 7700 7701 7702 7703 7704 7705 7706 7707 7708 7709 7710 7711 7712 7713 7714 7715 7716 7717 7718 7719 7720 7721 7722 7723 7724 7725 7726 7727 7728 7729 7730 7731 7732 7733 7734 7735 7736 7737 7738 7739 7740 7741 7742 7743 7744 7745 7746 7747 7748 7749 7750 7751 7752 7753 7754 7755 7756 7757 7758 7759 7760 7761 7762 7763 7764 7765 7766 7767 7768 7769 7770 7771 7772 7773 7774 7775 7776 7777 7778 7779 7780 7781 7782 7783 7784 7785 7786 7787 7788 7789 7790 7791 7792 7793 7794 7795 7796 7797 7798 7799 7800 7801 7802 7803 7804 7805 7806 7807 7808 7809 7810 7811 7812 7813 7814 7815 7816 7817 7818 7819 7820 7821 7822 7823 7824 7825 7826 7827 7828 7829 7830 7831 7832 7833 7834 7835 7836 7837 7838 7839 7840 7841 7842 7843 7844 7845 7846 7847 7848 7849 7850 7851 7852 7853 7854 7855 7856 7857 7858 7859 7860 7861 7862 7863 7864 7865 7866 7867 7868 7869 7870 7871 7872 7873 7874 7875 7876 7877 7878 7879 7880 7881 7882 7883 7884 7885 7886 7887 7888 7889 7890 7891 7892 7893 7894 7895 7896 7897 7898 7899 7900 7901 7902 7903 7904 7905 7906 7907 7908 7909 7910 7911 7912 7913 7914 7915 7916 7917 7918 7919 7920 7921 7922 7923 7924 7925 7926 7927 7928 7929 7930 7931 7932 7933 7934 7935 7936 7937 7938 7939 7940 7941 7942 7943 7944 7945 7946 7947 7948 7949 7950 7951 7952 7953 7954 7955 7956 7957 7958 7959 7960 7961 7962 7963 7964 7965 7966 7967 7968 7969 7970 7971 7972 7973 7974 7975 7976 7977 7978 7979 7980 7981 7982 7983 7984 7985 7986 7987 7988 7989 7990 7991 7992 7993 7994 7995 7996 7997 7998 7999 8000 8001 8002 8003 8004 8005 8006 8007 8008 8009 8010 8011 8012 8013 8014 8015 8016 8017 8018 8019 8020 8021 8022 8023 8024 8025 8026 8027 8028 8029 8030 8031 8032 8033 8034 8035 8036 8037 8038 8039 8040 8041 8042 8043 8044 8045 8046 8047 8048 8049 8050 8051 8052 8053 8054 8055 8056 8057 8058 8059 8060 8061 8062 8063 8064 8065 8066 8067 8068 8069 8070 8071 8072 8073 8074 8075 8076 8077 8078 8079 8080 8081 8082 8083 8084 8085 8086 8087 8088 8089 8090 8091 8092 8093 8094 8095 8096 8097 8098 8099 8100 8101 8102 8103 8104 8105 8106 8107 8108 8109 8110 8111 8112 8113 8114 8115 8116 8117 8118 8119 8120 8121 8122 8123 8124 8125 8126 8127 8128 8129 8130 8131 8132 8133 8134 8135 8136 8137 8138 8139 8140 8141 8142 8143 8144 8145 8146 8147 8148 8149 8150 8151 8152 8153 8154 8155 8156 8157 8158 8159 8160 8161 8162 8163 8164 8165 8166 8167 8168 8169 8170 8171 8172 8173 8174 8175 8176 8177 8178 8179 8180 8181 8182 8183 8184 8185 8186 8187 8188 8189 8190 8191 8192 8193 8194 8195 8196 8197 8198 8199 8200 8201 8202 8203 8204 8205 8206 8207 8208 8209 8210 8211 8212 8213 8214 8215 8216 8217 8218 8219 8220 8221 8222 8223 8224 8225 8226 8227 8228 8229 8230 8231 8232 8233 8234 8235 8236 8237 8238 8239 8240 8241 8242 8243 8244 8245 8246 8247 8248 8249 8250 8251 8252 8253 8254 8255 8256 8257 8258 8259 8260 8261 8262 8263 8264 8265 8266 8267 8268 8269 8270 8271 8272 8273 8274 8275 8276 8277 8278 8279 8280 8281 8282 8283 8284 8285 8286 8287 8288 8289 8290 8291 8292 8293 8294 8295 8296 8297 8298 8299 8300 8301 8302 8303 8304 8305 8306 8307 8308 8309 8310 8311 8312 8313 8314 8315 8316 8317 8318 8319 8320 8321 8322 8323 8324 8325 8326 8327 8328 8329 8330 8331 8332 8333 8334 8335 8336 8337 8338 8339 8340 8341 8342 8343 8344 8345 8346 8347 8348 8349 8350 8351 8352 8353 8354 8355 8356 8357 8358 8359 8360 8361 8362 8363 8364 8365 8366 8367 8368 8369 8370 8371 8372 8373 8374 8375 8376 8377 8378 8379 8380 8381 8382 8383 8384 8385 8386 8387 8388 8389 8390 8391 8392 8393 8394 8395 8396 8397 8398 8399 8400 8401 8402 8403 8404 8405 8406 8407 8408 8409 8410 8411 8412 8413 8414 8415 8416 8417 8418 8419 8420 8421 8422 8423 8424 8425 8426 8427 8428 8429 8430 8431 8432 8433 8434 8435 8436 8437 8438 8439 8440 8441 8442 8443 8444 8445 8446 8447 8448 8449 8450 8451 8452 8453 8454 8455 8456 8457 8458 8459 8460 8461 8462 8463 8464 8465 8466 8467 8468 8469 8470 8471 8472 8473 8474 8475 8476 8477 8478 8479 8480 8481 8482 8483 8484 8485 8486 8487 8488 8489 8490 8491 8492 8493 8494 8495 8496 8497 8498 8499 8500 8501 8502 8503 8504 8505 8506 8507 8508 8509 8510 8511 8512 8513 8514 8515 8516 8517 8518 8519 8520 8521 8522 8523 8524 8525 8526 8527 8528 8529 8530 8531 8532 8533 8534 8535 8536 8537 8538 8539 8540 8541 8542 8543 8544 8545 8546 8547 8548 8549 8550 8551 8552 8553 8554 8555 8556 8557 8558 8559 8560 8561 8562 8563 8564 8565 8566 8567 8568 8569 8570 8571 8572 8573 8574 8575 8576 8577 8578 8579 8580 8581 8582 8583 8584 8585 8586 8587 8588 8589 8590 8591 8592 8593 8594 8595 8596 8597 8598 8599 8600 8601 8602 8603 8604 8605 8606 8607 8608 8609 8610 8611 8612 8613 8614 8615 8616 8617 8618 8619 8620 8621 8622 8623 8624 8625 8626 8627 8628 8629 8630 8631 8632 8633 8634 8635 8636 8637 8638 8639 8640 8641 8642 8643 8644 8645 8646 8647 8648 8649 8650 8651 8652 8653 8654 8655 8656 8657 8658 8659 8660 8661 8662 8663 8664 8665 8666 8667 8668 8669 8670 8671 8672 8673 8674 8675 8676 8677 8678 8679 8680 8681 8682 8683 8684 8685 8686 8687 8688 8689 8690 8691 8692 8693 8694 8695 8696 8697 8698 8699 8700 8701 8702 8703 8704 8705 8706 8707 8708 8709 8710 8711 8712 8713 8714 8715 8716 8717 8718 8719 8720 8721 8722 8723 8724 8725 8726 8727 8728 8729 8730 8731 8732 8733 8734 8735 8736 8737 8738 8739 8740 8741 8742 8743 8744 8745 8746 8747 8748 8749 8750 8751 8752 8753 8754 8755 8756 8757 8758 8759 8760 8761 8762 8763 8764 8765 8766 8767 8768 8769 8770 8771 8772 8773 8774 8775 8776 8777 8778 8779 8780 8781 8782 8783 8784 8785 8786 8787 8788 8789 8790 8791 8792 8793 8794 8795 8796 8797 8798 8799 8800 8801 8802 8803 8804 8805 8806 8807 8808 8809 8810 8811 8812 8813 8814 8815 8816 8817 8818 8819 8820 8821 8822 8823 8824 8825 8826 8827 8828 8829 8830 8831 8832 8833 8834 8835 8836 8837 8838 8839 8840 8841 8842 8843 8844 8845 8846 8847 8848 8849 8850 8851 8852 8853 8854 8855 8856 8857 8858 8859 8860 8861 8862 8863 8864 8865 8866 8867 8868 8869 8870 8871 8872 8873 8874 8875 8876 8877 8878 8879 8880 8881 8882 8883 8884 8885 8886 8887 8888 8889 8890 8891 8892 8893 8894 8895 8896 8897 8898 8899 8900 8901 8902 8903 8904 8905 8906 8907 8908 8909 8910 8911 8912 8913 8914 8915 8916 8917 8918 8919 8920 8921 8922 8923 8924 8925 8926 8927 8928 8929 8930 8931 8932 8933 8934 8935 8936 8937 8938 8939 8940 8941 8942 8943 8944 8945 8946 8947 8948 8949 8950 8951 8952 8953 8954 8955 8956 8957 8958 8959 8960 8961 8962 8963 8964 8965 8966 8967 8968 8969 8970 8971 8972 8973 8974 8975 8976 8977 8978 8979 8980 8981 8982 8983 8984 8985 8986 8987 8988 8989 8990 8991 8992 8993 8994 8995 8996 8997 8998 8999 9000 9001 9002 9003 9004 9005 9006 9007 9008 9009 9010 9011 9012 9013 9014 9015 9016 9017 9018 9019 9020 9021 9022 9023 9024 9025 9026 9027 9028 9029 9030 9031 9032 9033 9034 9035 9036 9037 9038 9039 9040 9041 9042 9043 9044 9045 9046 9047 9048 9049 9050 9051 9052 9053 9054 9055 9056 9057 9058 9059 9060 9061 9062 9063 9064 9065 9066 9067 9068 9069 9070 9071 9072 9073 9074 9075 9076 9077 9078 9079 9080 9081 9082 9083 9084 9085 9086 9087 9088 9089 9090 9091 9092 9093 9094 9095 9096 9097 9098 9099 9100 9101 9102 9103 9104 9105 9106 9107 9108 9109 9110 9111 9112 9113 9114 9115 9116 9117 9118 9119 9120 9121 9122 9123 9124 9125 9126 9127 9128 9129 9130 9131 9132 9133 9134 9135 9136 9137 9138 9139 9140 9141 9142 9143 9144 9145 9146 9147 9148 9149 9150 9151 9152 9153 9154 9155 9156 9157 9158 9159 9160 9161 9162 9163 9164 9165 9166 9167 9168 9169 9170 9171 9172 9173 9174 9175 9176 9177 9178 9179 9180 9181 9182 9183 9184 9185 9186 9187 9188 9189 9190 9191 9192 9193 9194 9195 9196 9197 9198 9199 9200 9201 9202 9203 9204 9205 9206 9207 9208 9209 9210 9211 9212 9213 9214 9215 9216 9217 9218 9219 9220 9221 9222 9223 9224 9225 9226 9227 9228 9229 9230 9231 9232 9233 9234 9235 9236 9237 9238 9239 9240 9241 9242 9243 9244 9245 9246 9247 9248 9249 9250 9251 9252 9253 9254 9255 9256 9257 9258 9259 9260 9261 9262 9263 9264 9265 9266 9267 9268 9269 9270 9271 9272 9273 9274 9275 9276 9277 9278 9279 9280 9281 9282 9283 9284 9285 9286 9287 9288 9289 9290 9291 9292 9293 9294 9295 9296 9297 9298 9299 9300 9301 9302 9303 9304 9305 9306 9307 9308 9309 9310 9311 9312 9313 9314 9315 9316 9317 9318 9319 9320 9321 9322 9323 9324 9325 9326 9327 9328 9329 9330 9331 9332 9333 9334 9335 9336 9337 9338 9339 9340 9341 9342 9343 9344 9345 9346 9347 9348 9349 9350 9351 9352 9353 9354 9355 9356 9357 9358 9359 9360 9361 9362 9363 9364 9365 9366 9367 9368 9369 9370 9371 9372 9373 9374 9375 9376 9377 9378 9379 9380 9381 9382 9383 9384 9385 9386 9387 9388 9389 9390 9391 9392 9393 9394 9395 9396 9397 9398 9399 9400 9401 9402 9403 9404 9405 9406 9407 9408 9409 9410 9411 9412 9413 9414 9415 9416 9417 9418 9419 9420 9421 9422 9423 9424 9425 9426 9427 9428 9429 9430 9431 9432 9433 9434 9435 9436 9437 9438 9439 9440 9441 9442 9443 9444 9445 9446 9447 9448 9449 9450 9451 9452 9453 9454 9455 9456 9457 9458 9459 9460 9461 9462 9463 9464 9465 9466 9467 9468 9469 9470 9471 9472 9473 9474 9475 9476 9477 9478 9479 9480 9481 9482 9483 9484 9485 9486 9487 9488 9489 9490 9491 9492 9493 9494 9495 9496 9497 9498 9499 9500 9501 9502 9503 9504 9505 9506 9507 9508 9509 9510 9511 9512 9513 9514 9515 9516 9517 9518 9519 9520 9521 9522 9523 9524 9525 9526 9527 9528 9529 9530 9531 9532 9533 9534 9535 9536 9537 9538 9539 9540 9541 9542 9543 9544 9545 9546 9547 9548 9549 9550 9551 9552 9553 9554 9555 9556 9557 9558 9559 9560 9561 9562 9563 9564 9565 9566 9567 9568 9569 9570 9571 9572 9573 9574 9575 9576 9577 9578 9579 9580 9581 9582 9583 9584 9585 9586 9587 9588 9589 9590 9591 9592 9593 9594 9595 9596 9597 9598 9599 9600 9601 9602 9603 9604 9605 9606 9607 9608 9609 9610 9611 9612 9613 9614 9615 9616 9617 9618 9619 9620 9621 9622 9623 9624 9625 9626 9627 9628 9629 9630 9631 9632 9633 9634 9635 9636 9637 9638 9639 9640 9641 9642 9643 9644 9645 9646 9647 9648 9649 9650 9651 9652 9653 9654 9655 9656 9657 9658 9659 9660 9661 9662 9663 9664 9665 9666 9667 9668 9669 9670 9671 9672 9673 9674 9675 9676 9677 9678 9679 9680 9681 9682 9683 9684 9685 9686 9687 9688 9689 9690 9691 9692 9693 9694 9695 9696 9697 9698 9699 9700 9701 9702 9703 9704 9705 9706 9707 9708 9709 9710 9711 9712 9713 9714 9715 9716 9717 9718 9719 9720 9721 9722 9723 9724 9725 9726 9727 9728 9729 9730 9731 9732 9733 9734 9735 9736 9737 9738 9739 9740 9741 9742 9743 9744 9745 9746 9747 9748 9749 9750 9751 9752 9753 9754 9755 9756 9757 9758 9759 9760 9761 9762 9763 9764 9765 9766 9767 9768 9769 9770 9771 9772 9773 9774 9775 9776 9777 9778 9779 9780 9781 9782 9783 9784 9785 9786 9787 9788 9789 9790 9791 9792 9793 9794 9795 9796 9797 9798 9799 9800 9801 9802 9803 9804 9805 9806 9807 9808 9809 9810 9811 9812 9813 9814 9815 9816 9817 9818 9819 9820 9821 9822 9823 9824 9825 9826 9827 9828 9829 9830 9831 9832 9833 9834 9835 9836 9837 9838 9839 9840 9841 9842 9843 9844 9845 9846 9847 9848 9849 9850 9851 9852 9853 9854 9855 9856 9857 9858 9859 9860 9861 9862 9863 9864 9865 9866 9867 9868 9869 9870 9871 9872 9873 9874 9875 9876 9877 9878 9879 9880 9881 9882 9883 9884 9885 9886 9887 9888 9889 9890 9891 9892 9893 9894 9895 9896 9897 9898 9899 9900 9901 9902 9903 9904 9905 9906 9907 9908 9909 9910 9911 9912 9913 9914 9915 9916 9917 9918 9919 9920 9921 9922 9923 9924 9925 9926 9927 9928 9929 9930 9931 9932 9933 9934 9935 9936 9937 9938 9939 9940 9941 9942 9943 9944 9945 9946 9947 9948 9949 9950 9951 9952 9953 9954 9955 9956 9957 9958 9959 9960 9961 9962 9963 9964 9965 9966 9967 9968 9969 9970 9971 9972 9973 9974 9975 9976 9977 9978 9979 9980 9981 9982 9983 9984 9985 9986 9987 9988 9989 9990 9991 9992 9993 9994 9995 9996 9997 9998 9999 10000 10001 10002 10003 10004 10005 10006 10007 10008 10009 10010 10011 10012 10013 10014 10015 10016 10017 10018 10019 10020 10021 10022 10023 10024 10025 10026 10027 10028 10029 10030 10031 10032 10033 10034 10035 10036 10037 10038 10039 10040 10041 10042 10043 10044 10045 10046 10047 10048 10049 10050 10051 10052 10053 10054 10055 10056 10057 10058 10059 10060 10061 10062 10063 10064 10065 10066 10067 10068 10069 10070 10071 10072 10073 10074 10075 10076 10077 10078 10079 10080 10081 10082 10083 10084 10085 10086 10087 10088 10089 10090 10091 10092 10093 10094 10095 10096 10097 10098 10099 10100 10101 10102 10103 10104 10105 10106 10107 10108 10109 10110 10111 10112 10113 10114 10115 10116 10117 10118 10119 10120 10121 10122 10123 10124 10125 10126 10127 10128 10129 10130 10131 10132 10133 10134 10135 10136 10137 10138 10139 10140 10141 10142 10143 10144 10145 10146 10147 10148 10149 10150 10151 10152 10153 10154 10155 10156 10157 10158 10159 10160 10161 10162 10163 10164 10165 10166 10167 10168 10169 10170 10171 10172 10173 10174 10175 10176 10177 10178 10179 10180 10181 10182 10183 10184 10185 10186 10187 10188 10189 10190 10191 10192 10193 10194 10195 10196 10197 10198 10199 10200 10201 10202 10203 10204 10205 10206 10207 10208 10209 10210 10211 10212 10213 10214 10215 10216 10217 10218 10219 10220 10221 10222 10223 10224 10225 10226 10227 10228 10229 10230 10231 10232 10233 10234 10235 10236 10237 10238 10239 10240 10241 10242 10243 10244 10245 10246 10247 10248 10249 10250 10251 10252 10253 10254 10255 10256 10257 10258 10259 10260 10261 10262 10263 10264 10265 10266 10267 10268 10269 10270 10271 10272 10273 10274 10275 10276 10277 10278 10279 10280 10281 10282 10283 10284 10285 10286 10287 10288 10289 10290 10291 10292 10293 10294 10295 10296 10297 10298 10299 10300 10301 10302 10303 10304 10305 10306 10307 10308 10309 10310 10311 10312 10313 10314 10315 10316 10317 10318 10319 10320 10321 10322 10323 10324 10325 10326 10327 10328 10329 10330 10331 10332 10333 10334 10335 10336 10337 10338 10339 10340 10341 10342 10343 10344 10345 10346 10347 10348 10349 10350 10351 10352 10353 10354 10355 10356 10357 10358 10359 10360 10361 10362 10363 10364 10365 10366 10367 10368 10369 10370 10371 10372 10373 10374 10375 10376 10377 10378 10379 10380 10381 10382 10383 10384 10385 10386 10387 10388 10389 10390 10391 10392 10393 10394 10395 10396 10397 10398 10399 10400 10401 10402 10403 10404 10405 10406 10407 10408 10409 10410 10411 10412 10413 10414 10415 10416 10417 10418 10419 10420 10421 10422 10423 10424 10425 10426 10427 10428 10429 10430 10431 10432 10433 10434 10435 10436 10437 10438 10439 10440 10441 10442 10443 10444 10445 10446 10447 10448 10449 10450 10451 10452 10453 10454 10455 10456 10457 10458 10459 10460 10461 10462 10463 10464 10465 10466 10467 10468 10469 10470 10471 10472 10473 10474 10475 10476 10477 10478 10479 10480 10481 10482 10483 10484 10485 10486 10487 10488 10489 10490 10491 10492 10493 10494 10495 10496 10497 10498 10499 10500 10501 10502 10503 10504 10505 10506 10507 10508 10509 10510 10511 10512 10513 10514 10515 10516 10517 10518 10519 10520 10521 10522 10523 10524 10525 10526 10527 10528 10529 10530 10531 10532 10533 10534 10535 10536 10537 10538 10539 10540 10541 10542 10543 10544 10545 10546 10547 10548 10549 10550 10551 10552 10553 10554 10555 10556 10557 10558 10559 10560 10561 10562 10563 10564 10565 10566 10567 10568 10569 10570 10571 10572 10573 10574 10575 10576 10577 10578 10579 10580 10581 10582 10583 10584 10585 10586 10587 10588 10589 10590 10591 10592 10593 10594 10595 10596 10597 10598 10599 10600 10601 10602 10603 10604 10605 10606 10607 10608 10609 10610 10611 10612 10613 10614 10615 10616 10617 10618 10619 10620 10621 10622 10623 10624 10625 10626 10627 10628 10629 10630 10631 10632 10633 10634 10635 10636 10637 10638 10639 10640 10641 10642 10643 10644 10645 10646 10647 10648 10649 10650 10651 10652 10653 10654 10655 10656 10657 10658 10659 10660 10661 10662 10663 10664 10665 10666 10667 10668 10669 10670 10671 10672 10673 10674 10675 10676 10677 10678 10679 10680 10681 10682 10683 10684 10685 10686 10687 10688 10689 10690 10691 10692 10693 10694 10695 10696 10697 10698 10699 10700 10701 10702 10703 10704 10705 10706 10707 10708 10709 10710 10711 10712 10713 10714 10715 10716 10717 10718 10719 10720 10721 10722 10723 10724 10725 10726 10727 10728 10729 10730 10731 10732 10733 10734 10735 10736 10737 10738 10739 10740 10741 10742 10743 10744 10745 10746 10747 10748 10749 10750 10751 10752 10753 10754 10755 10756 10757 10758 10759 10760 10761 10762 10763 10764 10765 10766 10767 10768 10769 10770 10771 10772 10773 10774 10775 10776 10777 10778 10779 10780 10781 10782 10783 10784 10785 10786 10787 10788 10789 10790 10791 10792 10793 10794 10795 10796 10797 10798 10799 10800 10801 10802 10803 10804 10805 10806 10807 10808 10809 10810 10811 10812 10813 10814 10815 10816 10817 10818 10819 10820 10821 10822 10823 10824 10825 10826 10827 10828 10829 10830 10831 10832 10833 10834 10835 10836 10837 10838 10839 10840 10841 10842 10843 10844 10845 10846 10847 10848 10849 10850 10851 10852 10853 10854 10855 10856 10857 10858 10859 10860 10861 10862 10863 10864 10865 10866 10867 10868 10869 10870 10871 10872 10873 10874 10875 10876 10877 10878 10879 10880 10881 10882 10883 10884 10885 10886 10887 10888 10889 10890 10891 10892 10893 10894 10895 10896 10897 10898 10899 10900 10901 10902 10903 10904 10905 10906 10907 10908 10909 10910 10911 10912 10913 10914 10915 10916 10917 10918 10919 10920 10921 10922 10923 10924 10925 10926 10927 10928 10929 10930 10931 10932 10933 10934 10935 10936 10937 10938 10939 10940 10941 10942 10943 10944 10945 10946 10947 10948 10949 10950 10951 10952 10953 10954 10955 10956 10957 10958 10959 10960 10961 10962 10963 10964 10965 10966 10967 10968 10969 10970 10971 10972 10973 10974 10975 10976 10977 10978 10979 10980 10981 10982 10983 10984 10985 10986 10987 10988 10989 10990 10991 10992 10993 10994 10995 10996 10997 10998 10999 11000 11001 11002 11003 11004 11005 11006 11007 11008 11009 11010 11011 11012 11013 11014 11015 11016 11017 11018 11019 11020 11021 11022 11023 11024 11025 11026 11027 11028 11029 11030 11031 11032 11033 11034 11035 11036 11037 11038 11039 11040 11041 11042 11043 11044 11045 11046 11047 11048 11049 11050 11051 11052 11053 11054 11055 11056 11057 11058 11059 11060 11061 11062 11063 11064 11065 11066 11067 11068 11069 11070 11071 11072 11073 11074 11075 11076 11077 11078 11079 11080 11081 11082 11083 11084 11085 11086 11087 11088 11089 11090 11091 11092 11093 11094 11095 11096 11097 11098 11099 11100 11101 11102 11103 11104 11105 11106 11107 11108 11109 11110 11111 11112 11113 11114 11115 11116 11117 11118 11119 11120 11121 11122 11123 11124 11125 11126 11127 11128 11129 11130 11131 11132 11133 11134 11135 11136 11137 11138 11139 11140 11141 11142 11143 11144 11145 11146 11147 11148 11149 11150 11151 11152 11153 11154 11155 11156 11157 11158 11159 11160 11161 11162 11163 11164 11165 11166 11167 11168 11169 11170 11171 11172 11173 11174 11175 11176 11177 11178 11179 11180 11181 11182 11183 11184 11185 11186 11187 11188 11189 11190 11191 11192 11193 11194 11195 11196 11197 11198 11199 11200 11201 11202 11203 11204 11205 11206 11207 11208 11209 11210 11211 11212 11213 11214 11215 11216 11217 11218 11219 11220 11221 11222 11223 11224 11225 11226 11227 11228 11229 11230 11231 11232 11233 11234 11235 11236 11237 11238 11239 11240 11241 11242 11243 11244 11245 11246 11247 11248 11249 11250 11251 11252 11253 11254 11255 11256 11257 11258 11259 11260 11261 11262 11263 11264 11265 11266 11267 11268 11269 11270 11271 11272 11273 11274 11275 11276 11277 11278 11279 11280 11281 11282 11283 11284 11285 11286 11287 11288 11289 11290 11291 11292 11293 11294 11295 11296 11297 11298 11299 11300 11301 11302 11303 11304 11305 11306 11307 11308 11309 11310 11311 11312 11313 11314 11315 11316 11317 11318 11319 11320 11321 11322 11323 11324 11325 11326 11327 11328 11329 11330 11331 11332 11333 11334 11335 11336 11337 11338 11339 11340 11341 11342 11343 11344 11345 11346 11347 11348 11349 11350 11351 11352 11353 11354 11355 11356 11357 11358 11359 11360 11361 11362 11363 11364 11365 11366 11367 11368 11369 11370 11371 11372 11373 11374 11375 11376 11377 11378 11379 11380 11381 11382 11383 11384 11385 11386 11387 11388 11389 11390 11391 11392 11393 11394 11395 11396 11397 11398 11399 11400 11401 11402 11403 11404 11405 11406 11407 11408 11409 11410 11411 11412 11413 11414 11415 11416 11417 11418 11419 11420 11421 11422 11423 11424 11425 11426 11427 11428 11429 11430 11431 11432 11433 11434 11435 11436 11437 11438 11439 11440 11441 11442 11443 11444 11445 11446 11447 11448 11449 11450 11451 11452 11453 11454 11455 11456 11457 11458 11459 11460 11461 11462 11463 11464 11465 11466 11467 11468 11469 11470 11471 11472 11473 11474 11475 11476 11477 11478 11479 11480 11481 11482 11483 11484 11485 11486 11487 11488 11489 11490 11491 11492 11493 11494 11495 11496 11497 11498 11499 11500 11501 11502 11503 11504 11505 11506 11507 11508 11509 11510 11511 11512 11513 11514 11515 11516 11517 11518 11519 11520 11521 11522 11523 11524 11525 11526 11527 11528 11529 11530 11531 11532 11533 11534 11535 11536 11537 11538 11539 11540 11541 11542 11543 11544 11545 11546 11547 11548 11549 11550 11551 11552 11553 11554 11555 11556 11557 11558 11559 11560 11561 11562 11563 11564 11565 11566 11567 11568 11569 11570 11571 11572 11573 11574 11575 11576 11577 11578 11579 11580 11581 11582 11583 11584 11585 11586 11587 11588 11589 11590 11591 11592 11593 11594 11595 11596 11597 11598 11599 11600 11601 11602 11603 11604 11605 11606 11607 11608 11609 11610 11611 11612 11613 11614 11615 11616 11617 11618 11619 11620 11621 11622 11623 11624 11625 11626 11627 11628 11629 11630 11631 11632 11633 11634 11635 11636 11637 11638 11639 11640 11641 11642 11643 11644 11645 11646 11647 11648 11649 11650 11651 11652 11653 11654 11655 11656 11657 11658 11659 11660 11661 11662 11663 11664 11665 11666 11667 11668 11669 11670 11671 11672 11673 11674 11675 11676 11677 11678 11679 11680 11681 11682 11683 11684 11685 11686 11687 11688 11689 11690 11691 11692 11693 11694 11695 11696 11697 11698 11699 11700 11701 11702 11703 11704 11705 11706 11707 11708 11709 11710 11711 11712 11713 11714 11715 11716 11717 11718 11719 11720 11721 11722 11723 11724 11725 11726 11727 11728 11729 11730 11731 11732 11733 11734 11735 11736 11737 11738 11739 11740 11741 11742 11743 11744 11745 11746 11747 11748 11749 11750 11751 11752 11753 11754 11755 11756 11757 11758 11759 11760 11761 11762 11763 11764 11765 11766 11767 11768 11769 11770 11771 11772 11773 11774 11775 11776 11777 11778 11779 11780 11781 11782 11783 11784 11785 11786 11787 11788 11789 11790 11791 11792 11793 11794 11795 11796 11797 11798 11799 11800 11801 11802 11803 11804 11805 11806 11807 11808 11809 11810 11811 11812 11813 11814 11815 11816 11817 11818 11819 11820 11821 11822 11823 11824 11825 11826 11827 11828 11829 11830 11831 11832 11833 11834 11835 11836 11837 11838 11839 11840 11841 11842 11843 11844 11845 11846 11847 11848 11849 11850 11851 11852 11853 11854 11855 11856 11857 11858 11859 11860 11861 11862 11863 11864 11865 11866 11867 11868 11869 11870 11871 11872 11873 11874 11875 11876 11877 11878 11879 11880 11881 11882 11883 11884 11885 11886 11887 11888 11889 11890 11891 11892 11893 11894 11895 11896 11897 11898 11899 11900 11901 11902 11903 11904 11905 11906 11907 11908 11909 11910 11911 11912 11913 11914 11915 11916 11917 11918 11919 11920 11921 11922 11923 11924 11925 11926 11927 11928 11929 11930 11931 11932 11933 11934 11935 11936 11937 11938 11939 11940 11941 11942 11943 11944 11945 11946 11947 11948 11949 11950 11951 11952 11953 11954 11955 11956 11957 11958 11959 11960 11961 11962 11963 11964 11965 11966 11967 11968 11969 11970 11971 11972 11973 11974 11975 11976 11977 11978 11979 11980 11981 11982 11983 11984 11985 11986 11987 11988 11989 11990 11991 11992 11993 11994 11995 11996 11997 11998 11999 12000 12001 12002 12003 12004 12005 12006 12007 12008 12009 12010 12011 12012 12013 12014 12015 12016 12017 12018 12019 12020 12021 12022 12023 12024 12025 12026 12027 12028 12029 12030 12031 12032 12033 12034 12035 12036 12037 12038 12039 12040 12041 12042 12043 12044 12045 12046 12047 12048 12049 12050 12051 12052 12053 12054 12055 12056 12057 12058 12059 12060 12061 12062 12063 12064 12065 12066 12067 12068 12069 12070 12071 12072 12073 12074 12075 12076 12077 12078 12079 12080 12081 12082 12083 12084 12085 12086 12087 12088 12089 12090 12091 12092 12093 12094 12095 12096 12097 12098 12099 12100 12101 12102 12103 12104 12105 12106 12107 12108 12109 12110 12111 12112 12113 12114 12115 12116 12117 12118 12119 12120 12121 12122 12123 12124 12125 12126 12127 12128 12129 12130 12131 12132 12133 12134 12135 12136 12137 12138 12139 12140 12141 12142 12143 12144 12145 12146 12147 12148 12149 12150 12151 12152 12153 12154 12155 12156 12157 12158 12159 12160 12161 12162 12163 12164 12165 12166 12167 12168 12169 12170 12171 12172 12173 12174 12175 12176 12177 12178 12179 12180 12181 12182 12183 12184 12185 12186 12187 12188 12189 12190 12191 12192 12193 12194 12195 12196 12197 12198 12199 12200 12201 12202 12203 12204 12205 12206 12207 12208 12209 12210 12211 12212 12213 12214 12215 12216 12217 12218 12219 12220 12221 12222 12223 12224 12225 12226 12227 12228 12229 12230 12231 12232 12233 12234 12235 12236 12237 12238 12239 12240 12241 12242 12243 12244 12245 12246 12247 12248 12249 12250 12251 12252 12253 12254 12255 12256 12257 12258 12259 12260 12261 12262 12263 12264 12265 12266 12267 12268 12269 12270 12271 12272 12273 12274 12275 12276 12277 12278 12279 12280 12281 12282 12283 12284 12285 12286 12287 12288 12289 12290 12291 12292 12293 12294 12295 12296 12297 12298 12299 12300 12301 12302 12303 12304 12305 12306 12307 12308 12309 12310 12311 12312 12313 12314 12315 12316 12317 12318 12319 12320 12321 12322 12323 12324 12325 12326 12327 12328 12329 12330 12331 12332 12333 12334 12335 12336 12337 12338 12339 12340 12341 12342 12343 12344 12345 12346 12347 12348 12349 12350 12351 12352 12353 12354 12355 12356 12357 12358 12359 12360 12361 12362 12363 12364 12365 12366 12367 12368 12369 12370 12371 12372 12373 12374 12375 12376 12377 12378 12379 12380 12381 12382 12383 12384 12385 12386 12387 12388 12389 12390 12391 12392 12393 12394 12395 12396 12397 12398 12399 12400 12401 12402 12403 12404 12405 12406 12407 12408 12409 12410 12411 12412 12413 12414 12415 12416 12417 12418 12419 12420 12421 12422 12423 12424 12425 12426 12427 12428 12429 12430 12431 12432 12433 12434 12435 12436 12437 12438 12439 12440 12441 12442 12443 12444 12445 12446 12447 12448 12449 12450 12451 12452 12453 12454 12455 12456 12457 12458 12459 12460 12461 12462 12463 12464 12465 12466 12467 12468 12469 12470 12471 12472 12473 12474 12475 12476 12477 12478 12479 12480 12481 12482 12483 12484 12485 12486 12487 12488 12489 12490 12491 12492 12493 12494 12495 12496 12497 12498 12499 12500 12501 12502 12503 12504 12505 12506 12507 12508 12509 12510 12511 12512 12513 12514 12515 12516 12517 12518 12519 12520 12521 12522 12523 12524 12525 12526 12527 12528 12529 12530 12531 12532 12533 12534 12535 12536 12537 12538 12539 12540 12541 12542 12543 12544 12545 12546 12547 12548 12549 12550 12551 12552 12553 12554 12555 12556 12557 12558 12559 12560 12561 12562 12563 12564 12565 12566 12567 12568 12569 12570 12571 12572 12573 12574 12575 12576 12577 12578 12579 12580 12581 12582 12583 12584 12585 12586 12587 12588 12589 12590 12591 12592 12593 12594 12595 12596 12597 12598 12599 12600 12601 12602 12603 12604 12605 12606 12607 12608 12609 12610 12611 12612 12613 12614 12615 12616 12617 12618 12619 12620 12621 12622 12623 12624 12625 12626 12627 12628 12629 12630 12631 12632 12633 12634 12635 12636 12637 12638 12639 12640 12641 12642 12643 12644 12645 12646 12647 12648 12649 12650 12651 12652 12653 12654 12655 12656 12657 12658 12659 12660 12661 12662 12663 12664 12665 12666 12667 12668 12669 12670 12671 12672 12673 12674 12675 12676 12677 12678 12679 12680 12681 12682 12683 12684 12685 12686 12687 12688 12689 12690 12691 12692 12693 12694 12695 12696 12697 12698 12699 12700 12701 12702 12703 12704 12705 12706 12707 12708 12709 12710 12711 12712 12713 12714 12715 12716 12717 12718 12719 12720 12721 12722 12723 12724 12725 12726 12727 12728 12729 12730 12731 12732 12733 12734 12735 12736 12737 12738 12739 12740 12741 12742 12743 12744 12745 12746 12747 12748 12749 12750 12751 12752 12753 12754 12755 12756 12757 12758 12759 12760 12761 12762 12763 12764 12765 12766 12767 12768 12769 12770 12771 12772 12773 12774 12775 12776 12777 12778 12779 12780 12781 12782 12783 12784 12785 12786 12787 12788 12789 12790 12791 12792 12793 12794 12795 12796 12797 12798 12799 12800 12801 12802 12803 12804 12805 12806 12807 12808 12809 12810 12811 12812 12813 12814 12815 12816 12817 12818 12819 12820 12821 12822 12823 12824 12825 12826 12827 12828 12829 12830 12831 12832 12833 12834 12835 12836 12837 12838 12839 12840 12841 12842 12843 12844 12845 12846 12847 12848 12849 12850 12851 12852 12853 12854 12855 12856 12857 12858 12859 12860 12861 12862 12863 12864 12865 12866 12867 12868 12869 12870 12871 12872 12873 12874 12875 12876 12877 12878 12879 12880 12881 12882 12883 12884 12885 12886 12887 12888 12889 12890 12891 12892 12893 12894 12895 12896 12897 12898 12899 12900 12901 12902 12903 12904 12905 12906 12907 12908 12909 12910 12911 12912 12913 12914 12915 12916 12917 12918 12919 12920 12921 12922 12923 12924 12925 12926 12927 12928 12929 12930 12931 12932 12933 12934 12935 12936 12937 12938 12939 12940 12941 12942 12943 12944 12945 12946 12947 12948 12949 12950 12951 12952 12953 12954 12955 12956 12957 12958 12959 12960 12961 12962 12963 12964 12965 12966 12967 12968 12969 12970 12971 12972 12973 12974 12975 12976 12977 12978 12979 12980 12981 12982 12983 12984 12985 12986 12987 12988 12989 12990 12991 12992 12993 12994 12995 12996 12997 12998 12999 13000 13001 13002 13003 13004 13005 13006 13007 13008 13009 13010 13011 13012 13013 13014 13015 13016 13017 13018 13019 13020 13021 13022 13023 13024 13025 13026 13027 13028 13029 13030 13031 13032 13033 13034 13035 13036 13037 13038 13039 13040 13041 13042 13043 13044 13045 13046 13047 13048 13049 13050 13051 13052 13053 13054 13055 13056 13057 13058 13059 13060 13061 13062 13063 13064 13065 13066 13067 13068 13069 13070 13071 13072 13073 13074 13075 13076 13077 13078 13079 13080 13081 13082 13083 13084 13085 13086 13087 13088 13089 13090 13091 13092 13093 13094 13095 13096 13097 13098 13099 13100 13101 13102 13103 13104 13105 13106 13107 13108 13109 13110 13111 13112 13113 13114 13115 13116 13117 13118 13119 13120 13121 13122 13123 13124 13125 13126 13127 13128 13129 13130 13131 13132 13133 13134 13135 13136 13137 13138 13139 13140 13141 13142 13143 13144 13145 13146 13147 13148 13149 13150 13151 13152 13153 13154 13155 13156 13157 13158 13159 13160 13161 13162 13163 13164 13165 13166 13167 13168 13169 13170 13171 13172 13173 13174 13175 13176 13177 13178 13179 13180 13181 13182 13183 13184 13185 13186 13187 13188 13189 13190 13191 13192 13193 13194 13195 13196 13197 13198 13199 13200 13201 13202 13203 13204 13205 13206 13207 13208 13209 13210 13211 13212 13213 13214 13215 13216 13217 13218 13219 13220 13221 13222 13223 13224 13225 13226 13227 13228 13229 13230 13231 13232 13233 13234 13235 13236 13237 13238 13239 13240 13241 13242 13243 13244 13245 13246 13247 13248 13249 13250 13251 13252 13253 13254 13255 13256 13257 13258 13259 13260 13261 13262 13263 13264 13265 13266 13267 13268 13269 13270 13271 13272 13273 13274 13275 13276 13277 13278 13279 13280 13281 13282 13283 13284 13285 13286 13287 13288 13289 13290 13291 13292 13293 13294 13295 13296 13297 13298 13299 13300 13301 13302 13303 13304 13305 13306 13307 13308 13309 13310 13311 13312 13313 13314 13315 13316 13317 13318 13319 13320 13321 13322 13323 13324 13325 13326 13327 13328 13329 13330 13331 13332 13333 13334 13335 13336 13337 13338 13339 13340 13341 13342 13343 13344 13345 13346 13347 13348 13349 13350 13351 13352 13353 13354 13355 13356 13357 13358 13359 13360 13361 13362 13363 13364 13365 13366 13367 13368 13369 13370 13371 13372 13373 13374 13375 13376 13377 13378 13379 13380 13381 13382 13383 13384 13385 13386 13387 13388 13389 13390 13391 13392 13393 13394 13395 13396 13397 13398 13399 13400 13401 13402 13403 13404 13405 13406 13407 13408 13409 13410 13411 13412 13413 13414 13415 13416 13417 13418 13419 13420 13421 13422 13423 13424 13425 13426 13427 13428 13429 13430 13431 13432 13433 13434 13435 13436 13437 13438 13439 13440 13441 13442 13443 13444 13445 13446 13447 13448 13449 13450 13451 13452 13453 13454 13455 13456 13457 13458 13459 13460 13461 13462 13463 13464 13465 13466 13467 13468 13469 13470 13471 13472 13473 13474 13475 13476 13477 13478 13479 13480 13481 13482 13483 13484 13485 13486 13487 13488 13489 13490 13491 13492 13493 13494 13495 13496 13497 13498 13499 13500 13501 13502 13503 13504 13505 13506 13507 13508 13509 13510 13511 13512 13513 13514 13515 13516 13517 13518 13519 13520 13521 13522 13523 13524 13525 13526 13527 13528 13529 13530 13531 13532 13533 13534 13535 13536 13537 13538 13539 13540 13541 13542 13543 13544 13545 13546 13547 13548 13549 13550 13551 13552 13553 13554 13555 13556 13557 13558 13559 13560 13561 13562 13563 13564 13565 13566 13567 13568 13569 13570 13571 13572 13573 13574 13575 13576 13577 13578 13579 13580 13581 13582 13583 13584 13585 13586 13587 13588 13589 13590 13591 13592 13593 13594 13595 13596 13597 13598 13599 13600 13601 13602 13603 13604 13605 13606 13607 13608 13609 13610 13611 13612 13613 13614 13615 13616 13617 13618 13619 13620 13621 13622 13623 13624 13625 13626 13627 13628 13629 13630 13631 13632 13633 13634 13635 13636 13637 13638 13639 13640 13641 13642 13643 13644 13645 13646 13647 13648 13649 13650 13651 13652 13653 13654 13655 13656 13657 13658 13659 13660 13661 13662 13663 13664 13665 13666 13667 13668 13669 13670 13671 13672 13673 13674 13675 13676 13677 13678 13679 13680 13681 13682 13683 13684 13685 13686 13687 13688 13689 13690 13691 13692 13693 13694 13695 13696 13697 13698 13699 13700 13701 13702 13703 13704 13705 13706 13707 13708 13709 13710 13711 13712 13713 13714 13715 13716 13717 13718 13719 13720 13721 13722 13723 13724 13725 13726 13727 13728 13729 13730 13731 13732 13733 13734 13735 13736 13737 13738 13739 13740 13741 13742 13743 13744 13745 13746 13747 13748 13749 13750 13751 13752 13753 13754 13755 13756 13757 13758 13759 13760 13761 13762 13763 13764 13765 13766 13767 13768 13769 13770 13771 13772 13773 13774 13775 13776 13777 13778 13779 13780 13781 13782 13783 13784 13785 13786 13787 13788 13789 13790 13791 13792 13793 13794 13795 13796 13797 13798 13799 13800 13801 13802 13803 13804 13805 13806 13807 13808 13809 13810 13811 13812 13813 13814 13815 13816 13817 13818 13819 13820 13821 13822 13823 13824 13825 13826 13827 13828 13829 13830 13831 13832 13833 13834 13835 13836 13837 13838 13839 13840 13841 13842 13843 13844 13845 13846 13847 13848 13849 13850 13851 13852 13853 13854 13855 13856 13857 13858 13859 13860 13861 13862 13863 13864 13865 13866 13867 13868 13869 13870 13871 13872 13873 13874 13875 13876 13877 13878 13879 13880 13881 13882 13883 13884 13885 13886 13887 13888 13889 13890 13891 13892 13893 13894 13895 13896 13897 13898 13899 13900 13901 13902 13903 13904 13905 13906 13907 13908 13909 13910 13911 13912 13913 13914 13915 13916 13917 13918 13919 13920 13921 13922 13923 13924 13925 13926 13927 13928 13929 13930 13931 13932 13933 13934 13935 13936 13937 13938 13939 13940 13941 13942 13943 13944 13945 13946 13947 13948 13949 13950 13951 13952 13953 13954 13955 13956 13957 13958 13959 13960 13961 13962 13963 13964 13965 13966 13967 13968 13969 13970 13971 13972 13973 13974 13975 13976 13977 13978 13979 13980 13981 13982 13983 13984 13985 13986 13987 13988 13989 13990 13991 13992 13993 13994 13995 13996 13997 13998 13999 14000 14001 14002 14003 14004 14005 14006 14007 14008 14009 14010 14011 14012 14013 14014 14015 14016 14017 14018 14019 14020 14021 14022 14023 14024 14025 14026 14027 14028 14029 14030 14031 14032 14033 14034 14035 14036 14037 14038 14039 14040 14041 14042 14043 14044 14045 14046 14047 14048 14049 14050 14051 14052 14053 14054 14055 14056 14057 14058 14059 14060 14061 14062 14063 14064 14065 14066 14067 14068 14069 14070 14071 14072 14073 14074 14075 14076 14077 14078 14079 14080 14081 14082 14083 14084 14085 14086 14087 14088 14089 14090 14091 14092 14093 14094 14095 14096 14097 14098 14099 14100 14101 14102 14103 14104 14105 14106 14107 14108 14109 14110 14111 14112 14113 14114 14115 14116 14117 14118 14119 14120 14121 14122 14123 14124 14125 14126 14127 14128 14129 14130 14131 14132 14133 14134 14135 14136 14137 14138 14139 14140 14141 14142 14143 14144 14145 14146 14147 14148 14149 14150 14151 14152 14153 14154 14155 14156 14157 14158 14159 14160 14161 14162 14163 14164 14165 14166 14167 14168 14169 14170 14171 14172 14173 14174 14175 14176 14177 14178 14179 14180 14181 14182 14183 14184 14185 14186 14187 14188 14189 14190 14191 14192 14193 14194 14195 14196 14197 14198 14199 14200 14201 14202 14203 14204 14205 14206 14207 14208 14209 14210 14211 14212 14213 14214 14215 14216 14217 14218 14219 14220 14221 14222 14223 14224 14225 14226 14227 14228 14229 14230 14231 14232 14233 14234 14235 14236 14237 14238 14239 14240 14241 14242 14243 14244 14245 14246 14247 14248 14249 14250 14251 14252 14253 14254 14255 14256 14257 14258 14259 14260 14261 14262 14263 14264 14265 14266 14267 14268 14269 14270 14271 14272 14273 14274 14275 14276 14277 14278 14279 14280 14281 14282 14283 14284 14285 14286 14287 14288 14289 14290 14291 14292 14293 14294 14295 14296 14297 14298 14299 14300 14301 14302 14303 14304 14305 14306 14307 14308 14309 14310 14311 14312 14313 14314 14315 14316 14317 14318 14319 14320 14321 14322 14323 14324 14325 14326 14327 14328 14329 14330 14331 14332 14333 14334 14335 14336 14337 14338 14339 14340 14341 14342 14343 14344 14345 14346 14347 14348 14349 14350 14351 14352 14353 14354 14355 14356 14357 14358 14359 14360 14361 14362 14363 14364 14365 14366 14367 14368 14369 14370 14371 14372 14373 14374 14375 14376 14377 14378 14379 14380 14381 14382 14383 14384 14385 14386 14387 14388 14389 14390 14391 14392 14393 14394 14395 14396 14397 14398 14399 14400 14401 14402 14403 14404 14405 14406 14407 14408 14409 14410 14411 14412 14413 14414 14415 14416 14417 14418 14419 14420 14421 14422 14423 14424 14425 14426 14427 14428 14429 14430 14431 14432 14433 14434 14435 14436 14437 14438 14439 14440 14441 14442 14443 14444 14445 14446 14447 14448 14449 14450 14451 14452 14453 14454 14455 14456 14457 14458 14459 14460 14461 14462 14463 14464 14465 14466 14467 14468 14469 14470 14471 14472 14473 14474 14475 14476 14477 14478 14479 14480 14481 14482 14483 14484 14485 14486 14487 14488 14489 14490 14491 14492 14493 14494 14495 14496 14497 14498 14499 14500 14501 14502 14503 14504 14505 14506 14507 14508 14509 14510 14511 14512 14513 14514 14515 14516 14517 14518 14519 14520 14521 14522 14523 14524 14525 14526 14527 14528 14529 14530 14531 14532 14533 14534 14535 14536 14537 14538 14539 14540 14541 14542 14543 14544 14545 14546 14547 14548 14549 14550 14551 14552 14553 14554 14555 14556 14557 14558 14559 14560 14561 14562 14563 14564 14565 14566 14567 14568 14569 14570 14571 14572 14573 14574 14575 14576 14577 14578 14579 14580 14581 14582 14583 14584 14585 14586 14587 14588 14589 14590 14591 14592 14593 14594 14595 14596 14597 14598 14599 14600 14601 14602 14603 14604 14605 14606 14607 14608 14609 14610 14611 14612 14613 14614 14615 14616 14617 14618 14619 14620 14621 14622 14623 14624 14625 14626 14627 14628 14629 14630 14631 14632 14633 14634 14635 14636 14637 14638 14639 14640 14641 14642 14643 14644 14645 14646 14647 14648 14649 14650 14651 14652 14653 14654 14655 14656 14657 14658 14659 14660 14661 14662 14663 14664 14665 14666 14667 14668 14669 14670 14671 14672 14673 14674 14675 14676 14677 14678 14679 14680 14681 14682 14683 14684 14685 14686 14687 14688 14689 14690 14691 14692 14693 14694 14695 14696 14697 14698 14699 14700 14701 14702 14703 14704 14705 14706 14707 14708 14709 14710 14711 14712 14713 14714 14715 14716 14717 14718 14719 14720 14721 14722 14723 14724 14725 14726 14727 14728 14729 14730 14731 14732 14733 14734 14735 14736 14737 14738 14739 14740 14741 14742 14743 14744 14745 14746 14747 14748 14749 14750 14751 14752 14753 14754 14755 14756 14757 14758 14759 14760 14761 14762 14763 14764 14765 14766 14767 14768 14769 14770 14771 14772 14773 14774 14775 14776 14777 14778 14779 14780 14781 14782 14783 14784 14785 14786 14787 14788 14789 14790 14791 14792 14793 14794 14795 14796 14797 14798 14799 14800 14801 14802 14803 14804 14805 14806 14807 14808 14809 14810 14811 14812 14813 14814 14815 14816 14817 14818 14819 14820 14821 14822 14823 14824 14825 14826 14827 14828 14829 14830 14831 14832 14833 14834 14835 14836 14837 14838 14839 14840 14841 14842 14843 14844 14845 14846 14847 14848 14849 14850 14851 14852 14853 14854 14855 14856 14857 14858 14859 14860 14861 14862 14863 14864 14865 14866 14867 14868 14869 14870 14871 14872 14873 14874 14875 14876 14877 14878 14879 14880 14881 14882 14883 14884 14885 14886 14887 14888 14889 14890 14891 14892 14893 14894 14895 14896 14897 14898 14899 14900 14901 14902 14903 14904 14905 14906 14907 14908 14909 14910 14911 14912 14913 14914 14915 14916 14917 14918 14919 14920 14921 14922 14923 14924 14925 14926 14927 14928 14929 14930 14931 14932 14933 14934 14935 14936 14937 14938 14939 14940 14941 14942 14943 14944 14945 14946 14947 14948 14949 14950 14951 14952 14953 14954 14955 14956 14957 14958 14959 14960 14961 14962 14963 14964 14965 14966 14967 14968 14969 14970 14971 14972 14973 14974 14975 14976 14977 14978 14979 14980 14981 14982 14983 14984 14985 14986 14987 14988 14989 14990 14991 14992 14993 14994 14995 14996 14997 14998 14999 15000 15001 15002 15003 15004 15005 15006 15007 15008 15009 15010 15011 15012 15013 15014 15015 15016 15017 15018 15019 15020 15021 15022 15023 15024 15025 15026 15027 15028 15029 15030 15031 15032 15033 15034 15035 15036 15037 15038 15039 15040 15041 15042 15043 15044 15045 15046 15047 15048 15049 15050 15051 15052 15053 15054 15055 15056 15057 15058 15059 15060 15061 15062 15063 15064 15065 15066 15067 15068 15069 15070 15071 15072 15073 15074 15075 15076 15077 15078 15079 15080 15081 15082 15083 15084 15085 15086 15087 15088 15089 15090 15091 15092 15093 15094 15095 15096 15097 15098 15099 15100 15101 15102 15103 15104 15105 15106 15107 15108 15109 15110 15111 15112 15113 15114 15115 15116 15117 15118 15119 15120 15121 15122 15123 15124 15125 15126 15127 15128 15129 15130 15131 15132 15133 15134 15135 15136 15137 15138 15139 15140 15141 15142 15143 15144 15145 15146 15147 15148 15149 15150 15151 15152 15153 15154 15155 15156 15157 15158 15159 15160 15161 15162 15163 15164 15165 15166 15167 15168 15169 15170 15171 15172 15173 15174 15175 15176 15177 15178 15179 15180 15181 15182 15183 15184 15185 15186 15187 15188 15189 15190 15191 15192 15193 15194 15195 15196 15197 15198 15199 15200 15201 15202 15203 15204 15205 15206 15207 15208 15209 15210 15211 15212 15213 15214 15215 15216 15217 15218 15219 15220 15221 15222 15223 15224 15225 15226 15227 15228 15229 15230 15231 15232 15233 15234 15235 15236 15237 15238 15239 15240 15241 15242 15243 15244 15245 15246 15247 15248 15249 15250 15251 15252 15253 15254 15255 15256 15257 15258 15259 15260 15261 15262 15263 15264 15265 15266 15267 15268 15269 15270 15271 15272 15273 15274 15275 15276 15277 15278 15279 15280 15281 15282 15283 15284 15285 15286 15287 15288 15289 15290 15291 15292 15293 15294 15295 15296 15297 15298 15299 15300 15301 15302 15303 15304 15305 15306 15307 15308 15309 15310 15311 15312 15313 15314 15315 15316 15317 15318 15319 15320 15321 15322 15323 15324 15325 15326 15327 15328 15329 15330 15331 15332 15333 15334 15335 15336 15337 15338 15339 15340 15341 15342 15343 15344 15345 15346 15347 15348 15349 15350 15351 15352 15353 15354 15355 15356 15357 15358 15359 15360 15361 15362 15363 15364 15365 15366 15367 15368 15369 15370 15371 15372 15373 15374 15375 15376 15377 15378 15379 15380 15381 15382 15383 15384 15385 15386 15387 15388 15389 15390 15391 15392 15393 15394 15395 15396 15397 15398 15399 15400 15401 15402 15403 15404 15405 15406 15407 15408 15409 15410 15411 15412 15413 15414 15415 15416 15417 15418 15419 15420 15421 15422 15423 15424 15425 15426 15427 15428 15429 15430 15431 15432 15433 15434 15435 15436 15437 15438 15439 15440 15441 15442 15443 15444 15445 15446 15447 15448 15449 15450 15451 15452 15453 15454 15455 15456 15457 15458 15459 15460 15461 15462 15463 15464 15465 15466 15467 15468 15469 15470 15471 15472 15473 15474 15475 15476 15477 15478 15479 15480 15481 15482 15483 15484 15485 15486 15487 15488 15489 15490 15491 15492 15493 15494 15495 15496 15497 15498 15499 15500 15501 15502 15503 15504 15505 15506 15507 15508 15509 15510 15511 15512 15513 15514 15515 15516 15517 15518 15519 15520 15521 15522 15523 15524 15525 15526 15527 15528 15529 15530 15531 15532 15533 15534 15535 15536 15537 15538 15539 15540 15541 15542 15543 15544 15545 15546 15547 15548 15549 15550 15551 15552 15553 15554 15555 15556 15557 15558 15559 15560 15561 15562 15563 15564 15565 15566 15567 15568 15569 15570 15571 15572 15573 15574 15575 15576 15577 15578 15579 15580 15581 15582 15583 15584 15585 15586 15587 15588 15589 15590 15591 15592 15593 15594 15595 15596 15597 15598 15599 15600 15601 15602 15603 15604 15605 15606 15607 15608 15609 15610 15611 15612 15613 15614 15615 15616 15617 15618 15619 15620 15621 15622 15623 15624 15625 15626 15627 15628 15629 15630 15631 15632 15633 15634 15635 15636 15637 15638 15639 15640 15641 15642 15643 15644 15645 15646 15647 15648 15649 15650 15651 15652 15653 15654 15655 15656 15657 15658 15659 15660 15661 15662 15663 15664 15665 15666 15667 15668 15669 15670 15671 15672 15673 15674 15675 15676 15677 15678 15679 15680 15681 15682 15683 15684 15685 15686 15687 15688 15689 15690 15691 15692 15693 15694 15695 15696 15697 15698 15699 15700 15701 15702 15703 15704 15705 15706 15707 15708 15709 15710 15711 15712 15713 15714 15715 15716 15717 15718 15719 15720 15721 15722 15723 15724 15725 15726 15727 15728 15729 15730 15731 15732 15733 15734 15735 15736 15737 15738 15739 15740 15741 15742 15743 15744 15745 15746 15747 15748 15749 15750 15751 15752 15753 15754 15755 15756 15757 15758 15759 15760 15761 15762 15763 15764 15765 15766 15767 15768 15769 15770 15771 15772 15773 15774 15775 15776 15777 15778 15779 15780 15781 15782 15783 15784 15785 15786 15787 15788 15789 15790 15791 15792 15793 15794 15795 15796 15797 15798 15799 15800 15801 15802 15803 15804 15805 15806 15807 15808 15809 15810 15811 15812 15813 15814 15815 15816 15817 15818 15819 15820 15821 15822 15823 15824 15825 15826 15827 15828 15829 15830 15831 15832 15833 15834 15835 15836 15837 15838 15839 15840 15841 15842 15843 15844 15845 15846 15847 15848 15849 15850 15851 15852 15853 15854 15855 15856 15857 15858 15859 15860 15861 15862 15863 15864 15865 15866 15867 15868 15869 15870 15871 15872 15873 15874 15875 15876 15877 15878 15879 15880 15881 15882 15883 15884 15885 15886 15887 15888 15889 15890 15891 15892 15893 15894 15895 15896 15897 15898 15899 15900 15901 15902 15903 15904 15905 15906 15907 15908 15909 15910 15911 15912 15913 15914 15915 15916 15917 15918 15919 15920 15921 15922 15923 15924 15925 15926 15927 15928 15929 15930 15931 15932 15933 15934 15935 15936 15937 15938 15939 15940 15941 15942 15943 15944 15945 15946 15947 15948 15949 15950 15951 15952 15953 15954 15955 15956 15957 15958 15959 15960 15961 15962 15963 15964 15965 15966 15967 15968 15969 15970 15971 15972 15973 15974 15975 15976 15977 15978 15979 15980 15981 15982 15983 15984 15985 15986 15987 15988 15989 15990 15991 15992 15993 15994 15995 15996 15997 15998 15999 16000 16001 16002 16003 16004 16005 16006 16007 16008 16009 16010 16011 16012 16013 16014 16015 16016 16017 16018 16019 16020 16021 16022 16023 16024 16025 16026 16027 16028 16029 16030 16031 16032 16033 16034 16035 16036 16037 16038 16039 16040 16041 16042 16043 16044 16045 16046 16047 16048 16049 16050 16051 16052 16053 16054 16055 16056 16057 16058 16059 16060 16061 16062 16063 16064 16065 16066 16067 16068 16069 16070 16071 16072 16073 16074 16075 16076 16077 16078 16079 16080 16081 16082 16083 16084 16085 16086 16087 16088 16089 16090 16091 16092 16093 16094 16095 16096 16097 16098 16099 16100 16101 16102 16103 16104 16105 16106 16107 16108 16109 16110 16111 16112 16113 16114 16115 16116 16117 16118 16119 16120 16121 16122 16123 16124 16125 16126 16127 16128 16129 16130 16131 16132 16133 16134 16135 16136 16137 16138 16139 16140 16141 16142 16143 16144 16145 16146 16147 16148 16149 16150 16151 16152 16153 16154 16155 16156 16157 16158 16159 16160 16161 16162 16163 16164 16165 16166 16167 16168 16169 16170 16171 16172 16173 16174 16175 16176 16177 16178 16179 16180 16181 16182 16183 16184 16185 16186 16187 16188 16189 16190 16191 16192 16193 16194 16195 16196 16197 16198 16199 16200 16201 16202 16203 16204 16205 16206 16207 16208 16209 16210 16211 16212 16213 16214 16215 16216 16217 16218 16219 16220 16221 16222 16223 16224 16225 16226 16227 16228 16229 16230 16231 16232 16233 16234 16235 16236 16237 16238 16239 16240 16241 16242 16243 16244 16245 16246 16247 16248 16249 16250 16251 16252 16253 16254 16255 16256 16257 16258 16259 16260 16261 16262 16263 16264 16265 16266 16267 16268 16269 16270 16271 16272 16273 16274 16275 16276 16277 16278 16279 16280 16281 16282 16283 16284 16285 16286 16287 16288 16289 16290 16291 16292 16293 16294 16295 16296 16297 16298 16299 16300 16301 16302 16303 16304 16305 16306 16307 16308 16309 16310 16311 16312 16313 16314 16315 16316 16317 16318 16319 16320 16321 16322 16323 16324 16325 16326 16327 16328 16329 16330 16331 16332 16333 16334 16335 16336 16337 16338 16339 16340 16341 16342 16343 16344 16345 16346 16347 16348 16349 16350 16351 16352 16353 16354 16355 16356 16357 16358 16359 16360 16361 16362 16363 16364 16365 16366 16367 16368 16369 16370 16371 16372 16373 16374 16375 16376 16377 16378 16379 16380 16381 16382 16383 16384 16385 16386 16387 16388 16389 16390 16391 16392 16393 16394 16395 16396 16397 16398 16399 16400 16401 16402 16403 16404 16405 16406 16407 16408 16409 16410 16411 16412 16413 16414 16415 16416 16417 16418 16419 16420 16421 16422 16423 16424 16425 16426 16427 16428 16429 16430 16431 16432 16433 16434 16435 16436 16437 16438 16439 16440 16441 16442 16443 16444 16445 16446 16447 16448 16449 16450 16451 16452 16453 16454 16455 16456 16457 16458 16459 16460 16461 16462 16463 16464 16465 16466 16467 16468 16469 16470 16471 16472 16473 16474 16475 16476 16477 16478 16479 16480 16481 16482 16483 16484 16485 16486 16487 16488 16489 16490 16491 16492 16493 16494 16495 16496 16497 16498 16499 16500 16501 16502 16503 16504 16505 16506 16507 16508 16509 16510 16511 16512 16513 16514 16515 16516 16517 16518 16519 16520 16521 16522 16523 16524 16525 16526 16527 16528 16529 16530 16531 16532 16533 16534 16535 16536 16537 16538 16539 16540 16541 16542 16543 16544 16545 16546 16547 16548 16549 16550 16551 16552 16553 16554 16555 16556 16557 16558 16559 16560 16561 16562 16563 16564 16565 16566 16567 16568 16569 16570 16571 16572 16573 16574 16575 16576 16577 16578 16579 16580 16581 16582 16583 16584 16585 16586 16587 16588 16589 16590 16591 16592 16593 16594 16595 16596 16597 16598 16599 16600 16601 16602 16603 16604 16605 16606 16607 16608 16609 16610 16611 16612 16613 16614 16615 16616 16617 16618 16619 16620 16621 16622 16623 16624 16625 16626 16627 16628 16629 16630 16631 16632 16633 16634 16635 16636 16637 16638 16639 16640 16641 16642 16643 16644 16645 16646 16647 16648 16649 16650 16651 16652 16653 16654 16655 16656 16657 16658 16659 16660 16661 16662 16663 16664 16665 16666 16667 16668 16669 16670 16671 16672 16673 16674 16675 16676 16677 16678 16679 16680 16681 16682 16683 16684 16685 16686 16687 16688 16689 16690 16691 16692 16693 16694 16695 16696 16697 16698 16699 16700 16701 16702 16703 16704 16705 16706 16707 16708 16709 16710 16711 16712 16713 16714 16715 16716 16717 16718 16719 16720 16721 16722 16723 16724 16725 16726 16727 16728 16729 16730 16731 16732 16733 16734 16735 16736 16737 16738 16739 16740 16741 16742 16743 16744 16745 16746 16747 16748 16749 16750 16751 16752 16753 16754 16755 16756 16757 16758 16759 16760 16761 16762 16763 16764 16765 16766 16767 16768 16769 16770 16771 16772 16773 16774 16775 16776 16777 16778 16779 16780 16781 16782 16783 16784 16785 16786 16787 16788 16789 16790 16791 16792 16793 16794 16795 16796 16797 16798 16799 16800 16801 16802 16803 16804 16805 16806 16807 16808 16809 16810 16811 16812 16813 16814 16815 16816 16817 16818 16819 16820 16821 16822 16823 16824 16825 16826 16827 16828 16829 16830 16831 16832 16833 16834 16835 16836 16837 16838 16839 16840 16841 16842 16843 16844 16845 16846 16847 16848 16849 16850 16851 16852 16853 16854 16855 16856 16857 16858 16859 16860 16861 16862 16863 16864 16865 16866 16867 16868 16869 16870 16871 16872 16873 16874 16875 16876 16877 16878 16879 16880 16881 16882 16883 16884 16885 16886 16887 16888 16889 16890 16891 16892 16893 16894 16895 16896 16897 16898 16899 16900 16901 16902 16903 16904 16905 16906 16907 16908 16909 16910 16911 16912 16913 16914 16915 16916 16917 16918 16919 16920 16921 16922 16923 16924 16925 16926 16927 16928 16929 16930 16931 16932 16933 16934 16935 16936 16937 16938 16939 16940 16941 16942 16943 16944 16945 16946 16947 16948 16949 16950 16951 16952 16953 16954 16955 16956 16957 16958 16959 16960 16961 16962 16963 16964 16965 16966 16967 16968 16969 16970 16971 16972 16973 16974 16975 16976 16977 16978 16979 16980 16981 16982 16983 16984 16985 16986 16987 16988 16989 16990 16991 16992 16993 16994 16995 16996 16997 16998 16999 17000 17001 17002 17003 17004 17005 17006 17007 17008 17009 17010 17011 17012 17013 17014 17015 17016 17017 17018 17019 17020 17021 17022 17023 17024 17025 17026 17027 17028 17029 17030 17031 17032 17033 17034 17035 17036 17037 17038 17039 17040 17041 17042 17043 17044 17045 17046 17047 17048 17049 17050 17051 17052 17053 17054 17055 17056 17057 17058 17059 17060 17061 17062 17063 17064 17065 17066 17067 17068 17069 17070 17071 17072 17073 17074 17075 17076 17077 17078 17079 17080 17081 17082 17083 17084 17085 17086 17087 17088 17089 17090 17091 17092 17093 17094 17095 17096 17097 17098 17099 17100 17101 17102 17103 17104 17105 17106 17107 17108 17109 17110 17111 17112 17113 17114 17115 17116 17117 17118 17119 17120 17121 17122 17123 17124 17125 17126 17127 17128 17129 17130 17131 17132 17133 17134 17135 17136 17137 17138 17139 17140 17141 17142 17143 17144 17145 17146 17147 17148 17149 17150 17151 17152 17153 17154 17155 17156 17157 17158 17159 17160 17161 17162 17163 17164 17165 17166 17167 17168 17169 17170 17171 17172 17173 17174 17175 17176 17177 17178 17179 17180 17181 17182 17183 17184 17185 17186 17187 17188 17189 17190 17191 17192 17193 17194 17195 17196 17197 17198 17199 17200 17201 17202 17203 17204 17205 17206 17207 17208 17209 17210 17211 17212 17213 17214 17215 17216 17217 17218 17219 17220 17221 17222 17223 17224 17225 17226 17227 17228 17229 17230 17231 17232 17233 17234 17235 17236 17237 17238 17239 17240 17241 17242 17243 17244 17245 17246 17247 17248 17249 17250 17251 17252 17253 17254 17255 17256 17257 17258 17259 17260 17261 17262 17263 17264 17265 17266 17267 17268 17269 17270 17271 17272 17273 17274 17275 17276 17277 17278 17279 17280 17281 17282 17283 17284 17285 17286 17287 17288 17289 17290 17291 17292 17293 17294 17295 17296 17297 17298 17299 17300 17301 17302 17303 17304 17305 17306 17307 17308 17309 17310 17311 17312 17313 17314 17315 17316 17317 17318 17319 17320 17321 17322 17323 17324 17325 17326 17327 17328 17329 17330 17331 17332 17333 17334 17335 17336 17337 17338 17339 17340 17341 17342 17343 17344 17345 17346 17347 17348 17349 17350 17351 17352 17353 17354 17355 17356 17357 17358 17359 17360 17361 17362 17363 17364 17365 17366 17367 17368 17369 17370 17371 17372 17373 17374 17375 17376 17377 17378 17379 17380 17381 17382 17383 17384 17385 17386 17387 17388 17389 17390 17391 17392 17393 17394 17395 17396 17397 17398 17399 17400 17401 17402 17403 17404 17405 17406 17407 17408 17409 17410 17411 17412 17413 17414 17415 17416 17417 17418 17419 17420 17421 17422 17423 17424 17425 17426 17427 17428 17429 17430 17431 17432 17433 17434 17435 17436 17437 17438 17439 17440 17441 17442 17443 17444 17445 17446 17447 17448 17449 17450 17451 17452 17453 17454 17455 17456 17457 17458 17459 17460 17461 17462 17463 17464 17465 17466 17467 17468 17469 17470 17471 17472 17473 17474 17475 17476 17477 17478 17479 17480 17481 17482 17483 17484 17485 17486 17487 17488 17489 17490 17491 17492 17493 17494 17495 17496 17497 17498 17499 17500 17501 17502 17503 17504 17505 17506 17507 17508 17509 17510 17511 17512 17513 17514 17515 17516 17517 17518 17519 17520 17521 17522 17523 17524 17525 17526 17527 17528 17529 17530 17531 17532 17533 17534 17535 17536 17537 17538 17539 17540 17541 17542 17543 17544 17545 17546 17547 17548 17549 17550 17551 17552 17553 17554 17555 17556 17557 17558 17559 17560 17561 17562 17563 17564 17565 17566 17567 17568 17569 17570 17571 17572 17573 17574 17575 17576 17577 17578 17579 17580 17581 17582 17583 17584 17585 17586 17587 17588 17589 17590 17591 17592 17593 17594 17595 17596 17597 17598 17599 17600 17601 17602 17603 17604 17605 17606 17607 17608 17609 17610 17611 17612 17613 17614 17615 17616 17617 17618 17619 17620 17621 17622 17623 17624 17625 17626 17627 17628 17629 17630 17631 17632 17633 17634 17635 17636 17637 17638 17639 17640 17641 17642 17643 17644 17645 17646 17647 17648 17649 17650 17651 17652 17653 17654 17655 17656 17657 17658 17659 17660 17661 17662 17663 17664 17665 17666 17667 17668 17669 17670 17671 17672 17673 17674 17675 17676 17677 17678 17679 17680 17681 17682 17683 17684 17685 17686 17687 17688 17689 17690 17691 17692 17693 17694 17695 17696 17697 17698 17699 17700 17701 17702 17703 17704 17705 17706 17707 17708 17709 17710 17711 17712 17713 17714 17715 17716 17717 17718 17719 17720 17721 17722 17723 17724 17725 17726 17727 17728 17729 17730 17731 17732 17733 17734 17735 17736 17737 17738 17739 17740 17741 17742 17743 17744 17745 17746 17747 17748 17749 17750 17751 17752 17753 17754 17755 17756 17757 17758 17759 17760 17761 17762 17763 17764 17765 17766 17767 17768 17769 17770 17771 17772 17773 17774 17775 17776 17777 17778 17779 17780 17781 17782 17783 17784 17785 17786 17787 17788 17789 17790 17791 17792 17793 17794 17795 17796 17797 17798 17799 17800 17801 17802 17803 17804 17805 17806 17807 17808 17809 17810 17811 17812 17813 17814 17815 17816 17817 17818 17819 17820 17821 17822 17823 17824 17825 17826 17827 17828 17829 17830 17831 17832 17833 17834 17835 17836 17837 17838 17839 17840 17841 17842 17843 17844 17845 17846 17847 17848 17849 17850 17851 17852 17853 17854 17855 17856 17857 17858 17859 17860 17861 17862 17863 17864 17865 17866 17867 17868 17869 17870 17871 17872 17873 17874 17875 17876 17877 17878 17879 17880 17881 17882 17883 17884 17885 17886 17887 17888 17889 17890 17891 17892 17893 17894 17895 17896 17897 17898 17899 17900 17901 17902 17903 17904 17905 17906 17907 17908 17909 17910 17911 17912 17913 17914 17915 17916 17917 17918 17919 17920 17921 17922 17923 17924 17925 17926 17927 17928 17929 17930 17931 17932 17933 17934 17935 17936 17937 17938 17939 17940 17941 17942 17943 17944 17945 17946 17947 17948 17949 17950 17951 17952 17953 17954 17955 17956 17957 17958 17959 17960 17961 17962 17963 17964 17965 17966 17967 17968 17969 17970 17971 17972 17973 17974 17975 17976 17977 17978 17979 17980 17981 17982 17983 17984 17985 17986 17987 17988 17989 17990 17991 17992 17993 17994 17995 17996 17997 17998 17999 18000 18001 18002 18003 18004 18005 18006 18007 18008 18009 18010 18011 18012 18013 18014 18015 18016 18017 18018 18019 18020 18021 18022 18023 18024 18025 18026 18027 18028 18029 18030 18031 18032 18033 18034 18035 18036 18037 18038 18039 18040 18041 18042 18043 18044 18045 18046 18047 18048 18049 18050 18051 18052 18053 18054 18055 18056 18057 18058 18059 18060 18061 18062 18063 18064 18065 18066 18067 18068 18069 18070 18071 18072 18073 18074 18075 18076 18077 18078 18079 18080 18081 18082 18083 18084 18085 18086 18087 18088 18089 18090 18091 18092 18093 18094 18095 18096 18097 18098 18099 18100 18101 18102 18103 18104 18105 18106 18107 18108 18109 18110 18111 18112 18113 18114 18115 18116 18117 18118 18119 18120 18121 18122 18123 18124 18125 18126 18127 18128 18129 18130 18131 18132 18133 18134 18135 18136 18137 18138 18139 18140 18141 18142 18143 18144 18145 18146 18147 18148 18149 18150 18151 18152 18153 18154 18155 18156 18157 18158 18159 18160 18161 18162 18163 18164 18165 18166 18167 18168 18169 18170 18171 18172 18173 18174 18175 18176 18177 18178 18179 18180 18181 18182 18183 18184 18185 18186 18187 18188 18189 18190 18191 18192 18193 18194 18195 18196 18197 18198 18199 18200 18201 18202 18203 18204 18205 18206 18207 18208 18209 18210 18211 18212 18213 18214 18215 18216 18217 18218 18219 18220 18221 18222 18223 18224 18225 18226 18227 18228 18229 18230 18231 18232 18233 18234 18235 18236 18237 18238 18239 18240 18241 18242 18243 18244 18245 18246 18247 18248 18249 18250 18251 18252 18253 18254 18255 18256 18257 18258 18259 18260 18261 18262 18263 18264 18265 18266 18267 18268 18269 18270 18271 18272 18273 18274 18275 18276 18277 18278 18279 18280 18281 18282 18283 18284 18285 18286 18287 18288 18289 18290 18291 18292 18293 18294 18295 18296 18297 18298 18299 18300 18301 18302 18303 18304 18305 18306 18307 18308 18309 18310 18311 18312 18313 18314 18315 18316 18317 18318 18319 18320 18321 18322 18323 18324 18325 18326 18327 18328 18329 18330 18331 18332 18333 18334 18335 18336 18337 18338 18339 18340 18341 18342 18343 18344 18345 18346 18347 18348 18349 18350 18351 18352 18353 18354 18355 18356 18357 18358 18359 18360 18361 18362 18363 18364 18365 18366 18367 18368 18369 18370 18371 18372 18373 18374 18375 18376 18377 18378 18379 18380 18381 18382 18383 18384 18385 18386 18387 18388 18389 18390 18391 18392 18393 18394 18395 18396 18397 18398 18399 18400 18401 18402 18403 18404 18405 18406 18407 18408 18409 18410 18411 18412 18413 18414 18415 18416 18417 18418 18419 18420 18421 18422 18423 18424 18425 18426 18427 18428 18429 18430 18431 18432 18433 18434 18435 18436 18437 18438 18439 18440 18441 18442 18443 18444 18445 18446 18447 18448 18449 18450 18451 18452 18453 18454 18455 18456 18457 18458 18459 18460 18461 18462 18463 18464 18465 18466 18467 18468 18469 18470 18471 18472 18473 18474 18475 18476 18477 18478 18479 18480 18481 18482 18483 18484 18485 18486 18487 18488 18489 18490 18491 18492 18493 18494 18495 18496 18497 18498 18499 18500 18501 18502 18503 18504 18505 18506 18507 18508 18509 18510 18511 18512 18513 18514 18515 18516 18517 18518 18519 18520 18521 18522 18523 18524 18525 18526 18527 18528 18529 18530 18531 18532 18533 18534 18535 18536 18537 18538 18539 18540 18541 18542 18543 18544 18545 18546 18547 18548 18549 18550 18551 18552 18553 18554 18555 18556 18557 18558 18559 18560 18561 18562 18563 18564 18565 18566 18567 18568 18569 18570 18571 18572 18573 18574 18575 18576 18577 18578 18579 18580 18581 18582 18583 18584 18585 18586 18587 18588 18589 18590 18591 18592 18593 18594 18595 18596 18597 18598 18599 18600 18601 18602 18603 18604 18605 18606 18607 18608 18609 18610 18611 18612 18613 18614 18615 18616 18617 18618 18619 18620 18621 18622 18623 18624 18625 18626 18627 18628 18629 18630 18631 18632 18633 18634 18635 18636 18637 18638 18639 18640 18641 18642 18643 18644 18645 18646 18647 18648 18649 18650 18651 18652 18653 18654 18655 18656 18657 18658 18659 18660 18661 18662 18663 18664 18665 18666 18667 18668 18669 18670 18671 18672 18673 18674 18675 18676 18677 18678 18679 18680 18681 18682 18683 18684 18685 18686 18687 18688 18689 18690 18691 18692 18693 18694 18695 18696 18697 18698 18699 18700 18701 18702 18703 18704 18705 18706 18707 18708 18709 18710 18711 18712 18713 18714 18715 18716 18717 18718 18719 18720 18721 18722 18723 18724 18725 18726 18727 18728 18729 18730 18731 18732 18733 18734 18735 18736 18737 18738 18739 18740 18741 18742 18743 18744 18745 18746 18747 18748 18749 18750 18751 18752 18753 18754 18755 18756 18757 18758 18759 18760 18761 18762 18763 18764 18765 18766 18767 18768 18769 18770 18771 18772 18773 18774 18775 18776 18777 18778 18779 18780 18781 18782 18783 18784 18785 18786 18787 18788 18789 18790 18791 18792 18793 18794 18795 18796 18797 18798 18799 18800 18801 18802 18803 18804 18805 18806 18807 18808 18809 18810 18811 18812 18813 18814 18815 18816 18817 18818 18819 18820 18821 18822 18823 18824 18825 18826 18827 18828 18829 18830 18831 18832 18833 18834 18835 18836 18837 18838 18839 18840 18841 18842 18843 18844 18845 18846 18847 18848 18849 18850 18851 18852 18853 18854 18855 18856 18857 18858 18859 18860 18861 18862 18863 18864 18865 18866 18867 18868 18869 18870 18871 18872 18873 18874 18875 18876 18877 18878 18879 18880 18881 18882 18883 18884 18885 18886 18887 18888 18889 18890 18891 18892 18893 18894 18895 18896 18897 18898 18899 18900 18901 18902 18903 18904 18905 18906 18907 18908 18909 18910 18911 18912 18913 18914 18915 18916 18917 18918 18919 18920 18921 18922 18923 18924 18925 18926 18927 18928 18929 18930 18931 18932 18933 18934 18935 18936 18937 18938 18939 18940 18941 18942 18943 18944 18945 18946 18947 18948 18949 18950 18951 18952 18953 18954 18955 18956 18957 18958 18959 18960 18961 18962 18963 18964 18965 18966 18967 18968 18969 18970 18971 18972 18973 18974 18975 18976 18977 18978 18979 18980 18981 18982 18983 18984 18985 18986 18987 18988 18989 18990 18991 18992 18993 18994 18995 18996 18997 18998 18999 19000 19001 19002 19003 19004 19005 19006 19007 19008 19009 19010 19011 19012 19013 19014 19015 19016 19017 19018 19019 19020 19021 19022 19023 19024 19025 19026 19027 19028 19029 19030 19031 19032 19033 19034 19035 19036 19037 19038 19039 19040 19041 19042 19043 19044 19045 19046 19047 19048 19049 19050 19051 19052 19053 19054 19055 19056 19057 19058 19059 19060 19061 19062 19063 19064 19065 19066 19067 19068 19069 19070 19071 19072 19073 19074 19075 19076 19077 19078 19079 19080 19081 19082 19083 19084 19085 19086 19087 19088 19089 19090 19091 19092 19093 19094 19095 19096 19097 19098 19099 19100 19101 19102 19103 19104 19105 19106 19107 19108 19109 19110 19111 19112 19113 19114 19115 19116 19117 19118 19119 19120 19121 19122 19123 19124 19125 19126 19127 19128 19129 19130 19131 19132 19133 19134 19135 19136 19137 19138 19139 19140 19141 19142 19143 19144 19145 19146 19147 19148 19149 19150 19151 19152 19153 19154 19155 19156 19157 19158 19159 19160 19161 19162 19163 19164 19165 19166 19167 19168 19169 19170 19171 19172 19173 19174 19175 19176 19177 19178 19179 19180 19181 19182 19183 19184 19185 19186 19187 19188 19189 19190 19191 19192 19193 19194 19195 19196 19197 19198 19199 19200 19201 19202 19203 19204 19205 19206 19207 19208 19209 19210 19211 19212 19213 19214 19215 19216 19217 19218 19219 19220 19221 19222 19223 19224 19225 19226 19227 19228 19229 19230 19231 19232 19233 19234 19235 19236 19237 19238 19239 19240 19241 19242 19243 19244 19245 19246 19247 19248 19249 19250 19251 19252 19253 19254 19255 19256 19257 19258 19259 19260 19261 19262 19263 19264 19265 19266 19267 19268 19269 19270 19271 19272 19273 19274 19275 19276 19277 19278 19279 19280 19281 19282 19283 19284 19285 19286 19287 19288 19289 19290 19291 19292 19293 19294 19295 19296 19297 19298 19299 19300 19301 19302 19303 19304 19305 19306 19307 19308 19309 19310 19311 19312 19313 19314 19315 19316 19317 19318 19319 19320 19321 19322 19323 19324 19325 19326 19327 19328 19329 19330 19331 19332 19333 19334 19335 19336 19337 19338 19339 19340 19341 19342 19343 19344 19345 19346 19347 19348 19349 19350 19351 19352 19353 19354 19355 19356 19357 19358 19359 19360 19361 19362 19363 19364 19365 19366 19367 19368 19369 19370 19371 19372 19373 19374 19375 19376 19377 19378 19379 19380 19381 19382 19383 19384 19385 19386 19387 19388 19389 19390 19391 19392 19393 19394 19395 19396 19397 19398 19399 19400 19401 19402 19403 19404 19405 19406 19407 19408 19409 19410 19411 19412 19413 19414 19415 19416 19417 19418 19419 19420 19421 19422 19423 19424 19425 19426 19427 19428 19429 19430 19431 19432 19433 19434 19435 19436 19437 19438 19439 19440 19441 19442 19443 19444 19445 19446 19447 19448 19449 19450 19451 19452 19453 19454 19455 19456 19457 19458 19459 19460 19461 19462 19463 19464 19465 19466 19467 19468 19469 19470 19471 19472 19473 19474 19475 19476 19477 19478 19479 19480 19481 19482 19483 19484 19485 19486 19487 19488 19489 19490 19491 19492 19493 19494 19495 19496 19497 19498 19499 19500 19501 19502 19503 19504 19505 19506 19507 19508 19509 19510 19511 19512 19513 19514 19515 19516 19517 19518 19519 19520 19521 19522 19523 19524 19525 19526 19527 19528 19529 19530 19531 19532 19533 19534 19535 19536 19537 19538 19539 19540 19541 19542 19543 19544 19545 19546 19547 19548 19549 19550 19551 19552 19553 19554 19555 19556 19557 19558 19559 19560 19561 19562 19563 19564 19565 19566 19567 19568 19569 19570 19571 19572 19573 19574 19575 19576 19577 19578 19579 19580 19581 19582 19583 19584 19585 19586 19587 19588 19589 19590 19591 19592 19593 19594 19595 19596 19597 19598 19599 19600 19601 19602 19603 19604 19605 19606 19607 19608 19609 19610 19611 19612 19613 19614 19615 19616 19617 19618 19619 19620 19621 19622 19623 19624 19625 19626 19627 19628 19629 19630 19631 19632 19633 19634 19635 19636 19637 19638 19639 19640 19641 19642 19643 19644 19645 19646 19647 19648 19649 19650 19651 19652 19653 19654 19655 19656 19657 19658 19659 19660 19661 19662 19663 19664 19665 19666 19667 19668 19669 19670 19671 19672 19673 19674 19675 19676 19677 19678 19679 19680 19681 19682 19683 19684 19685 19686 19687 19688 19689 19690 19691 19692 19693 19694 19695 19696 19697 19698 19699 19700 19701 19702 19703 19704 19705 19706 19707 19708 19709 19710 19711 19712 19713 19714 19715 19716 19717 19718 19719 19720 19721 19722 19723 19724 19725 19726 19727 19728 19729 19730 19731 19732 19733 19734 19735 19736 19737 19738 19739 19740 19741 19742 19743 19744 19745 19746 19747 19748 19749 19750 19751 19752 19753 19754 19755 19756 19757 19758 19759 19760 19761 19762 19763 19764 19765 19766 19767 19768 19769 19770 19771 19772 19773 19774 19775 19776 19777 19778 19779 19780 19781 19782 19783 19784 19785 19786 19787 19788 19789 19790 19791 19792 19793 19794 19795 19796 19797 19798 19799 19800 19801 19802 19803 19804 19805 19806 19807 19808 19809 19810 19811 19812 19813 19814 19815 19816 19817 19818 19819 19820 19821 19822 19823 19824 19825 19826 19827 19828 19829 19830 19831 19832 19833 19834 19835 19836 19837 19838 19839 19840 19841 19842 19843 19844 19845 19846 19847 19848 19849 19850 19851 19852 19853 19854 19855 19856 19857 19858 19859 19860 19861 19862 19863 19864 19865 19866 19867 19868 19869 19870 19871 19872 19873 19874 19875 19876 19877 19878 19879 19880 19881 19882 19883 19884 19885 19886 19887 19888 19889 19890 19891 19892 19893 19894 19895 19896 19897 19898 19899 19900 19901 19902 19903 19904 19905 19906 19907 19908 19909 19910 19911 19912 19913 19914 19915 19916 19917 19918 19919 19920 19921 19922 19923 19924 19925 19926 19927 19928 19929 19930 19931 19932 19933 19934 19935 19936 19937 19938 19939 19940 19941 19942 19943 19944 19945 19946 19947 19948 19949 19950 19951 19952 19953 19954 19955 19956 19957 19958 19959 19960 19961 19962 19963 19964 19965 19966 19967 19968 19969 19970 19971 19972 19973 19974 19975 19976 19977 19978 19979 19980 19981 19982 19983 19984 19985 19986 19987 19988 19989 19990 19991 19992 19993 19994 19995 19996 19997 19998 19999 20000 20001 20002 20003 20004 20005 20006 20007 20008 20009 20010 20011 20012 20013 20014 20015 20016 20017 20018 20019 20020 20021 20022 20023 20024 20025 20026 20027 20028 20029 20030 20031 20032 20033 20034 20035 20036 20037 20038 20039 20040 20041 20042 20043 20044 20045 20046 20047 20048 20049 20050 20051 20052 20053 20054 20055 20056 20057 20058 20059 20060 20061 20062 20063 20064 20065 20066 20067 20068 20069 20070 20071 20072 20073 20074 20075 20076 20077 20078 20079 20080 20081 20082 20083 20084 20085 20086 20087 20088 20089 20090 20091 20092 20093 20094 20095 20096 20097 20098 20099 20100 20101 20102 20103 20104 20105 20106 20107 20108 20109 20110 20111 20112 20113 20114 20115 20116 20117 20118 20119 20120 20121 20122 20123 20124 20125 20126 20127 20128 20129 20130 20131 20132 20133 20134 20135 20136 20137 20138 20139 20140 20141 20142 20143 20144 20145 20146 20147 20148 20149 20150 20151 20152 20153 20154 20155 20156 20157 20158 20159 20160 20161 20162 20163 20164 20165 20166 20167 20168 20169 20170 20171 20172 20173 20174 20175 20176 20177 20178 20179 20180 20181 20182 20183 20184 20185 20186 20187 20188 20189 20190 20191 20192 20193 20194 20195 20196 20197 20198 20199 20200 20201 20202 20203 20204 20205 20206 20207 20208 20209 20210 20211 20212 20213 20214 20215 20216 20217 20218 20219 20220 20221 20222 20223 20224 20225 20226 20227 20228 20229 20230 20231 20232 20233 20234 20235 20236 20237 20238 20239 20240 20241 20242 20243 20244 20245 20246 20247 20248 20249 20250 20251 20252 20253 20254 20255 20256 20257 20258 20259 20260 20261 20262 20263 20264 20265 20266 20267 20268 20269 20270 20271 20272 20273 20274 20275 20276 20277 20278 20279 20280 20281 20282 20283 20284 20285 20286 20287 20288 20289 20290 20291 20292 20293 20294 20295 20296 20297 20298 20299 20300 20301 20302 20303 20304 20305 20306 20307 20308 20309 20310 20311 20312 20313 20314 20315 20316 20317 20318 20319 20320 20321 20322 20323 20324 20325 20326 20327 20328 20329 20330 20331 20332 20333 20334 20335 20336 20337 20338 20339 20340 20341 20342 20343 20344 20345 20346 20347 20348 20349 20350 20351 20352 20353 20354 20355 20356 20357 20358 20359 20360 20361 20362 20363 20364 20365 20366 20367 20368 20369 20370 20371 20372 20373 20374 20375 20376 20377 20378 20379 20380 20381 20382 20383 20384 20385 20386 20387 20388 20389 20390 20391 20392 20393 20394 20395 20396 20397 20398 20399 20400 20401 20402 20403 20404 20405 20406 20407 20408 20409 20410 20411 20412 20413 20414 20415 20416 20417 20418 20419 20420 20421 20422 20423 20424 20425 20426 20427 20428 20429 20430 20431 20432 20433 20434 20435 20436 20437 20438 20439 20440 20441 20442 20443 20444 20445 20446 20447 20448 20449 20450 20451 20452 20453 20454 20455 20456 20457 20458 20459 20460 20461 20462 20463 20464 20465 20466 20467 20468 20469 20470 20471 20472 20473 20474 20475 20476 20477 20478 20479 20480 20481 20482 20483 20484 20485 20486 20487 20488 20489 20490 20491 20492 20493 20494 20495 20496 20497 20498 20499 20500 20501 20502 20503 20504 20505 20506 20507 20508 20509 20510 20511 20512 20513 20514 20515 20516 20517 20518 20519 20520 20521 20522 20523 20524 20525 20526 20527 20528 20529 20530 20531 20532 20533 20534 20535 20536 20537 20538 20539 20540 20541 20542 20543 20544 20545 20546 20547 20548 20549 20550 20551 20552 20553 20554 20555 20556 20557 20558 20559 20560 20561 20562 20563 20564 20565 20566 20567 20568 20569 20570 20571 20572 20573 20574 20575 20576 20577 20578 20579 20580 20581 20582 20583 20584 20585 20586 20587 20588 20589 20590 20591 20592 20593 20594 20595 20596 20597 20598 20599 20600 20601 20602 20603 20604 20605 20606 20607 20608 20609 20610 20611 20612 20613 20614 20615 20616 20617 20618 20619 20620 20621 20622 20623 20624 20625 20626 20627 20628 20629 20630 20631 20632 20633 20634 20635 20636 20637 20638 20639 20640 20641 20642 20643 20644 20645 20646 20647 20648 20649 20650 20651 20652 20653 20654 20655 20656 20657 20658 20659 20660 20661 20662 20663 20664 20665 20666 20667 20668 20669 20670 20671 20672 20673 20674 20675 20676 20677 20678 20679 20680 20681 20682 20683 20684 20685 20686 20687 20688 20689 20690 20691 20692 20693 20694 20695 20696 20697 20698 20699 20700 20701 20702 20703 20704 20705 20706 20707 20708 20709 20710 20711 20712 20713 20714 20715 20716 20717 20718 20719 20720 20721 20722 20723 20724 20725 20726 20727 20728 20729 20730 20731 20732 20733 20734 20735 20736 20737 20738 20739 20740 20741 20742 20743 20744 20745 20746 20747 20748 20749 20750 20751 20752 20753 20754 20755 20756 20757 20758 20759 20760 20761 20762 20763 20764 20765 20766 20767 20768 20769 20770 20771 20772 20773 20774 20775 20776 20777 20778 20779 20780 20781 20782 20783 20784 20785 20786 20787 20788 20789 20790 20791 20792 20793 20794 20795 20796 20797 20798 20799 20800 20801 20802 20803 20804 20805 20806 20807 20808 20809 20810 20811 20812 20813 20814 20815 20816 20817 20818 20819 20820 20821 20822 20823 20824 20825 20826 20827 20828 20829 20830 20831 20832 20833 20834 20835 20836 20837 20838 20839 20840 20841 20842 20843 20844 20845 20846 20847 20848 20849 20850 20851 20852 20853 20854 20855 20856 20857 20858 20859 20860 20861 20862 20863 20864 20865 20866 20867 20868 20869 20870 20871 20872 20873 20874 20875 20876 20877 20878 20879 20880 20881 20882 20883 20884 20885 20886 20887 20888 20889 20890 20891 20892 20893 20894 20895 20896 20897 20898 20899 20900 20901 20902 20903 20904 20905 20906 20907 20908 20909 20910 20911 20912 20913 20914 20915 20916 20917 20918 20919 20920 20921 20922 20923 20924 20925 20926 20927 20928 20929 20930 20931 20932 20933 20934 20935 20936 20937 20938 20939 20940 20941 20942 20943 20944 20945 20946 20947 20948 20949 20950 20951 20952 20953 20954 20955 20956 20957 20958 20959 20960 20961 20962 20963 20964 20965 20966 20967 20968 20969 20970 20971 20972 20973 20974 20975 20976 20977 20978 20979 20980 20981 20982 20983 20984 20985 20986 20987 20988 20989 20990 20991 20992 20993 20994 20995 20996 20997 20998 20999 21000 21001 21002 21003 21004 21005 21006 21007 21008 21009 21010 21011 21012 21013 21014 21015 21016 21017 21018 21019 21020 21021 21022 21023 21024 21025 21026 21027 21028 21029 21030 21031 21032 21033 21034 21035 21036 21037 21038 21039 21040 21041 21042 21043 21044 21045 21046 21047 21048 21049 21050 21051 21052 21053 21054 21055 21056 21057 21058 21059 21060 21061 21062 21063 21064 21065 21066 21067 21068 21069 21070 21071 21072 21073 21074 21075 21076 21077 21078 21079 21080 21081 21082 21083 21084 21085 21086 21087 21088 21089 21090 21091 21092 21093 21094 21095 21096 21097 21098 21099 21100 21101 21102 21103 21104 21105 21106 21107 21108 21109 21110 21111 21112 21113 21114 21115 21116 21117 21118 21119 21120 21121 21122 21123 21124 21125 21126 21127 21128 21129 21130 21131 21132 21133 21134 21135 21136 21137 21138 21139 21140 21141 21142 21143 21144 21145 21146 21147 21148 21149 21150 21151 21152 21153 21154 21155 21156 21157 21158 21159 21160 21161 21162 21163 21164 21165 21166 21167 21168 21169 21170 21171 21172 21173 21174 21175 21176 21177 21178 21179 21180 21181 21182 21183 21184 21185 21186 21187 21188 21189 21190 21191 21192 21193 21194 21195 21196 21197 21198 21199 21200 21201 21202 21203 21204 21205 21206 21207 21208 21209 21210 21211 21212 21213 21214 21215 21216 21217 21218 21219 21220 21221 21222 21223 21224 21225 21226 21227 21228 21229 21230 21231 21232 21233 21234 21235 21236 21237 21238 21239 21240 21241 21242 21243 21244 21245 21246 21247 21248 21249 21250 21251 21252 21253 21254 21255 21256 21257 21258 21259 21260 21261 21262 21263 21264 21265 21266 21267 21268 21269 21270 21271 21272 21273 21274 21275 21276 21277 21278 21279 21280 21281 21282 21283 21284 21285 21286 21287 21288 21289 21290 21291 21292 21293 21294 21295 21296 21297 21298 21299 21300 21301 21302 21303 21304 21305 21306 21307 21308 21309 21310 21311 21312 21313 21314 21315 21316 21317 21318 21319 21320 21321 21322 21323 21324 21325 21326 21327 21328 21329 21330 21331 21332 21333 21334 21335 21336 21337 21338 21339 21340 21341 21342 21343 21344 21345 21346 21347 21348 21349 21350 21351 21352 21353 21354 21355 21356 21357 21358 21359 21360 21361 21362 21363 21364 21365 21366 21367 21368 21369 21370 21371 21372 21373 21374 21375 21376 21377 21378 21379 21380 21381 21382 21383 21384 21385 21386 21387 21388 21389 21390 21391 21392 21393 21394 21395 21396 21397 21398 21399 21400 21401 21402 21403 21404 21405 21406 21407 21408 21409 21410 21411 21412 21413 21414 21415 21416 21417 21418 21419 21420 21421 21422 21423 21424 21425 21426 21427 21428 21429 21430 21431 21432 21433 21434 21435 21436 21437 21438 21439 21440 21441 21442 21443 21444 21445 21446 21447 21448 21449 21450 21451 21452 21453 21454 21455 21456 21457 21458 21459 21460 21461 21462 21463 21464 21465 21466 21467 21468 21469 21470 21471 21472 21473 21474 21475 21476 21477 21478 21479 21480 21481 21482 21483 21484 21485 21486 21487 21488 21489 21490 21491 21492 21493 21494 21495 21496 21497 21498 21499 21500 21501 21502 21503 21504 21505 21506 21507 21508 21509 21510 21511 21512 21513 21514 21515 21516 21517 21518 21519 21520 21521 21522 21523 21524 21525 21526 21527 21528 21529 21530 21531 21532 21533 21534 21535 21536 21537 21538 21539 21540 21541 21542 21543 21544 21545 21546 21547 21548 21549 21550 21551 21552 21553 21554 21555 21556 21557 21558 21559 21560 21561 21562 21563 21564 21565 21566 21567 21568 21569 21570 21571 21572 21573 21574 21575 21576 21577 21578 21579 21580 21581 21582 21583 21584 21585 21586 21587 21588 21589 21590 21591 21592 21593 21594 21595 21596 21597 21598 21599 21600 21601 21602 21603 21604 21605 21606 21607 21608 21609 21610 21611 21612 21613 21614 21615 21616 21617 21618 21619 21620 21621 21622 21623 21624 21625 21626 21627 21628 21629 21630 21631 21632 21633 21634 21635 21636 21637 21638 21639 21640 21641 21642 21643 21644 21645 21646 21647 21648 21649 21650 21651 21652 21653 21654 21655 21656 21657 21658 21659 21660 21661 21662 21663 21664 21665 21666 21667 21668 21669 21670 21671 21672 21673 21674 21675 21676 21677 21678 21679 21680 21681 21682 21683 21684 21685 21686 21687 21688 21689 21690 21691 21692 21693 21694 21695 21696 21697 21698 21699 21700 21701 21702 21703 21704 21705 21706 21707 21708 21709 21710 21711 21712 21713 21714 21715 21716 21717 21718 21719 21720 21721 21722 21723 21724 21725 21726 21727 21728 21729 21730 21731 21732 21733 21734 21735 21736 21737 21738 21739 21740 21741 21742 21743 21744 21745 21746 21747 21748 21749 21750 21751 21752 21753 21754 21755 21756 21757 21758 21759 21760 21761 21762 21763 21764 21765 21766 21767 21768 21769 21770 21771 21772 21773 21774 21775 21776 21777 21778 21779 21780 21781 21782 21783 21784 21785 21786 21787 21788 21789 21790 21791 21792 21793 21794 21795 21796 21797 21798 21799 21800 21801 21802 21803 21804 21805 21806 21807 21808 21809 21810 21811 21812 21813 21814 21815 21816 21817 21818 21819 21820 21821 21822 21823 21824 21825 21826 21827 21828 21829 21830 21831 21832 21833 21834 21835 21836 21837 21838 21839 21840 21841 21842 21843 21844 21845 21846 21847 21848 21849 21850 21851 21852 21853 21854 21855 21856 21857 21858 21859 21860 21861 21862 21863 21864 21865 21866 21867 21868 21869 21870 21871 21872 21873 21874 21875 21876 21877 21878 21879 21880 21881 21882 21883 21884 21885 21886 21887 21888 21889 21890 21891 21892 21893 21894 21895 21896 21897 21898 21899 21900 21901 21902 21903 21904 21905 21906 21907 21908 21909 21910 21911 21912 21913 21914 21915 21916 21917 21918 21919 21920 21921 21922 21923 21924 21925 21926 21927 21928 21929 21930 21931 21932 21933 21934 21935 21936 21937 21938 21939 21940 21941 21942 21943 21944 21945 21946 21947 21948 21949 21950 21951 21952 21953 21954 21955 21956 21957 21958 21959 21960 21961 21962 21963 21964 21965 21966 21967 21968 21969 21970 21971 21972 21973 21974 21975 21976 21977 21978 21979 21980 21981 21982 21983 21984 21985 21986 21987 21988 21989 21990 21991 21992 21993 21994 21995 21996 21997 21998 21999 22000 22001 22002 22003 22004 22005 22006 22007 22008 22009 22010 22011 22012 22013 22014 22015 22016 22017 22018 22019 22020 22021 22022 22023 22024 22025 22026 22027 22028 22029 22030 22031 22032 22033 22034 22035 22036 22037 22038 22039 22040 22041 22042 22043 22044 22045 22046 22047 22048 22049 22050 22051 22052 22053 22054 22055 22056 22057 22058 22059 22060 22061 22062 22063 22064 22065 22066 22067 22068 22069 22070 22071 22072 22073 22074 22075 22076 22077 22078 22079 22080 22081 22082 22083 22084 22085 22086 22087 22088 22089 22090 22091 22092 22093 22094 22095 22096 22097 22098 22099 22100 22101 22102 22103 22104 22105 22106 22107 22108 22109 22110 22111 22112 22113 22114 22115 22116 22117 22118 22119 22120 22121 22122 22123 22124 22125 22126 22127 22128 22129 22130 22131 22132 22133 22134 22135 22136 22137 22138 22139 22140 22141 22142 22143 22144 22145 22146 22147 22148 22149 22150 22151 22152 22153 22154 22155 22156 22157 22158 22159 22160 22161 22162 22163 22164 22165 22166 22167 22168 22169 22170 22171 22172 22173 22174 22175 22176 22177 22178 22179 22180 22181 22182 22183 22184 22185 22186 22187 22188 22189 22190 22191 22192 22193 22194 22195 22196 22197 22198 22199 22200 22201 22202 22203 22204 22205 22206 22207 22208 22209 22210 22211 22212 22213 22214 22215 22216 22217 22218 22219 22220 22221 22222 22223 22224 22225 22226 22227 22228 22229 22230 22231 22232 22233 22234 22235 22236 22237 22238 22239 22240 22241 22242 22243 22244 22245 22246 22247 22248 22249 22250 22251 22252 22253 22254 22255 22256 22257 22258 22259 22260 22261 22262 22263 22264 22265 22266 22267 22268 22269 22270 22271 22272 22273 22274 22275 22276 22277 22278 22279 22280 22281 22282 22283 22284 22285 22286 22287 22288 22289 22290 22291 22292 22293 22294 22295 22296 22297 22298 22299 22300 22301 22302 22303 22304 22305 22306 22307 22308 22309 22310 22311 22312 22313 22314 22315 22316 22317 22318 22319 22320 22321 22322 22323 22324 22325 22326 22327 22328 22329 22330 22331 22332 22333 22334 22335 22336 22337 22338 22339 22340 22341 22342 22343 22344 22345 22346 22347 22348 22349 22350 22351 22352 22353 22354 22355 22356 22357 22358 22359 22360 22361 22362 22363 22364 22365 22366 22367 22368 22369 22370 22371 22372 22373 22374 22375 22376 22377 22378 22379 22380 22381 22382 22383 22384 22385 22386 22387 22388 22389 22390 22391 22392 22393 22394 22395 22396 22397 22398 22399 22400 22401 22402 22403 22404 22405 22406 22407 22408 22409 22410 22411 22412 22413 22414 22415 22416 22417 22418 22419 22420 22421 22422 22423 22424 22425 22426 22427 22428 22429 22430 22431 22432 22433 22434 22435 22436 22437 22438 22439 22440 22441 22442 22443 22444 22445 22446 22447 22448 22449 22450 22451 22452 22453 22454 22455 22456 22457 22458 22459 22460 22461 22462 22463 22464 22465 22466 22467 22468 22469 22470 22471 22472 22473 22474 22475 22476 22477 22478 22479 22480 22481 22482 22483 22484 22485 22486 22487 22488 22489 22490 22491 22492 22493 22494 22495 22496 22497 22498 22499 22500 22501 22502 22503 22504 22505 22506 22507 22508 22509 22510 22511 22512 22513 22514 22515 22516 22517 22518 22519 22520 22521 22522 22523 22524 22525 22526 22527 22528 22529 22530 22531 22532 22533 22534 22535 22536 22537 22538 22539 22540 22541 22542 22543 22544 22545 22546 22547 22548 22549 22550 22551 22552 22553 22554 22555 22556 22557 22558 22559 22560 22561 22562 22563 22564 22565 22566 22567 22568 22569 22570 22571 22572 22573 22574 22575 22576 22577 22578 22579 22580 22581 22582 22583 22584 22585 22586 22587 22588 22589 22590 22591 22592 22593 22594 22595 22596 22597 22598 22599 22600 22601 22602 22603 22604 22605 22606 22607 22608 22609 22610 22611 22612 22613 22614 22615 22616 22617 22618 22619 22620 22621 22622 22623 22624 22625 22626 22627 22628 22629 22630 22631 22632 22633 22634 22635 22636 22637 22638 22639 22640 22641 22642 22643 22644 22645 22646 22647 22648 22649 22650 22651 22652 22653 22654 22655 22656 22657 22658 22659 22660 22661 22662 22663 22664 22665 22666 22667 22668 22669 22670 22671 22672 22673 22674 22675 22676 22677 22678 22679 22680 22681 22682 22683 22684 22685 22686 22687 22688 22689 22690 22691 22692 22693 22694 22695 22696 22697 22698 22699 22700 22701 22702 22703 22704 22705 22706 22707 22708 22709 22710 22711 22712 22713 22714 22715 22716 22717 22718 22719 22720 22721 22722 22723 22724 22725 22726 22727 22728 22729 22730 22731 22732 22733 22734 22735 22736 22737 22738 22739 22740 22741 22742 22743 22744 22745 22746 22747 22748 22749 22750 22751 22752 22753 22754 22755 22756 22757 22758 22759 22760 22761 22762 22763 22764 22765 22766 22767 22768 22769 22770 22771 22772 22773 22774 22775 22776 22777 22778 22779 22780 22781 22782 22783 22784 22785 22786 22787 22788 22789 22790 22791 22792 22793 22794 22795 22796 22797 22798 22799 22800 22801 22802 22803 22804 22805 22806 22807 22808 22809 22810 22811 22812 22813 22814 22815 22816 22817 22818 22819 22820 22821 22822 22823 22824 22825 22826 22827 22828 22829 22830 22831 22832 22833 22834 22835 22836 22837 22838 22839 22840 22841 22842 22843 22844 22845 22846 22847 22848 22849 22850 22851 22852 22853 22854 22855 22856 22857 22858 22859 22860 22861 22862 22863 22864 22865 22866 22867 22868 22869 22870 22871 22872 22873 22874 22875 22876 22877 22878 22879 22880 22881 22882 22883 22884 22885 22886 22887 22888 22889 22890 22891 22892 22893 22894 22895 22896 22897 22898 22899 22900 22901 22902 22903 22904 22905 22906 22907 22908 22909 22910 22911 22912 22913 22914 22915 22916 22917 22918 22919 22920 22921 22922 22923 22924 22925 22926 22927 22928 22929 22930 22931 22932 22933 22934 22935 22936 22937 22938 22939 22940 22941 22942 22943 22944 22945 22946 22947 22948 22949 22950 22951 22952 22953 22954 22955 22956 22957 22958 22959 22960 22961 22962 22963 22964 22965 22966 22967 22968 22969 22970 22971 22972 22973 22974 22975 22976 22977 22978 22979 22980 22981 22982 22983 22984 22985 22986 22987 22988 22989 22990 22991 22992 22993 22994 22995 22996 22997 22998 22999 23000 23001 23002 23003 23004 23005 23006 23007 23008 23009 23010 23011 23012 23013 23014 23015 23016 23017 23018 23019 23020 23021 23022 23023 23024 23025 23026 23027 23028 23029 23030 23031 23032 23033 23034 23035 23036 23037 23038 23039 23040 23041 23042 23043 23044 23045 23046 23047 23048 23049 23050 23051 23052 23053 23054 23055 23056 23057 23058 23059 23060 23061 23062 23063 23064 23065 23066 23067 23068 23069 23070 23071 23072 23073 23074 23075 23076 23077 23078 23079 23080 23081 23082 23083 23084 23085 23086 23087 23088 23089 23090 23091 23092 23093 23094 23095 23096 23097 23098 23099 23100 23101 23102 23103 23104 23105 23106 23107 23108 23109 23110 23111 23112 23113 23114 23115 23116 23117 23118 23119 23120 23121 23122 23123 23124 23125 23126 23127 23128 23129 23130 23131 23132 23133 23134 23135 23136 23137 23138 23139 23140 23141 23142 23143 23144 23145 23146 23147 23148 23149 23150 23151 23152 23153 23154 23155 23156 23157 23158 23159 23160 23161 23162 23163 23164 23165 23166 23167 23168 23169 23170 23171 23172 23173 23174 23175 23176 23177 23178 23179 23180 23181 23182 23183 23184 23185 23186 23187 23188 23189 23190 23191 23192 23193 23194 23195 23196 23197 23198 23199 23200 23201 23202 23203 23204 23205 23206 23207 23208 23209 23210 23211 23212 23213 23214 23215 23216 23217 23218 23219 23220 23221 23222 23223 23224 23225 23226 23227 23228 23229 23230 23231 23232 23233 23234 23235 23236 23237 23238 23239 23240 23241 23242 23243 23244 23245 23246 23247 23248 23249 23250 23251 23252 23253 23254 23255 23256 23257 23258 23259 23260 23261 23262 23263 23264 23265 23266 23267 23268 23269 23270 23271 23272 23273 23274 23275 23276 23277 23278 23279 23280 23281 23282 23283 23284 23285 23286 23287 23288 23289 23290 23291 23292 23293 23294 23295 23296 23297 23298 23299 23300 23301 23302 23303 23304 23305 23306 23307 23308 23309 23310 23311 23312 23313 23314 23315 23316 23317 23318 23319 23320 23321 23322 23323 23324 23325 23326 23327 23328 23329 23330 23331 23332 23333 23334 23335 23336 23337 23338 23339 23340 23341 23342 23343 23344 23345 23346 23347 23348 23349 23350 23351 23352 23353 23354 23355 23356 23357 23358 23359 23360 23361 23362 23363 23364 23365 23366 23367 23368 23369 23370 23371 23372 23373 23374 23375 23376 23377 23378 23379 23380 23381 23382 23383 23384 23385 23386 23387 23388 23389 23390 23391 23392 23393 23394 23395 23396 23397 23398 23399 23400 23401 23402 23403 23404 23405 23406 23407 23408 23409 23410 23411 23412 23413 23414 23415 23416 23417 23418 23419 23420 23421 23422 23423 23424 23425 23426 23427 23428 23429 23430 23431 23432 23433 23434 23435 23436 23437 23438 23439 23440 23441 23442 23443 23444 23445 23446 23447 23448 23449 23450 23451 23452 23453 23454 23455 23456 23457 23458 23459 23460 23461 23462 23463 23464 23465 23466 23467 23468 23469 23470 23471 23472 23473 23474 23475 23476 23477 23478 23479 23480 23481 23482 23483 23484 23485 23486 23487 23488 23489 23490 23491 23492 23493 23494 23495 23496 23497 23498 23499 23500 23501 23502 23503 23504 23505 23506 23507 23508 23509 23510 23511 23512 23513 23514 23515 23516 23517 23518 23519 23520 23521 23522 23523 23524 23525 23526 23527 23528 23529 23530 23531 23532 23533 23534 23535 23536 23537 23538 23539 23540 23541 23542 23543 23544 23545 23546 23547 23548 23549 23550 23551 23552 23553 23554 23555 23556 23557 23558 23559 23560 23561 23562 23563 23564 23565 23566 23567 23568 23569 23570 23571 23572 23573 23574 23575 23576 23577 23578 23579 23580 23581 23582 23583 23584 23585 23586 23587 23588 23589 23590 23591 23592 23593 23594 23595 23596 23597 23598 23599 23600 23601 23602 23603 23604 23605 23606 23607 23608 23609 23610 23611 23612 23613 23614 23615 23616 23617 23618 23619 23620 23621 23622 23623 23624 23625 23626 23627 23628 23629 23630 23631 23632 23633 23634 23635 23636 23637 23638 23639 23640 23641 23642 23643 23644 23645 23646 23647 23648 23649 23650 23651 23652 23653 23654 23655 23656 23657 23658 23659 23660 23661 23662 23663 23664 23665 23666 23667 23668 23669 23670 23671 23672 23673 23674 23675 23676 23677 23678 23679 23680 23681 23682 23683 23684 23685 23686 23687 23688 23689 23690 23691 23692 23693 23694 23695 23696 23697 23698 23699 23700 23701 23702 23703 23704 23705 23706 23707 23708 23709 23710 23711 23712 23713 23714 23715 23716 23717 23718 23719 23720 23721 23722 23723 23724 23725 23726 23727 23728 23729 23730 23731 23732 23733 23734 23735 23736 23737 23738 23739 23740 23741 23742 23743 23744 23745 23746 23747 23748 23749 23750 23751 23752 23753 23754 23755 23756 23757 23758 23759 23760 23761 23762 23763 23764 23765 23766 23767 23768 23769 23770 23771 23772 23773 23774 23775 23776 23777 23778 23779 23780 23781 23782 23783 23784 23785 23786 23787 23788 23789 23790 23791 23792 23793 23794 23795 23796 23797 23798 23799 23800 23801 23802 23803 23804 23805 23806 23807 23808 23809 23810 23811 23812 23813 23814 23815 23816 23817 23818 23819 23820 23821 23822 23823 23824 23825 23826 23827 23828 23829 23830 23831 23832 23833 23834 23835 23836 23837 23838 23839 23840 23841 23842 23843 23844 23845 23846 23847 23848 23849 23850 23851 23852 23853 23854 23855 23856 23857 23858 23859 23860 23861 23862 23863 23864 23865 23866 23867 23868 23869 23870 23871 23872 23873 23874 23875 23876 23877 23878 23879 23880 23881 23882 23883 23884 23885 23886 23887 23888 23889 23890 23891 23892 23893 23894 23895 23896 23897 23898 23899 23900 23901 23902 23903 23904 23905 23906 23907 23908 23909 23910 23911 23912 23913 23914 23915 23916 23917 23918 23919 23920 23921 23922 23923 23924 23925 23926 23927 23928 23929 23930 23931 23932 23933 23934 23935 23936 23937 23938 23939 23940 23941 23942 23943 23944 23945 23946 23947 23948 23949 23950 23951 23952 23953 23954 23955 23956 23957 23958 23959 23960 23961 23962 23963 23964 23965 23966 23967 23968 23969 23970 23971 23972 23973 23974 23975 23976 23977 23978 23979 23980 23981 23982 23983 23984 23985 23986 23987 23988 23989 23990 23991 23992 23993 23994 23995 23996 23997 23998 23999 24000 24001 24002 24003 24004 24005 24006 24007 24008 24009 24010 24011 24012 24013 24014 24015 24016 24017 24018 24019 24020 24021 24022 24023 24024 24025 24026 24027 24028 24029 24030 24031 24032 24033 24034 24035 24036 24037 24038 24039 24040 24041 24042 24043 24044 24045 24046 24047 24048 24049 24050 24051 24052 24053 24054 24055 24056 24057 24058 24059 24060 24061 24062 24063 24064 24065 24066 24067 24068 24069 24070 24071 24072 24073 24074 24075 24076 24077 24078 24079 24080 24081 24082 24083 24084 24085 24086 24087 24088 24089 24090 24091 24092 24093 24094 24095 24096 24097 24098 24099 24100 24101 24102 24103 24104 24105 24106 24107 24108 24109 24110 24111 24112 24113 24114 24115 24116 24117 24118 24119 24120 24121 24122 24123 24124 24125 24126 24127 24128 24129 24130 24131 24132 24133 24134 24135 24136 24137 24138 24139 24140 24141 24142 24143 24144 24145 24146 24147 24148 24149 24150 24151 24152 24153 24154 24155 24156 24157 24158 24159 24160 24161 24162 24163 24164 24165 24166 24167 24168 24169 24170 24171 24172 24173 24174 24175 24176 24177 24178 24179 24180 24181 24182 24183 24184 24185 24186 24187 24188 24189 24190 24191 24192 24193 24194 24195 24196 24197 24198 24199 24200 24201 24202 24203 24204 24205 24206 24207 24208 24209 24210 24211 24212 24213 24214 24215 24216 24217 24218 24219 24220 24221 24222 24223 24224 24225 24226 24227 24228 24229 24230 24231 24232 24233 24234 24235 24236 24237 24238 24239 24240 24241 24242 24243 24244 24245 24246 24247 24248 24249 24250 24251 24252 24253 24254 24255 24256 24257 24258 24259 24260 24261 24262 24263 24264 24265 24266 24267 24268 24269 24270 24271 24272 24273 24274 24275 24276 24277 24278 24279 24280 24281 24282 24283 24284 24285 24286 24287 24288 24289 24290 24291 24292 24293 24294 24295 24296 24297 24298 24299 24300 24301 24302 24303 24304 24305 24306 24307 24308 24309 24310 24311 24312 24313 24314 24315 24316 24317 24318 24319 24320 24321 24322 24323 24324 24325 24326 24327 24328 24329 24330 24331 24332 24333 24334 24335 24336 24337 24338 24339 24340 24341 24342 24343 24344 24345 24346 24347 24348 24349 24350 24351 24352 24353 24354 24355 24356 24357 24358 24359 24360 24361 24362 24363 24364 24365 24366 24367 24368 24369 24370 24371 24372 24373 24374 24375 24376 24377 24378 24379 24380 24381 24382 24383 24384 24385 24386 24387 24388 24389 24390 24391 24392 24393 24394 24395 24396 24397 24398 24399 24400 24401 24402 24403 24404 24405 24406 24407 24408 24409 24410 24411 24412 24413 24414 24415 24416 24417 24418 24419 24420 24421 24422 24423 24424 24425 24426 24427 24428 24429 24430 24431 24432 24433 24434 24435 24436 24437 24438 24439 24440 24441 24442 24443 24444 24445 24446 24447 24448 24449 24450 24451 24452 24453 24454 24455 24456 24457 24458 24459 24460 24461 24462 24463 24464 24465 24466 24467 24468 24469 24470 24471 24472 24473 24474 24475 24476 24477 24478 24479 24480 24481 24482 24483 24484 24485 24486 24487 24488 24489 24490 24491 24492 24493 24494 24495 24496 24497 24498 24499 24500 24501 24502 24503 24504 24505 24506 24507 24508 24509 24510 24511 24512 24513 24514 24515 24516 24517 24518 24519 24520 24521 24522 24523 24524 24525 24526 24527 24528 24529 24530 24531 24532 24533 24534 24535 24536 24537 24538 24539 24540 24541 24542 24543 24544 24545 24546 24547 24548 24549 24550 24551 24552 24553 24554 24555 24556 24557 24558 24559 24560 24561 24562 24563 24564 24565 24566 24567 24568 24569 24570 24571 24572 24573 24574 24575 24576 24577 24578 24579 24580 24581 24582 24583 24584 24585 24586 24587 24588 24589 24590 24591 24592 24593 24594 24595 24596 24597 24598 24599 24600 24601 24602 24603 24604 24605 24606 24607 24608 24609 24610 24611 24612 24613 24614 24615 24616 24617 24618 24619 24620 24621 24622 24623 24624 24625 24626 24627 24628 24629 24630 24631 24632 24633 24634 24635 24636 24637 24638 24639 24640 24641 24642 24643 24644 24645 24646 24647 24648 24649 24650 24651 24652 24653 24654 24655 24656 24657 24658 24659 24660 24661 24662 24663 24664 24665 24666 24667 24668 24669 24670 24671 24672 24673 24674 24675 24676 24677 24678 24679 24680 24681 24682 24683 24684 24685 24686 24687 24688 24689 24690 24691 24692 24693 24694 24695 24696 24697 24698 24699 24700 24701 24702 24703 24704 24705 24706 24707 24708 24709 24710 24711 24712 24713 24714 24715 24716 24717 24718 24719 24720 24721 24722 24723 24724 24725 24726 24727 24728 24729 24730 24731 24732 24733 24734 24735 24736 24737 24738 24739 24740 24741 24742 24743 24744 24745 24746 24747 24748 24749 24750 24751 24752 24753 24754 24755 24756 24757 24758 24759 24760 24761 24762 24763 24764 24765 24766 24767 24768 24769 24770 24771 24772 24773 24774 24775 24776 24777 24778 24779 24780 24781 24782 24783 24784 24785 24786 24787 24788 24789 24790 24791 24792 24793 24794 24795 24796 24797 24798 24799 24800 24801 24802 24803 24804 24805 24806 24807 24808 24809 24810 24811 24812 24813 24814 24815 24816 24817 24818 24819 24820 24821 24822 24823 24824 24825 24826 24827 24828 24829 24830 24831 24832 24833 24834 24835 24836 24837 24838 24839 24840 24841 24842 24843 24844 24845 24846 24847 24848 24849 24850 24851 24852 24853 24854 24855 24856 24857 24858 24859 24860 24861 24862 24863 24864 24865 24866 24867 24868 24869 24870 24871 24872 24873 24874 24875 24876 24877 24878 24879 24880 24881 24882 24883 24884 24885 24886 24887 24888 24889 24890 24891 24892 24893 24894 24895 24896 24897 24898 24899 24900 24901 24902 24903 24904 24905 24906 24907 24908 24909 24910 24911 24912 24913 24914 24915 24916 24917 24918 24919 24920 24921 24922 24923 24924 24925 24926 24927 24928 24929 24930 24931 24932 24933 24934 24935 24936 24937 24938 24939 24940 24941 24942 24943 24944 24945 24946 24947 24948 24949 24950 24951 24952 24953 24954 24955 24956 24957 24958 24959 24960 24961 24962 24963 24964 24965 24966 24967 24968 24969 24970 24971 24972 24973 24974 24975 24976 24977 24978 24979 24980 24981 24982 24983 24984 24985 24986 24987 24988 24989 24990 24991 24992 24993 24994 24995 24996 24997 24998 24999 25000 25001 25002 25003 25004 25005 25006 25007 25008 25009 25010 25011 25012 25013 25014 25015 25016 25017 25018 25019 25020 25021 25022 25023 25024 25025 25026 25027 25028 25029 25030 25031 25032 25033 25034 25035 25036 25037 25038 25039 25040 25041 25042 25043 25044 25045 25046 25047 25048 25049 25050 25051 25052 25053 25054 25055 25056 25057 25058 25059 25060 25061 25062 25063 25064 25065 25066 25067 25068 25069 25070 25071 25072 25073 25074 25075 25076 25077 25078 25079 25080 25081 25082 25083 25084 25085 25086 25087 25088 25089 25090 25091 25092 25093 25094 25095 25096 25097 25098 25099 25100 25101 25102 25103 25104 25105 25106 25107 25108 25109 25110 25111 25112 25113 25114 25115 25116 25117 25118 25119 25120 25121 25122 25123 25124 25125 25126 25127 25128 25129 25130 25131 25132 25133 25134 25135 25136 25137 25138 25139 25140 25141 25142 25143 25144 25145 25146 25147 25148 25149 25150 25151 25152 25153 25154 25155 25156 25157 25158 25159 25160 25161 25162 25163 25164 25165 25166 25167 25168 25169 25170 25171 25172 25173 25174 25175 25176 25177 25178 25179 25180 25181 25182 25183 25184 25185 25186 25187 25188 25189 25190 25191 25192 25193 25194 25195 25196 25197 25198 25199 25200 25201 25202 25203 25204 25205 25206 25207 25208 25209 25210 25211 25212 25213 25214 25215 25216 25217 25218 25219 25220 25221 25222 25223 25224 25225 25226 25227 25228 25229 25230 25231 25232 25233 25234 25235 25236 25237 25238 25239 25240 25241 25242 25243 25244 25245 25246 25247 25248 25249 25250 25251 25252 25253 25254 25255 25256 25257 25258 25259 25260 25261 25262 25263 25264 25265 25266 25267 25268 25269 25270 25271 25272 25273 25274 25275 25276 25277 25278 25279 25280 25281 25282 25283 25284 25285 25286 25287 25288 25289 25290 25291 25292 25293 25294 25295 25296 25297 25298 25299 25300 25301 25302 25303 25304 25305 25306 25307 25308 25309 25310 25311 25312 25313 25314 25315 25316 25317 25318 25319 25320 25321 25322 25323 25324 25325 25326 25327 25328 25329 25330 25331 25332 25333 25334 25335 25336 25337 25338 25339 25340 25341 25342 25343 25344 25345 25346 25347 25348 25349 25350 25351 25352 25353 25354 25355 25356 25357 25358 25359 25360 25361 25362 25363 25364 25365 25366 25367 25368 25369 25370 25371 25372 25373 25374 25375 25376 25377 25378 25379 25380 25381 25382 25383 25384 25385 25386 25387 25388 25389 25390 25391 25392 25393 25394 25395 25396 25397 25398 25399 25400 25401 25402 25403 25404 25405 25406 25407 25408 25409 25410 25411 25412 25413 25414 25415 25416 25417 25418 25419 25420 25421 25422 25423 25424 25425 25426 25427 25428 25429 25430 25431 25432 25433 25434 25435 25436 25437 25438 25439 25440 25441 25442 25443 25444 25445 25446 25447 25448 25449 25450 25451 25452 25453 25454 25455 25456 25457 25458 25459 25460 25461 25462 25463 25464 25465 25466 25467 25468 25469 25470 25471 25472 25473 25474 25475 25476 25477 25478 25479 25480 25481 25482 25483 25484 25485 25486 25487 25488 25489 25490 25491 25492 25493 25494 25495 25496 25497 25498 25499 25500 25501 25502 25503 25504 25505 25506 25507 25508 25509 25510 25511 25512 25513 25514 25515 25516 25517 25518 25519 25520 25521 25522 25523 25524 25525 25526 25527 25528 25529 25530 25531 25532 25533 25534 25535 25536 25537 25538 25539 25540 25541 25542 25543 25544 25545 25546 25547 25548 25549 25550 25551 25552 25553 25554 25555 25556 25557 25558 25559 25560 25561 25562 25563 25564 25565 25566 25567 25568 25569 25570 25571 25572 25573 25574 25575 25576 25577 25578 25579 25580 25581 25582 25583 25584 25585 25586 25587 25588 25589 25590 25591 25592 25593 25594 25595 25596 25597 25598 25599 25600 25601 25602 25603 25604 25605 25606 25607 25608 25609 25610 25611 25612 25613 25614 25615 25616 25617 25618 25619 25620 25621 25622 25623 25624 25625 25626 25627 25628 25629 25630 25631 25632 25633 25634 25635 25636 25637 25638 25639 25640 25641 25642 25643 25644 25645 25646 25647 25648 25649 25650 25651 25652 25653 25654 25655 25656 25657 25658 25659 25660 25661 25662 25663 25664 25665 25666 25667 25668 25669 25670 25671 25672 25673 25674 25675 25676 25677 25678 25679 25680 25681 25682 25683 25684 25685 25686 25687 25688 25689 25690 25691 25692 25693 25694 25695 25696 25697 25698 25699 25700 25701 25702 25703 25704 25705 25706 25707 25708 25709 25710 25711 25712 25713 25714 25715 25716 25717 25718 25719 25720 25721 25722 25723 25724 25725 25726 25727 25728 25729 25730 25731 25732 25733 25734 25735 25736 25737 25738 25739 25740 25741 25742 25743 25744 25745 25746 25747 25748 25749 25750 25751 25752 25753 25754 25755 25756 25757 25758 25759 25760 25761 25762 25763 25764 25765 25766 25767 25768 25769 25770 25771 25772 25773 25774 25775 25776 25777 25778 25779 25780 25781 25782 25783 25784 25785 25786 25787 25788 25789 25790 25791 25792 25793 25794 25795 25796 25797 25798 25799 25800 25801 25802 25803 25804 25805 25806 25807 25808 25809 25810 25811 25812 25813 25814 25815 25816 25817 25818 25819 25820 25821 25822 25823 25824 25825 25826 25827 25828 25829 25830 25831 25832 25833 25834 25835 25836 25837 25838 25839 25840 25841 25842 25843 25844 25845 25846 25847 25848 25849 25850 25851 25852 25853 25854 25855 25856 25857 25858 25859 25860 25861 25862 25863 25864 25865 25866 25867 25868 25869 25870 25871 25872 25873 25874 25875 25876 25877 25878 25879 25880 25881 25882 25883 25884 25885 25886 25887 25888 25889 25890 25891 25892 25893 25894 25895 25896 25897 25898 25899 25900 25901 25902 25903 25904 25905 25906 25907 25908 25909 25910 25911 25912 25913 25914 25915 25916 25917 25918 25919 25920 25921 25922 25923 25924 25925 25926 25927 25928 25929 25930 25931 25932 25933 25934 25935 25936 25937 25938 25939 25940 25941 25942 25943 25944 25945 25946 25947 25948 25949 25950 25951 25952 25953 25954 25955 25956 25957 25958 25959 25960 25961 25962 25963 25964 25965 25966 25967 25968 25969 25970 25971 25972 25973 25974 25975 25976 25977 25978 25979 25980 25981 25982 25983 25984 25985 25986 25987 25988 25989 25990 25991 25992 25993 25994 25995 25996 25997 25998 25999 26000 26001 26002 26003 26004 26005 26006 26007 26008 26009 26010 26011 26012 26013 26014 26015 26016 26017 26018 26019 26020 26021 26022 26023 26024 26025 26026 26027 26028 26029 26030 26031 26032 26033 26034 26035 26036 26037 26038 26039 26040 26041 26042 26043 26044 26045 26046 26047 26048 26049 26050 26051 26052 26053 26054 26055 26056 26057 26058 26059 26060 26061 26062 26063 26064 26065 26066 26067 26068 26069 26070 26071 26072 26073 26074 26075 26076 26077 26078 26079 26080 26081 26082 26083 26084 26085 26086 26087 26088 26089 26090 26091 26092 26093 26094 26095 26096 26097 26098 26099 26100 26101 26102 26103 26104 26105 26106 26107 26108 26109 26110 26111 26112 26113 26114 26115 26116 26117 26118 26119 26120 26121 26122 26123 26124 26125 26126 26127 26128 26129 26130 26131 26132 26133 26134 26135 26136 26137 26138 26139 26140 26141 26142 26143 26144 26145 26146 26147 26148 26149 26150 26151 26152 26153 26154 26155 26156 26157 26158 26159 26160 26161 26162 26163 26164 26165 26166 26167 26168 26169 26170 26171 26172 26173 26174 26175 26176 26177 26178 26179 26180 26181 26182 26183 26184 26185 26186 26187 26188 26189 26190 26191 26192 26193 26194 26195 26196 26197 26198 26199 26200 26201 26202 26203 26204 26205 26206 26207 26208 26209 26210 26211 26212 26213 26214 26215 26216 26217 26218 26219 26220 26221 26222 26223 26224 26225 26226 26227 26228 26229 26230 26231 26232 26233 26234 26235 26236 26237 26238 26239 26240 26241 26242 26243 26244 26245 26246 26247 26248 26249 26250 26251 26252 26253 26254 26255 26256 26257 26258 26259 26260 26261 26262 26263 26264 26265 26266 26267 26268 26269 26270 26271 26272 26273 26274 26275 26276 26277 26278 26279 26280 26281 26282 26283 26284 26285 26286 26287 26288 26289 26290 26291 26292 26293 26294 26295 26296 26297 26298 26299 26300 26301 26302 26303 26304 26305 26306 26307 26308 26309 26310 26311 26312 26313 26314 26315 26316 26317 26318 26319 26320 26321 26322 26323 26324 26325 26326 26327 26328 26329 26330 26331 26332 26333 26334 26335 26336 26337 26338 26339 26340 26341 26342 26343 26344 26345 26346 26347 26348 26349 26350 26351 26352 26353 26354 26355 26356 26357 26358 26359 26360 26361 26362 26363 26364 26365 26366 26367 26368 26369 26370 26371 26372 26373 26374 26375 26376 26377 26378 26379 26380 26381 26382 26383 26384 26385 26386 26387 26388 26389 26390 26391 26392 26393 26394 26395 26396 26397 26398 26399 26400 26401 26402 26403 26404 26405 26406 26407 26408 26409 26410 26411 26412 26413 26414 26415 26416 26417 26418 26419 26420 26421 26422 26423 26424 26425 26426 26427 26428 26429 26430 26431 26432 26433 26434 26435 26436 26437 26438 26439 26440 26441 26442 26443 26444 26445 26446 26447 26448 26449 26450 26451 26452 26453 26454 26455 26456 26457 26458 26459 26460 26461 26462 26463 26464 26465 26466 26467 26468 26469 26470 26471 26472 26473 26474 26475 26476 26477 26478 26479 26480 26481 26482 26483 26484 26485 26486 26487 26488 26489 26490 26491 26492 26493 26494 26495 26496 26497 26498 26499 26500 26501 26502 26503 26504 26505 26506 26507 26508 26509 26510 26511 26512 26513 26514 26515 26516 26517 26518 26519 26520 26521 26522 26523 26524 26525 26526 26527 26528 26529 26530 26531 26532 26533 26534 26535 26536 26537 26538 26539 26540 26541 26542 26543 26544 26545 26546 26547 26548 26549 26550 26551 26552 26553 26554 26555 26556 26557 26558 26559 26560 26561 26562 26563 26564 26565 26566 26567 26568 26569 26570 26571 26572 26573 26574 26575 26576 26577 26578 26579 26580 26581 26582 26583 26584 26585 26586 26587 26588 26589 26590 26591 26592 26593 26594 26595 26596 26597 26598 26599 26600 26601 26602 26603 26604 26605 26606 26607 26608 26609 26610 26611 26612 26613 26614 26615 26616 26617 26618 26619 26620 26621 26622 26623 26624 26625 26626 26627 26628 26629 26630 26631 26632 26633 26634 26635 26636 26637 26638 26639 26640 26641 26642 26643 26644 26645 26646 26647 26648 26649 26650 26651 26652 26653 26654 26655 26656 26657 26658 26659 26660 26661 26662 26663 26664 26665 26666 26667 26668 26669 26670 26671 26672 26673 26674 26675 26676 26677 26678 26679 26680 26681 26682 26683 26684 26685 26686 26687 26688 26689 26690 26691 26692 26693 26694 26695 26696 26697 26698 26699 26700 26701 26702 26703 26704 26705 26706 26707 26708 26709 26710 26711 26712 26713 26714 26715 26716 26717 26718 26719 26720 26721 26722 26723 26724 26725 26726 26727 26728 26729 26730 26731 26732 26733 26734 26735 26736 26737 26738 26739 26740 26741 26742 26743 26744 26745 26746 26747 26748 26749 26750 26751 26752 26753 26754 26755 26756 26757 26758 26759 26760 26761 26762 26763 26764 26765 26766 26767 26768 26769 26770 26771 26772 26773 26774 26775 26776 26777 26778 26779 26780 26781 26782 26783 26784 26785 26786 26787 26788 26789 26790 26791 26792 26793 26794 26795 26796 26797 26798 26799 26800 26801 26802 26803 26804 26805 26806 26807 26808 26809 26810 26811 26812 26813 26814 26815 26816 26817 26818 26819 26820 26821 26822 26823 26824 26825 26826 26827 26828 26829 26830 26831 26832 26833 26834 26835 26836 26837 26838 26839 26840 26841 26842 26843 26844 26845 26846 26847 26848 26849 26850 26851 26852 26853 26854 26855 26856 26857 26858 26859 26860 26861 26862 26863 26864 26865 26866 26867 26868 26869 26870 26871 26872 26873 26874 26875 26876 26877 26878 26879 26880 26881 26882 26883 26884 26885 26886 26887 26888 26889 26890 26891 26892 26893 26894 26895 26896 26897 26898 26899 26900 26901 26902 26903 26904 26905 26906 26907 26908 26909 26910 26911 26912 26913 26914 26915 26916 26917 26918 26919 26920 26921 26922 26923 26924 26925 26926 26927 26928 26929 26930 26931 26932 26933 26934 26935 26936 26937 26938 26939 26940 26941 26942 26943 26944 26945 26946 26947 26948 26949 26950 26951 26952 26953 26954 26955 26956 26957 26958 26959 26960 26961 26962 26963 26964 26965 26966 26967 26968 26969 26970 26971 26972 26973 26974 26975 26976 26977 26978 26979 26980 26981 26982 26983 26984 26985 26986 26987 26988 26989 26990 26991 26992 26993 26994 26995 26996 26997 26998 26999 27000 27001 27002 27003 27004 27005 27006 27007 27008 27009 27010 27011 27012 27013 27014 27015 27016 27017 27018 27019 27020 27021 27022 27023 27024 27025 27026 27027 27028 27029 27030 27031 27032 27033 27034 27035 27036 27037 27038 27039 27040 27041 27042 27043 27044 27045 27046 27047 27048 27049 27050 27051 27052 27053 27054 27055 27056 27057 27058 27059 27060 27061 27062 27063 27064 27065 27066 27067 27068 27069 27070 27071 27072 27073 27074 27075 27076 27077 27078 27079 27080 27081 27082 27083 27084 27085 27086 27087 27088 27089 27090 27091 27092 27093 27094 27095 27096 27097 27098 27099 27100 27101 27102 27103 27104 27105 27106 27107 27108 27109 27110 27111 27112 27113 27114 27115 27116 27117 27118 27119 27120 27121 27122 27123 27124 27125 27126 27127 27128 27129 27130 27131 27132 27133 27134 27135 27136 27137 27138 27139 27140 27141 27142 27143 27144 27145 27146 27147 27148 27149 27150 27151 27152 27153 27154 27155 27156 27157 27158 27159 27160 27161 27162 27163 27164 27165 27166 27167 27168 27169 27170 27171 27172 27173 27174 27175 27176 27177 27178 27179 27180 27181 27182 27183 27184 27185 27186 27187 27188 27189 27190 27191 27192 27193 27194 27195 27196 27197 27198 27199 27200 27201 27202 27203 27204 27205 27206 27207 27208 27209 27210 27211 27212 27213 27214 27215 27216 27217 27218 27219 27220 27221 27222 27223 27224 27225 27226 27227 27228 27229 27230 27231 27232 27233 27234 27235 27236 27237 27238 27239 27240 27241 27242 27243 27244 27245 27246 27247 27248 27249 27250 27251 27252 27253 27254 27255 27256 27257 27258 27259 27260 27261 27262 27263 27264 27265 27266 27267 27268 27269 27270 27271 27272 27273 27274 27275 27276 27277 27278 27279 27280 27281 27282 27283 27284 27285 27286 27287 27288 27289 27290 27291 27292 27293 27294 27295 27296 27297 27298 27299 27300 27301 27302 27303 27304 27305 27306 27307 27308 27309 27310 27311 27312 27313 27314 27315 27316 27317 27318 27319 27320 27321 27322 27323 27324 27325 27326 27327 27328 27329 27330 27331 27332 27333 27334 27335 27336 27337 27338 27339 27340 27341 27342 27343 27344 27345 27346 27347 27348 27349 27350 27351 27352 27353 27354 27355 27356 27357 27358 27359 27360 27361 27362 27363 27364 27365 27366 27367 27368 27369 27370 27371 27372 27373 27374 27375 27376 27377 27378 27379 27380 27381 27382 27383 27384 27385 27386 27387 27388 27389 27390 27391 27392 27393 27394 27395 27396 27397 27398 27399 27400 27401 27402 27403 27404 27405 27406 27407 27408 27409 27410 27411 27412 27413 27414 27415 27416 27417 27418 27419 27420 27421 27422 27423 27424 27425 27426 27427 27428 27429 27430 27431 27432 27433 27434 27435 27436 27437 27438 27439 27440 27441 27442 27443 27444 27445 27446 27447 27448 27449 27450 27451 27452 27453 27454 27455 27456 27457 27458 27459 27460 27461 27462 27463 27464 27465 27466 27467 27468 27469 27470 27471 27472 27473 27474 27475 27476 27477 27478 27479 27480 27481 27482 27483 27484 27485 27486 27487 27488 27489 27490 27491 27492 27493 27494 27495 27496 27497 27498 27499 27500 27501 27502 27503 27504 27505 27506 27507 27508 27509 27510 27511 27512 27513 27514 27515 27516 27517 27518 27519 27520 27521 27522 27523 27524 27525 27526 27527 27528 27529 27530 27531 27532 27533 27534 27535 27536 27537 27538 27539 27540 27541 27542 27543 27544 27545 27546 27547 27548 27549 27550 27551 27552 27553 27554 27555 27556 27557 27558 27559 27560 27561 27562 27563 27564 27565 27566 27567 27568 27569 27570 27571 27572 27573 27574 27575 27576 27577 27578 27579 27580 27581 27582 27583 27584 27585 27586 27587 27588 27589 27590 27591 27592 27593 27594 27595 27596 27597 27598 27599 27600 27601 27602 27603 27604 27605 27606 27607 27608 27609 27610 27611 27612 27613 27614 27615 27616 27617 27618 27619 27620 27621 27622 27623 27624 27625 27626 27627 27628 27629 27630 27631 27632 27633 27634 27635 27636 27637 27638 27639 27640 27641 27642 27643 27644 27645 27646 27647 27648 27649 27650 27651 27652 27653 27654 27655 27656 27657 27658 27659 27660 27661 27662 27663 27664 27665 27666 27667 27668 27669 27670 27671 27672 27673 27674 27675 27676 27677 27678 27679 27680 27681 27682 27683 27684 27685 27686 27687 27688 27689 27690 27691 27692 27693 27694 27695 27696 27697 27698 27699 27700 27701 27702 27703 27704 27705 27706 27707 27708 27709 27710 27711 27712 27713 27714 27715 27716 27717 27718 27719 27720 27721 27722 27723 27724 27725 27726 27727 27728 27729 27730 27731 27732 27733 27734 27735 27736 27737 27738 27739 27740 27741 27742 27743 27744 27745 27746 27747 27748 27749 27750 27751 27752 27753 27754 27755 27756 27757 27758 27759 27760 27761 27762 27763 27764 27765 27766 27767 27768 27769 27770 27771 27772 27773 27774 27775 27776 27777 27778 27779 27780 27781 27782 27783 27784 27785 27786 27787 27788 27789 27790 27791 27792 27793 27794 27795 27796 27797 27798 27799 27800 27801 27802 27803 27804 27805 27806 27807 27808 27809 27810 27811 27812 27813 27814 27815 27816 27817 27818 27819 27820 27821 27822 27823 27824 27825 27826 27827 27828 27829 27830 27831 27832 27833 27834 27835 27836 27837 27838 27839 27840 27841 27842 27843 27844 27845 27846 27847 27848 27849 27850 27851 27852 27853 27854 27855 27856 27857 27858 27859 27860 27861 27862 27863 27864 27865 27866 27867 27868 27869 27870 27871 27872 27873 27874 27875 27876 27877 27878 27879 27880 27881 27882 27883 27884 27885 27886 27887 27888 27889 27890 27891 27892 27893 27894 27895 27896 27897 27898 27899 27900 27901 27902 27903 27904 27905 27906 27907 27908 27909 27910 27911 27912 27913 27914 27915 27916 27917 27918 27919 27920 27921 27922 27923 27924 27925 27926 27927 27928 27929 27930 27931 27932 27933 27934 27935 27936 27937 27938 27939 27940 27941 27942 27943 27944 27945 27946 27947 27948 27949 27950 27951 27952 27953 27954 27955 27956 27957 27958 27959 27960 27961 27962 27963 27964 27965 27966 27967 27968 27969 27970 27971 27972 27973 27974 27975 27976 27977 27978 27979 27980 27981 27982 27983 27984 27985 27986 27987 27988 27989 27990 27991 27992 27993 27994 27995 27996 27997 27998 27999 28000 28001 28002 28003 28004 28005 28006 28007 28008 28009 28010 28011 28012 28013 28014 28015 28016 28017 28018 28019 28020 28021 28022 28023 28024 28025 28026 28027 28028 28029 28030 28031 28032 28033 28034 28035 28036 28037 28038 28039 28040 28041 28042 28043 28044 28045 28046 28047 28048 28049 28050 28051 28052 28053 28054 28055 28056 28057 28058 28059 28060 28061 28062 28063 28064 28065 28066 28067 28068 28069 28070 28071 28072 28073 28074 28075 28076 28077 28078 28079 28080 28081 28082 28083 28084 28085 28086 28087 28088 28089 28090 28091 28092 28093 28094 28095 28096 28097 28098 28099 28100 28101 28102 28103 28104 28105 28106 28107 28108 28109 28110 28111 28112 28113 28114 28115 28116 28117 28118 28119 28120 28121 28122 28123 28124 28125 28126 28127 28128 28129 28130 28131 28132 28133 28134 28135 28136 28137 28138 28139 28140 28141 28142 28143 28144 28145 28146 28147 28148 28149 28150 28151 28152 28153 28154 28155 28156 28157 28158 28159 28160 28161 28162 28163 28164 28165 28166 28167 28168 28169 28170 28171 28172 28173 28174 28175 28176 28177 28178 28179 28180 28181 28182 28183 28184 28185 28186 28187 28188 28189 28190 28191 28192 28193 28194 28195 28196 28197 28198 28199 28200 28201 28202 28203 28204 28205 28206 28207 28208 28209 28210 28211 28212 28213 28214 28215 28216 28217 28218 28219 28220 28221 28222 28223 28224 28225 28226 28227 28228 28229 28230 28231 28232 28233 28234 28235 28236 28237 28238 28239 28240 28241 28242 28243 28244 28245 28246 28247 28248 28249 28250 28251 28252 28253 28254 28255 28256 28257 28258 28259 28260 28261 28262 28263 28264 28265 28266 28267 28268 28269 28270 28271 28272 28273 28274 28275 28276 28277 28278 28279 28280 28281 28282 28283 28284 28285 28286 28287 28288 28289 28290 28291 28292 28293 28294 28295 28296 28297 28298 28299 28300 28301 28302 28303 28304 28305 28306 28307 28308 28309 28310 28311 28312 28313 28314 28315 28316 28317 28318 28319 28320 28321 28322 28323 28324 28325 28326 28327 28328 28329 28330 28331 28332 28333 28334 28335 28336 28337 28338 28339 28340 28341 28342 28343 28344 28345 28346 28347 28348 28349 28350 28351 28352 28353 28354 28355 28356 28357 28358 28359 28360 28361 28362 28363 28364 28365 28366 28367 28368 28369 28370 28371 28372 28373 28374 28375 28376 28377 28378 28379 28380 28381 28382 28383 28384 28385 28386 28387 28388 28389 28390 28391 28392 28393 28394 28395 28396 28397 28398 28399 28400 28401 28402 28403 28404 28405 28406 28407 28408 28409 28410 28411 28412 28413 28414 28415 28416 28417 28418 28419 28420 28421 28422 28423 28424 28425 28426 28427 28428 28429 28430 28431 28432 28433 28434 28435 28436 28437 28438 28439 28440 28441 28442 28443 28444 28445 28446 28447 28448 28449 28450 28451 28452 28453 28454 28455 28456 28457 28458 28459 28460 28461 28462 28463 28464 28465 28466 28467 28468 28469 28470 28471 28472 28473 28474 28475 28476 28477 28478 28479 28480 28481 28482 28483 28484 28485 28486 28487 28488 28489 28490 28491 28492 28493 28494 28495 28496 28497 28498 28499 28500 28501 28502 28503 28504 28505 28506 28507 28508 28509 28510 28511 28512 28513 28514 28515 28516 28517 28518 28519 28520 28521 28522 28523 28524 28525 28526 28527 28528 28529 28530 28531 28532 28533 28534 28535 28536 28537 28538 28539 28540 28541 28542 28543 28544 28545 28546 28547 28548 28549 28550 28551 28552 28553 28554 28555 28556 28557 28558 28559 28560 28561 28562 28563 28564 28565 28566 28567 28568 28569 28570 28571 28572 28573 28574 28575 28576 28577 28578 28579 28580 28581 28582 28583 28584 28585 28586 28587 28588 28589 28590 28591 28592 28593 28594 28595 28596 28597 28598 28599 28600 28601 28602 28603 28604 28605 28606 28607 28608 28609 28610 28611 28612 28613 28614 28615 28616 28617 28618 28619 28620 28621 28622 28623 28624 28625 28626 28627 28628 28629 28630 28631 28632 28633 28634 28635 28636 28637 28638 28639 28640 28641 28642 28643 28644 28645 28646 28647 28648 28649 28650 28651 28652 28653 28654 28655 28656 28657 28658 28659 28660 28661 28662 28663 28664 28665 28666 28667 28668 28669 28670 28671 28672 28673 28674 28675 28676 28677 28678 28679 28680 28681 28682 28683 28684 28685 28686 28687 28688 28689 28690 28691 28692 28693 28694 28695 28696 28697 28698 28699 28700 28701 28702 28703 28704 28705 28706 28707 28708 28709 28710 28711 28712 28713 28714 28715 28716 28717 28718 28719 28720 28721 28722 28723 28724 28725 28726 28727 28728 28729 28730 28731 28732 28733 28734 28735 28736 28737 28738 28739 28740 28741 28742 28743 28744 28745 28746 28747 28748 28749 28750 28751 28752 28753 28754 28755 28756 28757 28758 28759 28760 28761 28762 28763 28764 28765 28766 28767 28768 28769 28770 28771 28772 28773 28774 28775 28776 28777 28778 28779 28780 28781 28782 28783 28784 28785 28786 28787 28788 28789 28790 28791 28792 28793 28794 28795 28796 28797 28798 28799 28800 28801 28802 28803 28804 28805 28806 28807 28808 28809 28810 28811 28812 28813 28814 28815 28816 28817 28818 28819 28820 28821 28822 28823 28824 28825 28826 28827 28828 28829 28830 28831 28832 28833 28834 28835 28836 28837 28838 28839 28840 28841 28842 28843 28844 28845 28846 28847 28848 28849 28850 28851 28852 28853 28854 28855 28856 28857 28858 28859 28860 28861 28862 28863 28864 28865 28866 28867 28868 28869 28870 28871 28872 28873 28874 28875 28876 28877 28878 28879 28880 28881 28882 28883 28884 28885 28886 28887 28888 28889 28890 28891 28892 28893 28894 28895 28896 28897 28898 28899 28900 28901 28902 28903 28904 28905 28906 28907 28908 28909 28910 28911 28912 28913 28914 28915 28916 28917 28918 28919 28920 28921 28922 28923 28924 28925 28926 28927 28928 28929 28930 28931 28932 28933 28934 28935 28936 28937 28938 28939 28940 28941 28942 28943 28944 28945 28946 28947 28948 28949 28950 28951 28952 28953 28954 28955 28956 28957 28958 28959 28960 28961 28962 28963 28964 28965 28966 28967 28968 28969 28970 28971 28972 28973 28974 28975 28976 28977 28978 28979 28980 28981 28982 28983 28984 28985 28986 28987 28988 28989 28990 28991 28992 28993 28994 28995 28996 28997 28998 28999 29000 29001 29002 29003 29004 29005 29006 29007 29008 29009 29010 29011 29012 29013 29014 29015 29016 29017 29018 29019 29020 29021 29022 29023 29024 29025 29026 29027 29028 29029 29030 29031 29032 29033 29034 29035 29036 29037 29038 29039 29040 29041 29042 29043 29044 29045 29046 29047 29048 29049 29050 29051 29052 29053 29054 29055 29056 29057 29058 29059 29060 29061 29062 29063 29064 29065 29066 29067 29068 29069 29070 29071 29072 29073 29074 29075 29076 29077 29078 29079 29080 29081 29082 29083 29084 29085 29086 29087 29088 29089 29090 29091 29092 29093 29094 29095 29096 29097 29098 29099 29100 29101 29102 29103 29104 29105 29106 29107 29108 29109 29110 29111 29112 29113 29114 29115 29116 29117 29118 29119 29120 29121 29122 29123 29124 29125 29126 29127 29128 29129 29130 29131 29132 29133 29134 29135 29136 29137 29138 29139 29140 29141 29142 29143 29144 29145 29146 29147 29148 29149 29150 29151 29152 29153 29154 29155 29156 29157 29158 29159 29160 29161 29162 29163 29164 29165 29166 29167 29168 29169 29170 29171 29172 29173 29174 29175 29176 29177 29178 29179 29180 29181 29182 29183 29184 29185 29186 29187 29188 29189 29190 29191 29192 29193 29194 29195 29196 29197 29198 29199 29200 29201 29202 29203 29204 29205 29206 29207 29208 29209 29210 29211 29212 29213 29214 29215 29216 29217 29218 29219 29220 29221 29222 29223 29224 29225 29226 29227 29228 29229 29230 29231 29232 29233 29234 29235 29236 29237 29238 29239 29240 29241 29242 29243 29244 29245 29246 29247 29248 29249 29250 29251 29252 29253 29254 29255 29256 29257 29258 29259 29260 29261 29262 29263 29264 29265 29266 29267 29268 29269 29270 29271 29272 29273 29274 29275 29276 29277 29278 29279 29280 29281 29282 29283 29284 29285 29286 29287 29288 29289 29290 29291 29292 29293 29294 29295 29296 29297 29298 29299 29300 29301 29302 29303 29304 29305 29306 29307 29308 29309 29310 29311 29312 29313 29314 29315 29316 29317 29318 29319 29320 29321 29322 29323 29324 29325 29326 29327 29328 29329 29330 29331 29332 29333 29334 29335 29336 29337 29338 29339 29340 29341 29342 29343 29344 29345 29346 29347 29348 29349 29350 29351 29352 29353 29354 29355 29356 29357 29358 29359 29360 29361 29362 29363 29364 29365 29366 29367 29368 29369 29370 29371 29372 29373 29374 29375 29376 29377 29378 29379 29380 29381 29382 29383 29384 29385 29386 29387 29388 29389 29390 29391 29392 29393 29394 29395 29396 29397 29398 29399 29400 29401 29402 29403 29404 29405 29406 29407 29408 29409 29410 29411 29412 29413 29414 29415 29416 29417 29418 29419 29420 29421 29422 29423 29424 29425 29426 29427 29428 29429 29430 29431 29432 29433 29434 29435 29436 29437 29438 29439 29440 29441 29442 29443 29444 29445 29446 29447 29448 29449 29450 29451 29452 29453 29454 29455 29456 29457 29458 29459 29460 29461 29462 29463 29464 29465 29466 29467 29468 29469 29470 29471 29472 29473 29474 29475 29476 29477 29478 29479 29480 29481 29482 29483 29484 29485 29486 29487 29488 29489 29490 29491 29492 29493 29494 29495 29496 29497 29498 29499 29500 29501 29502 29503 29504 29505 29506 29507 29508 29509 29510 29511 29512 29513 29514 29515 29516 29517 29518 29519 29520 29521 29522 29523 29524 29525 29526 29527 29528 29529 29530 29531 29532 29533 29534 29535 29536 29537 29538 29539 29540 29541 29542 29543 29544 29545 29546 29547 29548 29549 29550 29551 29552 29553 29554 29555 29556 29557 29558 29559 29560 29561 29562 29563 29564 29565 29566 29567 29568 29569 29570 29571 29572 29573 29574 29575 29576 29577 29578 29579 29580 29581 29582 29583 29584 29585 29586 29587 29588 29589 29590 29591 29592 29593 29594 29595 29596 29597 29598 29599 29600 29601 29602 29603 29604 29605 29606 29607 29608 29609 29610 29611 29612 29613 29614 29615 29616 29617 29618 29619 29620 29621 29622 29623 29624 29625 29626 29627 29628 29629 29630 29631 29632 29633 29634 29635 29636 29637 29638 29639 29640 29641 29642 29643 29644 29645 29646 29647 29648 29649 29650 29651 29652 29653 29654 29655 29656 29657 29658 29659 29660 29661 29662 29663 29664 29665 29666 29667 29668 29669 29670 29671 29672 29673 29674 29675 29676 29677 29678 29679 29680 29681 29682 29683 29684 29685 29686 29687 29688 29689 29690 29691 29692 29693 29694 29695 29696 29697 29698 29699 29700 29701 29702 29703 29704 29705 29706 29707 29708 29709 29710 29711 29712 29713 29714 29715 29716 29717 29718 29719 29720 29721 29722 29723 29724 29725 29726 29727 29728 29729 29730 29731 29732 29733 29734 29735 29736 29737 29738 29739 29740 29741 29742 29743 29744 29745 29746 29747 29748 29749 29750 29751 29752 29753 29754 29755 29756 29757 29758 29759 29760 29761 29762 29763 29764 29765 29766 29767 29768 29769 29770 29771 29772 29773 29774 29775 29776 29777 29778 29779 29780 29781 29782 29783 29784 29785 29786 29787 29788 29789 29790 29791 29792 29793 29794 29795 29796 29797 29798 29799 29800 29801 29802 29803 29804 29805 29806 29807 29808 29809 29810 29811 29812 29813 29814 29815 29816 29817 29818 29819 29820 29821 29822 29823 29824 29825 29826 29827 29828 29829 29830 29831 29832 29833 29834 29835 29836 29837 29838 29839 29840 29841 29842 29843 29844 29845 29846 29847 29848 29849 29850 29851 29852 29853 29854 29855 29856 29857 29858 29859 29860 29861 29862 29863 29864 29865 29866 29867 29868 29869 29870 29871 29872 29873 29874 29875 29876 29877 29878 29879 29880 29881 29882 29883 29884 29885 29886 29887 29888 29889 29890 29891 29892 29893 29894 29895 29896 29897 29898 29899 29900 29901 29902 29903 29904 29905 29906 29907 29908 29909 29910 29911 29912 29913 29914 29915 29916 29917 29918 29919 29920 29921 29922 29923 29924 29925 29926 29927 29928 29929 29930 29931 29932 29933 29934 29935 29936 29937 29938 29939 29940 29941 29942 29943 29944 29945 29946 29947 29948 29949 29950 29951 29952 29953 29954 29955 29956 29957 29958 29959 29960 29961 29962 29963 29964 29965 29966 29967 29968 29969 29970 29971 29972 29973 29974 29975 29976 29977 29978 29979 29980 29981 29982 29983 29984 29985 29986 29987 29988 29989 29990 29991 29992 29993 29994 29995 29996 29997 29998 29999 30000 30001 30002 30003 30004 30005 30006 30007 30008 30009 30010 30011 30012 30013 30014 30015 30016 30017 30018 30019 30020 30021 30022 30023 30024 30025 30026 30027 30028 30029 30030 30031 30032 30033 30034 30035 30036 30037 30038 30039 30040 30041 30042 30043 30044 30045 30046 30047 30048 30049 30050 30051 30052 30053 30054 30055 30056 30057 30058 30059 30060 30061 30062 30063 30064 30065 30066 30067 30068 30069 30070 30071 30072 30073 30074 30075 30076 30077 30078 30079 30080 30081 30082 30083 30084 30085 30086 30087 30088 30089 30090 30091 30092 30093 30094 30095 30096 30097 30098 30099 30100 30101 30102 30103 30104 30105 30106 30107 30108 30109 30110 30111 30112 30113 30114 30115 30116 30117 30118 30119 30120 30121 30122 30123 30124 30125 30126 30127 30128 30129 30130 30131 30132 30133 30134 30135 30136 30137 30138 30139 30140 30141 30142 30143 30144 30145 30146 30147 30148 30149 30150 30151 30152 30153 30154 30155 30156 30157 30158 30159 30160 30161 30162 30163 30164 30165 30166 30167 30168 30169 30170 30171 30172 30173 30174 30175 30176 30177 30178 30179 30180 30181 30182 30183 30184 30185 30186 30187 30188 30189 30190 30191 30192 30193 30194 30195 30196 30197 30198 30199 30200 30201 30202 30203 30204 30205 30206 30207 30208 30209 30210 30211 30212 30213 30214 30215 30216 30217 30218 30219 30220 30221 30222 30223 30224 30225 30226 30227 30228 30229 30230 30231 30232 30233 30234 30235 30236 30237 30238 30239 30240 30241 30242 30243 30244 30245 30246 30247 30248 30249 30250 30251 30252 30253 30254 30255 30256 30257 30258 30259 30260 30261 30262 30263 30264 30265 30266 30267 30268 30269 30270 30271 30272 30273 30274 30275 30276 30277 30278 30279 30280 30281 30282 30283 30284 30285 30286 30287 30288 30289 30290 30291 30292 30293 30294 30295 30296 30297 30298 30299 30300 30301 30302 30303 30304 30305 30306 30307 30308 30309 30310 30311 30312 30313 30314 30315 30316 30317 30318 30319 30320 30321 30322 30323 30324 30325 30326 30327 30328 30329 30330 30331 30332 30333 30334 30335 30336 30337 30338 30339 30340 30341 30342 30343 30344 30345 30346 30347 30348 30349 30350 30351 30352 30353 30354 30355 30356 30357 30358 30359 30360 30361 30362 30363 30364 30365 30366 30367 30368 30369 30370 30371 30372 30373 30374 30375 30376 30377 30378 30379 30380 30381 30382 30383 30384 30385 30386 30387 30388 30389 30390 30391 30392 30393 30394 30395 30396 30397 30398 30399 30400 30401 30402 30403 30404 30405 30406 30407 30408 30409 30410 30411 30412 30413 30414 30415 30416 30417 30418 30419 30420 30421 30422 30423 30424 30425 30426 30427 30428 30429 30430 30431 30432 30433 30434 30435 30436 30437 30438 30439 30440 30441 30442 30443 30444 30445 30446 30447 30448 30449 30450 30451 30452 30453 30454 30455 30456 30457 30458 30459 30460 30461 30462 30463 30464 30465 30466 30467 30468 30469 30470 30471 30472 30473 30474 30475 30476 30477 30478 30479 30480 30481 30482 30483 30484 30485 30486 30487 30488 30489 30490 30491 30492 30493 30494 30495 30496 30497 30498 30499 30500 30501 30502 30503 30504 30505 30506 30507 30508 30509 30510 30511 30512 30513 30514 30515 30516 30517 30518 30519 30520 30521 30522 30523 30524 30525 30526 30527 30528 30529 30530 30531 30532 30533 30534 30535 30536 30537 30538 30539 30540 30541 30542 30543 30544 30545 30546 30547 30548 30549 30550 30551 30552 30553 30554 30555 30556 30557 30558 30559 30560 30561 30562 30563 30564 30565 30566 30567 30568 30569 30570 30571 30572 30573 30574 30575 30576 30577 30578 30579 30580 30581 30582 30583 30584 30585 30586 30587 30588 30589 30590 30591 30592 30593 30594 30595 30596 30597 30598 30599 30600 30601 30602 30603 30604 30605 30606 30607 30608 30609 30610 30611 30612 30613 30614 30615 30616 30617 30618 30619 30620 30621 30622 30623 30624 30625 30626 30627 30628 30629 30630 30631 30632 30633 30634 30635 30636 30637 30638 30639 30640 30641 30642 30643 30644 30645 30646 30647 30648 30649 30650 30651 30652 30653 30654 30655 30656 30657 30658 30659 30660 30661 30662 30663 30664 30665 30666 30667 30668 30669 30670 30671 30672 30673 30674 30675 30676 30677 30678 30679 30680 30681 30682 30683 30684 30685 30686 30687 30688 30689 30690 30691 30692 30693 30694 30695 30696 30697 30698 30699 30700 30701 30702 30703 30704 30705 30706 30707 30708 30709 30710 30711 30712 30713 30714 30715 30716 30717 30718 30719 30720 30721 30722 30723 30724 30725 30726 30727 30728 30729 30730 30731 30732 30733 30734 30735 30736 30737 30738 30739 30740 30741 30742 30743 30744 30745 30746 30747 30748 30749 30750 30751 30752 30753 30754 30755 30756 30757 30758 30759 30760 30761 30762 30763 30764 30765 30766 30767 30768 30769 30770 30771 30772 30773 30774 30775 30776 30777 30778 30779 30780 30781 30782 30783 30784 30785 30786 30787 30788 30789 30790 30791 30792 30793 30794 30795 30796 30797 30798 30799 30800 30801 30802 30803 30804 30805 30806 30807 30808 30809 30810 30811 30812 30813 30814 30815 30816 30817 30818 30819 30820 30821 30822 30823 30824 30825 30826 30827 30828 30829 30830 30831 30832 30833 30834 30835 30836 30837 30838 30839 30840 30841 30842 30843 30844 30845 30846 30847 30848 30849 30850 30851 30852 30853 30854 30855 30856 30857 30858 30859 30860 30861 30862 30863 30864 30865 30866 30867 30868 30869 30870 30871 30872 30873 30874 30875 30876 30877 30878 30879 30880 30881 30882 30883 30884 30885 30886 30887 30888 30889 30890 30891 30892 30893 30894 30895 30896 30897 30898 30899 30900 30901 30902 30903 30904 30905 30906 30907 30908 30909 30910 30911 30912 30913 30914 30915 30916 30917 30918 30919 30920 30921 30922 30923 30924 30925 30926 30927 30928 30929 30930 30931 30932 30933 30934 30935 30936 30937 30938 30939 30940 30941 30942 30943 30944 30945 30946 30947 30948 30949 30950 30951 30952 30953 30954 30955 30956 30957 30958 30959 30960 30961 30962 30963 30964 30965 30966 30967 30968 30969 30970 30971 30972 30973 30974 30975 30976 30977 30978 30979 30980 30981 30982 30983 30984 30985 30986 30987 30988 30989 30990 30991 30992 30993 30994 30995 30996 30997 30998 30999 31000 31001 31002 31003 31004 31005 31006 31007 31008 31009 31010 31011 31012 31013 31014 31015 31016 31017 31018 31019 31020 31021 31022 31023 31024 31025 31026 31027 31028 31029 31030 31031 31032 31033 31034 31035 31036 31037 31038 31039 31040 31041 31042 31043 31044 31045 31046 31047 31048 31049 31050 31051 31052 31053 31054 31055 31056 31057 31058 31059 31060 31061 31062 31063 31064 31065 31066 31067 31068 31069 31070 31071 31072 31073 31074 31075 31076 31077 31078 31079 31080 31081 31082 31083 31084 31085 31086 31087 31088 31089 31090 31091 31092 31093 31094 31095 31096 31097 31098 31099 31100 31101 31102 31103 31104 31105 31106 31107 31108 31109 31110 31111 31112 31113 31114 31115 31116 31117 31118 31119 31120 31121 31122 31123 31124 31125 31126 31127 31128 31129 31130 31131 31132 31133 31134 31135 31136 31137 31138 31139 31140 31141 31142 31143 31144 31145 31146 31147 31148 31149 31150 31151 31152 31153 31154 31155 31156 31157 31158 31159 31160 31161 31162 31163 31164 31165 31166 31167 31168 31169 31170 31171 31172 31173 31174 31175 31176 31177 31178 31179 31180 31181 31182 31183 31184 31185 31186 31187 31188 31189 31190 31191 31192 31193 31194 31195 31196 31197 31198 31199 31200 31201 31202 31203 31204 31205 31206 31207 31208 31209 31210 31211 31212 31213 31214 31215 31216 31217 31218 31219 31220 31221 31222 31223 31224 31225 31226 31227 31228 31229 31230 31231 31232 31233 31234 31235 31236 31237 31238 31239 31240 31241 31242 31243 31244 31245 31246 31247 31248 31249 31250 31251 31252 31253 31254 31255 31256 31257 31258 31259 31260 31261 31262 31263 31264 31265 31266 31267 31268 31269 31270 31271 31272 31273 31274 31275 31276 31277 31278 31279 31280 31281 31282 31283 31284 31285 31286 31287 31288 31289 31290 31291 31292 31293 31294 31295 31296 31297 31298 31299 31300 
</DataArray>
<DataArray type="UInt32" Name="offsets" format="ascii">
3 6 9 12 15 18 20 23 26 29 32 35 37 40 43 46 48 51 54 57 59 62 65 68 71 74 76 78 81 84 87 90 92 95 98 101 103 106 109 112 115 118 121 124 127 130 133 136 139 142 145 148 151 154 157 160 163 166 169 172 175 178 180 183 186 189 192 195 198 201 204 206 209 212 215 218 221 223 226 229 232 235 238 241 244 247 250 253 256 259 262 265 268 271 274 277 280 283 286 289 292 295 298 301 304 307 310 313 315 317 320 323 325 328 331 334 337 340 343 346 348 351 354 357 360 363 366 369 372 375 378 381 384 387 390 392 395 398 400 403 406 409 412 415 418 421 424 427 430 433 436 439 442 445 448 451 453 456 458 461 464 467 470 473 476 479 482 485 488 491 494 497 500 503 506 509 511 514 517 520 523 526 529 532 535 538 541 544 547 550 553 556 559 562 564 567 570 572 575 578 581 583 586 589 592 595 598 601 604 607 610 613 616 619 621 624 627 629 632 634 637 639 642 645 648 651 654 657 660 663 665 667 670 673 675 678 681 684 686 689 691 693 695 698 701 704 707 710 713 716 719 722 725 728 731 734 737 740 742 745 748 751 754 756 759 762 765 768 771 774 777 780 783 786 789 792 795 798 800 803 806 809 812 815 818 821 824 826 829 832 835 838 840 843 845 848 850 853 856 859 862 865 868 871 874 877 880 883 886 889 892 895 898 901 904 907 910 913 916 919 922 925 928 930 933 936 939 942 945 947 950 953 956 959 962 965 968 971 974 976 979 982 985 987 989 991 994 997 1000 1002 1004 1006 1009 1012 1015 1018 1021 1024 1027 1030 1033 1036 1039 1042 1044 1047 1050 1053 1056 1059 1062 1065 1068 1071 1074 1077 1080 1083 1086 1089 1092 1095 1098 1101 1104 1107 1110 1113 1116 1119 1122 1125 1128 1131 1134 1137 1140 1143 1146 1149 1152 1155 1158 1160 1163 1166 1168 1171 1174 1177 1179 1182 1185 1187 1190 1193 1196 1198 1201 1204 1206 1209 1211 1214 1217 1220 1223 1226 1229 1231 1234 1237 1240 1243 1245 1248 1251 1253 1256 1259 1262 1265 1268 1271 1274 1276 1279 1282 1285 1288 1291 1294 1296 1299 1302 1305 1308 1311 1313 1316 1319 1322 1325 1328 1331 1334 1337 1340 1343 1346 1349 1352 1355 1358 1360 1363 1365 1368 1371 1374 1377 1380 1383 1386 1389 1392 1395 1398 1401 1404 1407 1409 1412 1415 1418 1421 1424 1427 1430 1433 1436 1439 1442 1445 1448 1451 1454 1457 1460 1463 1465 1468 1471 1474 1477 1480 1483 1486 1489 1492 1495 1498 1501 1504 1507 1510 1513 1516 1519 1522 1525 1528 1531 1534 1536 1539 1542 1545 1548 1550 1553 1556 1559 1562 1565 1568 1571 1574 1577 1579 1582 1585 1588 1591 1593 1596 1599 1602 1605 1608 1611 1614 1617 1620 1623 1626 1629 1632 1635 1638 1641 1644 1647 1650 1653 1656 1659 1662 1665 1668 1670 1673 1676 1679 1682 1685 1688 1691 1694 1697 1700 1703 1706 1709 1712 1715 1718 1721 1724 1726 1729 1732 1734 1737 1740 1743 1746 1749 1752 1754 1757 1760 1763 1766 1769 1772 1775 1778 1781 1784 1787 1790 1793 1795 1798 1801 1803 1806 1809 1812 1815 1817 1820 1823 1826 1829 1832 1835 1838 1841 1844 1847 1850 1853 1856 1858 1860 1863 1866 1869 1872 1875 1878 1881 1884 1886 1889 1892 1895 1897 1900 1903 1906 1909 1912 1915 1917 1920 1923 1926 1929 1931 1933 1936 1939 1942 1945 1948 1951 1954 1957 1960 1963 1966 1969 1972 1975 1978 1981 1984 1987 1990 1993 1995 1998 2001 2004 2007 2010 2013 2015 2018 2020 2023 2026 2029 2032 2035 2038 2040 2043 2046 2049 2052 2055 2058 2061 2064 2067 2070 2073 2076 2079 2082 2084 2087 2090 2093 2095 2098 2101 2104 2107 2110 2113 2115 2118 2121 2124 2127 2130 2133 2135 2138 2141 2144 2146 2148 2151 2154 2156 2159 2162 2165 2168 2171 2174 2176 2179 2182 2185 2187 2190 2193 2195 2198 2201 2204 2206 2209 2212 2215 2217 2220 2223 2226 2229 2231 2234 2237 2240 2242 2245 2248 2251 2254 2257 2259 2262 2265 2268 2271 2274 2277 2280 2283 2286 2288 2291 2294 2297 2300 2303 2306 2309 2312 2315 2318 2321 2323 2325 2328 2331 2334 2337 2340 2343 2346 2349 2352 2355 2358 2361 2364 2367 2370 2372 2375 2377 2380 2382 2385 2388 2391 2394 2397 2400 2403 2406 2408 2411 2414 2417 2420 2423 2426 2429 2432 2435 2438 2440 2443 2446 2449 2452 2454 2457 2460 2463 2466 2469 2472 2475 2478 2481 2484 2487 2490 2492 2495 2498 2501 2504 2507 2510 2513 2516 2519 2522 2525 2528 2531 2534 2537 2539 2542 2545 2548 2551 2554 2557 2560 2563 2566 2569 2572 2575 2578 2581 2584 2587 2590 2593 2596 2599 2601 2603 2606 2609 2612 2614 2617 2620 2623 2626 2629 2632 2635 2638 2641 2644 2647 2650 2653 2656 2659 2662 2665 2668 2671 2674 2677 2680 2683 2686 2689 2692 2695 2698 2701 2704 2707 2710 2713 2716 2719 2722 2725 2728 2731 2734 2737 2740 2743 2746 2748 2751 2754 2757 2760 2763 2766 2769 2772 2775 2777 2780 2783 2786 2789 2792 2795 2798 2801 2804 2806 2809 2812 2815 2818 2821 2824 2827 2829 2831 2834 2837 2840 2842 2844 2847 2850 2852 2855 2858 2861 2863 2866 2869 2872 2875 2878 2881 2884 2887 2890 2892 2895 2898 2901 2904 2907 2910 2913 2915 2918 2921 2924 2926 2929 2932 2935 2938 2941 2944 2947 2950 2953 2956 2959 2962 2965 2968 2971 2974 2977 2980 2983 2986 2989 2992 2995 2997 3000 3002 3005 3008 3011 3014 3017 3019 3022 3025 3028 3031 3034 3036 3039 3042 3045 3048 3051 3053 3055 3058 3060 3063 3066 3069 3072 3075 3078 3081 3084 3087 3090 3093 3096 3099 3102 3105 3108 3110 3113 3116 3119 3122 3125 3127 3130 3133 3135 3138 3141 3144 3147 3150 3153 3156 3159 3162 3165 3168 3171 3174 3176 3179 3182 3185 3187 3190 3192 3195 3198 3201 3204 3207 3210 3213 3216 3219 3222 3225 3228 3231 3234 3237 3240 3243 3246 3248 3251 3254 3257 3260 3263 3266 3269 3272 3275 3278 3280 3283 3286 3289 3292 3295 3298 3301 3304 3307 3310 3313 3316 3319 3322 3325 3328 3331 3334 3337 3339 3342 3345 3348 3351 3354 3357 3360 3363 3366 3369 3372 3375 3377 3380 3383 3386 3389 3392 3395 3398 3401 3404 3407 3410 3412 3415 3418 3421 3424 3426 3429 3432 3434 3437 3439 3442 3444 3447 3450 3453 3456 3459 3462 3465 3468 3471 3473 3475 3478 3481 3484 3486 3489 3492 3495 3498 3501 3503 3506 3509 3512 3515 3517 3520 3523 3526 3529 3532 3535 3538 3541 3544 3547 3550 3553 3556 3559 3562 3565 3568 3570 3573 3576 3578 3581 3584 3587 3590 3593 3595 3598 3601 3603 3606 3609 3612 3615 3618 3621 3624 3627 3630 3633 3635 3638 3641 3644 3647 3650 3653 3656 3658 3661 3663 3666 3668 3671 3673 3676 3679 3681 3684 3687 3690 3692 3695 3698 3701 3704 3707 3710 3712 3715 3718 3721 3724 3727 3730 3733 3736 3738 3741 3744 3747 3749 3752 3755 3758 3760 3763 3766 3768 3771 3774 3776 3779 3782 3784 3786 3789 3792 3795 3797 3800 3803 3806 3809 3812 3815 3817 3819 3822 3825 3827 3830 3833 3836 3839 3841 3844 3847 3850 3853 3855 3858 3860 3862 3865 3868 3871 3874 3877 3880 3882 3885 3888 3890 3893 3896 3899 3902 3905 3907 3910 3913 3916 3919 3921 3923 3926 3929 3932 3935 3938 3941 3944 3946 3949 3952 3955 3958 3961 3964 3967 3970 3973 3976 3979 3982 3984 3987 3990 3993 3996 3999 4002 4004 4007 4010 4013 4016 4019 4022 4025 4027 4030 4033 4036 4039 4041 4044 4047 4050 4052 4055 4058 4061 4064 4067 4070 4072 4075 4078 4080 4083 4086 4089 4091 4094 4096 4099 4101 4104 4107 4110 4112 4115 4118 4121 4124 4127 4129 4132 4135 4138 4141 4144 4147 4149 4152 4155 4158 4161 4164 4167 4170 4173 4175 4178 4181 4184 4186 4189 4192 4195 4198 4201 4204 4207 4210 4213 4216 4218 4221 4223 4226 4229 4232 4235 4237 4240 4243 4246 4249 4252 4255 4258 4261 4264 4267 4270 4273 4276 4278 4281 4284 4286 4289 4292 4294 4297 4300 4303 4306 4309 4312 4315 4318 4321 4324 4327 4330 4333 4336 4339 4342 4345 4348 4351 4354 4357 4360 4363 4366 4369 4372 4375 4378 4381 4384 4386 4389 4392 4395 4398 4401 4404 4407 4410 4413 4416 4419 4422 4425 4428 4431 4434 4437 4440 4443 4446 4448 4451 4454 4457 4460 4463 4466 4469 4472 4475 4478 4481 4483 4486 4489 4492 4495 4498 4501 4504 4507 4510 4513 4516 4519 4522 4525 4528 4531 4534 4537 4540 4543 4546 4549 4552 4555 4557 4560 4563 4566 4568 4571 4574 4576 4579 4582 4585 4588 4591 4594 4596 4599 4601 4604 4607 4610 4612 4615 4618 4621 4624 4627 4629 4631 4634 4637 4639 4642 4645 4648 4651 4654 4657 4660 4663 4666 4669 4672 4675 4678 4681 4683 4686 4688 4691 4694 4696 4698 4701 4704 4706 4709 4712 4715 4717 4720 4723 4726 4729 4731 4734 4736 4739 4741 4744 4747 4750 4753 4756 4759 4762 4765 4768 4771 4774 4777 4780 4783 4785 4787 4790 4793 4796 4799 4802 4805 4808 4811 4814 4817 4820 4823 4825 4828 4830 4833 4836 4839 4842 4845 4848 4851 4853 4855 4858 4861 4864 4867 4870 4873 4876 4879 4882 4885 4888 4891 4894 4897 4899 4902 4905 4908 4911 4914 4917 4920 4923 4926 4929 4932 4934 4937 4940 4943 4946 4949 4952 4955 4958 4960 4963 4966 4969 4972 4975 4977 4980 4983 4986 4989 4991 4994 4997 5000 5003 5006 5009 5011 5014 5017 5020 5023 5026 5029 5032 5035 5038 5041 5044 5047 5050 5053 5056 5058 5061 5063 5066 5069 5072 5075 5078 5081 5084 5087 5090 5092 5095 5098 5101 5104 5106 5109 5112 5115 5118 5121 5124 5126 5129 5132 5134 5137 5139 5142 5145 5147 5150 5153 5156 5159 5162 5165 5167 5170 5173 5175 5178 5181 5184 5186 5189 5192 5195 5198 5200 5202 5205 5208 5210 5213 5216 5219 5222 5225 5228 5231 5234 5237 5240 5243 5246 5249 5252 5255 5258 5261 5263 5266 5269 5272 5275 5278 5281 5284 5287 5290 5293 5296 5298 5301 5304 5307 5309 5312 5315 5318 5321 5324 5327 5330 5333 5335 5338 5341 5344 5347 5350 5353 5356 5359 5362 5365 5368 5371 5374 5377 5380 5383 5386 5389 5392 5395 5398 5401 5404 5407 5410 5413 5416 5419 5422 5425 5428 5431 5434 5437 5440 5443 5446 5449 5452 5455 5458 5461 5464 5467 5470 5473 5476 5479 5482 5485 5488 5491 5494 5497 5500 5503 5506 5509 5512 5515 5518 5521 5524 5527 5530 5533 5536 5539 5542 5545 5548 5551 5554 5557 5560 5563 5566 5569 5572 5575 5578 5581 5584 5587 5590 5593 5596 5599 5602 5604 5607 5610 5613 5616 5618 5621 5624 5626 5629 5632 5635 5638 5641 5644 5647 5650 5653 5656 5658 5661 5664 5667 5670 5673 5676 5679 5682 5685 5688 5691 5694 5697 5700 5703 5706 5709 5711 5714 5717 5719 5722 5725 5727 5730 5732 5735 5738 5741 5744 5747 5750 5753 5755 5758 5760 5763 5766 5769 5772 5775 5778 5781 5784 5787 5790 5793 5796 5799 5802 5805 5808 5811 5813 5816 5819 5822 5824 5827 5830 5832 5835 5838 5841 5843 5846 5849 5852 5855 5858 5861 5863 5866 5869 5872 5874 5877 5879 5882 5884 5887 5890 5893 5895 5898 5901 5903 5906 5909 5911 5914 5916 5919 5922 5925 5928 5930 5933 5936 5939 5942 5945 5948 5951 5954 5957 5959 5962 5965 5968 5971 5974 5977 5979 5982 5985 5987 5990 5993 5996 5999 6002 6005 6008 6011 6014 6017 6020 6023 6026 6029 6032 6035 6038 6041 6044 6046 6049 6052 6055 6058 6061 6064 6067 6070 6073 6076 6079 6082 6084 6087 6090 6092 6095 6098 6100 6103 6105 6108 6110 6113 6116 6119 6122 6125 6128 6131 6134 6137 6140 6143 6146 6149 6152 6155 6158 6161 6164 6167 6170 6173 6176 6179 6182 6185 6188 6191 6194 6196 6199 6202 6205 6208 6210 6213 6216 6219 6222 6225 6228 6231 6234 6237 6240 6243 6246 6249 6252 6255 6258 6261 6264 6267 6269 6272 6275 6278 6281 6283 6286 6289 6292 6295 6298 6300 6303 6306 6309 6312 6315 6318 6321 6324 6327 6330 6333 6335 6338 6341 6344 6346 6349 6351 6354 6357 6360 6363 6366 6368 6370 6373 6376 6379 6382 6384 6387 6390 6392 6395 6397 6400 6403 6405 6408 6410 6413 6416 6419 6422 6424 6427 6430 6433 6436 6439 6442 6445 6448 6451 6454 6457 6460 6463 6466 6469 6472 6475 6478 6480 6483 6486 6489 6492 6495 6498 6501 6504 6507 6510 6512 6515 6518 6521 6524 6527 6529 6532 6535 6538 6541 6544 6547 6549 6552 6555 6558 6561 6563 6566 6568 6571 6574 6577 6580 6583 6586 6589 6591 6594 6597 6600 6602 6605 6608 6611 6614 6617 6620 6623 6625 6628 6630 6633 6636 6639 6642 6644 6647 6650 6653 6656 6659 6661 6664 6667 6670 6673 6676 6679 6682 6685 6688 6691 6694 6697 6700 6703 6706 6709 6712 6715 6718 6721 6724 6727 6730 6733 6736 6739 6741 6744 6747 6750 6753 6756 6758 6761 6764 6767 6770 6773 6776 6779 6782 6785 6788 6791 6794 6796 6799 6802 6805 6808 6811 6814 6817 6820 6823 6826 6829 6832 6835 6838 6841 6844 6847 6850 6853 6856 6859 6862 6865 6868 6871 6874 6877 6880 6883 6886 6888 6891 6893 6896 6898 6901 6904 6907 6910 6912 6915 6918 6921 6924 6927 6930 6932 6935 6938 6940 6943 6946 6948 6950 6953 6956 6959 6962 6964 6966 6969 6972 6975 6978 6980 6982 6985 6988 6991 6994 6997 7000 7003 7005 7008 7010 7013 7016 7019 7022 7025 7028 7031 7034 7037 7039 7042 7045 7047 7050 7053 7055 7058 7060 7063 7065 7067 7070 7072 7075 7078 7081 7084 7087 7090 7093 7095 7097 7099 7102 7105 7108 7111 7114 7117 7120 7123 7125 7128 7131 7133 7135 7137 7140 7142 7145 7148 7151 7154 7157 7160 7163 7165 7168 7171 7174 7176 7179 7182 7184 7187 7190 7193 7196 7199 7202 7204 7207 7210 7213 7216 7219 7221 7224 7227 7230 7233 7235 7238 7240 7243 7246 7249 7251 7253 7256 7259 7262 7264 7267 7270 7273 7276 7279 7282 7285 7288 7291 7294 7296 7299 7302 7305 7308 7311 7314 7317 7319 7322 7325 7328 7330 7333 7336 7339 7342 7345 7348 7350 7353 7356 7359 7362 7365 7368 7371 7374 7377 7380 7383 7386 7388 7391 7394 7397 7400 7402 7405 7408 7411 7414 7417 7420 7423 7426 7429 7432 7435 7438 7441 7444 7447 7450 7453 7456 7458 7461 7464 7467 7469 7472 7474 7477 7480 7483 7486 7488 7491 7494 7497 7500 7502 7504 7507 7510 7512 7515 7518 7520 7523 7526 7529 7531 7534 7537 7539 7542 7545 7548 7551 7554 7557 7560 7563 7565 7568 7570 7573 7576 7578 7581 7584 7587 7590 7593 7596 7598 7600 7603 7606 7609 7612 7615 7618 7621 7624 7627 7630 7633 7636 7639 7642 7644 7647 7650 7653 7656 7659 7662 7665 7668 7671 7674 7677 7680 7683 7686 7689 7692 7695 7698 7701 7704 7707 7710 7713 7716 7719 7722 7725 7728 7731 7734 7737 7740 7743 7746 7749 7752 7755 7758 7761 7764 7767 7770 7773 7776 7779 7782 7785 7788 7791 7794 7797 7800 7803 7806 7809 7812 7815 7818 7821 7824 7827 7830 7833 7836 7839 7842 7845 7848 7851 7854 7857 7860 7863 7866 7869 7872 7875 7878 7881 7884 7887 7890 7893 7896 7899 7902 7905 7908 7911 7914 7917 7920 7923 7926 7929 7932 7935 7938 7941 7943 7945 7948 7951 7954 7957 7960 7963 7966 7969 7972 7975 7978 7981 7984 7987 7990 7993 7996 7999 8002 8005 8008 8011 8014 8017 8020 8023 8026 8029 8032 8035 8038 8041 8044 8047 8050 8053 8056 8059 8062 8065 8068 8071 8074 8077 8080 8083 8086 8089 8092 8095 8098 8101 8104 8107 8110 8113 8116 8119 8122 8125 8128 8131 8134 8137 8140 8143 8146 8149 8152 8155 8158 8161 8164 8167 8170 8173 8176 8179 8182 8185 8188 8191 8194 8197 8200 8203 8206 8208 8211 8214 8217 8220 8223 8226 8228 8231 8234 8236 8239 8242 8244 8247 8250 8253 8256 8258 8260 8263 8266 8268 8271 8274 8277 8279 8282 8284 8287 8290 8293 8296 8299 8302 8304 8307 8310 8313 8315 8317 8320 8323 8326 8329 8332 8334 8337 8339 8342 8344 8347 8350 8353 8355 8358 8361 8364 8367 8369 8372 8374 8377 8379 8382 8385 8388 8391 8394 8397 8400 8402 8405 8408 8411 8414 8417 8420 8423 8426 8429 8432 8435 8438 8441 8444 8447 8450 8453 8456 8459 8462 8465 8468 8471 8474 8477 8480 8483 8486 8489 8492 8495 8498 8501 8504 8507 8510 8513 8516 8519 8522 8525 8527 8530 8533 8536 8539 8542 8545 8548 8551 8553 8556 8558 8561 8564 8567 8570 8572 8574 8577 8580 8583 8586 8589 8592 8595 8598 8601 8604 8607 8610 8613 8616 8619 8622 8625 8628 8630 8633 8635 8638 8641 8644 8647 8650 8653 8656 8659 8661 8664 8667 8670 8673 8676 8678 8681 8683 8686 8688 8691 8693 8696 8699 8702 8705 8708 8710 8713 8716 8719 8722 8725 8728 8731 8734 8737 8740 8743 8746 8749 8751 8754 8756 8759 8762 8764 8767 8769 8772 8775 8778 8781 8784 8787 8790 8793 8796 8799 8802 8805 8808 8811 8814 8817 8820 8823 8826 8829 8831 8834 8837 8839 8842 8845 8848 8850 8852 8854 8856 8859 8862 8865 8867 8870 8873 8876 8878 8880 8883 8885 8888 8891 8893 8896 8899 8902 8904 8906 8909 8912 8914 8917 8920 8923 8925 8928 8931 8934 8936 8939 8942 8945 8947 8950 8953 8956 8959 8961 8964 8967 8969 8972 8975 8978 8980 8982 8985 8988 8991 8994 8997 9000 9003 9006 9009 9012 9015 9018 9020 9023 9026 9028 9031 9034 9037 9040 9043 9045 9048 9051 9053 9056 9059 9062 9065 9068 9071 9074 9077 9080 9083 9086 9089 9092 9095 9098 9101 9103 9106 9109 9112 9114 9117 9119 9122 9125 9128 9131 9134 9137 9140 9142 9145 9148 9151 9154 9157 9159 9162 9164 9167 9170 9173 9176 9179 9182 9185 9188 9191 9194 9197 9199 9202 9204 9206 9209 9212 9214 9217 9220 9223 9226 9228 9231 9234 9237 9240 9242 9245 9248 9251 9253 9256 9259 9261 9264 9267 9269 9272 9274 9277 9280 9282 9285 9288 9291 9294 9296 9299 9302 9305 9308 9311 9314 9316 9319 9322 9325 9328 9330 9333 9336 9339 9342 9345 9347 9350 9353 9356 9359 9362 9365 9368 9371 9374 9377 9380 9383 9386 9389 9392 9395 9398 9401 9404 9407 9410 9413 9416 9419 9421 9424 9427 9430 9432 9435 9438 9440 9443 9446 9449 9452 9455 9458 9460 9463 9466 9469 9472 9475 9478 9481 9484 9487 9489 9492 9495 9498 9501 9504 9506 9509 9512 9515 9518 9521 9524 9527 9530 9533 9536 9538 9541 9544 9547 9550 9553 9556 9559 9562 9564 9567 9570 9573 9576 9579 9582 9585 9588 9591 9593 9595 9598 9601 9604 9607 9610 9613 9616 9619 9622 9624 9627 9630 9632 9635 9638 9641 9644 9647 9650 9652 9655 9658 9661 9664 9667 9670 9673 9676 9678 9681 9684 9687 9690 9693 9696 9699 9701 9704 9706 9709 9712 9715 9718 9721 9724 9727 9730 9733 9736 9739 9742 9745 9748 9751 9754 9757 9760 9763 9766 9769 9772 9775 9778 9781 9784 9787 9790 9793 9796 9799 9802 9805 9808 9811 9814 9817 9820 9823 9826 9829 9832 9835 9838 9841 9844 9846 9849 9852 9854 9857 9860 9863 9865 9868 9871 9873 9876 9879 9882 9885 9888 9891 9894 9897 9900 9903 9906 9909 9912 9915 9918 9921 9923 9926 9929 9931 9934 9937 9940 9942 9945 9948 9950 9952 9955 9958 9960 9963 9966 9969 9972 9975 9978 9981 9984 9987 9990 9993 9996 9999 10002 10005 10008 10011 10014 10017 10020 10023 10026 10029 10031 10034 10037 10040 10043 10046 10049 10052 10055 10058 10061 10064 10067 10070 10073 10076 10079 10082 10085 10088 10091 10094 10097 10100 10103 10106 10109 10111 10114 10117 10120 10123 10126 10129 10131 10134 10137 10140 10143 10146 10149 10151 10153 10156 10159 10162 10165 10168 10170 10173 10175 10178 10181 10184 10187 10190 10193 10195 10198 10201 10204 10207 10209 10212 10215 10218 10221 10224 10227 10230 10232 10235 10238 10241 10243 10246 10249 10252 10254 10257 10260 10263 10266 10269 10272 10275 10278 10281 10284 10286 10289 10292 10294 10296 10299 10302 10305 10308 10310 10313 10316 10319 10321 10324 10327 10330 10332 10335 10338 10341 10344 10347 10350 10353 10356 10359 10362 10365 10368 10371 10374 10377 10380 10382 10385 10388 10391 10394 10397 10400 10403 10406 10408 10411 10413 10416 10419 10421 10424 10427 10429 10432 10435 10438 10441 10444 10447 10450 10453 10456 10458 10461 10464 10467 10470 10473 10476 10479 10482 10485 10488 10491 10494 10497 10500 10503 10506 10508 10511 10514 10516 10518 10521 10524 10527 10529 10532 10535 10538 10541 10543 10546 10549 10551 10554 10557 10560 10563 10566 10569 10572 10574 10577 10580 10583 10586 10589 10592 10595 10598 10600 10602 10605 10608 10611 10613 10616 10619 10622 10625 10628 10631 10633 10636 10639 10642 10645 10648 10651 10654 10657 10660 10662 10665 10668 10671 10674 10677 10679 10682 10685 10688 10691 10694 10697 10700 10703 10706 10709 10712 10715 10718 10720 10723 10726 10729 10732 10735 10738 10741 10744 10746 10749 10752 10755 10758 10761 10764 10766 10769 10771 10774 10776 10779 10782 10785 10788 10791 10794 10797 10800 10803 10805 10808 10811 10814 10817 10820 10823 10826 10829 10832 10835 10838 10840 10843 10846 10849 10852 10855 10858 10860 10863 10866 10869 10872 10875 10878 10881 10884 10887 10890 10893 10896 10899 10902 10905 10907 10910 10913 10916 10919 10922 10925 10928 10931 10934 10937 10940 10943 10946 10949 10952 10954 10957 10960 10963 10966 10969 10972 10975 10978 10981 10984 10986 10989 10992 10995 10998 11001 11003 11006 11009 11012 11015 11018 11021 11024 11027 11030 11033 11036 11039 11042 11045 11048 11051 11054 11057 11059 11062 11065 11068 11071 11074 11077 11080 11082 11085 11088 11091 11094 11097 11100 11102 11105 11108 11111 11114 11117 11120 11123 11126 11129 11132 11135 11138 11141 11144 11147 11150 11153 11156 11159 11162 11165 11168 11171 11173 11176 11179 11182 11185 11188 11191 11194 11197 11200 11203 11206 11209 11212 11215 11218 11221 11224 11227 11230 11233 11236 11239 11242 11245 11248 11251 11254 11257 11260 11263 11265 11268 11271 11274 11277 11279 11282 11285 11288 11290 11293 11296 11298 11301 11303 11306 11308 11311 11314 11316 11319 11321 11324 11327 11330 11333 11335 11337 11340 11343 11346 11348 11350 11353 11356 11359 11362 11365 11368 11371 11374 11377 11380 11383 11386 11389 11392 11395 11398 11400 11403 11406 11409 11412 11414 11417 11419 11422 11425 11428 11431 11434 11437 11440 11443 11446 11449 11452 11455 11458 11461 11463 11466 11469 11472 11474 11477 11480 11483 11486 11489 11492 11495 11498 11501 11504 11507 11510 11513 11516 11519 11522 11525 11528 11531 11534 11537 11540 11543 11546 11549 11552 11555 11558 11561 11564 11567 11570 11573 11575 11578 11581 11584 11587 11590 11593 11596 11599 11602 11605 11607 11610 11613 11616 11619 11622 11625 11628 11631 11634 11637 11640 11643 11646 11649 11652 11655 11658 11661 11664 11667 11670 11673 11676 11679 11682 11685 11688 11691 11694 11697 11700 11703 11706 11709 11712 11715 11718 11721 11724 11727 11729 11732 11735 11738 11740 11743 11746 11748 11751 11754 11757 11760 11762 11764 11766 11769 11772 11775 11778 11781 11783 11786 11789 11792 11794 11796 11799 11801 11804 11807 11810 11813 11816 11819 11822 11825 11828 11830 11833 11836 11839 11842 11845 11848 11851 11854 11857 11860 11862 11865 11868 11871 11874 11877 11880 11883 11886 11889 11892 11895 11898 11901 11903 11906 11909 11912 11914 11917 11919 11922 11925 11927 11930 11933 11936 11939 11942 11945 11948 11951 11954 11956 11959 11962 11965 11968 11971 11974 11977 11980 11983 11986 11989 11992 11995 11998 12001 12004 12007 12010 12013 12016 12019 12022 12025 12027 12030 12032 12035 12038 12041 12043 12045 12048 12051 12054 12057 12060 12063 12065 12068 12071 12074 12077 12079 12082 12085 12088 12091 12093 12096 12099 12102 12105 12108 12111 12114 12117 12120 12123 12126 12129 12131 12134 12136 12139 12141 12144 12147 12150 12153 12156 12159 12161 12164 12167 12170 12173 12176 12179 12182 12184 12187 12190 12193 12195 12198 12200 12203 12206 12209 12211 12214 12217 12220 12223 12226 12229 12232 12235 12238 12241 12244 12247 12249 12252 12254 12257 12260 12263 12266 12269 12272 12275 12277 12280 12283 12286 12289 12292 12295 12298 12301 12304 12307 12310 12313 12316 12318 12321 12324 12327 12330 12332 12335 12338 12341 12344 12347 12349 12352 12354 12357 12360 12362 12365 12368 12371 12374 12376 12378 12381 12384 12387 12389 12392 12395 12398 12401 12403 12406 12408 12411 12414 12417 12419 12422 12425 12427 12430 12433 12436 12439 12441 12444 12446 12449 12452 12455 12458 12461 12464 12467 12470 12473 12476 12479 12482 12485 12488 12491 12494 12497 12500 12503 12506 12509 12512 12515 12518 12520 12523 12525 12528 12531 12534 12537 12540 12543 12545 12548 12551 12554 12557 12559 12561 12564 12567 12570 12573 12576 12579 12582 12585 12588 12591 12594 12597 12600 12603 12606 12609 12612 12615 12618 12621 12624 12627 12630 12633 12636 12639 12642 12645 12648 12651 12654 12657 12660 12663 12666 12669 12672 12674 12676 12679 12682 12685 12688 12691 12694 12697 12700 12703 12706 12709 12712 12715 12718 12720 12723 12726 12728 12731 12734 12737 12740 12743 12746 12749 12752 12755 12758 12761 12764 12767 12770 12773 12776 12779 12782 12785 12788 12791 12794 12797 12799 12802 12805 12808 12811 12814 12817 12820 12823 12826 12829 12832 12835 12838 12841 12844 12847 12850 12853 12856 12859 12862 12864 12867 12870 12873 12876 12878 12881 12884 12887 12890 12893 12896 12899 12902 12905 12908 12910 12913 12916 12919 12922 12925 12928 12931 12934 12937 12940 12943 12946 12949 12952 12955 12958 12961 12964 12967 12970 12973 12975 12978 12980 12983 12986 12989 12992 12995 12998 13001 13004 13007 13010 13012 13015 13018 13021 13024 13027 13030 13033 13036 13039 13042 13045 13048 13051 13054 13057 13060 13063 13066 13069 13072 13075 13078 13081 13084 13087 13090 13093 13096 13099 13102 13104 13107 13110 13113 13116 13119 13121 13124 13127 13130 13133 13135 13137 13139 13142 13145 13148 13151 13154 13157 13160 13163 13166 13168 13171 13173 13176 13179 13181 13184 13187 13190 13193 13195 13198 13201 13204 13207 13210 13213 13216 13219 13222 13225 13227 13229 13231 13234 13237 13240 13243 13246 13249 13251 13254 13257 13260 13263 13266 13269 13272 13275 13278 13281 13284 13286 13288 13291 13294 13297 13300 13303 13305 13308 13311 13314 13317 13320 13323 13326 13329 13332 13335 13338 13341 13344 13347 13350 13352 13355 13358 13361 13364 13366 13369 13372 13375 13378 13381 13384 13387 13390 13393 13396 13399 13402 13405 13408 13411 13414 13416 13419 13422 13425 13428 13431 13434 13437 13440 13443 13446 13449 13452 13455 13458 13461 13464 13467 13469 13472 13475 13478 13481 13484 13487 13490 13492 13495 13498 13501 13504 13506 13509 13512 13515 13518 13520 13523 13525 13528 13531 13534 13537 13539 13541 13544 13546 13549 13552 13554 13557 13560 13563 13566 13569 13572 13575 13578 13581 13584 13587 13590 13593 13596 13599 13602 13605 13608 13611 13614 13617 13620 13623 13625 13628 13631 13634 13637 13639 13642 13645 13647 13650 13653 13656 13659 13662 13665 13668 13670 13673 13676 13679 13682 13684 13686 13689 13692 13695 13697 13699 13701 13703 13705 13708 13711 13714 13717 13720 13723 13726 13729 13732 13735 13737 13740 13743 13745 13748 13751 13754 13756 13759 13762 13765 13768 13771 13774 13777 13780 13783 13785 13787 13790 13793 13796 13799 13802 13805 13807 13809 13812 13815 13817 13820 13822 13825 13827 13830 13833 13836 13839 13842 13844 13847 13849 13852 13854 13857 13860 13863 13866 13869 13872 13875 13878 13880 13883 13886 13889 13892 13894 13897 13899 13902 13905 13908 13911 13914 13917 13920 13923 13926 13928 13931 13934 13937 13940 13943 13945 13948 13951 13954 13956 13959 13962 13964 13966 13969 13972 13975 13978 13980 13983 13985 13988 13991 13994 13997 14000 14003 14006 14009 14012 14015 14018 14021 14024 14027 14030 14032 14035 14037 14040 14043 14045 14047 14050 14052 14054 14057 14060 14062 14065 14068 14071 14074 14076 14079 14082 14084 14087 14089 14092 14094 14097 14099 14102 14105 14108 14110 14113 14115 14118 14120 14123 14126 14129 14131 14134 14137 14139 14142 14145 14148 14151 14154 14157 14160 14163 14166 14169 14172 14175 14178 14181 14184 14186 14188 14191 14194 14197 14200 14203 14206 14209 14212 14214 14217 14220 14223 14226 14229 14232 14235 14238 14241 14244 14247 14250 14253 14256 14259 14261 14264 14267 14270 14273 14275 14278 14281 14284 14287 14290 14293 14295 14298 14301 14304 14307 14309 14312 14315 14317 14320 14323 14326 14329 14332 14334 14337 14340 14343 14346 14349 14352 14355 14357 14360 14363 14366 14369 14371 14374 14377 14380 14383 14386 14389 14392 14395 14397 14400 14402 14405 14408 14411 14413 14416 14419 14422 14425 14428 14430 14433 14435 14438 14440 14443 14446 14449 14452 14455 14458 14461 14464 14467 14470 14473 14476 14479 14482 14485 14488 14491 14494 14497 14500 14503 14506 14509 14512 14515 14518 14521 14524 14527 14529 14532 14534 14537 14540 14543 14546 14549 14551 14554 14557 14560 14563 14566 14569 14572 14575 14578 14581 14584 14587 14590 14593 14596 14599 14602 14605 14608 14611 14614 14617 14620 14623 14626 14629 14632 14635 14638 14641 14644 14647 14650 14653 14656 14659 14661 14664 14667 14670 14673 14676 14679 14682 14685 14688 14691 14694 14697 14700 14703 14706 14709 14712 14715 14718 14721 14724 14727 14730 14733 14736 14739 14742 14745 14748 14751 14754 14757 14760 14763 14766 14769 14772 14775 14778 14781 14784 14787 14790 14793 14796 14799 14802 14805 14808 14811 14814 14817 14820 14823 14826 14829 14832 14835 14838 14841 14844 14847 14850 14852 14854 14857 14860 14863 14866 14869 14872 14875 14878 14881 14884 14887 14890 14893 14896 14899 14902 14905 14908 14911 14914 14917 14920 14922 14925 14928 14931 14934 14937 14940 14943 14945 14948 14951 14954 14956 14959 14962 14965 14968 14971 14973 14975 14977 14980 14983 14986 14989 14992 14995 14998 15001 15003 15006 15009 15011 15013 15016 15019 15022 15024 15027 15030 15032 15035 15038 15041 15044 15047 15050 15053 15055 15058 15060 15063 15066 15069 15071 15074 15077 15080 15083 15086 15089 15092 15095 15098 15101 15104 15107 15110 15113 15116 15118 15121 15123 15126 15129 15132 15135 15138 15141 15144 15147 15150 15153 15156 15159 15162 15165 15168 15171 15174 15177 15180 15182 15185 15188 15191 15193 15196 15199 15202 15205 15208 15211 15214 15217 15220 15223 15226 15229 15232 15235 15238 15241 15244 15247 15250 15253 15256 15259 15262 15265 15268 15271 15274 15277 15280 15283 15286 15289 15292 15295 15297 15300 15303 15306 15309 15312 15315 15318 15321 15324 15327 15330 15332 15335 15338 15341 15344 15347 15350 15353 15356 15359 15362 15365 15368 15371 15374 15377 15380 15382 15385 15387 15390 15393 15396 15399 15402 15405 15408 15411 15414 15417 15420 15423 15426 15428 15431 15434 15437 15440 15443 15446 15448 15451 15454 15457 15460 15463 15466 15469 15471 15474 15477 15480 15483 15485 15488 15490 15493 15496 15499 15502 15505 15508 15511 15513 15516 15519 15521 15524 15526 15529 15532 15535 15537 15540 15543 15546 15549 15552 15555 15558 15561 15564 15567 15569 15571 15573 15576 15579 15581 15584 15587 15589 15592 15595 15598 15601 15604 15606 15609 15612 15615 15617 15620 15623 15625 15628 15630 15633 15636 15639 15642 15645 15648 15651 15654 15657 15660 15663 15666 15669 15672 15675 15678 15681 15684 15687 15690 15692 15695 15697 15700 15702 15704 15707 15710 15713 15716 15719 15722 15725 15728 15731 15734 15737 15740 15743 15746 15749 15752 15755 15758 15761 15764 15767 15770 15773 15776 15779 15782 15785 15788 15791 15793 15796 15799 15802 15805 15808 15811 15814 15817 15820 15823 15826 15829 15832 15835 15837 15840 15843 15846 15849 15852 15854 15857 15860 15863 15866 15869 15872 15875 15878 15881 15883 15886 15889 15892 15895 15897 15900 15903 15906 15909 15912 15915 15917 15919 15922 15925 15927 15930 15933 15936 15939 15942 15945 15948 15951 15954 15957 15960 15963 15966 15969 15972 15975 15978 15981 15984 15987 15990 15992 15995 15998 16001 16004 16006 16009 16012 16015 16018 16021 16024 16026 16029 16032 16035 16038 16041 16044 16047 16050 16053 16056 16059 16062 16065 16068 16071 16074 16077 16080 16083 16086 16089 16092 16095 16098 16101 16104 16107 16110 16113 16116 16119 16122 16125 16128 16131 16134 16137 16140 16143 16146 16149 16152 16155 16158 16161 16164 16167 16170 16173 16176 16179 16182 16185 16188 16191 16194 16197 16200 16203 16205 16208 16211 16214 16217 16220 16223 16226 16229 16231 16234 16236 16239 16242 16245 16248 16251 16254 16257 16259 16262 16265 16268 16271 16274 16277 16280 16283 16286 16289 16291 16294 16297 16300 16303 16306 16309 16312 16315 16318 16321 16324 16327 16330 16333 16336 16339 16342 16345 16348 16351 16353 16356 16359 16362 16365 16367 16370 16373 16376 16379 16381 16384 16387 16390 16393 16396 16399 16402 16405 16407 16410 16413 16416 16419 16422 16425 16428 16431 16434 16437 16440 16443 16445 16448 16451 16454 16456 16459 16462 16465 16468 16471 16473 16476 16479 16482 16485 16487 16490 16493 16496 16498 16501 16504 16507 16510 16513 16516 16519 16522 16524 16527 16530 16533 16536 16539 16541 16544 16547 16550 16552 16555 16558 16560 16563 16566 16568 16571 16574 16577 16580 16583 16585 16588 16591 16594 16597 16600 16603 16606 16609 16612 16615 16618 16621 16624 16627 16630 16633 16635 16638 16640 16643 16646 16649 16652 16655 16657 16660 16663 16666 16669 16672 16675 16677 16680 16683 16686 16689 16692 16695 16698 16701 16703 16705 16708 16711 16714 16716 16719 16722 16725 16728 16730 16733 16736 16738 16741 16743 16746 16749 16752 16754 16757 16759 16761 16764 16767 16769 16772 16775 16777 16780 16783 16786 16789 16791 16794 16797 16799 16802 16804 16806 16809 16812 16815 16818 16821 16824 16827 16830 16833 16836 16839 16842 16845 16848 16851 16854 16857 16859 16862 16864 16867 16870 16873 16875 16878 16881 16883 16886 16888 16890 16893 16896 16898 16901 16904 16906 16908 16911 16913 16915 16918 16921 16924 16927 16930 16933 16936 16939 16942 16945 16947 16950 16953 16956 16959 16962 16965 16968 16971 16974 16976 16979 16982 16985 16988 16991 16994 16997 17000 17003 17006 17009 17012 17015 17018 17021 17024 17027 17030 17033 17036 17039 17042 17045 17048 17051 17054 17057 17060 17063 17066 17069 17072 17075 17078 17081 17084 17087 17090 17093 17096 17099 17102 17105 17108 17111 17114 17116 17119 17122 17125 17128 17130 17133 17136 17139 17142 17145 17148 17150 17153 17156 17159 17162 17164 17167 17170 17173 17175 17177 17180 17183 17186 17189 17192 17195 17198 17201 17204 17206 17209 17211 17214 17217 17220 17223 17226 17229 17232 17235 17238 17241 17244 17247 17250 17253 17256 17259 17262 17265 17268 17271 17274 17277 17280 17283 17286 17289 17292 17295 17298 17301 17304 17307 17310 17313 17316 17319 17322 17324 17327 17330 17332 17335 17338 17341 17344 17347 17350 17353 17356 17359 17362 17365 17368 17371 17373 17375 17377 17380 17383 17386 17388 17390 17392 17395 17398 17401 17404 17407 17410 17413 17416 17419 17422 17425 17428 17431 17434 17437 17440 17442 17445 17448 17450 17453 17456 17459 17462 17465 17468 17471 17473 17476 17479 17482 17485 17488 17491 17494 17497 17500 17503 17506 17509 17512 17515 17518 17521 17524 17527 17530 17533 17536 17539 17542 17545 17548 17551 17554 17557 17560 17563 17566 17569 17571 17574 17577 17580 17583 17586 17589 17592 17595 17598 17601 17603 17606 17609 17612 17614 17617 17620 17623 17626 17629 17632 17634 17636 17639 17642 17645 17648 17650 17653 17655 17658 17661 17664 17667 17670 17673 17676 17679 17682 17685 17688 17691 17693 17696 17699 17702 17705 17708 17711 17714 17717 17720 17723 17726 17729 17731 17734 17737 17740 17743 17746 17749 17752 17755 17758 17761 17764 17767 17770 17773 17775 17778 17781 17784 17786 17788 17791 17794 17797 17800 17803 17806 17808 17811 17814 17817 17820 17823 17826 17829 17832 17835 17838 17841 17844 17847 17850 17853 17856 17859 17862 17865 17867 17870 17873 17876 17879 17882 17885 17888 17891 17894 17897 17900 17903 17906 17909 17912 17915 17918 17921 17924 17927 17930 17933 17935 17938 17941 17944 17947 17950 17953 17956 17959 17961 17964 17967 17970 17973 17976 17979 17982 17985 17988 17991 17994 17997 18000 18003 18006 18009 18012 18015 18018 18021 18024 18026 18029 18032 18034 18037 18040 18043 18046 18049 18052 18055 18058 18061 18064 18067 18070 18073 18076 18079 18082 18085 18088 18091 18094 18097 18100 18103 18106 18109 18112 18115 18118 18121 18123 18126 18129 18132 18135 18138 18141 18144 18147 18149 18152 18155 18158 18160 18163 18166 18169 18171 18174 18177 18180 18183 18186 18188 18191 18194 18197 18200 18203 18206 18208 18210 18213 18215 18217 18220 18223 18225 18228 18231 18234 18237 18240 18243 18246 18249 18252 18255 18258 18261 18264 18267 18270 18273 18276 18279 18282 18285 18288 18291 18294 18297 18300 18303 18306 18309 18312 18315 18318 18321 18324 18327 18330 18333 18336 18339 18342 18345 18348 18351 18354 18357 18360 18363 18366 18369 18372 18375 18378 18381 18384 18387 18390 18393 18396 18399 18402 18405 18408 18411 18414 18417 18420 18423 18426 18429 18432 18435 18438 18441 18444 18447 18450 18453 18456 18459 18462 18465 18468 18471 18474 18477 18480 18483 18486 18489 18492 18495 18498 18501 18504 18507 18509 18512 18515 18518 18521 18524 18527 18530 18533 18536 18539 18542 18545 18548 18551 18554 18557 18560 18563 18566 18569 18572 18575 18578 18581 18584 18587 18590 18593 18596 18599 18602 18605 18608 18611 18614 18617 18620 18623 18625 18628 18631 18634 18637 18640 18643 18646 18649 18652 18655 18658 18661 18664 18667 18670 18673 18675 18678 18681 18684 18687 18690 18693 18695 18697 18700 18703 18705 18708 18711 18713 18716 18719 18722 18725 18727 18730 18733 18736 18739 18742 18745 18748 18751 18754 18757 18760 18763 18766 18769 18772 18775 18778 18781 18784 18787 18790 18793 18796 18799 18802 18805 18808 18811 18814 18817 18820 18823 18826 18828 18831 18834 18837 18840 18842 18845 18848 18851 18853 18856 18859 18862 18865 18868 18871 18873 18876 18879 18882 18885 18888 18891 18894 18897 18900 18902 18905 18908 18911 18914 18917 18920 18923 18926 18929 18932 18934 18937 18940 18943 18945 18948 18950 18953 18956 18958 18960 18962 18965 18968 18971 18974 18976 18979 18982 18985 18988 18991 18994 18997 19000 19003 19006 19009 19012 19015 19018 19020 19023 19026 19029 19032 19035 19037 19040 19042 19045 19048 19050 19053 19056 19059 19062 19065 19068 19070 19073 19076 19079 19082 19084 19087 19090 19093 19096 19099 19101 19103 19106 19109 19111 19114 19117 19120 19123 19126 19129 19132 19134 19136 19139 19141 19144 19147 19150 19152 19155 19158 19161 19163 19166 19169 19172 19174 19177 19180 19183 19186 19189 19192 19194 19196 19199 19202 19205 19208 19211 19213 19216 19218 19221 19224 19226 19228 19231 19234 19236 19239 19241 19243 19246 19249 19251 19254 19256 19259 19262 19264 19266 19269 19272 19275 19278 19281 19284 19287 19289 19292 19294 19297 19299 19302 19305 19308 19311 19313 19316 19319 19322 19325 19328 19331 19334 19337 19340 19342 19345 19348 19351 19354 19357 19360 19363 19365 19368 19371 19374 19376 19379 19381 19384 19387 19390 19393 19395 19398 19400 19403 19405 19408 19410 19413 19416 19419 19421 19424 19427 19430 19433 19435 19438 19441 19444 19447 19450 19453 19455 19458 19460 19463 19466 19468 19471 19474 19477 19480 19483 19486 19488 19491 19494 19497 19500 19503 19506 19509 19512 19515 19518 19521 19523 19526 19528 19531 19534 19536 19538 19541 19544 19547 19550 19552 19555 19557 19559 19562 19564 19567 19570 19572 19575 19578 19581 19584 19586 19589 19592 19595 19598 19601 19604 19606 19609 19612 19615 19618 19621 19624 19627 19630 19633 19635 19638 19641 19644 19646 19649 19652 19655 19658 19661 19664 19667 19670 19673 19676 19679 19682 19685 19688 19691 19694 19697 19700 19702 19705 19708 19711 19714 19717 19719 19721 19724 19727 19730 19732 19735 19738 19741 19743 19746 19749 19752 19755 19758 19761 19764 19767 19770 19773 19776 19779 19782 19785 19788 19791 19794 19797 19800 19803 19806 19809 19812 19815 19818 19821 19824 19827 19830 19833 19836 19838 19841 19844 19847 19850 19853 19855 19858 19861 19864 19867 19870 19873 19876 19879 19882 19885 19888 19891 19894 19897 19900 19902 19905 19908 19911 19913 19916 19919 19922 19925 19928 19931 19934 19937 19940 19943 19946 19949 19952 19955 19958 19961 19964 19967 19970 19973 19976 19979 19982 19985 19988 19991 19994 19996 19999 20002 20005 20008 20011 20014 20016 20019 20022 20024 20027 20030 20033 20036 20038 20041 20044 20046 20048 20051 20054 20057 20059 20062 20065 20068 20070 20073 20076 20079 20082 20085 20088 20091 20094 20097 20100 20103 20106 20109 20111 20114 20117 20120 20123 20126 20129 20132 20135 20138 20141 20144 20147 20150 20153 20156 20159 20162 20165 20168 20171 20173 20176 20179 20182 20185 20188 20191 20194 20197 20199 20202 20205 20208 20210 20213 20216 20219 20222 20225 20228 20231 20234 20237 20240 20242 20245 20248 20251 20254 20257 20260 20263 20266 20269 20271 20274 20277 20279 20282 20284 20287 20290 20293 20296 20299 20302 20305 20308 20311 20313 20315 20318 20321 20324 20327 20330 20332 20335 20338 20340 20342 20344 20347 20350 20353 20356 20359 20362 20364 20367 20369 20372 20375 20377 20379 20382 20385 20387 20390 20393 20396 20399 20402 20404 20407 20410 20413 20416 20419 20422 20425 20428 20431 20434 20437 20439 20442 20445 20448 20450 20452 20455 20458 20461 20464 20467 20470 20473 20476 20479 20482 20484 20487 20490 20492 20495 20497 20499 20502 20504 20507 20509 20512 20514 20517 20520 20523 20526 20529 20532 20534 20536 20539 20542 20545 20548 20551 20554 20557 20559 20562 20564 20567 20570 20573 20576 20579 20582 20585 20587 20590 20593 20596 20599 20602 20605 20607 20610 20613 20616 20619 20622 20625 20628 20631 20634 20636 20639 20642 20645 20648 20650 20653 20656 20659 20662 20665 20668 20671 20674 20677 20680 20683 20686 20689 20692 20695 20698 20701 20704 20707 20710 20713 20716 20719 20722 20725 20728 20731 20734 20737 20740 20743 20746 20748 20751 20754 20757 20760 20763 20766 20769 20772 20775 20778 20780 20783 20785 20788 20791 20793 20796 20799 20802 20805 20808 20811 20814 20817 20820 20823 20826 20829 20831 20834 20836 20839 20842 20845 20848 20851 20854 20857 20860 20863 20866 20869 20872 20875 20878 20881 20883 20886 20889 20892 20895 20898 20900 20902 20905 20908 20910 20913 20916 20919 20922 20925 20928 20931 20934 20937 20940 20943 20945 20948 20951 20954 20957 20959 20962 20965 20968 20971 20974 20977 20979 20981 20983 20986 20988 20991 20993 20995 20998 21000 21002 21004 21007 21010 21013 21015 21018 21020 21023 21026 21028 21031 21034 21037 21040 21043 21046 21048 21051 21053 21056 21059 21062 21065 21068 21071 21073 21076 21079 21082 21084 21087 21090 21093 21095 21098 21100 21103 21106 21109 21111 21114 21117 21120 21123 21126 21128 21131 21134 21137 21140 21143 21146 21149 21152 21155 21158 21161 21164 21166 21168 21171 21174 21177 21180 21183 21186 21188 21191 21193 21196 21199 21201 21204 21207 21210 21213 21216 21219 21222 21225 21228 21231 21234 21237 21239 21242 21245 21248 21251 21254 21257 21260 21263 21265 21268 21270 21273 21275 21278 21281 21283 21286 21289 21292 21295 21298 21301 21304 21307 21310 21313 21316 21319 21321 21324 21327 21330 21333 21336 21338 21341 21344 21347 21350 21353 21356 21358 21361 21364 21367 21370 21373 21376 21379 21382 21385 21388 21391 21394 21397 21399 21402 21404 21407 21410 21413 21415 21418 21421 21424 21427 21430 21432 21435 21438 21441 21444 21446 21449 21451 21454 21457 21460 21463 21465 21468 21471 21474 21477 21479 21482 21485 21488 21491 21494 21497 21499 21502 21504 21506 21508 21511 21514 21516 21518 21521 21524 21527 21530 21532 21535 21537 21540 21543 21546 21548 21551 21554 21557 21560 21563 21566 21569 21572 21575 21578 21581 21584 21587 21590 21593 21596 21599 21602 21605 21608 21611 21614 21617 21620 21623 21626 21629 21632 21635 21637 21640 21643 21645 21647 21650 21653 21656 21659 21661 21663 21665 21668 21671 21674 21677 21679 21682 21684 21687 21690 21692 21694 21697 21700 21703 21706 21708 21711 21713 21715 21718 21721 21724 21727 21730 21733 21736 21739 21742 21745 21747 21750 21753 21755 21758 21761 21764 21767 21770 21772 21775 21778 21781 21784 21787 21790 21793 21795 21798 21800 21803 21806 21808 21811 21814 21817 21820 21823 21826 21829 21832 21835 21838 21840 21843 21846 21849 21852 21855 21858 21861 21864 21867 21869 21872 21874 21877 21880 21883 21886 21889 21892 21895 21898 21901 21904 21907 21910 21913 21916 21919 21921 21924 21927 21930 21933 21936 21939 21942 21945 21948 21951 21954 21957 21960 21963 21965 21968 21971 21974 21976 21979 21982 21985 21988 21991 21994 21997 21999 22002 22005 22008 22011 22014 22017 22020 22023 22026 22029 22031 22034 22037 22040 22043 22046 22049 22052 22055 22058 22061 22064 22067 22070 22073 22075 22078 22081 22084 22086 22089 22092 22095 22098 22101 22103 22106 22109 22112 22115 22118 22121 22124 22127 22130 22133 22136 22139 22142 22145 22148 22151 22154 22157 22159 22162 22165 22168 22171 22174 22177 22180 22183 22186 22189 22192 22195 22198 22201 22204 22206 22209 22212 22215 22218 22221 22224 22227 22230 22232 22235 22238 22241 22243 22246 22249 22252 22255 22257 22260 22263 22266 22269 22272 22275 22278 22281 22284 22287 22289 22291 22294 22297 22300 22302 22305 22308 22311 22313 22316 22319 22322 22325 22328 22330 22333 22336 22339 22342 22345 22348 22351 22354 22357 22359 22362 22365 22367 22370 22373 22376 22379 22382 22385 22388 22390 22393 22395 22398 22401 22403 22406 22408 22411 22413 22416 22419 22422 22425 22428 22431 22433 22436 22439 22442 22445 22448 22451 22453 22456 22459 22461 22464 22467 22470 22472 22475 22477 22480 22482 22485 22487 22490 22493 22495 22498 22500 22503 22506 22508 22510 22512 22515 22518 22521 22524 22527 22530 22532 22535 22538 22540 22543 22546 22548 22551 22553 22556 22559 22562 22565 22568 22571 22574 22577 22579 22582 22585 22587 22590 22592 22595 22598 22601 22604 22607 22610 22613 22616 22619 22622 22625 22628 22631 22634 22637 22640 22642 22645 22647 22650 22653 22656 22659 22661 22664 22666 22669 22672 22675 22678 22681 22683 22686 22688 22691 22694 22697 22700 22703 22706 22709 22711 22714 22717 22720 22723 22726 22729 22731 22734 22736 22739 22741 22744 22747 22750 22753 22755 22758 22761 22764 22767 22770 22773 22776 22778 22781 22783 22786 22788 22791 22794 22797 22799 22802 22805 22808 22811 22814 22817 22820 22823 22826 22829 22832 22835 22838 22840 22843 22846 22849 22852 22855 22858 22861 22864 22867 22869 22872 22875 22877 22880 22883 22886 22888 22891 22894 22896 22899 22902 22904 22907 22909 22912 22915 22918 22921 22924 22927 22930 22933 22936 22939 22942 22945 22948 22950 22953 22955 22958 22961 22964 22967 22970 22972 22975 22978 22980 22983 22986 22989 22992 22994 22997 23000 23003 23006 23009 23011 23014 23017 23019 23022 23024 23027 23029 23031 23034 23037 23040 23042 23045 23048 23051 23054 23056 23059 23061 23064 23067 23070 23073 23076 23079 23082 23085 23088 23091 23094 23097 23100 23103 23106 23109 23112 23115 23118 23121 23123 23126 23129 23132 23134 23137 23140 23143 23146 23149 23152 23155 23158 23161 23164 23167 23170 23173 23176 23178 23181 23184 23187 23190 23193 23196 23199 23202 23205 23208 23211 23214 23217 23220 23223 23226 23229 23232 23235 23238 23241 23244 23247 23250 23253 23255 23258 23261 23264 23267 23270 23273 23276 23279 23282 23285 23288 23291 23294 23297 23300 23303 23306 23309 23312 23315 23318 23321 23323 23325 23328 23331 23334 23337 23339 23342 23345 23348 23351 23354 23357 23360 23363 23366 23369 23372 23375 23378 23381 23384 23387 23389 23391 23394 23397 23399 23401 23404 23406 23409 23412 23415 23417 23420 23423 23425 23428 23431 23434 23436 23439 23442 23445 23447 23450 23453 23456 23459 23461 23464 23466 23469 23472 23475 23478 23480 23482 23485 23488 23491 23494 23497 23500 23502 23505 23508 23511 23513 23516 23519 23522 23525 23528 23531 23534 23537 23539 23542 23545 23548 23550 23552 23555 23558 23560 23563 23566 23569 23571 23574 23577 23580 23583 23586 23589 23592 23594 23597 23600 23603 23606 23608 23611 23614 23617 23619 23621 23624 23627 23629 23631 23634 23637 23640 23643 23646 23649 23652 23655 23658 23661 23664 23667 23670 23673 23676 23679 23682 23685 23688 23691 23693 23696 23699 23701 23704 23707 23710 23712 23715 23718 23721 23724 23726 23729 23731 23734 23736 23738 23741 23744 23746 23749 23752 23754 23756 23759 23762 23765 23768 23771 23774 23777 23780 23783 23786 23789 23791 23794 23797 23799 23802 23804 23807 23810 23812 23815 23818 23820 23823 23826 23829 23832 23834 23837 23840 23843 23845 23848 23851 23854 23856 23859 23862 23865 23868 23871 23874 23877 23880 23882 23885 23888 23891 23894 23897 23900 23903 23906 23909 23912 23914 23917 23920 23923 23926 23929 23932 23935 23938 23940 23943 23946 23949 23952 23955 23958 23960 23963 23966 23969 23972 23975 23978 23981 23983 23986 23989 23992 23995 23998 24001 24004 24007 24010 24013 24016 24019 24022 24024 24027 24030 24033 24036 24039 24041 24044 24047 24050 24053 24056 24059 24062 24065 24068 24071 24074 24077 24080 24083 24086 24089 24092 24095 24098 24101 24104 24107 24110 24113 24116 24118 24121 24124 24127 24130 24133 24136 24139 24142 24145 24147 24150 24153 24156 24159 24162 24165 24167 24170 24173 24176 24179 24182 24185 24188 24191 24194 24197 24200 24203 24206 24209 24212 24215 24218 24221 24224 24227 24230 24233 24236 24239 24241 24243 24246 24249 24252 24254 24257 24260 24263 24265 24268 24271 24274 24277 24280 24283 24286 24289 24292 24295 24298 24301 24304 24307 24310 24313 24316 24319 24321 24324 24327 24330 24333 24336 24339 24342 24345 24348 24351 24354 24357 24360 24363 24366 24369 24371 24374 24377 24380 24383 24386 24389 24392 24395 24398 24401 24404 24407 24410 24412 24414 24417 24420 24423 24426 24429 24432 24435 24438 24441 24443 24446 24449 24452 24455 24458 24461 24463 24466 24469 24472 24475 24477 24480 24483 24486 24489 24492 24495 24497 24500 24503 24506 24509 24512 24515 24518 24521 24524 24527 24530 24533 24536 24539 24542 24545 24548 24550 24553 24556 24558 24561 24564 24567 24570 24572 24574 24577 24580 24583 24586 24589 24592 24594 24596 24599 24602 24605 24607 24610 24612 24615 24618 24621 24623 24626 24629 24632 24635 24638 24641 24644 24647 24650 24653 24655 24658 24660 24663 24666 24669 24671 24674 24677 24680 24683 24686 24689 24692 24695 24698 24701 24704 24707 24710 24713 24716 24719 24722 24725 24728 24731 24734 24737 24740 24743 24746 24749 24752 24755 24758 24761 24764 24767 24770 24772 24774 24777 24780 24782 24785 24788 24791 24794 24797 24800 24802 24804 24807 24810 24813 24816 24819 24822 24825 24828 24831 24834 24837 24840 24843 24845 24848 24851 24854 24857 24860 24863 24866 24869 24872 24875 24878 24881 24884 24887 24890 24893 24896 24899 24902 24905 24908 24911 24914 24917 24920 24923 24926 24929 24932 24935 24938 24941 24944 24947 24950 24953 24956 24959 24962 24965 24968 24971 24974 24977 24980 24983 24986 24989 24992 24995 24998 25001 25004 25007 25010 25013 25016 25019 25022 25025 25028 25031 25034 25037 25040 25043 25046 25049 25052 25055 25057 25060 25063 25066 25068 25071 25074 25077 25080 25083 25086 25089 25092 25095 25098 25101 25104 25107 25110 25113 25116 25118 25121 25124 25127 25130 25133 25136 25139 25142 25145 25148 25151 25154 25157 25160 25163 25166 25169 25172 25175 25178 25180 25183 25186 25189 25192 25195 25198 25201 25203 25206 25209 25211 25214 25217 25220 25223 25226 25229 25231 25234 25237 25240 25243 25246 25249 25252 25255 25258 25261 25264 25266 25269 25272 25275 25278 25281 25284 25287 25289 25292 25295 25298 25301 25303 25306 25309 25311 25314 25317 25320 25323 25326 25329 25332 25335 25338 25341 25344 25347 25349 25352 25355 25358 25360 25363 25366 25369 25372 25375 25378 25381 25384 25387 25390 25392 25395 25398 25401 25404 25407 25410 25413 25416 25419 25421 25424 25427 25430 25433 25436 25439 25442 25445 25448 25451 25454 25457 25460 25463 25466 25468 25471 25474 25476 25478 25481 25484 25487 25490 25492 25495 25498 25501 25504 25507 25509 25512 25515 25517 25520 25523 25526 25529 25532 25535 25538 25541 25544 25547 25550 25553 25556 25559 25562 25565 25568 25571 25574 25577 25579 25582 25585 25588 25591 25594 25597 25600 25603 25606 25609 25611 25614 25617 25619 25622 25625 25628 25630 25633 25636 25638 25641 25644 25647 25650 25653 25655 25658 25661 25664 25666 25669 25672 25675 25677 25680 25682 25685 25688 25691 25694 25697 25700 25703 25705 25708 25711 25714 25717 25719 25722 25725 25727 25730 25733 25736 25739 25742 25744 25747 25750 25753 25755 25757 25760 25763 25766 25769 25772 25774 25777 25780 25783 25786 25789 25792 25794 25797 25800 25803 25806 25809 25812 25815 25818 25821 25824 25827 25830 25832 25835 25837 25840 25843 25846 25849 25851 25854 25857 25860 25863 25865 25868 25871 25873 25876 25879 25882 25884 25887 25890 25893 25896 25899 25902 25905 25908 25910 25913 25916 25919 25922 25925 25928 25931 25934 25937 25940 25943 25946 25949 25952 25955 25958 25961 25964 25967 25969 25972 25975 25978 25981 25984 25987 25989 25992 25995 25998 26001 26004 26007 26010 26013 26016 26019 26022 26024 26027 26030 26033 26036 26039 26042 26045 26048 26051 26054 26057 26059 26062 26065 26068 26071 26074 26076 26079 26082 26085 26088 26090 26092 26095 26098 26100 26103 26105 26108 26110 26112 26114 26116 26119 26122 26125 26128 26131 26134 26136 26138 26141 26144 26147 26150 26152 26155 26158 26161 26164 26167 26169 26172 26175 26178 26181 26184 26186 26189 26192 26195 26198 26200 26203 26206 26208 26211 26214 26217 26219 26222 26224 26227 26230 26232 26235 26238 26241 26244 26247 26250 26253 26256 26259 26262 26265 26268 26271 26274 26277 26280 26283 26286 26289 26292 26295 26297 26300 26303 26306 26309 26312 26315 26318 26320 26323 26326 26329 26331 26334 26337 26340 26343 26345 26348 26351 26354 26357 26360 26362 26365 26368 26371 26374 26377 26380 26383 26386 26389 26392 26395 26398 26401 26404 26407 26410 26413 26416 26419 26422 26425 26428 26430 26433 26436 26439 26442 26445 26447 26450 26453 26456 26458 26461 26463 26466 26469 26472 26474 26477 26479 26482 26485 26488 26491 26494 26497 26500 26503 26506 26509 26512 26515 26518 26521 26524 26527 26530 26533 26535 26538 26541 26544 26547 26549 26552 26555 26557 26560 26563 26566 26569 26572 26575 26578 26581 26584 26587 26590 26593 26596 26598 26601 26604 26607 26610 26613 26615 26618 26621 26624 26627 26630 26632 26635 26638 26641 26643 26646 26648 26650 26653 26656 26659 26662 26665 26668 26671 26674 26677 26680 26683 26686 26689 26692 26695 26698 26700 26703 26706 26708 26711 26713 26716 26719 26722 26725 26728 26731 26734 26737 26740 26743 26746 26749 26752 26755 26757 26760 26763 26766 26768 26771 26774 26776 26779 26782 26784 26787 26789 26792 26795 26798 26801 26804 26807 26810 26813 26816 26819 26822 26825 26828 26831 26833 26836 26839 26841 26844 26847 26850 26853 26855 26858 26861 26864 26867 26870 26873 26876 26879 26882 26885 26888 26891 26894 26897 26900 26903 26906 26909 26912 26915 26918 26921 26924 26926 26929 26931 26934 26937 26939 26942 26945 26948 26951 26954 26956 26959 26962 26965 26968 26971 26974 26977 26980 26983 26986 26989 26992 26995 26998 27000 27003 27006 27009 27012 27015 27017 27020 27023 27026 27029 27032 27035 27038 27041 27044 27047 27050 27053 27056 27059 27062 27065 27068 27071 27074 27077 27080 27083 27086 27089 27091 27093 27095 27098 27100 27103 27106 27109 27112 27115 27118 27120 27123 27126 27128 27130 27133 27136 27139 27142 27145 27148 27151 27154 27157 27160 27163 27165 27168 27171 27174 27177 27179 27181 27184 27187 27190 27193 27196 27199 27201 27204 27207 27210 27213 27216 27218 27221 27224 27226 27228 27230 27233 27236 27238 27241 27244 27247 27250 27253 27255 27257 27260 27262 27265 27268 27271 27274 27277 27280 27283 27285 27288 27291 27294 27297 27300 27303 27306 27309 27312 27315 27318 27321 27324 27327 27330 27333 27336 27339 27342 27345 27348 27351 27354 27357 27360 27363 27366 27369 27371 27374 27377 27380 27383 27386 27389 27391 27393 27396 27399 27402 27405 27408 27411 27414 27417 27420 27422 27425 27428 27431 27434 27437 27440 27443 27446 27448 27451 27454 27457 27459 27462 27465 27468 27470 27473 27476 27478 27481 27484 27487 27490 27493 27495 27498 27501 27504 27507 27509 27511 27514 27517 27520 27523 27526 27528 27531 27534 27537 27540 27543 27546 27549 27552 27555 27558 27561 27564 27567 27569 27572 27575 27578 27581 27584 27587 27590 27593 27596 27599 27602 27605 27608 27611 27614 27617 27620 27623 27626 27629 27632 27635 27638 27641 27644 27647 27650 27653 27656 27659 27662 27665 27668 27671 27674 27677 27680 27683 27686 27689 27692 27695 27698 27701 27704 27707 27710 27713 27716 27719 27722 27725 27728 27731 27734 27736 27738 27741 27744 27747 27750 27753 27756 27759 27762 27765 27768 27771 27774 27776 27779 27782 27785 27788 27791 27794 27797 27800 27803 27805 27808 27811 27814 27817 27820 27823 27826 27829 27832 27835 27838 27841 27844 27847 27849 27852 27855 27858 27860 27863 27866 27869 27871 27873 27875 27878 27881 27883 27886 27889 27891 27894 27897 27899 27902 27905 27907 27909 27912 27915 27918 27920 27923 27926 27929 27932 27934 27937 27939 27942 27944 27947 27949 27952 27955 27958 27961 27964 27966 27969 27972 27975 27978 27981 27984 27987 27990 27993 27996 27999 28002 28005 28008 28011 28014 28017 28020 28023 28026 28029 28032 28035 28038 28041 28044 28047 28050 28053 28056 28059 28062 28065 28068 28070 28073 28075 28078 28081 28084 28086 28089 28092 28095 28098 28101 28104 28107 28110 28113 28116 28119 28122 28125 28128 28130 28133 28136 28138 28141 28143 28146 28149 28152 28155 28158 28161 28164 28167 28170 28173 28175 28178 28181 28184 28187 28190 28193 28196 28198 28201 28204 28207 28209 28212 28215 28218 28221 28224 28227 28230 28233 28236 28239 28242 28245 28248 28251 28254 28257 28260 28263 28266 28269 28271 28274 28277 28280 28283 28286 28289 28291 28294 28296 28299 28302 28305 28308 28310 28313 28316 28319 28322 28324 28327 28330 28332 28335 28338 28341 28344 28346 28349 28352 28355 28358 28361 28364 28367 28370 28373 28376 28379 28382 28385 28388 28391 28394 28397 28400 28403 28406 28408 28411 28414 28417 28420 28423 28426 28429 28431 28434 28437 28440 28443 28446 28449 28452 28455 28458 28461 28464 28467 28469 28472 28474 28477 28480 28483 28486 28489 28492 28495 28498 28501 28504 28507 28510 28513 28516 28518 28521 28524 28527 28530 28533 28536 28539 28542 28544 28547 28550 28553 28555 28558 28561 28564 28567 28570 28573 28576 28579 28582 28585 28588 28591 28594 28597 28600 28603 28606 28609 28612 28615 28618 28621 28624 28627 28630 28633 28636 28639 28642 28645 28648 28651 28654 28657 28660 28663 28666 28669 28671 28674 28677 28680 28683 28685 28688 28690 28693 28696 28699 28702 28705 28708 28710 28713 28716 28719 28722 28725 28728 28731 28734 28737 28740 28743 28746 28749 28752 28755 28758 28761 28764 28767 28770 28773 28776 28779 28782 28785 28788 28791 28794 28797 28800 28802 28805 28808 28811 28814 28817 28820 28823 28826 28829 28832 28835 28838 28841 28844 28847 28849 28852 28855 28858 28861 28864 28867 28869 28872 28875 28878 28881 28883 28886 28889 28892 28895 28898 28900 28903 28906 28909 28912 28915 28918 28920 28923 28926 28929 28932 28935 28938 28941 28944 28946 28949 28952 28955 28957 28960 28963 28966 28969 28972 28975 28978 28981 28984 28987 28990 28993 28996 28999 29002 29005 29008 29011 29014 29016 29019 29022 29025 29028 29030 29033 29036 29039 29042 29044 29046 29049 29052 29055 29058 29061 29064 29067 29070 29073 29076 29079 29082 29085 29088 29090 29092 29095 29098 29101 29104 29107 29110 29113 29116 29119 29121 29124 29127 29130 29133 29136 29139 29142 29145 29148 29151 29154 29157 29160 29162 29165 29168 29171 29174 29177 29180 29183 29186 29189 29192 29195 29198 29201 29204 29207 29210 29213 29216 29219 29222 29225 29228 29231 29234 29237 29239 29242 29245 29248 29251 29254 29257 29259 29262 29265 29267 29270 29273 29276 29279 29282 29285 29288 29290 29293 29295 29298 29301 29304 29306 29309 29312 29315 29318 29321 29324 29327 29330 29333 29336 29339 29341 29344 29347 29350 29353 29356 29359 29362 29365 29368 29371 29374 29377 29379 29381 29384 29386 29389 29391 29393 29396 29399 29402 29404 29407 29410 29412 29415 29418 29420 29423 29425 29428 29430 29433 29436 29439 29442 29445 29448 29451 29454 29457 29460 29463 29466 29469 29472 29475 29478 29481 29483 29486 29489 29492 29495 29498 29500 29503 29506 29509 29512 29515 29518 29521 29524 29527 29530 29533 29536 29539 29542 29545 29548 29550 29553 29556 29559 29562 29564 29567 29570 29573 29576 29579 29582 29585 29588 29591 29594 29596 29599 29602 29605 29608 29611 29614 29617 29619 29621 29624 29627 29630 29633 29636 29639 29642 29645 29648 29651 29654 29656 29659 29662 29664 29667 29670 29673 29676 29679 29682 29685 29688 29691 29693 29696 29699 29702 29704 29707 29710 29713 29716 29719 29722 29725 29728 29731 29734 29737 29740 29742 29745 29748 29751 29754 29757 29760 29763 29765 29768 29771 29774 29777 29779 29782 29785 29788 29791 29794 29797 29800 29803 29806 29809 29812 29815 29818 29821 29824 29827 29830 29833 29836 29839 29842 29845 29848 29851 29854 29857 29860 29862 29865 29868 29871 29874 29877 29880 29883 29886 29889 29892 29895 29897 29900 29903 29905 29908 29911 29914 29916 29919 29921 29924 29927 29930 29933 29936 29939 29942 29945 29948 29951 29954 29957 29960 29963 29966 29969 29972 29975 29977 29980 29983 29985 29988 29991 29994 29997 30000 30003 30006 30009 30012 30015 30018 30020 30023 30025 30028 30031 30034 30037 30040 30043 30046 30049 30052 30055 30058 30061 30064 30067 30070 30073 30076 30079 30081 30084 30087 30090 30093 30095 30098 30101 30104 30107 30110 30113 30116 30119 30121 30124 30127 30130 30133 30136 30139 30142 30145 30148 30151 30154 30157 30160 30163 30166 30169 30172 30175 30177 30180 30183 30185 30188 30191 30194 30197 30200 30203 30206 30208 30211 30214 30217 30219 30222 30225 30228 30231 30234 30237 30240 30243 30246 30249 30252 30255 30258 30261 30264 30267 30270 30273 30276 30279 30282 30285 30287 30290 30293 30296 30299 30302 30305 30308 30311 30314 30317 30320 30323 30325 30327 30330 30332 30335 30338 30340 30343 30346 30349 30352 30354 30357 30360 30363 30366 30369 30372 30375 30378 30381 30384 30387 30390 30393 30396 30399 30402 30405 30408 30411 30414 30417 30420 30423 30426 30429 30432 30435 30438 30441 30444 30447 30450 30453 30456 30459 30462 30464 30467 30470 30473 30476 30479 30482 30485 30488 30490 30493 30496 30498 30501 30503 30506 30509 30512 30515 30518 30521 30524 30527 30530 30533 30536 30539 30542 30545 30548 30551 30554 30557 30560 30563 30566 30569 30572 30575 30578 30581 30584 30587 30590 30593 30596 30599 30602 30605 30608 30610 30613 30616 30619 30621 30624 30627 30630 30633 30636 30639 30642 30644 30646 30649 30651 30654 30657 30660 30663 30666 30669 30672 30675 30678 30681 30684 30687 30690 30693 30696 30699 30702 30705 30708 30711 30714 30717 30720 30723 30726 30729 30731 30733 30736 30739 30742 30745 30748 30751 30754 30757 30760 30763 30766 30769 30772 30775 30778 30781 30784 30787 30790 30793 30796 30799 30802 30805 30808 30811 30814 30817 30820 30823 30826 30829 30832 30835 30837 30840 30843 30846 30849 30852 30854 30857 30860 30863 30866 30869 30871 30874 30877 30880 30883 30886 30889 30892 30895 30898 30901 30903 30906 30909 30912 30914 30917 30919 30922 30925 30928 30930 30933 30936 30938 30941 30943 30946 30949 30952 30955 30958 30961 30964 30967 30969 30972 30974 30977 30980 30983 30986 30988 30991 30993 30996 30999 31001 31004 31007 31010 31013 31016 31019 31022 31025 31028 31031 31033 31036 31039 31042 31044 31047 31049 31052 31054 31056 31059 31062 31065 31068 31071 31074 31077 31080 31083 31086 31088 31091 31093 31096 31098 31101 31104 31107 31110 31113 31116 31119 31122 31125 31127 31130 31133 31136 31139 31142 31145 31148 31151 31153 31156 31158 31161 31164 31167 31170 31173 31176 31179 31182 31185 31188 31191 31194 31197 31200 31203 31205 31208 31211 31214 31217 31220 31223 31226 31229 31232 31235 31238 31241 31244 31247 31250 31253 31256 31259 31262 31265 31268 31271 31274 31277 31280 31283 31286 31289 31292 31295 31298 31301 
</DataArray>
<DataArray type="UInt32" Name="types" format="ascii">
5 5 5 5 5 5 3 5 5 5 5 5 3 5 5 5 3 5 5 5 3 5 5 5 5 5 3 3 5 5 5 5 3 5 5 5 3 5 5 5 5 5 5 5 5 5 5 5 5 5 5 5 5 5 5 5 5 5 5 5 5 5 3 5 5 5 5 5 5 5 5 3 5 5 5 5 5 3 5 5 5 5 5 5 5 5 5 5 5 5 5 5 5 5 5 5 5 5 5 5 5 5 5 5 5 5 5 5 3 3 5 5 3 5 5 5 5 5 5 5 3 5 5 5 5 5 5 5 5 5 5 5 5 5 5 3 5 5 3 5 5 5 5 5 5 5 5 5 5 5 5 5 5 5 5 5 3 5 3 5 5 5 5 5 5 5 5 5 5 5 5 5 5 5 5 5 3 5 5 5 5 5 5 5 5 5 5 5 5 5 5 5 5 5 3 5 5 3 5 5 5 3 5 5 5 5 5 5 5 5 5 5 5 5 3 5 5 3 5 3 5 3 5 5 5 5 5 5 5 5 3 3 5 5 3 5 5 5 3 5 3 3 3 5 5 5 5 5 5 5 5 5 5 5 5 5 5 5 3 5 5 5 5 3 5 5 5 5 5 5 5 5 5 5 5 5 5 5 3 5 5 5 5 5 5 5 5 3 5 5 5 5 3 5 3 5 3 5 5 5 5 5 5 5 5 5 5 5 5 5 5 5 5 5 5 5 5 5 5 5 5 5 5 3 5 5 5 5 5 3 5 5 5 5 5 5 5 5 5 3 5 5 5 3 3 3 5 5 5 3 3 3 5 5 5 5 5 5 5 5 5 5 5 5 3 5 5 5 5 5 5 5 5 5 5 5 5 5 5 5 5 5 5 5 5 5 5 5 5 5 5 5 5 5 5 5 5 5 5 5 5 5 5 3 5 5 3 5 5 5 3 5 5 3 5 5 5 3 5 5 3 5 3 5 5 5 5 5 5 3 5 5 5 5 3 5 5 3 5 5 5 5 5 5 5 3 5 5 5 5 5 5 3 5 5 5 5 5 3 5 5 5 5 5 5 5 5 5 5 5 5 5 5 5 3 5 3 5 5 5 5 5 5 5 5 5 5 5 5 5 5 3 5 5 5 5 5 5 5 5 5 5 5 5 5 5 5 5 5 5 3 5 5 5 5 5 5 5 5 5 5 5 5 5 5 5 5 5 5 5 5 5 5 5 3 5 5 5 5 3 5 5 5 5 5 5 5 5 5 3 5 5 5 5 3 5 5 5 5 5 5 5 5 5 5 5 5 5 5 5 5 5 5 5 5 5 5 5 5 5 3 5 5 5 5 5 5 5 5 5 5 5 5 5 5 5 5 5 5 3 5 5 3 5 5 5 5 5 5 3 5 5 5 5 5 5 5 5 5 5 5 5 5 3 5 5 3 5 5 5 5 3 5 5 5 5 5 5 5 5 5 5 5 5 5 3 3 5 5 5 5 5 5 5 5 3 5 5 5 3 5 5 5 5 5 5 3 5 5 5 5 3 3 5 5 5 5 5 5 5 5 5 5 5 5 5 5 5 5 5 5 5 5 3 5 5 5 5 5 5 3 5 3 5 5 5 5 5 5 3 5 5 5 5 5 5 5 5 5 5 5 5 5 5 3 5 5 5 3 5 5 5 5 5 5 3 5 5 5 5 5 5 3 5 5 5 3 3 5 5 3 5 5 5 5 5 5 3 5 5 5 3 5 5 3 5 5 5 3 5 5 5 3 5 5 5 5 3 5 5 5 3 5 5 5 5 5 3 5 5 5 5 5 5 5 5 5 3 5 5 5 5 5 5 5 5 5 5 5 3 3 5 5 5 5 5 5 5 5 5 5 5 5 5 5 5 3 5 3 5 3 5 5 5 5 5 5 5 5 3 5 5 5 5 5 5 5 5 5 5 3 5 5 5 5 3 5 5 5 5 5 5 5 5 5 5 5 5 3 5 5 5 5 5 5 5 5 5 5 5 5 5 5 5 3 5 5 5 5 5 5 5 5 5 5 5 5 5 5 5 5 5 5 5 5 3 3 5 5 5 3 5 5 5 5 5 5 5 5 5 5 5 5 5 5 5 5 5 5 5 5 5 5 5 5 5 5 5 5 5 5 5 5 5 5 5 5 5 5 5 5 5 5 5 5 3 5 5 5 5 5 5 5 5 5 3 5 5 5 5 5 5 5 5 5 3 5 5 5 5 5 5 5 3 3 5 5 5 3 3 5 5 3 5 5 5 3 5 5 5 5 5 5 5 5 5 3 5 5 5 5 5 5 5 3 5 5 5 3 5 5 5 5 5 5 5 5 5 5 5 5 5 5 5 5 5 5 5 5 5 5 5 3 5 3 5 5 5 5 5 3 5 5 5 5 5 3 5 5 5 5 5 3 3 5 3 5 5 5 5 5 5 5 5 5 5 5 5 5 5 5 5 3 5 5 5 5 5 3 5 5 3 5 5 5 5 5 5 5 5 5 5 5 5 5 3 5 5 5 3 5 3 5 5 5 5 5 5 5 5 5 5 5 5 5 5 5 5 5 5 3 5 5 5 5 5 5 5 5 5 5 3 5 5 5 5 5 5 5 5 5 5 5 5 5 5 5 5 5 5 5 3 5 5 5 5 5 5 5 5 5 5 5 5 3 5 5 5 5 5 5 5 5 5 5 5 3 5 5 5 5 3 5 5 3 5 3 5 3 5 5 5 5 5 5 5 5 5 3 3 5 5 5 3 5 5 5 5 5 3 5 5 5 5 3 5 5 5 5 5 5 5 5 5 5 5 5 5 5 5 5 5 3 5 5 3 5 5 5 5 5 3 5 5 3 5 5 5 5 5 5 5 5 5 5 3 5 5 5 5 5 5 5 3 5 3 5 3 5 3 5 5 3 5 5 5 3 5 5 5 5 5 5 3 5 5 5 5 5 5 5 5 3 5 5 5 3 5 5 5 3 5 5 3 5 5 3 5 5 3 3 5 5 5 3 5 5 5 5 5 5 3 3 5 5 3 5 5 5 5 3 5 5 5 5 3 5 3 3 5 5 5 5 5 5 3 5 5 3 5 5 5 5 5 3 5 5 5 5 3 3 5 5 5 5 5 5 5 3 5 5 5 5 5 5 5 5 5 5 5 5 3 5 5 5 5 5 5 3 5 5 5 5 5 5 5 3 5 5 5 5 3 5 5 5 3 5 5 5 5 5 5 3 5 5 3 5 5 5 3 5 3 5 3 5 5 5 3 5 5 5 5 5 3 5 5 5 5 5 5 3 5 5 5 5 5 5 5 5 3 5 5 5 3 5 5 5 5 5 5 5 5 5 5 3 5 3 5 5 5 5 3 5 5 5 5 5 5 5 5 5 5 5 5 5 3 5 5 3 5 5 3 5 5 5 5 5 5 5 5 5 5 5 5 5 5 5 5 5 5 5 5 5 5 5 5 5 5 5 5 5 5 3 5 5 5 5 5 5 5 5 5 5 5 5 5 5 5 5 5 5 5 5 3 5 5 5 5 5 5 5 5 5 5 5 3 5 5 5 5 5 5 5 5 5 5 5 5 5 5 5 5 5 5 5 5 5 5 5 5 3 5 5 5 3 5 5 3 5 5 5 5 5 5 3 5 3 5 5 5 3 5 5 5 5 5 3 3 5 5 3 5 5 5 5 5 5 5 5 5 5 5 5 5 5 3 5 3 5 5 3 3 5 5 3 5 5 5 3 5 5 5 5 3 5 3 5 3 5 5 5 5 5 5 5 5 5 5 5 5 5 5 3 3 5 5 5 5 5 5 5 5 5 5 5 5 3 5 3 5 5 5 5 5 5 5 3 3 5 5 5 5 5 5 5 5 5 5 5 5 5 5 3 5 5 5 5 5 5 5 5 5 5 5 3 5 5 5 5 5 5 5 5 3 5 5 5 5 5 3 5 5 5 5 3 5 5 5 5 5 5 3 5 5 5 5 5 5 5 5 5 5 5 5 5 5 5 3 5 3 5 5 5 5 5 5 5 5 5 3 5 5 5 5 3 5 5 5 5 5 5 3 5 5 3 5 3 5 5 3 5 5 5 5 5 5 3 5 5 3 5 5 5 3 5 5 5 5 3 3 5 5 3 5 5 5 5 5 5 5 5 5 5 5 5 5 5 5 5 5 3 5 5 5 5 5 5 5 5 5 5 5 3 5 5 5 3 5 5 5 5 5 5 5 5 3 5 5 5 5 5 5 5 5 5 5 5 5 5 5 5 5 5 5 5 5 5 5 5 5 5 5 5 5 5 5 5 5 5 5 5 5 5 5 5 5 5 5 5 5 5 5 5 5 5 5 5 5 5 5 5 5 5 5 5 5 5 5 5 5 5 5 5 5 5 5 5 5 5 5 5 5 5 5 5 5 5 5 5 5 5 5 5 5 5 3 5 5 5 5 3 5 5 3 5 5 5 5 5 5 5 5 5 5 3 5 5 5 5 5 5 5 5 5 5 5 5 5 5 5 5 5 3 5 5 3 5 5 3 5 3 5 5 5 5 5 5 5 3 5 3 5 5 5 5 5 5 5 5 5 5 5 5 5 5 5 5 5 3 5 5 5 3 5 5 3 5 5 5 3 5 5 5 5 5 5 3 5 5 5 3 5 3 5 3 5 5 5 3 5 5 3 5 5 3 5 3 5 5 5 5 3 5 5 5 5 5 5 5 5 5 3 5 5 5 5 5 5 3 5 5 3 5 5 5 5 5 5 5 5 5 5 5 5 5 5 5 5 5 5 5 3 5 5 5 5 5 5 5 5 5 5 5 5 3 5 5 3 5 5 3 5 3 5 3 5 5 5 5 5 5 5 5 5 5 5 5 5 5 5 5 5 5 5 5 5 5 5 5 5 5 5 5 3 5 5 5 5 3 5 5 5 5 5 5 5 5 5 5 5 5 5 5 5 5 5 5 5 3 5 5 5 5 3 5 5 5 5 5 3 5 5 5 5 5 5 5 5 5 5 5 3 5 5 5 3 5 3 5 5 5 5 5 3 3 5 5 5 5 3 5 5 3 5 3 5 5 3 5 3 5 5 5 5 3 5 5 5 5 5 5 5 5 5 5 5 5 5 5 5 5 5 5 3 5 5 5 5 5 5 5 5 5 5 3 5 5 5 5 5 3 5 5 5 5 5 5 3 5 5 5 5 3 5 3 5 5 5 5 5 5 5 3 5 5 5 3 5 5 5 5 5 5 5 3 5 3 5 5 5 5 3 5 5 5 5 5 3 5 5 5 5 5 5 5 5 5 5 5 5 5 5 5 5 5 5 5 5 5 5 5 5 5 5 3 5 5 5 5 5 3 5 5 5 5 5 5 5 5 5 5 5 5 3 5 5 5 5 5 5 5 5 5 5 5 5 5 5 5 5 5 5 5 5 5 5 5 5 5 5 5 5 5 5 3 5 3 5 3 5 5 5 5 3 5 5 5 5 5 5 3 5 5 3 5 5 3 3 5 5 5 5 3 3 5 5 5 5 3 3 5 5 5 5 5 5 5 3 5 3 5 5 5 5 5 5 5 5 5 3 5 5 3 5 5 3 5 3 5 3 3 5 3 5 5 5 5 5 5 5 3 3 3 5 5 5 5 5 5 5 5 3 5 5 3 3 3 5 3 5 5 5 5 5 5 5 3 5 5 5 3 5 5 3 5 5 5 5 5 5 3 5 5 5 5 5 3 5 5 5 5 3 5 3 5 5 5 3 3 5 5 5 3 5 5 5 5 5 5 5 5 5 5 3 5 5 5 5 5 5 5 3 5 5 5 3 5 5 5 5 5 5 3 5 5 5 5 5 5 5 5 5 5 5 5 3 5 5 5 5 3 5 5 5 5 5 5 5 5 5 5 5 5 5 5 5 5 5 5 3 5 5 5 3 5 3 5 5 5 5 3 5 5 5 5 3 3 5 5 3 5 5 3 5 5 5 3 5 5 3 5 5 5 5 5 5 5 5 3 5 3 5 5 3 5 5 5 5 5 5 3 3 5 5 5 5 5 5 5 5 5 5 5 5 5 5 3 5 5 5 5 5 5 5 5 5 5 5 5 5 5 5 5 5 5 5 5 5 5 5 5 5 5 5 5 5 5 5 5 5 5 5 5 5 5 5 5 5 5 5 5 5 5 5 5 5 5 5 5 5 5 5 5 5 5 5 5 5 5 5 5 5 5 5 5 5 5 5 5 5 5 5 5 5 5 5 5 5 5 5 5 5 5 5 5 5 5 5 5 5 5 5 5 5 5 5 3 3 5 5 5 5 5 5 5 5 5 5 5 5 5 5 5 5 5 5 5 5 5 5 5 5 5 5 5 5 5 5 5 5 5 5 5 5 5 5 5 5 5 5 5 5 5 5 5 5 5 5 5 5 5 5 5 5 5 5 5 5 5 5 5 5 5 5 5 5 5 5 5 5 5 5 5 5 5 5 5 5 5 5 5 5 5 5 5 3 5 5 5 5 5 5 3 5 5 3 5 5 3 5 5 5 5 3 3 5 5 3 5 5 5 3 5 3 5 5 5 5 5 5 3 5 5 5 3 3 5 5 5 5 5 3 5 3 5 3 5 5 5 3 5 5 5 5 3 5 3 5 3 5 5 5 5 5 5 5 3 5 5 5 5 5 5 5 5 5 5 5 5 5 5 5 5 5 5 5 5 5 5 5 5 5 5 5 5 5 5 5 5 5 5 5 5 5 5 5 5 5 3 5 5 5 5 5 5 5 5 3 5 3 5 5 5 5 3 3 5 5 5 5 5 5 5 5 5 5 5 5 5 5 5 5 5 5 3 5 3 5 5 5 5 5 5 5 5 3 5 5 5 5 5 3 5 3 5 3 5 3 5 5 5 5 5 3 5 5 5 5 5 5 5 5 5 5 5 5 5 3 5 3 5 5 3 5 3 5 5 5 5 5 5 5 5 5 5 5 5 5 5 5 5 5 5 5 5 3 5 5 3 5 5 5 3 3 3 3 5 5 5 3 5 5 5 3 3 5 3 5 5 3 5 5 5 3 3 5 5 3 5 5 5 3 5 5 5 3 5 5 5 3 5 5 5 5 3 5 5 3 5 5 5 3 3 5 5 5 5 5 5 5 5 5 5 5 5 3 5 5 3 5 5 5 5 5 3 5 5 3 5 5 5 5 5 5 5 5 5 5 5 5 5 5 5 5 3 5 5 5 3 5 3 5 5 5 5 5 5 5 3 5 5 5 5 5 3 5 3 5 5 5 5 5 5 5 5 5 5 5 3 5 3 3 5 5 3 5 5 5 5 3 5 5 5 5 3 5 5 5 3 5 5 3 5 5 3 5 3 5 5 3 5 5 5 5 3 5 5 5 5 5 5 3 5 5 5 5 3 5 5 5 5 5 3 5 5 5 5 5 5 5 5 5 5 5 5 5 5 5 5 5 5 5 5 5 5 5 5 3 5 5 5 3 5 5 3 5 5 5 5 5 5 3 5 5 5 5 5 5 5 5 5 3 5 5 5 5 5 3 5 5 5 5 5 5 5 5 5 5 3 5 5 5 5 5 5 5 5 3 5 5 5 5 5 5 5 5 5 3 3 5 5 5 5 5 5 5 5 5 3 5 5 3 5 5 5 5 5 5 3 5 5 5 5 5 5 5 5 3 5 5 5 5 5 5 5 3 5 3 5 5 5 5 5 5 5 5 5 5 5 5 5 5 5 5 5 5 5 5 5 5 5 5 5 5 5 5 5 5 5 5 5 5 5 5 5 5 5 5 5 5 5 5 5 5 3 5 5 3 5 5 5 3 5 5 3 5 5 5 5 5 5 5 5 5 5 5 5 5 5 5 5 3 5 5 3 5 5 5 3 5 5 3 3 5 5 3 5 5 5 5 5 5 5 5 5 5 5 5 5 5 5 5 5 5 5 5 5 5 5 3 5 5 5 5 5 5 5 5 5 5 5 5 5 5 5 5 5 5 5 5 5 5 5 5 5 5 3 5 5 5 5 5 5 3 5 5 5 5 5 5 3 3 5 5 5 5 5 3 5 3 5 5 5 5 5 5 3 5 5 5 5 3 5 5 5 5 5 5 5 3 5 5 5 3 5 5 5 3 5 5 5 5 5 5 5 5 5 5 3 5 5 3 3 5 5 5 5 3 5 5 5 3 5 5 5 3 5 5 5 5 5 5 5 5 5 5 5 5 5 5 5 5 3 5 5 5 5 5 5 5 5 3 5 3 5 5 3 5 5 3 5 5 5 5 5 5 5 5 5 3 5 5 5 5 5 5 5 5 5 5 5 5 5 5 5 5 3 5 5 3 3 5 5 5 3 5 5 5 5 3 5 5 3 5 5 5 5 5 5 5 3 5 5 5 5 5 5 5 5 3 3 5 5 5 3 5 5 5 5 5 5 3 5 5 5 5 5 5 5 5 5 3 5 5 5 5 5 3 5 5 5 5 5 5 5 5 5 5 5 5 5 3 5 5 5 5 5 5 5 5 3 5 5 5 5 5 5 3 5 3 5 3 5 5 5 5 5 5 5 5 5 3 5 5 5 5 5 5 5 5 5 5 5 3 5 5 5 5 5 5 3 5 5 5 5 5 5 5 5 5 5 5 5 5 5 5 3 5 5 5 5 5 5 5 5 5 5 5 5 5 5 5 3 5 5 5 5 5 5 5 5 5 5 3 5 5 5 5 5 3 5 5 5 5 5 5 5 5 5 5 5 5 5 5 5 5 5 5 3 5 5 5 5 5 5 5 3 5 5 5 5 5 5 3 5 5 5 5 5 5 5 5 5 5 5 5 5 5 5 5 5 5 5 5 5 5 5 3 5 5 5 5 5 5 5 5 5 5 5 5 5 5 5 5 5 5 5 5 5 5 5 5 5 5 5 5 5 5 3 5 5 5 5 3 5 5 5 3 5 5 3 5 3 5 3 5 5 3 5 3 5 5 5 5 3 3 5 5 5 3 3 5 5 5 5 5 5 5 5 5 5 5 5 5 5 5 5 3 5 5 5 5 3 5 3 5 5 5 5 5 5 5 5 5 5 5 5 5 5 3 5 5 5 3 5 5 5 5 5 5 5 5 5 5 5 5 5 5 5 5 5 5 5 5 5 5 5 5 5 5 5 5 5 5 5 5 5 3 5 5 5 5 5 5 5 5 5 5 3 5 5 5 5 5 5 5 5 5 5 5 5 5 5 5 5 5 5 5 5 5 5 5 5 5 5 5 5 5 5 5 5 5 5 5 5 5 5 5 5 3 5 5 5 3 5 5 3 5 5 5 5 3 3 3 5 5 5 5 5 3 5 5 5 3 3 5 3 5 5 5 5 5 5 5 5 5 3 5 5 5 5 5 5 5 5 5 5 3 5 5 5 5 5 5 5 5 5 5 5 5 5 3 5 5 5 3 5 3 5 5 3 5 5 5 5 5 5 5 5 5 3 5 5 5 5 5 5 5 5 5 5 5 5 5 5 5 5 5 5 5 5 5 5 5 3 5 3 5 5 5 3 3 5 5 5 5 5 5 3 5 5 5 5 3 5 5 5 5 3 5 5 5 5 5 5 5 5 5 5 5 5 3 5 3 5 3 5 5 5 5 5 5 3 5 5 5 5 5 5 5 3 5 5 5 3 5 3 5 5 5 3 5 5 5 5 5 5 5 5 5 5 5 5 3 5 3 5 5 5 5 5 5 5 3 5 5 5 5 5 5 5 5 5 5 5 5 5 3 5 5 5 5 3 5 5 5 5 5 3 5 3 5 5 3 5 5 5 5 3 3 5 5 5 3 5 5 5 5 3 5 3 5 5 5 3 5 5 3 5 5 5 5 3 5 3 5 5 5 5 5 5 5 5 5 5 5 5 5 5 5 5 5 5 5 5 5 5 5 5 3 5 3 5 5 5 5 5 5 3 5 5 5 5 3 3 5 5 5 5 5 5 5 5 5 5 5 5 5 5 5 5 5 5 5 5 5 5 5 5 5 5 5 5 5 5 5 5 5 5 5 5 5 3 3 5 5 5 5 5 5 5 5 5 5 5 5 5 5 3 5 5 3 5 5 5 5 5 5 5 5 5 5 5 5 5 5 5 5 5 5 5 5 5 5 5 3 5 5 5 5 5 5 5 5 5 5 5 5 5 5 5 5 5 5 5 5 5 3 5 5 5 5 3 5 5 5 5 5 5 5 5 5 5 3 5 5 5 5 5 5 5 5 5 5 5 5 5 5 5 5 5 5 5 5 5 3 5 3 5 5 5 5 5 5 5 5 5 5 3 5 5 5 5 5 5 5 5 5 5 5 5 5 5 5 5 5 5 5 5 5 5 5 5 5 5 5 5 5 5 3 5 5 5 5 5 3 5 5 5 5 3 3 3 5 5 5 5 5 5 5 5 5 3 5 3 5 5 3 5 5 5 5 3 5 5 5 5 5 5 5 5 5 5 3 3 3 5 5 5 5 5 5 3 5 5 5 5 5 5 5 5 5 5 5 3 3 5 5 5 5 5 3 5 5 5 5 5 5 5 5 5 5 5 5 5 5 5 3 5 5 5 5 3 5 5 5 5 5 5 5 5 5 5 5 5 5 5 5 5 3 5 5 5 5 5 5 5 5 5 5 5 5 5 5 5 5 5 3 5 5 5 5 5 5 5 3 5 5 5 5 3 5 5 5 5 3 5 3 5 5 5 5 3 3 5 3 5 5 3 5 5 5 5 5 5 5 5 5 5 5 5 5 5 5 5 5 5 5 5 5 5 5 3 5 5 5 5 3 5 5 3 5 5 5 5 5 5 5 3 5 5 5 5 3 3 5 5 5 3 3 3 3 3 5 5 5 5 5 5 5 5 5 5 3 5 5 3 5 5 5 3 5 5 5 5 5 5 5 5 5 3 3 5 5 5 5 5 5 3 3 5 5 3 5 3 5 3 5 5 5 5 5 3 5 3 5 3 5 5 5 5 5 5 5 5 3 5 5 5 5 3 5 3 5 5 5 5 5 5 5 5 5 3 5 5 5 5 5 3 5 5 5 3 5 5 3 3 5 5 5 5 3 5 3 5 5 5 5 5 5 5 5 5 5 5 5 5 5 5 3 5 3 5 5 3 3 5 3 3 5 5 3 5 5 5 5 3 5 5 3 5 3 5 3 5 3 5 5 5 3 5 3 5 3 5 5 5 3 5 5 3 5 5 5 5 5 5 5 5 5 5 5 5 5 5 5 3 3 5 5 5 5 5 5 5 5 3 5 5 5 5 5 5 5 5 5 5 5 5 5 5 5 3 5 5 5 5 3 5 5 5 5 5 5 3 5 5 5 5 3 5 5 3 5 5 5 5 5 3 5 5 5 5 5 5 5 3 5 5 5 5 3 5 5 5 5 5 5 5 5 3 5 3 5 5 5 3 5 5 5 5 5 3 5 3 5 3 5 5 5 5 5 5 5 5 5 5 5 5 5 5 5 5 5 5 5 5 5 5 5 5 5 5 5 5 5 3 5 3 5 5 5 5 5 3 5 5 5 5 5 5 5 5 5 5 5 5 5 5 5 5 5 5 5 5 5 5 5 5 5 5 5 5 5 5 5 5 5 5 5 5 3 5 5 5 5 5 5 5 5 5 5 5 5 5 5 5 5 5 5 5 5 5 5 5 5 5 5 5 5 5 5 5 5 5 5 5 5 5 5 5 5 5 5 5 5 5 5 5 5 5 5 5 5 5 5 5 5 5 5 5 5 5 5 5 3 3 5 5 5 5 5 5 5 5 5 5 5 5 5 5 5 5 5 5 5 5 5 5 3 5 5 5 5 5 5 5 3 5 5 5 3 5 5 5 5 5 3 3 3 5 5 5 5 5 5 5 5 3 5 5 3 3 5 5 5 3 5 5 3 5 5 5 5 5 5 5 3 5 3 5 5 5 3 5 5 5 5 5 5 5 5 5 5 5 5 5 5 5 3 5 3 5 5 5 5 5 5 5 5 5 5 5 5 5 5 5 5 5 5 5 3 5 5 5 3 5 5 5 5 5 5 5 5 5 5 5 5 5 5 5 5 5 5 5 5 5 5 5 5 5 5 5 5 5 5 5 5 5 5 3 5 5 5 5 5 5 5 5 5 5 5 3 5 5 5 5 5 5 5 5 5 5 5 5 5 5 5 5 3 5 3 5 5 5 5 5 5 5 5 5 5 5 5 5 3 5 5 5 5 5 5 3 5 5 5 5 5 5 5 3 5 5 5 5 3 5 3 5 5 5 5 5 5 5 3 5 5 3 5 3 5 5 5 3 5 5 5 5 5 5 5 5 5 5 3 3 3 5 5 3 5 5 3 5 5 5 5 5 3 5 5 5 3 5 5 3 5 3 5 5 5 5 5 5 5 5 5 5 5 5 5 5 5 5 5 5 5 5 3 5 3 5 3 3 5 5 5 5 5 5 5 5 5 5 5 5 5 5 5 5 5 5 5 5 5 5 5 5 5 5 5 5 5 3 5 5 5 5 5 5 5 5 5 5 5 5 5 5 3 5 5 5 5 5 3 5 5 5 5 5 5 5 5 5 3 5 5 5 5 3 5 5 5 5 5 5 3 3 5 5 3 5 5 5 5 5 5 5 5 5 5 5 5 5 5 5 5 5 5 5 5 5 3 5 5 5 5 3 5 5 5 5 5 5 3 5 5 5 5 5 5 5 5 5 5 5 5 5 5 5 5 5 5 5 5 5 5 5 5 5 5 5 5 5 5 5 5 5 5 5 5 5 5 5 5 5 5 5 5 5 5 5 5 5 5 5 5 5 5 5 5 5 5 5 3 5 5 5 5 5 5 5 5 3 5 3 5 5 5 5 5 5 5 3 5 5 5 5 5 5 5 5 5 5 3 5 5 5 5 5 5 5 5 5 5 5 5 5 5 5 5 5 5 5 5 3 5 5 5 5 3 5 5 5 5 3 5 5 5 5 5 5 5 5 3 5 5 5 5 5 5 5 5 5 5 5 5 3 5 5 5 3 5 5 5 5 5 3 5 5 5 5 3 5 5 5 3 5 5 5 5 5 5 5 5 3 5 5 5 5 5 3 5 5 5 3 5 5 3 5 5 3 5 5 5 5 5 3 5 5 5 5 5 5 5 5 5 5 5 5 5 5 5 5 3 5 3 5 5 5 5 5 3 5 5 5 5 5 5 3 5 5 5 5 5 5 5 5 3 3 5 5 5 3 5 5 5 5 3 5 5 3 5 3 5 5 5 3 5 3 3 5 5 3 5 5 3 5 5 5 5 3 5 5 3 5 3 3 5 5 5 5 5 5 5 5 5 5 5 5 5 5 5 5 5 3 5 3 5 5 5 3 5 5 3 5 3 3 5 5 3 5 5 3 3 5 3 3 5 5 5 5 5 5 5 5 5 5 3 5 5 5 5 5 5 5 5 5 3 5 5 5 5 5 5 5 5 5 5 5 5 5 5 5 5 5 5 5 5 5 5 5 5 5 5 5 5 5 5 5 5 5 5 5 5 5 5 5 5 5 5 5 5 5 5 3 5 5 5 5 3 5 5 5 5 5 5 3 5 5 5 5 3 5 5 5 3 3 5 5 5 5 5 5 5 5 5 3 5 3 5 5 5 5 5 5 5 5 5 5 5 5 5 5 5 5 5 5 5 5 5 5 5 5 5 5 5 5 5 5 5 5 5 5 5 5 5 3 5 5 3 5 5 5 5 5 5 5 5 5 5 5 5 5 3 3 3 5 5 5 3 3 3 5 5 5 5 5 5 5 5 5 5 5 5 5 5 5 5 3 5 5 3 5 5 5 5 5 5 5 3 5 5 5 5 5 5 5 5 5 5 5 5 5 5 5 5 5 5 5 5 5 5 5 5 5 5 5 5 5 5 5 5 3 5 5 5 5 5 5 5 5 5 5 3 5 5 5 3 5 5 5 5 5 5 3 3 5 5 5 5 3 5 3 5 5 5 5 5 5 5 5 5 5 5 5 3 5 5 5 5 5 5 5 5 5 5 5 5 3 5 5 5 5 5 5 5 5 5 5 5 5 5 5 3 5 5 5 3 3 5 5 5 5 5 5 3 5 5 5 5 5 5 5 5 5 5 5 5 5 5 5 5 5 5 5 3 5 5 5 5 5 5 5 5 5 5 5 5 5 5 5 5 5 5 5 5 5 5 3 5 5 5 5 5 5 5 5 3 5 5 5 5 5 5 5 5 5 5 5 5 5 5 5 5 5 5 5 5 5 3 5 5 3 5 5 5 5 5 5 5 5 5 5 5 5 5 5 5 5 5 5 5 5 5 5 5 5 5 5 5 5 5 3 5 5 5 5 5 5 5 5 3 5 5 5 3 5 5 5 3 5 5 5 5 5 3 5 5 5 5 5 5 3 3 5 3 3 5 5 3 5 5 5 5 5 5 5 5 5 5 5 5 5 5 5 5 5 5 5 5 5 5 5 5 5 5 5 5 5 5 5 5 5 5 5 5 5 5 5 5 5 5 5 5 5 5 5 5 5 5 5 5 5 5 5 5 5 5 5 5 5 5 5 5 5 5 5 5 5 5 5 5 5 5 5 5 5 5 5 5 5 5 5 5 5 5 5 5 5 5 5 5 5 5 3 5 5 5 5 5 5 5 5 5 5 5 5 5 5 5 5 5 5 5 5 5 5 5 5 5 5 5 5 5 5 5 5 5 5 5 5 5 5 3 5 5 5 5 5 5 5 5 5 5 5 5 5 5 5 5 3 5 5 5 5 5 5 3 3 5 5 3 5 5 3 5 5 5 5 3 5 5 5 5 5 5 5 5 5 5 5 5 5 5 5 5 5 5 5 5 5 5 5 5 5 5 5 5 5 5 5 5 5 3 5 5 5 5 3 5 5 5 3 5 5 5 5 5 5 3 5 5 5 5 5 5 5 5 5 3 5 5 5 5 5 5 5 5 5 5 3 5 5 5 3 5 3 5 5 3 3 3 5 5 5 5 3 5 5 5 5 5 5 5 5 5 5 5 5 5 5 3 5 5 5 5 5 3 5 3 5 5 3 5 5 5 5 5 5 3 5 5 5 5 3 5 5 5 5 5 3 3 5 5 3 5 5 5 5 5 5 5 3 3 5 3 5 5 5 3 5 5 5 3 5 5 5 3 5 5 5 5 5 5 3 3 5 5 5 5 5 3 5 3 5 5 3 3 5 5 3 5 3 3 5 5 3 5 3 5 5 3 3 5 5 5 5 5 5 5 3 5 3 5 3 5 5 5 5 3 5 5 5 5 5 5 5 5 5 3 5 5 5 5 5 5 5 3 5 5 5 3 5 3 5 5 5 5 3 5 3 5 3 5 3 5 5 5 3 5 5 5 5 3 5 5 5 5 5 5 3 5 3 5 5 3 5 5 5 5 5 5 3 5 5 5 5 5 5 5 5 5 5 5 3 5 3 5 5 3 3 5 5 5 5 3 5 3 3 5 3 5 5 3 5 5 5 5 3 5 5 5 5 5 5 3 5 5 5 5 5 5 5 5 5 3 5 5 5 3 5 5 5 5 5 5 5 5 5 5 5 5 5 5 5 5 5 5 3 5 5 5 5 5 3 3 5 5 5 3 5 5 5 3 5 5 5 5 5 5 5 5 5 5 5 5 5 5 5 5 5 5 5 5 5 5 5 5 5 5 5 5 5 5 5 3 5 5 5 5 5 3 5 5 5 5 5 5 5 5 5 5 5 5 5 5 5 3 5 5 5 3 5 5 5 5 5 5 5 5 5 5 5 5 5 5 5 5 5 5 5 5 5 5 5 5 5 5 5 3 5 5 5 5 5 5 3 5 5 3 5 5 5 5 3 5 5 3 3 5 5 5 3 5 5 5 3 5 5 5 5 5 5 5 5 5 5 5 5 5 3 5 5 5 5 5 5 5 5 5 5 5 5 5 5 5 5 5 5 5 5 3 5 5 5 5 5 5 5 5 3 5 5 5 3 5 5 5 5 5 5 5 5 5 5 3 5 5 5 5 5 5 5 5 5 3 5 5 3 5 3 5 5 5 5 5 5 5 5 5 3 3 5 5 5 5 5 3 5 5 3 3 3 5 5 5 5 5 5 3 5 3 5 5 3 3 5 5 3 5 5 5 5 5 3 5 5 5 5 5 5 5 5 5 5 5 3 5 5 5 3 3 5 5 5 5 5 5 5 5 5 5 3 5 5 3 5 3 3 5 3 5 3 5 3 5 5 5 5 5 5 3 3 5 5 5 5 5 5 5 3 5 3 5 5 5 5 5 5 5 3 5 5 5 5 5 5 3 5 5 5 5 5 5 5 5 5 3 5 5 5 5 3 5 5 5 5 5 5 5 5 5 5 5 5 5 5 5 5 5 5 5 5 5 5 5 5 5 5 5 5 5 5 5 5 3 5 5 5 5 5 5 5 5 5 5 3 5 3 5 5 3 5 5 5 5 5 5 5 5 5 5 5 5 3 5 3 5 5 5 5 5 5 5 5 5 5 5 5 5 5 5 3 5 5 5 5 5 3 3 5 5 3 5 5 5 5 5 5 5 5 5 5 5 3 5 5 5 5 3 5 5 5 5 5 5 3 3 3 5 3 5 3 3 5 3 3 3 5 5 5 3 5 3 5 5 3 5 5 5 5 5 5 3 5 3 5 5 5 5 5 5 3 5 5 5 3 5 5 5 3 5 3 5 5 5 3 5 5 5 5 5 3 5 5 5 5 5 5 5 5 5 5 5 5 3 3 5 5 5 5 5 5 3 5 3 5 5 3 5 5 5 5 5 5 5 5 5 5 5 5 3 5 5 5 5 5 5 5 5 3 5 3 5 3 5 5 3 5 5 5 5 5 5 5 5 5 5 5 5 3 5 5 5 5 5 3 5 5 5 5 5 5 3 5 5 5 5 5 5 5 5 5 5 5 5 5 3 5 3 5 5 5 3 5 5 5 5 5 3 5 5 5 5 3 5 3 5 5 5 5 3 5 5 5 5 3 5 5 5 5 5 5 3 5 3 3 3 5 5 3 3 5 5 5 5 3 5 3 5 5 5 3 5 5 5 5 5 5 5 5 5 5 5 5 5 5 5 5 5 5 5 5 5 5 5 5 5 5 5 5 5 3 5 5 3 3 5 5 5 5 3 3 3 5 5 5 5 3 5 3 5 5 3 3 5 5 5 5 3 5 3 3 5 5 5 5 5 5 5 5 5 5 3 5 5 3 5 5 5 5 5 3 5 5 5 5 5 5 5 3 5 3 5 5 3 5 5 5 5 5 5 5 5 5 5 3 5 5 5 5 5 5 5 5 5 3 5 3 5 5 5 5 5 5 5 5 5 5 5 5 5 5 5 3 5 5 5 5 5 5 5 5 5 5 5 5 5 5 3 5 5 5 3 5 5 5 5 5 5 5 3 5 5 5 5 5 5 5 5 5 5 3 5 5 5 5 5 5 5 5 5 5 5 5 5 5 3 5 5 5 3 5 5 5 5 5 3 5 5 5 5 5 5 5 5 5 5 5 5 5 5 5 5 5 5 3 5 5 5 5 5 5 5 5 5 5 5 5 5 5 5 3 5 5 5 5 5 5 5 5 3 5 5 5 3 5 5 5 5 3 5 5 5 5 5 5 5 5 5 5 3 3 5 5 5 3 5 5 5 3 5 5 5 5 5 3 5 5 5 5 5 5 5 5 5 3 5 5 3 5 5 5 5 5 5 5 3 5 3 5 5 3 5 3 5 3 5 5 5 5 5 5 3 5 5 5 5 5 5 3 5 5 3 5 5 5 3 5 3 5 3 5 3 5 5 3 5 3 5 5 3 3 3 5 5 5 5 5 5 3 5 5 3 5 5 3 5 3 5 5 5 5 5 5 5 5 3 5 5 3 5 3 5 5 5 5 5 5 5 5 5 5 5 5 5 5 5 5 3 5 3 5 5 5 5 3 5 3 5 5 5 5 5 3 5 3 5 5 5 5 5 5 5 3 5 5 5 5 5 5 3 5 3 5 3 5 5 5 5 3 5 5 5 5 5 5 5 3 5 3 5 3 5 5 5 3 5 5 5 5 5 5 5 5 5 5 5 5 5 3 5 5 5 5 5 5 5 5 5 3 5 5 3 5 5 5 3 5 5 3 5 5 3 5 3 5 5 5 5 5 5 5 5 5 5 5 5 5 3 5 3 5 5 5 5 5 3 5 5 3 5 5 5 5 3 5 5 5 5 5 3 5 5 3 5 3 5 3 3 5 5 5 3 5 5 5 5 3 5 3 5 5 5 5 5 5 5 5 5 5 5 5 5 5 5 5 5 5 5 5 3 5 5 5 3 5 5 5 5 5 5 5 5 5 5 5 5 5 5 3 5 5 5 5 5 5 5 5 5 5 5 5 5 5 5 5 5 5 5 5 5 5 5 5 5 3 5 5 5 5 5 5 5 5 5 5 5 5 5 5 5 5 5 5 5 5 5 5 3 3 5 5 5 5 3 5 5 5 5 5 5 5 5 5 5 5 5 5 5 5 5 3 3 5 5 3 3 5 3 5 5 5 3 5 5 3 5 5 5 3 5 5 5 3 5 5 5 5 3 5 3 5 5 5 5 3 3 5 5 5 5 5 5 3 5 5 5 3 5 5 5 5 5 5 5 5 3 5 5 5 3 3 5 5 3 5 5 5 3 5 5 5 5 5 5 5 3 5 5 5 5 3 5 5 5 3 3 5 5 3 3 5 5 5 5 5 5 5 5 5 5 5 5 5 5 5 5 5 5 5 5 3 5 5 3 5 5 5 3 5 5 5 5 3 5 3 5 3 3 5 5 3 5 5 3 3 5 5 5 5 5 5 5 5 5 5 5 3 5 5 3 5 3 5 5 3 5 5 3 5 5 5 5 3 5 5 5 3 5 5 5 3 5 5 5 5 5 5 5 5 3 5 5 5 5 5 5 5 5 5 5 3 5 5 5 5 5 5 5 5 3 5 5 5 5 5 5 3 5 5 5 5 5 5 5 3 5 5 5 5 5 5 5 5 5 5 5 5 5 3 5 5 5 5 5 3 5 5 5 5 5 5 5 5 5 5 5 5 5 5 5 5 5 5 5 5 5 5 5 5 5 3 5 5 5 5 5 5 5 5 5 3 5 5 5 5 5 5 3 5 5 5 5 5 5 5 5 5 5 5 5 5 5 5 5 5 5 5 5 5 5 5 5 3 3 5 5 5 3 5 5 5 3 5 5 5 5 5 5 5 5 5 5 5 5 5 5 5 5 5 5 3 5 5 5 5 5 5 5 5 5 5 5 5 5 5 5 5 3 5 5 5 5 5 5 5 5 5 5 5 5 5 3 3 5 5 5 5 5 5 5 5 5 3 5 5 5 5 5 5 3 5 5 5 5 3 5 5 5 5 5 5 3 5 5 5 5 5 5 5 5 5 5 5 5 5 5 5 5 5 3 5 5 3 5 5 5 5 3 3 5 5 5 5 5 5 3 3 5 5 5 3 5 3 5 5 5 3 5 5 5 5 5 5 5 5 5 5 3 5 3 5 5 5 3 5 5 5 5 5 5 5 5 5 5 5 5 5 5 5 5 5 5 5 5 5 5 5 5 5 5 5 5 5 5 5 5 5 3 3 5 5 3 5 5 5 5 5 5 3 3 5 5 5 5 5 5 5 5 5 5 5 5 5 3 5 5 5 5 5 5 5 5 5 5 5 5 5 5 5 5 5 5 5 5 5 5 5 5 5 5 5 5 5 5 5 5 5 5 5 5 5 5 5 5 5 5 5 5 5 5 5 5 5 5 5 5 5 5 5 5 5 5 5 5 5 5 5 5 5 5 5 5 5 5 3 5 5 5 3 5 5 5 5 5 5 5 5 5 5 5 5 5 5 5 5 3 5 5 5 5 5 5 5 5 5 5 5 5 5 5 5 5 5 5 5 5 3 5 5 5 5 5 5 5 3 5 5 3 5 5 5 5 5 5 3 5 5 5 5 5 5 5 5 5 5 5 3 5 5 5 5 5 5 5 3 5 5 5 5 3 5 5 3 5 5 5 5 5 5 5 5 5 5 5 5 3 5 5 5 3 5 5 5 5 5 5 5 5 5 5 3 5 5 5 5 5 5 5 5 5 3 5 5 5 5 5 5 5 5 5 5 5 5 5 5 5 3 5 5 3 3 5 5 5 5 3 5 5 5 5 5 3 5 5 3 5 5 5 5 5 5 5 5 5 5 5 5 5 5 5 5 5 5 5 5 3 5 5 5 5 5 5 5 5 5 5 3 5 5 3 5 5 5 3 5 5 3 5 5 5 5 5 3 5 5 5 3 5 5 5 3 5 3 5 5 5 5 5 5 5 3 5 5 5 5 3 5 5 3 5 5 5 5 5 3 5 5 5 3 3 5 5 5 5 5 3 5 5 5 5 5 5 3 5 5 5 5 5 5 5 5 5 5 5 5 3 5 3 5 5 5 5 3 5 5 5 5 3 5 5 3 5 5 5 3 5 5 5 5 5 5 5 5 3 5 5 5 5 5 5 5 5 5 5 5 5 5 5 5 5 5 5 5 3 5 5 5 5 5 5 3 5 5 5 5 5 5 5 5 5 5 5 3 5 5 5 5 5 5 5 5 5 5 5 3 5 5 5 5 5 3 5 5 5 5 3 3 5 5 3 5 3 5 3 3 3 3 5 5 5 5 5 5 3 3 5 5 5 5 3 5 5 5 5 5 3 5 5 5 5 5 3 5 5 5 5 3 5 5 3 5 5 5 3 5 3 5 5 3 5 5 5 5 5 5 5 5 5 5 5 5 5 5 5 5 5 5 5 5 5 3 5 5 5 5 5 5 5 3 5 5 5 3 5 5 5 5 3 5 5 5 5 5 3 5 5 5 5 5 5 5 5 5 5 5 5 5 5 5 5 5 5 5 5 5 5 3 5 5 5 5 5 3 5 5 5 3 5 3 5 5 5 3 5 3 5 5 5 5 5 5 5 5 5 5 5 5 5 5 5 5 5 5 3 5 5 5 5 3 5 5 3 5 5 5 5 5 5 5 5 5 5 5 5 5 3 5 5 5 5 5 3 5 5 5 5 5 3 5 5 5 3 5 3 3 5 5 5 5 5 5 5 5 5 5 5 5 5 5 5 5 3 5 5 3 5 3 5 5 5 5 5 5 5 5 5 5 5 5 5 5 3 5 5 5 3 5 5 3 5 5 3 5 3 5 5 5 5 5 5 5 5 5 5 5 5 5 5 3 5 5 3 5 5 5 5 3 5 5 5 5 5 5 5 5 5 5 5 5 5 5 5 5 5 5 5 5 5 5 5 3 5 3 5 5 3 5 5 5 5 5 3 5 5 5 5 5 5 5 5 5 5 5 5 5 5 3 5 5 5 5 5 3 5 5 5 5 5 5 5 5 5 5 5 5 5 5 5 5 5 5 5 5 5 5 5 5 3 3 3 5 3 5 5 5 5 5 5 3 5 5 3 3 5 5 5 5 5 5 5 5 5 5 5 3 5 5 5 5 3 3 5 5 5 5 5 5 3 5 5 5 5 5 3 5 5 3 3 3 5 5 3 5 5 5 5 5 3 3 5 3 5 5 5 5 5 5 5 3 5 5 5 5 5 5 5 5 5 5 5 5 5 5 5 5 5 5 5 5 5 5 5 5 5 5 5 5 3 5 5 5 5 5 5 3 3 5 5 5 5 5 5 5 5 5 3 5 5 5 5 5 5 5 5 3 5 5 5 3 5 5 5 3 5 5 3 5 5 5 5 5 3 5 5 5 5 3 3 5 5 5 5 5 3 5 5 5 5 5 5 5 5 5 5 5 5 5 3 5 5 5 5 5 5 5 5 5 5 5 5 5 5 5 5 5 5 5 5 5 5 5 5 5 5 5 5 5 5 5 5 5 5 5 5 5 5 5 5 5 5 5 5 5 5 5 5 5 5 5 5 5 5 5 3 3 5 5 5 5 5 5 5 5 5 5 5 5 3 5 5 5 5 5 5 5 5 5 3 5 5 5 5 5 5 5 5 5 5 5 5 5 5 3 5 5 5 3 5 5 5 3 3 3 5 5 3 5 5 3 5 5 3 5 5 3 3 5 5 5 3 5 5 5 5 3 5 3 5 3 5 3 5 5 5 5 5 3 5 5 5 5 5 5 5 5 5 5 5 5 5 5 5 5 5 5 5 5 5 5 5 5 5 5 5 5 5 5 5 5 5 5 3 5 3 5 5 5 3 5 5 5 5 5 5 5 5 5 5 5 5 5 5 3 5 5 3 5 3 5 5 5 5 5 5 5 5 5 5 3 5 5 5 5 5 5 5 3 5 5 5 3 5 5 5 5 5 5 5 5 5 5 5 5 5 5 5 5 5 5 5 5 3 5 5 5 5 5 5 3 5 3 5 5 5 5 3 5 5 5 5 3 5 5 3 5 5 5 5 3 5 5 5 5 5 5 5 5 5 5 5 5 5 5 5 5 5 5 5 5 3 5 5 5 5 5 5 5 3 5 5 5 5 5 5 5 5 5 5 5 5 3 5 3 5 5 5 5 5 5 5 5 5 5 5 5 5 5 3 5 5 5 5 5 5 5 5 3 5 5 5 3 5 5 5 5 5 5 5 5 5 5 5 5 5 5 5 5 5 5 5 5 5 5 5 5 5 5 5 5 5 5 5 5 5 5 5 5 5 5 3 5 5 5 5 3 5 3 5 5 5 5 5 5 3 5 5 5 5 5 5 5 5 5 5 5 5 5 5 5 5 5 5 5 5 5 5 5 5 5 5 5 5 5 5 3 5 5 5 5 5 5 5 5 5 5 5 5 5 5 5 3 5 5 5 5 5 5 3 5 5 5 5 3 5 5 5 5 5 3 5 5 5 5 5 5 3 5 5 5 5 5 5 5 5 3 5 5 5 3 5 5 5 5 5 5 5 5 5 5 5 5 5 5 5 5 5 5 5 3 5 5 5 5 3 5 5 5 5 3 3 5 5 5 5 5 5 5 5 5 5 5 5 5 5 3 3 5 5 5 5 5 5 5 5 5 3 5 5 5 5 5 5 5 5 5 5 5 5 5 3 5 5 5 5 5 5 5 5 5 5 5 5 5 5 5 5 5 5 5 5 5 5 5 5 5 3 5 5 5 5 5 5 3 5 5 3 5 5 5 5 5 5 5 3 5 3 5 5 5 3 5 5 5 5 5 5 5 5 5 5 5 3 5 5 5 5 5 5 5 5 5 5 5 5 3 3 5 3 5 3 3 5 5 5 3 5 5 3 5 5 3 5 3 5 3 5 5 5 5 5 5 5 5 5 5 5 5 5 5 5 5 5 3 5 5 5 5 5 3 5 5 5 5 5 5 5 5 5 5 5 5 5 5 5 5 3 5 5 5 5 3 5 5 5 5 5 5 5 5 5 5 3 5 5 5 5 5 5 5 3 3 5 5 5 5 5 5 5 5 5 5 5 3 5 5 3 5 5 5 5 5 5 5 5 5 3 5 5 5 3 5 5 5 5 5 5 5 5 5 5 5 5 3 5 5 5 5 5 5 5 3 5 5 5 5 3 5 5 5 5 5 5 5 5 5 5 5 5 5 5 5 5 5 5 5 5 5 5 5 5 5 5 5 3 5 5 5 5 5 5 5 5 5 5 5 3 5 5 3 5 5 5 3 5 3 5 5 5 5 5 5 5 5 5 5 5 5 5 5 5 5 5 5 3 5 5 3 5 5 5 5 5 5 5 5 5 5 5 3 5 3 5 5 5 5 5 5 5 5 5 5 5 5 5 5 5 5 5 5 3 5 5 5 5 3 5 5 5 5 5 5 5 5 3 5 5 5 5 5 5 5 5 5 5 5 5 5 5 5 5 5 5 3 5 5 3 5 5 5 5 5 5 5 3 5 5 5 3 5 5 5 5 5 5 5 5 5 5 5 5 5 5 5 5 5 5 5 5 5 5 3 5 5 5 5 5 5 5 5 5 5 5 5 3 3 5 3 5 5 3 5 5 5 5 3 5 5 5 5 5 5 5 5 5 5 5 5 5 5 5 5 5 5 5 5 5 5 5 5 5 5 5 5 5 5 5 5 5 5 5 5 3 5 5 5 5 5 5 5 5 3 5 5 3 5 3 5 5 5 5 5 5 5 5 5 5 5 5 5 5 5 5 5 5 5 5 5 5 5 5 5 5 5 5 5 5 5 5 5 5 5 3 5 5 5 3 5 5 5 5 5 5 5 3 3 5 3 5 5 5 5 5 5 5 5 5 5 5 5 5 5 5 5 5 5 5 5 5 5 5 5 5 5 3 3 5 5 5 5 5 5 5 5 5 5 5 5 5 5 5 5 5 5 5 5 5 5 5 5 5 5 5 5 5 5 5 5 5 5 3 5 5 5 5 5 3 5 5 5 5 5 3 5 5 5 5 5 5 5 5 5 5 3 5 5 5 3 5 3 5 5 5 3 5 5 3 5 3 5 5 5 5 5 5 5 5 3 5 3 5 5 5 5 3 5 3 5 5 3 5 5 5 5 5 5 5 5 5 5 3 5 5 5 3 5 3 5 3 3 5 5 5 5 5 5 5 5 5 5 3 5 3 5 3 5 5 5 5 5 5 5 5 5 3 5 5 5 5 5 5 5 5 3 5 3 5 5 5 5 5 5 5 5 5 5 5 5 5 5 5 3 5 5 5 5 5 5 5 5 5 5 5 5 5 5 5 5 5 5 5 5 5 5 5 5 5 5 5 5 5 5 5 5 
</DataArray>
</Cells>
<PointData Scalars="" Vectors="displacement," Tensors="">
<DataArray type="Float64" Name="displacement" NumberOfComponents="3" format="ascii">
-0.034995817091654675 -1.4956122759928332e-06 0 -0.03451844732989709 -7.0331392324512979e-05 0 -0.034673403325937067 -0.00012253941400552641 0 -0.034995817091654675 -1.4956122759928332e-06 0 -0.03384050857213227 6.5036228410158252e-05 0 -0.03451844732989709 -7.0331392324512979e-05 0 -0.034995817091654675 -1.4956122759928332e-06 0 -0.03384050857213227 6.5036228410158252e-05 0 -0.031407940921750269 2.2724519530255058e-06 0 -0.030037386878814722 0.00062406349770092822 0 -0.030254863902238312 0.000144306304270062 0 -0.02961406858488648 0.0004991943306286087 0 -0.029690182106246146 0.0010082637872961457 0 -0.030037386878814722 0.00062406349770092822 0 -0.030001780740498737 0.001321988636385758 0 -0.030037386878814722 0.00062406349770092822 0 -0.030001780740498737 0.001321988636385758 0 -0.02961406858488648 0.0004991943306286087 0 -0.031812323857750673 0.00044046588827110014 0 -0.031401079413440815 2.4833098053733818e-07 0 -0.030037386878814722 0.00062406349770092822 0 -0.030254863902238312 0.000144306304270062 0 -0.03139642764178411 2.1237543182539023e-06 0 -0.029690182106246146 0.0010082637872961457 0 -0.030037386878814722 0.00062406349770092822 0 -0.03139642764178411 2.1237543182539023e-06 0 -0.030254863902238312 0.000144306304270062 0 -0.03139642764178411 2.1237543182539023e-06 0 -0.030147534782460923 -1.0934348584828204e-06 0 -0.027526510464302829 0.0020872634117242161 0 -0.026128644577844411 0.0010390856322785461 0 -0.027547502642619293 0.00083362270901957895 0 -0.027526510464302829 0.0020872634117242161 0 -0.028632047120761582 0.00096518740978609942 0 -0.027547502642619293 0.00083362270901957895 0 -0.030165690029460603 0.0016979622084953598 0 -0.029908120884941623 0.001436171401411529 0 -0.027526510464302829 0.0020872634117242161 0 -0.028632047120761582 0.00096518740978609942 0 -0.030001780740498737 0.001321988636385758 0 -0.028632047120761582 0.00096518740978609942 0 -0.030001780740498737 0.001321988636385758 0 -0.02961406858488648 0.0004991943306286087 0 -0.029690182106246146 0.0010082637872961457 0 -0.030001780740498737 0.001321988636385758 0 -0.032141338053716953 -0.00021989547624053809 0 -0.031812323857750673 0.00044046588827110014 0 -0.033335853702429329 -6.9239305968904204e-05 0 -0.032737093968515624 0.0014953680452803647 0 -0.030001780740498737 0.001321988636385758 0 -0.032141338053716953 -0.00021989547624053809 0 -0.032141338053716953 -0.00021989547624053809 0 -0.034673403325937067 -0.00012253941400552641 0 -0.033642719554860527 0.0005014420829950988 0 -0.032737093968515624 0.0014953680452803647 0 -0.032141338053716953 -0.00021989547624053809 0 -0.033642719554860527 0.0005014420829950988 0 -0.033335853702429329 -6.9239305968904204e-05 0 -0.034523543370813932 -0.00017820254267604307 0 -0.034995817091654675 -1.4956122759928332e-06 0 -0.034673403325937067 -0.00012253941400552641 0 -0.03500032877291983 1.5995309523639647e-07 0 -0.03500032877291983 1.5995309523639647e-07 0 -0.035025074947399329 0.00013217470132702059 0 -0.03500108470693146 4.0300071365146103e-05 0 -0.034673403325937067 -0.00012253941400552641 0 -0.03500032877291983 1.5995309523639647e-07 0 -0.035025074947399329 0.00013217470132702059 0 -0.035025074947399329 0.00013217470132702059 0 -0.035030945096909724 -0.00012147602139562968 0 -0.03500108470693146 4.0300071365146103e-05 0 -0.035025074947399329 0.00013217470132702059 0 -0.034906682662237093 0.00036638167641457636 0 -0.034938466469017777 0.00030268209368120361 0 -0.03304119270600455 0.0007457475695836121 0 -0.03176689045884247 -1.6873105736351338e-05 0 -0.03176689045884247 -1.6873105736351338e-05 0 -0.036391013300993154 -7.2098707392563393e-06 0 -0.035025074947399329 0.00013217470132702059 0 -0.034938466469017777 0.00030268209368120361 0 -0.035030945096909724 -0.00012147602139562968 0 -0.034673403325937067 -0.00012253941400552641 0 -0.035025074947399329 0.00013217470132702059 0 -0.034906682662237093 0.00036638167641457636 0 -0.034673403325937067 -0.00012253941400552641 0 -0.033642719554860527 0.0005014420829950988 0 -0.034343900288022325 0.00090153200865987851 0 -0.034673403325937067 -0.00012253941400552641 0 -0.034906682662237093 0.00036638167641457636 0 -0.034343900288022325 0.00090153200865987851 0 -0.03176689045884247 -1.6873105736351338e-05 0 -0.029133414617163123 0.0016082353539805876 0 -0.034906682662237093 0.00036638167641457636 0 -0.034963908996653914 0.00054405786524249313 0 -0.034343900288022325 0.00090153200865987851 0 -0.023032624153564728 0.002015430486323105 0 -0.025123560809214247 0.0021910757003971324 0 -0.02379501311637592 0.00086582949936243978 0 -0.025123560809214247 0.0021910757003971324 0 -0.026128644577844411 0.0010390856322785461 0 -0.024995499648390811 0.0007847652708514451 0 -0.030165690029460603 0.0016979622084953598 0 -0.029133414617163123 0.0016082353539805876 0 -0.027526510464302829 0.0020872634117242161 0 -0.025123560809214247 0.0021910757003971324 0 -0.026128644577844411 0.0010390856322785461 0 -0.032737093968515624 0.0014953680452803647 0 -0.033642719554860527 0.0005014420829950988 0 -0.034343900288022325 0.00090153200865987851 0 -0.026128644577844411 0.0010390856322785461 0 -0.025644337045803198 -0.00018012302634130739 0 -0.026971146705974617 -5.6992219136268287e-05 0 -0.024995499648390811 0.0007847652708514451 0 -0.024332747034732708 2.1547557933262124e-05 0 -0.025644337045803198 -0.00018012302634130739 0 -0.026128644577844411 0.0010390856322785461 0 -0.024995499648390811 0.0007847652708514451 0 -0.025644337045803198 -0.00018012302634130739 0 -0.025123560809214247 0.0021910757003971324 0 -0.024995499648390811 0.0007847652708514451 0 -0.02379501311637592 0.00086582949936243978 0 -0.02379501311637592 0.00086582949936243978 0 -0.024332747034732708 2.1547557933262124e-05 0 -0.023273622065346503 -0.00010615609543818111 0 -0.024995499648390811 0.0007847652708514451 0 -0.02379501311637592 0.00086582949936243978 0 -0.024332747034732708 2.1547557933262124e-05 0 -0.024332747034732708 2.1547557933262124e-05 0 -0.023805674239509592 -0.00055722787061281641 0 -0.024584344037798106 -0.00079779927266951823 0 -0.023273622065346503 -0.00010615609543818111 0 -0.023805674239509592 -0.00055722787061281641 0 -0.023168069849980533 -0.00067029498047957057 0 -0.024332747034732708 2.1547557933262124e-05 0 -0.023273622065346503 -0.00010615609543818111 0 -0.023805674239509592 -0.00055722787061281641 0 -0.023168069849980533 -0.00067029498047957057 0 -0.02374457248050629 -0.00098742535418816588 0 -0.022878492307432548 -0.0010159583423706225 0 -0.023805674239509592 -0.00055722787061281641 0 -0.023168069849980533 -0.00067029498047957057 0 -0.02374457248050629 -0.00098742535418816588 0 -0.02374457248050629 -0.00098742535418816588 0 -0.024584344037798106 -0.00079779927266951823 0 -0.024403555218885487 -0.0019316383418079334 0 -0.023805674239509592 -0.00055722787061281641 0 -0.02374457248050629 -0.00098742535418816588 0 -0.024584344037798106 -0.00079779927266951823 0 -0.024584344037798106 -0.00079779927266951823 0 -0.025797724804739113 -0.0010919973877576189 0 -0.024403555218885487 -0.0019316383418079334 0 -0.025797724804739113 -0.0010919973877576189 0 -0.024403555218885487 -0.0019316383418079334 0 -0.027542002221844483 -0.0014060497751683062 0 -0.025797724804739113 -0.0010919973877576189 0 -0.025644337045803198 -0.00018012302634130739 0 -0.026715335414998011 -0.00069869223339272799 0 -0.025644337045803198 -0.00018012302634130739 0 -0.026971146705974617 -5.6992219136268287e-05 0 -0.026715335414998011 -0.00069869223339272799 0 -0.024332747034732708 2.1547557933262124e-05 0 -0.024584344037798106 -0.00079779927266951823 0 -0.025644337045803198 -0.00018012302634130739 0 -0.024584344037798106 -0.00079779927266951823 0 -0.025797724804739113 -0.0010919973877576189 0 -0.025644337045803198 -0.00018012302634130739 0 -0.035030945096909724 -0.00012147602139562968 0 -0.035012542061793273 -0.00037733716416099745 0 -0.035165947491035049 -0.00038930155502306434 0 -0.02379501311637592 0.00086582949936243978 0 -0.023273622065346503 -0.00010615609543818111 0 -0.022249841702031935 7.6538547003915028e-05 0 -0.023032624153564728 0.002015430486323105 0 -0.02379501311637592 0.00086582949936243978 0 -0.022249841702031935 7.6538547003915028e-05 0 -0.035223860600148156 -0.00014353763006696104 0 -0.035030945096909724 -0.00012147602139562968 0 -0.035165947491035049 -0.00038930155502306434 0 -0.03176689045884247 -1.6873105736351338e-05 0 -0.028439672134862672 -0.00016254177306145484 0 -0.022249841702031935 7.6538547003915028e-05 0 -0.022461167547102558 -0.0005869813995744203 0 -0.021635740962853329 -0.0011394643384113679 0 -0.023273622065346503 -0.00010615609543818111 0 -0.022249841702031935 7.6538547003915028e-05 0 -0.022461167547102558 -0.0005869813995744203 0 -0.023273622065346503 -0.00010615609543818111 0 -0.023168069849980533 -0.00067029498047957057 0 -0.022461167547102558 -0.0005869813995744203 0 -0.022461167547102558 -0.0005869813995744203 0 -0.02210585498392121 -0.001012988652088959 0 -0.022878492307432548 -0.0010159583423706225 0 -0.023168069849980533 -0.00067029498047957057 0 -0.022461167547102558 -0.0005869813995744203 0 -0.022878492307432548 -0.0010159583423706225 0 -0.035165947491035049 -0.00038930155502306434 0 -0.035046989760673788 -0.000484349995582206 0 -0.035058339823003278 -0.00061156075377479413 0 -0.035046989760673788 -0.000484349995582206 0 -0.035058339823003278 -0.00061156075377479413 0 -0.034957743806370012 -0.00054831548600214582 0 -0.035012542061793273 -0.00037733716416099745 0 -0.035165947491035049 -0.00038930155502306434 0 -0.035046989760673788 -0.000484349995582206 0 -0.028439672134862672 -0.00016254177306145484 0 -0.028353215866007343 -0.00035982608519429378 0 -0.026972854549317384 -0.00078283281602007781 0 -0.026899031668396464 -0.00096010464217915516 0 -0.026616611586712184 -0.00094965470053234218 0 -0.021635740962853329 -0.0011394643384113679 0 -0.021758617718894424 -0.0011339963516613302 0 -0.021879744265341883 -0.0010991360769154069 0 -0.021635740962853329 -0.0011394643384113679 0 -0.021662283279884547 -0.0011371698095576914 0 -0.021758617718894424 -0.0011339963516613302 0 -0.021635740962853329 -0.0011394643384113679 0 -0.021662283279884547 -0.0011371698095576914 0 -0.021742858086967555 -0.001022418772531274 0 -0.021662283279884547 -0.0011371698095576914 0 -0.021564494363996999 -0.0011034199139480633 0 -0.021742858086967555 -0.001022418772531274 0 -0.028353215866007343 -0.00035982608519429378 0 -0.022705395775046738 -0.0010554953540959679 0 -0.021662283279884547 -0.0011371698095576914 0 -0.02170292153629395 -0.0011311231097634136 0 -0.021758617718894424 -0.0011339963516613302 0 -0.021516517858406199 -0.0008533369261957477 0 -0.021505154555165433 -0.0011075818741659001 0 -0.021863334440112462 4.1202116195829383e-05 0 -0.021989351984453946 -0.0011475217667712998 0 -0.021505154555165433 -0.0011075818741659001 0 -0.024403555218885487 -0.0019316383418079334 0 -0.02171323456110465 -0.0011283285052211827 0 -0.021564494363996999 -0.0011034199139480633 0 -0.02170292153629395 -0.0011311231097634136 0 -0.021662283279884547 -0.0011371698095576914 0 -0.021564494363996999 -0.0011034199139480633 0 -0.02170292153629395 -0.0011311231097634136 0 -0.02171323456110465 -0.0011283285052211827 0 -0.021564494363996999 -0.0011034199139480633 0 -0.021505154555165433 -0.0011075818741659001 0 -0.02171323456110465 -0.0011283285052211827 0 -0.021989351984453946 -0.0011475217667712998 0 -0.021505154555165433 -0.0011075818741659001 0 -0.02171323456110465 -0.0011283285052211827 0 -0.021989351984453946 -0.0011475217667712998 0 -0.021850634515835819 -0.0011302335042494467 0 -0.021989351984453946 -0.0011475217667712998 0 -0.021850634515835819 -0.0011302335042494467 0 -0.022061818802665986 -0.0011146683489718901 0 -0.021850634515835819 -0.0011302335042494467 0 -0.021879744265341883 -0.0010991360769154069 0 -0.022061818802665986 -0.0011146683489718901 0 -0.02171323456110465 -0.0011283285052211827 0 -0.021850634515835819 -0.0011302335042494467 0 -0.02170292153629395 -0.0011311231097634136 0 -0.021850634515835819 -0.0011302335042494467 0 -0.02170292153629395 -0.0011311231097634136 0 -0.021758617718894424 -0.0011339963516613302 0 -0.021850634515835819 -0.0011302335042494467 0 -0.021758617718894424 -0.0011339963516613302 0 -0.021879744265341883 -0.0010991360769154069 0 -0.021635740962853329 -0.0011394643384113679 0 -0.021879744265341883 -0.0010991360769154069 0 -0.02210585498392121 -0.001012988652088959 0 -0.022461167547102558 -0.0005869813995744203 0 -0.021635740962853329 -0.0011394643384113679 0 -0.02210585498392121 -0.001012988652088959 0 -0.021879744265341883 -0.0010991360769154069 0 -0.02210585498392121 -0.001012988652088959 0 -0.022061818802665986 -0.0011146683489718901 0 -0.021989351984453946 -0.0011475217667712998 0 -0.022061818802665986 -0.0011146683489718901 0 -0.02262254649581073 -0.0011887008767892055 0 -0.02210585498392121 -0.001012988652088959 0 -0.022061818802665986 -0.0011146683489718901 0 -0.02262254649581073 -0.0011887008767892055 0 -0.02210585498392121 -0.001012988652088959 0 -0.022878492307432548 -0.0010159583423706225 0 -0.02262254649581073 -0.0011887008767892055 0 -0.021516517858406199 -0.0008533369261957477 0 -0.021263901833451553 -0.00098447078431427009 0 -0.021587803163694189 -0.00071758976181921722 0 -0.021263901833451553 -0.00098447078431427009 0 -0.021587803163694189 -0.00071758976181921722 0 -0.021672804945768346 -0.00078722203433511013 0 -0.021263901833451553 -0.00098447078431427009 0 -0.021672804945768346 -0.00078722203433511013 0 -0.021074174378501884 -0.0012411637072747893 0 -0.021263901833451553 -0.00098447078431427009 0 -0.021053048252069908 -0.0010394450991659222 0 -0.021074174378501884 -0.0012411637072747893 0 -0.021263901833451553 -0.00098447078431427009 0 -0.021344220884828992 -0.00096859470499580081 0 -0.021053048252069908 -0.0010394450991659222 0 -0.021344220884828992 -0.00096859470499580081 0 -0.021464516353973621 -0.00097893179840503539 0 -0.021053048252069908 -0.0010394450991659222 0 -0.021516517858406199 -0.0008533369261957477 0 -0.021263901833451553 -0.00098447078431427009 0 -0.021344220884828992 -0.00096859470499580081 0 -0.021516517858406199 -0.0008533369261957477 0 -0.021344220884828992 -0.00096859470499580081 0 -0.021505154555165433 -0.0011075818741659001 0 -0.021344220884828992 -0.00096859470499580081 0 -0.021505154555165433 -0.0011075818741659001 0 -0.021464516353973621 -0.00097893179840503539 0 -0.021564494363996999 -0.0011034199139480633 0 -0.021505154555165433 -0.0011075818741659001 0 -0.021464516353973621 -0.00097893179840503539 0 -0.021053048252069908 -0.0010394450991659222 0 -0.02088441241017399 -0.0008399394332417857 0 -0.020238267550134661 -0.0013607518846595731 0 -0.022705395775046738 -0.0010554953540959679 0 -0.019822063741374477 -0.0018099689148154898 0 -0.021308089843957961 -0.0011210014377934529 0 -0.022705395775046738 -0.0010554953540959679 0 -0.021464516353973621 -0.00097893179840503539 0 -0.021053048252069908 -0.0010394450991659222 0 -0.02088441241017399 -0.0008399394332417857 0 -0.021564494363996999 -0.0011034199139480633 0 -0.021464516353973621 -0.00097893179840503539 0 -0.021742858086967555 -0.001022418772531274 0 -0.0232063517711571 -0.0009273511889903817 0 -0.025991361938506482 -0.00048911860580002936 0 -0.022658535143866222 -8.0362940989680111e-05 0 -0.021863334440112462 4.1202116195829383e-05 0 -0.02449460076259663 0.00039781165882182189 0 -0.022658535143866222 -8.0362940989680111e-05 0 -0.021863334440112462 4.1202116195829383e-05 0 -0.022211210599566291 -0.0004064732813261229 0 -0.022658535143866222 -8.0362940989680111e-05 0 -0.022211210599566291 -0.0004064732813261229 0 -0.022691271689202062 -0.00022151423854101614 0 -0.022658535143866222 -8.0362940989680111e-05 0 -0.022691271689202062 -0.00022151423854101614 0 -0.023059372568647093 1.7475070203663861e-05 0 -0.021516517858406199 -0.0008533369261957477 0 -0.021863334440112462 4.1202116195829383e-05 0 -0.021587803163694189 -0.00071758976181921722 0 -0.022878492307432548 -0.0010159583423706225 0 -0.02262254649581073 -0.0011887008767892055 0 -0.024403555218885487 -0.0019316383418079334 0 -0.021989351984453946 -0.0011475217667712998 0 -0.02262254649581073 -0.0011887008767892055 0 -0.024403555218885487 -0.0019316383418079334 0 -0.021726640397754054 -0.0010927394910819537 0 -0.0232063517711571 -0.0009273511889903817 0 -0.02374457248050629 -0.00098742535418816588 0 -0.022878492307432548 -0.0010159583423706225 0 -0.024403555218885487 -0.0019316383418079334 0 -0.021672804945768346 -0.00078722203433511013 0 -0.02204524969829643 -0.00072995521666627489 0 -0.022211210599566291 -0.0004064732813261229 0 -0.021863334440112462 4.1202116195829383e-05 0 -0.021587803163694189 -0.00071758976181921722 0 -0.021672804945768346 -0.00078722203433511013 0 -0.021863334440112462 4.1202116195829383e-05 0 -0.021672804945768346 -0.00078722203433511013 0 -0.022211210599566291 -0.0004064732813261229 0 -0.021672804945768346 -0.00078722203433511013 0 -0.02204524969829643 -0.00072995521666627489 0 -0.021922233762521545 -0.0010418140473032911 0 -0.02204524969829643 -0.00072995521666627489 0 -0.022464616453747172 -0.00052119733244003388 0 -0.022545575873772757 -0.00080826942826351159 0 -0.02204524969829643 -0.00072995521666627489 0 -0.022211210599566291 -0.0004064732813261229 0 -0.022464616453747172 -0.00052119733244003388 0 -0.022691271689202062 -0.00022151423854101614 0 -0.022464616453747172 -0.00052119733244003388 0 -0.023012975098310871 -0.00040195148687475747 0 -0.022211210599566291 -0.0004064732813261229 0 -0.022691271689202062 -0.00022151423854101614 0 -0.022464616453747172 -0.00052119733244003388 0 -0.022464616453747172 -0.00052119733244003388 0 -0.023012975098310871 -0.00040195148687475747 0 -0.022545575873772757 -0.00080826942826351159 0 -0.023012975098310871 -0.00040195148687475747 0 -0.023059372568647093 1.7475070203663861e-05 0 -0.023679382295222921 4.3833157696068957e-06 0 -0.022691271689202062 -0.00022151423854101614 0 -0.023012975098310871 -0.00040195148687475747 0 -0.023059372568647093 1.7475070203663861e-05 0 -0.022658535143866222 -8.0362940989680111e-05 0 -0.023059372568647093 1.7475070203663861e-05 0 -0.023523248174737676 0.00073034544758114953 0 -0.022658535143866222 -8.0362940989680111e-05 0 -0.025237633484397431 -0.00053043271860224656 0 -0.02449460076259663 0.00039781165882182189 0 -0.022853045335295939 -7.350102322132833e-05 0 -0.02445364226920848 0.00011755584078897162 0 -0.023059372568647093 1.7475070203663861e-05 0 -0.023523248174737676 0.00073034544758114953 0 -0.023679382295222921 4.3833157696068957e-06 0 -0.023523248174737676 0.00073034544758114953 0 -0.024514682380795228 0.00037359416910066797 0 -0.025482051417667066 0.0011482252018027092 0 -0.02445364226920848 0.00011755584078897162 0 -0.026727070283611473 0.00029754368004106062 0 -0.023523248174737676 0.00073034544758114953 0 -0.024514682380795228 0.00037359416910066797 0 -0.023679382295222921 4.3833157696068957e-06 0 -0.024514682380795228 0.00037359416910066797 0 -0.024529762194090841 -0.00012630887515674647 0 -0.023679382295222921 4.3833157696068957e-06 0 -0.024529762194090841 -0.00012630887515674647 0 -0.023679382295222921 4.3833157696068957e-06 0 -0.023779864613711191 -0.00045141642708243057 0 -0.023012975098310871 -0.00040195148687475747 0 -0.023679382295222921 4.3833157696068957e-06 0 -0.023779864613711191 -0.00045141642708243057 0 -0.024529762194090841 -0.00012630887515674647 0 -0.023779864613711191 -0.00045141642708243057 0 -0.024741470856262302 -0.00038221934058759458 0 -0.024529762194090841 -0.00012630887515674647 0 -0.025631934545949472 1.7582882986703885e-06 0 -0.024741470856262302 -0.00038221934058759458 0 -0.026717356483266567 -1.1288605473311785e-06 0 -0.025631934545949472 1.7582882986703885e-06 0 -0.024741470856262302 -0.00038221934058759458 0 -0.026717356483266567 -1.1288605473311785e-06 0 -0.026825411012760723 0.00013025673874581477 0 -0.025631934545949472 1.7582882986703885e-06 0 -0.026825411012760723 0.00013025673874581477 0 -0.025482051417667066 0.0011482252018027092 0 -0.028813350432756468 3.3651327809596647e-06 0 -0.026717356483266567 -1.1288605473311785e-06 0 -0.026825411012760723 0.00013025673874581477 0 -0.028813350432756468 3.3651327809596647e-06 0 -0.024514682380795228 0.00037359416910066797 0 -0.025631934545949472 1.7582882986703885e-06 0 -0.025482051417667066 0.0011482252018027092 0 -0.026825411012760723 0.00013025673874581477 0 -0.025631934545949472 1.7582882986703885e-06 0 -0.025482051417667066 0.0011482252018027092 0 -0.024514682380795228 0.00037359416910066797 0 -0.024529762194090841 -0.00012630887515674647 0 -0.025631934545949472 1.7582882986703885e-06 0 -0.028125063593648459 -0.00040473025841991818 0 -0.027738804684458884 0.00070964137628226154 0 -0.02640724254292107 4.6604216280326503e-05 0 -0.028125063593648459 -0.00040473025841991818 0 -0.027738804684458884 0.00070964137628226154 0 -0.028725115643435339 4.2225440164375132e-05 0 -0.028125063593648459 -0.00040473025841991818 0 -0.0288204380899095 -1.1333246071386614e-06 0 -0.028725115643435339 4.2225440164375132e-05 0 -0.0288204380899095 -1.1333246071386614e-06 0 -0.028725115643435339 4.2225440164375132e-05 0 -0.030139211873153184 1.6084365952187395e-06 0 -0.026727070283611473 0.00029754368004106062 0 -0.028815947078783079 1.8472868595022484e-07 0 -0.027738804684458884 0.00070964137628226154 0 -0.028725115643435339 4.2225440164375132e-05 0 -0.030139211873153184 1.6084365952187395e-06 0 -0.028733560545170764 0.00011001693082916402 0 -0.03014270747095623 6.2790539424525162e-08 0 -0.030254863902238312 0.000144306304270062 0 -0.030147534782460923 -1.0934348584828204e-06 0 -0.030000444574860532 3.0188381999753437e-05 0 -0.029938637857539786 -0.00035924888070621033 0 -0.030147534782460923 -1.0934348584828204e-06 0 -0.030000444574860532 3.0188381999753437e-05 0 -0.030254863902238312 0.000144306304270062 0 -0.030000444574860532 3.0188381999753437e-05 0 -0.02961406858488648 0.0004991943306286087 0 -0.029938637857539786 -0.00035924888070621033 0 -0.030000444574860532 3.0188381999753437e-05 0 -0.028950841806888557 -0.0001507538316317512 0 -0.030000444574860532 3.0188381999753437e-05 0 -0.02961406858488648 0.0004991943306286087 0 -0.028950841806888557 -0.0001507538316317512 0 -0.02961406858488648 0.0004991943306286087 0 -0.028950841806888557 -0.0001507538316317512 0 -0.028397421093816332 0.00024767237403949371 0 -0.028950841806888557 -0.0001507538316317512 0 -0.028397421093816332 0.00024767237403949371 0 -0.027746096052343829 -0.00049400108619708516 0 -0.028632047120761582 0.00096518740978609942 0 -0.02961406858488648 0.0004991943306286087 0 -0.028397421093816332 0.00024767237403949371 0 -0.028397421093816332 0.00024767237403949371 0 -0.027547502642619293 0.00083362270901957895 0 -0.026971146705974617 -5.6992219136268287e-05 0 -0.028632047120761582 0.00096518740978609942 0 -0.028397421093816332 0.00024767237403949371 0 -0.027547502642619293 0.00083362270901957895 0 -0.026128644577844411 0.0010390856322785461 0 -0.027547502642619293 0.00083362270901957895 0 -0.026971146705974617 -5.6992219136268287e-05 0 -0.028397421093816332 0.00024767237403949371 0 -0.026971146705974617 -5.6992219136268287e-05 0 -0.027746096052343829 -0.00049400108619708516 0 -0.027746096052343829 -0.00049400108619708516 0 -0.026715335414998011 -0.00069869223339272799 0 -0.027542002221844483 -0.0014060497751683062 0 -0.028950841806888557 -0.0001507538316317512 0 -0.027746096052343829 -0.00049400108619708516 0 -0.027542002221844483 -0.0014060497751683062 0 -0.026971146705974617 -5.6992219136268287e-05 0 -0.027746096052343829 -0.00049400108619708516 0 -0.026715335414998011 -0.00069869223339272799 0 -0.025797724804739113 -0.0010919973877576189 0 -0.026715335414998011 -0.00069869223339272799 0 -0.027542002221844483 -0.0014060497751683062 0 -0.025237633484397431 -0.00053043271860224656 0 -0.02449460076259663 0.00039781165882182189 0 -0.02640724254292107 4.6604216280326503e-05 0 -0.028733560545170764 0.00011001693082916402 0 -0.025991361938506482 -0.00048911860580002936 0 -0.025237633484397431 -0.00053043271860224656 0 -0.028125063593648459 -0.00040473025841991818 0 -0.02640724254292107 4.6604216280326503e-05 0 -0.029938637857539786 -0.00035924888070621033 0 -0.028950841806888557 -0.0001507538316317512 0 -0.027542002221844483 -0.0014060497751683062 0 -0.027738804684458884 0.00070964137628226154 0 -0.02449460076259663 0.00039781165882182189 0 -0.02640724254292107 4.6604216280326503e-05 0 -0.034509655228825278 -0.00050593952926225377 0 -0.034758786001760127 -0.00029432279928125546 0 -0.034592144836610536 -0.0002274927799948787 0 -0.034509655228825278 -0.00050593952926225377 0 -0.034681689533390396 -0.00050298020642387874 0 -0.034758786001760127 -0.00029432279928125546 0 -0.034758786001760127 -0.00029432279928125546 0 -0.0349998701811002 -7.4592100907050541e-08 0 -0.034592144836610536 -0.0002274927799948787 0 -0.034758786001760127 -0.00029432279928125546 0 -0.0349998701811002 -7.4592100907050541e-08 0 -0.034922476018734369 -0.00020720743995430578 0 -0.0349998701811002 -7.4592100907050541e-08 0 -0.035000059209562916 -1.5266091192800018e-07 0 -0.034922476018734369 -0.00020720743995430578 0 -0.035000059209562916 -1.5266091192800018e-07 0 -0.034922476018734369 -0.00020720743995430578 0 -0.035015841521680552 -0.000209307924598265 0 -0.034922476018734369 -0.00020720743995430578 0 -0.034824952901493518 -0.00047572912577888165 0 -0.034943358895584031 -0.00034122912344056725 0 -0.034758786001760127 -0.00029432279928125546 0 -0.034922476018734369 -0.00020720743995430578 0 -0.034824952901493518 -0.00047572912577888165 0 -0.034681689533390396 -0.00050298020642387874 0 -0.034758786001760127 -0.00029432279928125546 0 -0.034824952901493518 -0.00047572912577888165 0 -0.03500032877291983 1.5995309523639647e-07 0 -0.034999768783793031 -5.5560834683080757e-08 0 -0.03497966399469242 1.7815001431749516e-05 0 -0.034909422131148803 -0.0004740067288507293 0 -0.034985256121970183 -0.00036272121920000584 0 -0.034943358895584031 -0.00034122912344056725 0 -0.034824952901493518 -0.00047572912577888165 0 -0.034909422131148803 -0.0004740067288507293 0 -0.034943358895584031 -0.00034122912344056725 0 -0.034909422131148803 -0.0004740067288507293 0 -0.034985256121970183 -0.00036272121920000584 0 -0.034904907427051782 -0.00044585395547412567 0 -0.034985256121970183 -0.00036272121920000584 0 -0.034943358895584031 -0.00034122912344056725 0 -0.035015841521680552 -0.000209307924598265 0 -0.034948801299844123 -0.00020300464199986219 0 -0.034991387080186051 -9.6110871130447806e-05 0 -0.034999768783793031 -5.5560834683080757e-08 0 -0.03497792950193053 1.0351160647397728e-05 0 -0.03497966399469242 1.7815001431749516e-05 0 -0.034922476018734369 -0.00020720743995430578 0 -0.034943358895584031 -0.00034122912344056725 0 -0.035015841521680552 -0.000209307924598265 0 -0.034991781724800927 -5.7265034355966763e-06 0 -0.034991387080186051 -9.6110871130447806e-05 0 -0.034905282272725546 -3.7265824618087081e-05 0 -0.03497792950193053 1.0351160647397728e-05 0 -0.03497966399469242 1.7815001431749516e-05 0 -0.03500032877291983 1.5995309523639647e-07 0 -0.03497966399469242 1.7815001431749516e-05 0 -0.03500108470693146 4.0300071365146103e-05 0 -0.034905282272725546 -3.7265824618087081e-05 0 -0.03497966399469242 1.7815001431749516e-05 0 -0.03500108470693146 4.0300071365146103e-05 0 -0.034948801299844123 -0.00020300464199986219 0 -0.034941177330749737 -0.000298320172196665 0 -0.034985256121970183 -0.00036272121920000584 0 -0.034929058093098396 -0.00030325310811895413 0 -0.034904907427051782 -0.00044585395547412567 0 -0.034905282272725546 -3.7265824618087081e-05 0 -0.03500108470693146 4.0300071365146103e-05 0 -0.034929058093098396 -0.00030325310811895413 0 -0.035030945096909724 -0.00012147602139562968 0 -0.03500108470693146 4.0300071365146103e-05 0 -0.034929058093098396 -0.00030325310811895413 0 -0.035012542061793273 -0.00037733716416099745 0 -0.034929058093098396 -0.00030325310811895413 0 -0.034910321694089648 -0.0004750531383957704 0 -0.035030945096909724 -0.00012147602139562968 0 -0.035012542061793273 -0.00037733716416099745 0 -0.034929058093098396 -0.00030325310811895413 0 -0.034929058093098396 -0.00030325310811895413 0 -0.034910321694089648 -0.0004750531383957704 0 -0.034904907427051782 -0.00044585395547412567 0 -0.034910321694089648 -0.0004750531383957704 0 -0.034855259822297056 -0.00059153382341788183 0 -0.034904907427051782 -0.00044585395547412567 0 -0.034910321694089648 -0.0004750531383957704 0 -0.034881185174145464 -0.00059936005358694202 0 -0.034855259822297056 -0.00059153382341788183 0 -0.034910321694089648 -0.0004750531383957704 0 -0.034957743806370012 -0.00054831548600214582 0 -0.034881185174145464 -0.00059936005358694202 0 -0.035012542061793273 -0.00037733716416099745 0 -0.034910321694089648 -0.0004750531383957704 0 -0.034957743806370012 -0.00054831548600214582 0 -0.035012542061793273 -0.00037733716416099745 0 -0.035046989760673788 -0.000484349995582206 0 -0.034957743806370012 -0.00054831548600214582 0 -0.034957743806370012 -0.00054831548600214582 0 -0.03488198094119873 -0.00070626815088270858 0 -0.034881185174145464 -0.00059936005358694202 0 -0.028353215866007343 -0.00035982608519429378 0 -0.032278947090712828 -0.00056010490774246124 0 -0.035058339823003278 -0.00061156075377479413 0 -0.034957743806370012 -0.00054831548600214582 0 -0.03488198094119873 -0.00070626815088270858 0 -0.0199334492064904 -0.0016761055694890458 0 -0.019644229048873401 -0.0017497837910299937 0 -0.019812370619369742 -0.0019023309089526751 0 -0.022705395775046738 -0.0010554953540959679 0 -0.022649889229398978 -0.0014417354921435978 0 -0.026899031668396464 -0.00096010464217915516 0 -0.026616611586712184 -0.00094965470053234218 0 -0.026576669640209175 -0.0010470472214899656 0 -0.022649889229398978 -0.0014417354921435978 0 -0.025799895524033712 -0.0017469064436845681 0 -0.026616611586712184 -0.00094965470053234218 0 -0.026576669640209175 -0.0010470472214899656 0 -0.026217066309276813 -0.0011599264809078848 0 -0.032278947090712828 -0.00056010490774246124 0 -0.025799895524033712 -0.0017469064436845681 0 -0.019644229048873401 -0.0017497837910299937 0 -0.019457071308220254 -0.0018308694869148187 0 -0.019578845688111426 -0.0018972599353246921 0 -0.03488198094119873 -0.00070626815088270858 0 -0.034881185174145464 -0.00059936005358694202 0 -0.034820701069993333 -0.00067330290829599947 0 -0.03488198094119873 -0.00070626815088270858 0 -0.034820701069993333 -0.00067330290829599947 0 -0.034733980078433153 -0.00073942436179328459 0 -0.034881185174145464 -0.00059936005358694202 0 -0.034820701069993333 -0.00067330290829599947 0 -0.034855259822297056 -0.00059153382341788183 0 -0.034788087640014086 -0.00072144017029440461 0 -0.034820701069993333 -0.00067330290829599947 0 -0.034855259822297056 -0.00059153382341788183 0 -0.034788087640014086 -0.00072144017029440461 0 -0.034820701069993333 -0.00067330290829599947 0 -0.034733980078433153 -0.00073942436179328459 0 -0.03488198094119873 -0.00070626815088270858 0 -0.034733980078433153 -0.00073942436179328459 0 -0.034703887146604807 -0.00079319736852892237 0 -0.034788087640014086 -0.00072144017029440461 0 -0.034733980078433153 -0.00073942436179328459 0 -0.034738149157099531 -0.0007388315753261202 0 -0.033505517674878076 -0.00041573619561488664 0 -0.030739838014403723 -0.0017277082258890209 0 -0.023174845059346669 -0.0030747716211823109 0 -0.030739838014403723 -0.0017277082258890209 0 -0.034733980078433153 -0.00073942436179328459 0 -0.034703887146604807 -0.00079319736852892237 0 -0.034649354147180657 -0.00076579091732137633 0 -0.034673821320029059 -0.0008059950732844911 0 -0.034703887146604807 -0.00079319736852892237 0 -0.034649354147180657 -0.00076579091732137633 0 -0.023174845059346669 -0.0030747716211823109 0 -0.025799895524033712 -0.0017469064436845681 0 -0.034824301256170608 -0.0010344623412090086 0 -0.03478705514361842 -0.00080284415204066016 0 -0.034737987960991576 -0.00098000450089593327 0 -0.034752197590266293 -0.001071301489788828 0 -0.034824301256170608 -0.0010344623412090086 0 -0.034737987960991576 -0.00098000450089593327 0 -0.034752197590266293 -0.001071301489788828 0 -0.034737987960991576 -0.00098000450089593327 0 -0.034696136209843124 -0.0010759822128466646 0 -0.026715828975753673 -0.0031428224111483554 0 -0.028661781964358583 -0.0050741714387012747 0 -0.027452590365439639 -0.0033400466335612006 0 -0.027091434735681746 -0.0034014451065690183 0 -0.027373022819484491 -0.003204627309751944 0 -0.026715828975753673 -0.0031428224111483554 0 -0.030739838014403723 -0.0017277082258890209 0 -0.023174845059346669 -0.0030747716211823109 0 -0.026715828975753673 -0.0031428224111483554 0 -0.030739838014403723 -0.0017277082258890209 0 -0.035694348485175234 -0.00092438557819050373 0 -0.034788087640014086 -0.00072144017029440461 0 -0.034738149157099531 -0.0007388315753261202 0 -0.03478705514361842 -0.00080284415204066016 0 -0.03478705514361842 -0.00080284415204066016 0 -0.034849352667731377 -0.00061200985793541818 0 -0.03483778318381104 -0.0006252861985648414 0 -0.034788087640014086 -0.00072144017029440461 0 -0.03478705514361842 -0.00080284415204066016 0 -0.034849352667731377 -0.00061200985793541818 0 -0.034849352667731377 -0.00061200985793541818 0 -0.034855259822297056 -0.00059153382341788183 0 -0.034904907427051782 -0.00044585395547412567 0 -0.034788087640014086 -0.00072144017029440461 0 -0.034849352667731377 -0.00061200985793541818 0 -0.034855259822297056 -0.00059153382341788183 0 -0.034909422131148803 -0.0004740067288507293 0 -0.034849352667731377 -0.00061200985793541818 0 -0.034904907427051782 -0.00044585395547412567 0 -0.034909422131148803 -0.0004740067288507293 0 -0.034849352667731377 -0.00061200985793541818 0 -0.03483778318381104 -0.0006252861985648414 0 -0.034824952901493518 -0.00047572912577888165 0 -0.034909422131148803 -0.0004740067288507293 0 -0.03483778318381104 -0.0006252861985648414 0 -0.034824952901493518 -0.00047572912577888165 0 -0.03483778318381104 -0.0006252861985648414 0 -0.034740991494495117 -0.00080882020024187129 0 -0.034824952901493518 -0.00047572912577888165 0 -0.034740991494495117 -0.00080882020024187129 0 -0.034611090749298599 -0.00076202574427504681 0 -0.034681689533390396 -0.00050298020642387874 0 -0.034824952901493518 -0.00047572912577888165 0 -0.034611090749298599 -0.00076202574427504681 0 -0.034740991494495117 -0.00080882020024187129 0 -0.034566466346817308 -0.0011423794323270064 0 -0.034611090749298599 -0.00076202574427504681 0 -0.03478705514361842 -0.00080284415204066016 0 -0.03483778318381104 -0.0006252861985648414 0 -0.034740991494495117 -0.00080882020024187129 0 -0.03478705514361842 -0.00080284415204066016 0 -0.034740991494495117 -0.00080882020024187129 0 -0.034653573223388814 -0.001019861774158837 0 -0.03478705514361842 -0.00080284415204066016 0 -0.034737987960991576 -0.00098000450089593327 0 -0.034653573223388814 -0.001019861774158837 0 -0.0357167452561176 -0.0014977360643154487 0 -0.028661781964358583 -0.0050741714387012747 0 -0.034737987960991576 -0.00098000450089593327 0 -0.034653573223388814 -0.001019861774158837 0 -0.034696136209843124 -0.0010759822128466646 0 -0.03528439229334112 -0.0019543480129958946 0 -0.034894190154047773 -0.0028389535596865618 0 -0.035897958897410764 -0.0026260719620631707 0 -0.03528439229334112 -0.0019543480129958946 0 -0.03465337851886631 -0.0021140015287026029 0 -0.034894190154047773 -0.0028389535596865618 0 -0.034740991494495117 -0.00080882020024187129 0 -0.034653573223388814 -0.001019861774158837 0 -0.034566466346817308 -0.0011423794323270064 0 -0.0357167452561176 -0.0014977360643154487 0 -0.034371148031821633 -0.001056355205295763 0 -0.03528439229334112 -0.0019543480129958946 0 -0.034566466346817308 -0.0011423794323270064 0 -0.03465337851886631 -0.0021140015287026029 0 -0.034566466346817308 -0.0011423794323270064 0 -0.034176388452070584 -0.0018200941540204012 0 -0.03465337851886631 -0.0021140015287026029 0 -0.034566466346817308 -0.0011423794323270064 0 -0.034176388452070584 -0.0018200941540204012 0 -0.033852601497447246 -0.0015541744055369 0 -0.034176388452070584 -0.0018200941540204012 0 -0.03465337851886631 -0.0021140015287026029 0 -0.034130572389138518 -0.0026134140054834458 0 -0.03465337851886631 -0.0021140015287026029 0 -0.034130572389138518 -0.0026134140054834458 0 -0.034894190154047773 -0.0028389535596865618 0 -0.033522566607959089 -0.0022020920055322571 0 -0.033458509815886467 -0.0029531214643288878 0 -0.03279457692451989 -0.0025699567780792724 0 -0.034130572389138518 -0.0026134140054834458 0 -0.033522566607959089 -0.0022020920055322571 0 -0.033458509815886467 -0.0029531214643288878 0 -0.034176388452070584 -0.0018200941540204012 0 -0.034130572389138518 -0.0026134140054834458 0 -0.033522566607959089 -0.0022020920055322571 0 -0.034176388452070584 -0.0018200941540204012 0 -0.033522566607959089 -0.0022020920055322571 0 -0.033852601497447246 -0.0015541744055369 0 -0.034566466346817308 -0.0011423794323270064 0 -0.033852601497447246 -0.0015541744055369 0 -0.034125538548914446 -0.00096567623159213767 0 -0.034566466346817308 -0.0011423794323270064 0 -0.034125538548914446 -0.00096567623159213767 0 -0.034611090749298599 -0.00076202574427504681 0 -0.034509655228825278 -0.00050593952926225377 0 -0.034681689533390396 -0.00050298020642387874 0 -0.034611090749298599 -0.00076202574427504681 0 -0.034509655228825278 -0.00050593952926225377 0 -0.034125538548914446 -0.00096567623159213767 0 -0.034611090749298599 -0.00076202574427504681 0 -0.034509655228825278 -0.00050593952926225377 0 -0.034125538548914446 -0.00096567623159213767 0 -0.034200893780548733 -0.00060516345204621354 0 -0.024356897460083453 -0.002784109380247425 0 -0.026810901435512711 -0.0039200810421201066 0 -0.020668191065595684 -0.0025247481152392169 0 -0.020945397514450702 -0.0025242882083265764 0 -0.021185063945088865 -0.0027619389958914182 0 -0.030221112965163058 -0.0048868350636510922 0 -0.028426708033265143 -0.0027802424298764205 0 -0.031949970947049343 -0.0048628281439419326 0 -0.025892296650196316 -0.0044875612795609353 0 -0.026930529202127303 -0.0057378823595819776 0 -0.028951375338581335 -0.0050752346420768731 0 -0.028426708033265143 -0.0027802424298764205 0 -0.025892296650196316 -0.0044875612795609353 0 -0.028951375338581335 -0.0050752346420768731 0 -0.030221112965163058 -0.0048868350636510922 0 -0.028426708033265143 -0.0027802424298764205 0 -0.028951375338581335 -0.0050752346420768731 0 -0.020668191065595684 -0.0025247481152392169 0 -0.020791442040611667 -0.0023937830780228629 0 -0.020945397514450702 -0.0025242882083265764 0 -0.028426708033265143 -0.0027802424298764205 0 -0.025892296650196316 -0.0044875612795609353 0 -0.020978651255661188 -0.0024692318025692135 0 -0.020668191065595684 -0.0025247481152392169 0 -0.020978651255661188 -0.0024692318025692135 0 -0.020653368637369805 -0.0024904244858294155 0 -0.024356897460083453 -0.002784109380247425 0 -0.021497023554831792 -0.0023841984402699795 0 -0.021839071638439449 -0.0049137253469133148 0 -0.025892296650196316 -0.0044875612795609353 0 -0.020978651255661188 -0.0024692318025692135 0 -0.021839071638439449 -0.0049137253469133148 0 -0.025892296650196316 -0.0044875612795609353 0 -0.026930529202127303 -0.0057378823595819776 0 -0.020714955873902312 -0.0049411078937515503 0 -0.02160390797812424 -0.0049752748373963424 0 -0.020567441759084433 -0.0055853385174261761 0 -0.021839071638439449 -0.0049137253469133148 0 -0.026930529202127303 -0.0057378823595819776 0 -0.028248055429002893 -0.0076911558167083015 0 -0.02078952862100648 -0.0043910991151201615 0 -0.028134535261699047 -0.0058735455669552605 0 -0.02060099276142861 -0.0043150588728217932 0 -0.020714955873902312 -0.0049411078937515503 0 -0.02160390797812424 -0.0049752748373963424 0 -0.028134535261699047 -0.0058735455669552605 0 -0.031559839166191289 -0.0064541595256852021 0 -0.033234175723629349 -0.0064852640403852664 0 -0.031672287329653361 -0.0055533147945464253 0 -0.032733608519330271 -0.0055349349417645674 0 -0.028134535261699047 -0.0058735455669552605 0 -0.028613570377424232 -0.0058779969333332856 0 -0.029765890556926931 -0.0063933062494822921 0 -0.029789779604343918 -0.0063627012575092285 0 -0.030598039250440228 -0.006025259221043122 0 -0.026930529202127303 -0.0057378823595819776 0 -0.028248055429002893 -0.0076911558167083015 0 -0.029789779604343918 -0.0063627012575092285 0 -0.026930529202127303 -0.0057378823595819776 0 -0.029789779604343918 -0.0063627012575092285 0 -0.028951375338581335 -0.0050752346420768731 0 -0.030221112965163058 -0.0048868350636510922 0 -0.030408332670016483 -0.0057388853485081694 0 -0.031015152952812753 -0.0056480468541426658 0 -0.030221112965163058 -0.0048868350636510922 0 -0.028951375338581335 -0.0050752346420768731 0 -0.030408332670016483 -0.0057388853485081694 0 -0.029789779604343918 -0.0063627012575092285 0 -0.030408332670016483 -0.0057388853485081694 0 -0.030598039250440228 -0.006025259221043122 0 -0.029789779604343918 -0.0063627012575092285 0 -0.028951375338581335 -0.0050752346420768731 0 -0.030408332670016483 -0.0057388853485081694 0 -0.030408332670016483 -0.0057388853485081694 0 -0.031114727170703935 -0.005803274771184053 0 -0.031015152952812753 -0.0056480468541426658 0 -0.030408332670016483 -0.0057388853485081694 0 -0.031114727170703935 -0.005803274771184053 0 -0.030598039250440228 -0.006025259221043122 0 -0.031114727170703935 -0.005803274771184053 0 -0.030598039250440228 -0.006025259221043122 0 -0.031672287329653361 -0.0055533147945464253 0 -0.029765890556926931 -0.0063933062494822921 0 -0.030598039250440228 -0.006025259221043122 0 -0.031672287329653361 -0.0055533147945464253 0 -0.031672287329653361 -0.0055533147945464253 0 -0.032733608519330271 -0.0055349349417645674 0 -0.032679483051308654 -0.0050889536630052265 0 -0.031672287329653361 -0.0055533147945464253 0 -0.032679483051308654 -0.0050889536630052265 0 -0.032061036295043581 -0.0050565041092704033 0 -0.033234175723629349 -0.0064852640403852664 0 -0.032733608519330271 -0.0055349349417645674 0 -0.033311339637808544 -0.0050978546609382501 0 -0.032733608519330271 -0.0055349349417645674 0 -0.032679483051308654 -0.0050889536630052265 0 -0.033311339637808544 -0.0050978546609382501 0 -0.03301347238257734 -0.0045343130678122939 0 -0.032568212541348125 -0.0042491560300938844 0 -0.033512314177300453 -0.0038037490384560616 0 -0.033311339637808544 -0.0050978546609382501 0 -0.03301347238257734 -0.0045343130678122939 0 -0.033687737853036102 -0.0044436696527642462 0 -0.032679483051308654 -0.0050889536630052265 0 -0.033311339637808544 -0.0050978546609382501 0 -0.03301347238257734 -0.0045343130678122939 0 -0.03301347238257734 -0.0045343130678122939 0 -0.033512314177300453 -0.0038037490384560616 0 -0.033687737853036102 -0.0044436696527642462 0 -0.032679483051308654 -0.0050889536630052265 0 -0.03301347238257734 -0.0045343130678122939 0 -0.032061036295043581 -0.0050565041092704033 0 -0.03301347238257734 -0.0045343130678122939 0 -0.032061036295043581 -0.0050565041092704033 0 -0.032568212541348125 -0.0042491560300938844 0 -0.032568212541348125 -0.0042491560300938844 0 -0.032812685907522572 -0.0034893146637170794 0 -0.033512314177300453 -0.0038037490384560616 0 -0.032812685907522572 -0.0034893146637170794 0 -0.033458509815886467 -0.0029531214643288878 0 -0.03279457692451989 -0.0025699567780792724 0 -0.032812685907522572 -0.0034893146637170794 0 -0.033512314177300453 -0.0038037490384560616 0 -0.033458509815886467 -0.0029531214643288878 0 -0.033512314177300453 -0.0038037490384560616 0 -0.033458509815886467 -0.0029531214643288878 0 -0.034051946161947629 -0.0033194899750081854 0 -0.034130572389138518 -0.0026134140054834458 0 -0.034755856317226851 -0.0033163465346409192 0 -0.03532254301975115 -0.0032447410187061774 0 -0.034081342507271323 -0.0026334264167292916 0 -0.035057244195999759 -0.0043497030188703522 0 -0.034130572389138518 -0.0026134140054834458 0 -0.034755856317226851 -0.0033163465346409192 0 -0.034051946161947629 -0.0033194899750081854 0 -0.034130572389138518 -0.0026134140054834458 0 -0.033458509815886467 -0.0029531214643288878 0 -0.034051946161947629 -0.0033194899750081854 0 -0.033512314177300453 -0.0038037490384560616 0 -0.034051946161947629 -0.0033194899750081854 0 -0.034362444186254497 -0.0040414588385563124 0 -0.034755856317226851 -0.0033163465346409192 0 -0.034051946161947629 -0.0033194899750081854 0 -0.034362444186254497 -0.0040414588385563124 0 -0.034755856317226851 -0.0033163465346409192 0 -0.034362444186254497 -0.0040414588385563124 0 -0.03516031342709789 -0.0039190919423570825 0 -0.028134535261699047 -0.0058735455669552605 0 -0.028538105164089722 -0.0048179112785938193 0 -0.033234175723629349 -0.0064852640403852664 0 -0.034051232792486785 -0.0048713995741472907 0 -0.03511331270184892 -0.0048193699062278059 0 -0.034362444186254497 -0.0040414588385563124 0 -0.034051232792486785 -0.0048713995741472907 0 -0.03511331270184892 -0.0048193699062278059 0 -0.034362444186254497 -0.0040414588385563124 0 -0.03511331270184892 -0.0048193699062278059 0 -0.03516031342709789 -0.0039190919423570825 0 -0.034362444186254497 -0.0040414588385563124 0 -0.033687737853036102 -0.0044436696527642462 0 -0.034051232792486785 -0.0048713995741472907 0 -0.033512314177300453 -0.0038037490384560616 0 -0.034362444186254497 -0.0040414588385563124 0 -0.033687737853036102 -0.0044436696527642462 0 -0.033311339637808544 -0.0050978546609382501 0 -0.033687737853036102 -0.0044436696527642462 0 -0.034051232792486785 -0.0048713995741472907 0 -0.033234175723629349 -0.0064852640403852664 0 -0.033311339637808544 -0.0050978546609382501 0 -0.034051232792486785 -0.0048713995741472907 0 -0.03511331270184892 -0.0048193699062278059 0 -0.03516031342709789 -0.0039190919423570825 0 -0.036301535837290601 -0.0037736635010650115 0 -0.020567441759084433 -0.0055853385174261761 0 -0.019883724788112008 -0.0055270823705858901 0 -0.019608729758031379 -0.006109357245507244 0 -0.028538105164089722 -0.0048179112785938193 0 -0.023357516412169772 -0.0064302251005634919 0 -0.020567441759084433 -0.0055853385174261761 0 -0.019883724788112008 -0.0055270823705858901 0 -0.020094240294483659 -0.004884141567654955 0 -0.03516031342709789 -0.0039190919423570825 0 -0.035278795318197761 -0.0033104140724641439 0 -0.036301535837290601 -0.0037736635010650115 0 -0.034755856317226851 -0.0033163465346409192 0 -0.03516031342709789 -0.0039190919423570825 0 -0.035278795318197761 -0.0033104140724641439 0 -0.035057244195999759 -0.0043497030188703522 0 -0.023357516412169772 -0.0064302251005634919 0 -0.035034175717004096 -0.0039312048441347029 0 -0.035057244195999759 -0.0043497030188703522 0 -0.035057244195999759 -0.0043497030188703522 0 -0.028661781964358583 -0.0050741714387012747 0 -0.033172600072853664 -0.0060808982211238141 0 -0.024125673844247648 -0.007712406611024695 0 -0.027488657448704129 -0.0038339537138191992 0 -0.024125673844247648 -0.007712406611024695 0 -0.027488657448704129 -0.0038339537138191992 0 -0.022781733024028882 -0.0064959321258735965 0 -0.0091163081989363345 -0.0098774651748214874 0 -0.0080038537542518606 -0.010602060161413593 0 -0.0094538117633014215 -0.0097339153906085985 0 -0.023357516412169772 -0.0064302251005634919 0 -0.016704664387758868 -0.0072180598204077033 0 -0.01224142388033595 -0.0084458579930529569 0 -0.016704664387758868 -0.0072180598204077033 0 -0.028661781964358583 -0.0050741714387012747 0 -0.016704664387758868 -0.0072180598204077033 0 -0.019883724788112008 -0.0055270823705858901 0 -0.019608729758031379 -0.006109357245507244 0 -0.019412560658546445 -0.0051046636474682359 0 -0.019608729758031379 -0.006109357245507244 0 -0.019412560658546445 -0.0051046636474682359 0 -0.018440505397587216 -0.0054981180590862426 0 -0.019195968893475 -0.0047208276348465524 0 -0.019412560658546445 -0.0051046636474682359 0 -0.01886542259060546 -0.0048579906351786271 0 -0.019195968893475 -0.0047208276348465524 0 -0.019017261205955642 -0.0044290539004264206 0 -0.01886542259060546 -0.0048579906351786271 0 -0.019195968893475 -0.0047208276348465524 0 -0.019017261205955642 -0.0044290539004264206 0 -0.019514736751761252 -0.0044913911008396448 0 -0.019412560658546445 -0.0051046636474682359 0 -0.020094240294483659 -0.004884141567654955 0 -0.019514736751761252 -0.0044913911008396448 0 -0.019195968893475 -0.0047208276348465524 0 -0.019412560658546445 -0.0051046636474682359 0 -0.019514736751761252 -0.0044913911008396448 0 -0.019883724788112008 -0.0055270823705858901 0 -0.019412560658546445 -0.0051046636474682359 0 -0.020094240294483659 -0.004884141567654955 0 -0.020714955873902312 -0.0049411078937515503 0 -0.020567441759084433 -0.0055853385174261761 0 -0.020094240294483659 -0.004884141567654955 0 -0.02060099276142861 -0.0043150588728217932 0 -0.020714955873902312 -0.0049411078937515503 0 -0.020094240294483659 -0.004884141567654955 0 -0.02060099276142861 -0.0043150588728217932 0 -0.020094240294483659 -0.004884141567654955 0 -0.019949142174427417 -0.0042140625029841007 0 -0.020094240294483659 -0.004884141567654955 0 -0.019949142174427417 -0.0042140625029841007 0 -0.019514736751761252 -0.0044913911008396448 0 -0.02078952862100648 -0.0043910991151201615 0 -0.019382970145137353 -0.0033367747630132999 0 -0.021839071638439449 -0.0049137253469133148 0 -0.020355877703305155 -0.0028691250161965724 0 -0.018960082386909546 -0.0028857353116426192 0 -0.02060099276142861 -0.0043150588728217932 0 -0.019949142174427417 -0.0042140625029841007 0 -0.019634847732763104 -0.0036301208199344529 0 -0.021839071638439449 -0.0049137253469133148 0 -0.020355877703305155 -0.0028691250161965724 0 -0.020978651255661188 -0.0024692318025692135 0 -0.019949142174427417 -0.0042140625029841007 0 -0.019615977587644329 -0.0040818668066779137 0 -0.019634847732763104 -0.0036301208199344529 0 -0.019615977587644329 -0.0040818668066779137 0 -0.019284490993228858 -0.0040232003662275494 0 -0.019634847732763104 -0.0036301208199344529 0 -0.019284490993228858 -0.0040232003662275494 0 -0.018721065216969993 -0.003330757662497501 0 -0.019634847732763104 -0.0036301208199344529 0 -0.019284490993228858 -0.0040232003662275494 0 -0.019017261205955642 -0.0044290539004264206 0 -0.018847688165951164 -0.004116128173859414 0 -0.019284490993228858 -0.0040232003662275494 0 -0.019017261205955642 -0.0044290539004264206 0 -0.019514736751761252 -0.0044913911008396448 0 -0.019949142174427417 -0.0042140625029841007 0 -0.019615977587644329 -0.0040818668066779137 0 -0.019514736751761252 -0.0044913911008396448 0 -0.019615977587644329 -0.0040818668066779137 0 -0.019284490993228858 -0.0040232003662275494 0 -0.019514736751761252 -0.0044913911008396448 0 -0.019284490993228858 -0.0040232003662275494 0 -0.018847688165951164 -0.004116128173859414 0 -0.018526627652151493 -0.0039184407785161747 0 -0.01863406896063419 -0.0045192238439925149 0 -0.018429694205873932 -0.004270437630552416 0 -0.018321686462285446 -0.0045437429137123427 0 -0.01863406896063419 -0.0045192238439925149 0 -0.018689645201332448 -0.0042364631862232037 0 -0.018429694205873932 -0.004270437630552416 0 -0.019017261205955642 -0.0044290539004264206 0 -0.01863406896063419 -0.0045192238439925149 0 -0.018689645201332448 -0.0042364631862232037 0 -0.019017261205955642 -0.0044290539004264206 0 -0.018689645201332448 -0.0042364631862232037 0 -0.018847688165951164 -0.004116128173859414 0 -0.018689645201332448 -0.0042364631862232037 0 -0.018847688165951164 -0.004116128173859414 0 -0.018617955023316479 -0.004102005222809642 0 -0.018847688165951164 -0.004116128173859414 0 -0.018617955023316479 -0.004102005222809642 0 -0.01861365679876955 -0.0040160688367530915 0 -0.018617955023316479 -0.004102005222809642 0 -0.018516143776762067 -0.0041637467447012992 0 -0.018467560693325048 -0.0040898673548882668 0 -0.018689645201332448 -0.0042364631862232037 0 -0.018617955023316479 -0.004102005222809642 0 -0.018516143776762067 -0.0041637467447012992 0 -0.018689645201332448 -0.0042364631862232037 0 -0.018516143776762067 -0.0041637467447012992 0 -0.018429694205873932 -0.004270437630552416 0 -0.018516143776762067 -0.0041637467447012992 0 -0.018429694205873932 -0.004270437630552416 0 -0.018389717150727028 -0.004130923722498266 0 -0.018516143776762067 -0.0041637467447012992 0 -0.018389717150727028 -0.004130923722498266 0 -0.018467560693325048 -0.0040898673548882668 0 -0.018429694205873932 -0.004270437630552416 0 -0.018389717150727028 -0.004130923722498266 0 -0.018251631879707228 -0.0041719949817811989 0 -0.018429694205873932 -0.004270437630552416 0 -0.018251631879707228 -0.0041719949817811989 0 -0.01820374946728151 -0.0043275849141844918 0 -0.018251631879707228 -0.0041719949817811989 0 -0.01820374946728151 -0.0043275849141844918 0 -0.018100239762769837 -0.0042223084615229589 0 -0.01820374946728151 -0.0043275849141844918 0 -0.018100239762769837 -0.0042223084615229589 0 -0.018004260887116961 -0.0043158749720606116 0 -0.018100239762769837 -0.0042223084615229589 0 -0.018004260887116961 -0.0043158749720606116 0 -0.017964851838758854 -0.0041852260127619419 0 -0.01820374946728151 -0.0043275849141844918 0 -0.018004260887116961 -0.0043158749720606116 0 -0.018107641106056477 -0.0044932884288168985 0 -0.018429694205873932 -0.004270437630552416 0 -0.01820374946728151 -0.0043275849141844918 0 -0.018321686462285446 -0.0045437429137123427 0 -0.01820374946728151 -0.0043275849141844918 0 -0.018107641106056477 -0.0044932884288168985 0 -0.018321686462285446 -0.0045437429137123427 0 -0.018321686462285446 -0.0045437429137123427 0 -0.018142063155444491 -0.0047944161772011662 0 -0.018469602766549877 -0.0049213377136497352 0 -0.018142063155444491 -0.0047944161772011662 0 -0.018469602766549877 -0.0049213377136497352 0 -0.018440505397587216 -0.0054981180590862426 0 -0.018107641106056477 -0.0044932884288168985 0 -0.018142063155444491 -0.0047944161772011662 0 -0.017888808006060589 -0.0044876656610470488 0 -0.018107641106056477 -0.0044932884288168985 0 -0.018321686462285446 -0.0045437429137123427 0 -0.018142063155444491 -0.0047944161772011662 0 -0.018469602766549877 -0.0049213377136497352 0 -0.01886542259060546 -0.0048579906351786271 0 -0.018440505397587216 -0.0054981180590862426 0 -0.01863406896063419 -0.0045192238439925149 0 -0.018321686462285446 -0.0045437429137123427 0 -0.018469602766549877 -0.0049213377136497352 0 -0.01863406896063419 -0.0045192238439925149 0 -0.018469602766549877 -0.0049213377136497352 0 -0.01886542259060546 -0.0048579906351786271 0 -0.019017261205955642 -0.0044290539004264206 0 -0.01863406896063419 -0.0045192238439925149 0 -0.01886542259060546 -0.0048579906351786271 0 -0.023357516412169772 -0.0064302251005634919 0 -0.01287783764639948 -0.0088353771798513163 0 -0.011390336560265802 -0.01162979406277694 0 -0.0094975290308725244 -0.0097105511414091236 0 -0.012679551848391767 -0.01181264114289913 0 -0.019412560658546445 -0.0051046636474682359 0 -0.01886542259060546 -0.0048579906351786271 0 -0.018440505397587216 -0.0054981180590862426 0 -0.023174845059346669 -0.0030747716211823109 0 -0.016704664387758868 -0.0072180598204077033 0 -0.024580768376646477 -0.0035049755756784806 0 -0.021270965347595636 -0.0040232556722046659 0 -0.019673932250110208 -0.0055294047987027297 0 -0.0091163081989363345 -0.0098774651748214874 0 -0.0080038537542518606 -0.010602060161413593 0 -0.011390336560265802 -0.01162979406277694 0 -0.0091163081989363345 -0.0098774651748214874 0 -0.011390336560265802 -0.01162979406277694 0 -0.0094975290308725244 -0.0097105511414091236 0 -0.016704664387758868 -0.0072180598204077033 0 -0.010258198018189262 -0.012030606722213177 0 -0.012230488027994734 -0.0084468856776493371 0 -0.010243322943309981 -0.0092590395913803736 0 -0.012679551848391767 -0.01181264114289913 0 -0.024167321357801599 -0.0039691007158413703 0 -0.022304239877572817 -0.0043265705014617767 0 -0.023050330942504367 -0.0050142166657880377 0 -0.026715828975753673 -0.0031428224111483554 0 -0.016704664387758868 -0.0072180598204077033 0 -0.019446667972152554 -0.0018376071118461376 0 -0.019457071308220254 -0.0018308694869148187 0 -0.019471617117587423 -0.0019773149450255708 0 -0.019457071308220254 -0.0018308694869148187 0 -0.019471617117587423 -0.0019773149450255708 0 -0.019578845688111426 -0.0018972599353246921 0 -0.012230488027994734 -0.0084468856776493371 0 -0.013454598073828254 -0.010599512247259643 0 -0.012679551848391767 -0.01181264114289913 0 -0.023174845059346669 -0.0030747716211823109 0 -0.015982010909508255 -0.0062811756005553988 0 -0.018142063155444491 -0.0047944161772011662 0 -0.018440505397587216 -0.0054981180590862426 0 -0.017749483202705231 -0.0049326505154267657 0 -0.013454598073828254 -0.010599512247259643 0 -0.012679551848391767 -0.01181264114289913 0 -0.015007634190303319 -0.01266412671211507 0 -0.01287783764639948 -0.0088353771798513163 0 -0.017508690382373845 -0.0064150967760618453 0 -0.011390336560265802 -0.01162979406277694 0 -0.012679551848391767 -0.01181264114289913 0 -0.015007634190303319 -0.01266412671211507 0 -0.015982010909508255 -0.0062811756005553988 0 -0.017508690382373845 -0.0064150967760618453 0 -0.019471617117587423 -0.0019773149450255708 0 -0.019586213286789635 -0.0020431352624230761 0 -0.019471915163073575 -0.0021866589826401634 0 -0.019586213286789635 -0.0020431352624230761 0 -0.019473264921107722 -0.0022014177792112218 0 -0.019471915163073575 -0.0021866589826401634 0 -0.019471617117587423 -0.0019773149450255708 0 -0.019586213286789635 -0.0020431352624230761 0 -0.019578845688111426 -0.0018972599353246921 0 -0.019586213286789635 -0.0020431352624230761 0 -0.019578845688111426 -0.0018972599353246921 0 -0.019812370619369742 -0.0019023309089526751 0 -0.019644229048873401 -0.0017497837910299937 0 -0.019578845688111426 -0.0018972599353246921 0 -0.019812370619369742 -0.0019023309089526751 0 -0.019586213286789635 -0.0020431352624230761 0 -0.019812370619369742 -0.0019023309089526751 0 -0.019695879195677491 -0.0020775973558059095 0 -0.019822063741374477 -0.0018099689148154898 0 -0.019787309846641774 -0.0019890136264250043 0 -0.019586213286789635 -0.0020431352624230761 0 -0.019695879195677491 -0.0020775973558059095 0 -0.019473264921107722 -0.0022014177792112218 0 -0.019695879195677491 -0.0020775973558059095 0 -0.019473264921107722 -0.0022014177792112218 0 -0.019467263356608578 -0.0026907435958953077 0 -0.019695879195677491 -0.0020775973558059095 0 -0.019467263356608578 -0.0026907435958953077 0 -0.019922904371538368 -0.0023863351287091977 0 -0.018142063155444491 -0.0047944161772011662 0 -0.017749483202705231 -0.0049326505154267657 0 -0.017888808006060589 -0.0044876656610470488 0 -0.017508690382373845 -0.0064150967760618453 0 -0.018594406735494839 -0.0030635399059150172 0 -0.019473264921107722 -0.0022014177792112218 0 -0.019444393071762413 -0.0021754099835243151 0 -0.019467263356608578 -0.0026907435958953077 0 -0.017749483202705231 -0.0049326505154267657 0 -0.017888808006060589 -0.0044876656610470488 0 -0.017698899080912576 -0.0042822741533616402 0 -0.017672238853235864 -0.00616185331466734 0 -0.017508690382373845 -0.0064150967760618453 0 -0.017888808006060589 -0.0044876656610470488 0 -0.017842768914441365 -0.0042003216225740634 0 -0.017698899080912576 -0.0042822741533616402 0 -0.018004260887116961 -0.0043158749720606116 0 -0.018107641106056477 -0.0044932884288168985 0 -0.017888808006060589 -0.0044876656610470488 0 -0.018004260887116961 -0.0043158749720606116 0 -0.017842768914441365 -0.0042003216225740634 0 -0.017964851838758854 -0.0041852260127619419 0 -0.018004260887116961 -0.0043158749720606116 0 -0.017888808006060589 -0.0044876656610470488 0 -0.017842768914441365 -0.0042003216225740634 0 -0.017842768914441365 -0.0042003216225740634 0 -0.017698899080912576 -0.0042822741533616402 0 -0.017812257155663085 -0.004097635253555428 0 -0.017698899080912576 -0.0042822741533616402 0 -0.017812257155663085 -0.004097635253555428 0 -0.017979987866286979 -0.0040249751490047539 0 -0.017812257155663085 -0.004097635253555428 0 -0.01785473418207378 -0.0042446500781129397 0 -0.017979987866286979 -0.0040249751490047539 0 -0.018594406735494839 -0.0030635399059150172 0 -0.018687753844558952 -0.0038543659166565473 0 -0.017842768914441365 -0.0042003216225740634 0 -0.017812257155663085 -0.004097635253555428 0 -0.017919616188774863 -0.0040934057450051128 0 -0.017842768914441365 -0.0042003216225740634 0 -0.017964851838758854 -0.0041852260127619419 0 -0.017919616188774863 -0.0040934057450051128 0 -0.017812257155663085 -0.004097635253555428 0 -0.017919616188774863 -0.0040934057450051128 0 -0.017781294328253015 -0.004029580693452604 0 -0.017812257155663085 -0.004097635253555428 0 -0.017781294328253015 -0.004029580693452604 0 -0.01785473418207378 -0.0042446500781129397 0 -0.01706310651402948 -0.0043858347400036616 0 -0.017186984258047048 -0.0048462379409851698 0 -0.016745833375795244 -0.004611933595534373 0 -0.017781294328253015 -0.004029580693452604 0 -0.01785473418207378 -0.0042446500781129397 0 -0.017772898684778857 -0.004806428110000498 0 -0.017437159766847569 -0.0042781397492293654 0 -0.017800430652462076 -0.004752134770988921 0 -0.017772898684778857 -0.004806428110000498 0 -0.017205526073474336 -0.0054230709897018737 0 -0.017641914210851553 -0.0057231887690914335 0 -0.017772898684778857 -0.004806428110000498 0 -0.017205526073474336 -0.0054230709897018737 0 -0.017186984258047048 -0.0048462379409851698 0 -0.01706310651402948 -0.0043858347400036616 0 -0.017772898684778857 -0.004806428110000498 0 -0.017186984258047048 -0.0048462379409851698 0 -0.017205526073474336 -0.0054230709897018737 0 -0.017186984258047048 -0.0048462379409851698 0 -0.016745833375795244 -0.004611933595534373 0 -0.017261285309838337 -0.0016484996868049993 0 -0.01751726389163186 -0.001926454756091475 0 -0.01718798647739337 -0.0020964347353962342 0 -0.016867824967656059 -0.0035509588695631878 0 -0.016871402253307025 -0.0033035693943918626 0 -0.016512099957942037 -0.0017131661969904731 0 -0.017261285309838337 -0.0016484996868049993 0 -0.01718798647739337 -0.0020964347353962342 0 -0.01751726389163186 -0.001926454756091475 0 -0.017696098799365317 -0.002152025498146855 0 -0.01718798647739337 -0.0020964347353962342 0 -0.016512099957942037 -0.0017131661969904731 0 -0.017261285309838337 -0.0016484996868049993 0 -0.016838148692647437 -0.0012420370915700856 0 -0.017261285309838337 -0.0016484996868049993 0 -0.017992679761236009 -0.0018800838908518643 0 -0.018093155362691155 -0.0014002565893993272 0 -0.017261285309838337 -0.0016484996868049993 0 -0.018093155362691155 -0.0014002565893993272 0 -0.01746238999261155 -0.0013263912480910222 0 -0.017261285309838337 -0.0016484996868049993 0 -0.01751726389163186 -0.001926454756091475 0 -0.017992679761236009 -0.0018800838908518643 0 -0.01751726389163186 -0.001926454756091475 0 -0.017992679761236009 -0.0018800838908518643 0 -0.017696098799365317 -0.002152025498146855 0 -0.017992679761236009 -0.0018800838908518643 0 -0.018018946096111429 -0.002289777267725258 0 -0.017696098799365317 -0.002152025498146855 0 -0.017769079717333491 -0.0024335824874546102 0 -0.01718798647739337 -0.0020964347353962342 0 -0.017824803423068511 -0.0030489501776403715 0 -0.017992679761236009 -0.0018800838908518643 0 -0.018018946096111429 -0.002289777267725258 0 -0.018394067528372065 -0.0021873916781125127 0 -0.018018946096111429 -0.002289777267725258 0 -0.017769079717333491 -0.0024335824874546102 0 -0.018149904424694951 -0.0026326624205360999 0 -0.018018946096111429 -0.002289777267725258 0 -0.018149904424694951 -0.0026326624205360999 0 -0.018394067528372065 -0.0021873916781125127 0 -0.017769079717333491 -0.0024335824874546102 0 -0.017696098799365317 -0.002152025498146855 0 -0.01718798647739337 -0.0020964347353962342 0 -0.018018946096111429 -0.002289777267725258 0 -0.017769079717333491 -0.0024335824874546102 0 -0.017696098799365317 -0.002152025498146855 0 -0.01706310651402948 -0.0043858347400036616 0 -0.016745833375795244 -0.004611933595534373 0 -0.016359537061344621 -0.0039208735021322126 0 -0.016871402253307025 -0.0033035693943918626 0 -0.017570273969388664 -0.0036806772728584665 0 -0.017781294328253015 -0.004029580693452604 0 -0.018180502554260139 -0.0040153226041852608 0 -0.018526627652151493 -0.0039184407785161747 0 -0.017437159766847569 -0.0042781397492293654 0 -0.017570273969388664 -0.0036806772728584665 0 -0.017919616188774863 -0.0040934057450051128 0 -0.017781294328253015 -0.004029580693452604 0 -0.018180502554260139 -0.0040153226041852608 0 -0.017919616188774863 -0.0040934057450051128 0 -0.018180502554260139 -0.0040153226041852608 0 -0.018099156913917322 -0.0041243420623958285 0 -0.017964851838758854 -0.0041852260127619419 0 -0.017919616188774863 -0.0040934057450051128 0 -0.018099156913917322 -0.0041243420623958285 0 -0.018251631879707228 -0.0041719949817811989 0 -0.018100239762769837 -0.0042223084615229589 0 -0.018099156913917322 -0.0041243420623958285 0 -0.018100239762769837 -0.0042223084615229589 0 -0.017964851838758854 -0.0041852260127619419 0 -0.018099156913917322 -0.0041243420623958285 0 -0.018180502554260139 -0.0040153226041852608 0 -0.018319263983985132 -0.0040084682427283212 0 -0.018394674588636445 -0.0039766107008356892 0 -0.018180502554260139 -0.0040153226041852608 0 -0.018319263983985132 -0.0040084682427283212 0 -0.018279606659230768 -0.004059834428215124 0 -0.018319263983985132 -0.0040084682427283212 0 -0.018279606659230768 -0.004059834428215124 0 -0.018394674588636445 -0.0039766107008356892 0 -0.018180502554260139 -0.0040153226041852608 0 -0.018099156913917322 -0.0041243420623958285 0 -0.018279606659230768 -0.004059834428215124 0 -0.018251631879707228 -0.0041719949817811989 0 -0.018099156913917322 -0.0041243420623958285 0 -0.018279606659230768 -0.004059834428215124 0 -0.018389717150727028 -0.004130923722498266 0 -0.018279606659230768 -0.004059834428215124 0 -0.01839671657661638 -0.0040514360081693266 0 -0.018389717150727028 -0.004130923722498266 0 -0.018251631879707228 -0.0041719949817811989 0 -0.018279606659230768 -0.004059834428215124 0 -0.018389717150727028 -0.004130923722498266 0 -0.018467560693325048 -0.0040898673548882668 0 -0.01839671657661638 -0.0040514360081693266 0 -0.018180502554260139 -0.0040153226041852608 0 -0.018394674588636445 -0.0039766107008356892 0 -0.018526627652151493 -0.0039184407785161747 0 -0.01937770523801766 -0.0040485438884524053 0 -0.017570273969388664 -0.0036806772728584665 0 -0.018467560693325048 -0.0040898673548882668 0 -0.01839671657661638 -0.0040514360081693266 0 -0.01844632896404062 -0.0040113837080711359 0 -0.018467560693325048 -0.0040898673548882668 0 -0.01844632896404062 -0.0040113837080711359 0 -0.018502813824510255 -0.0040149252193020998 0 -0.018279606659230768 -0.004059834428215124 0 -0.01839671657661638 -0.0040514360081693266 0 -0.018394674588636445 -0.0039766107008356892 0 -0.01844632896404062 -0.0040113837080711359 0 -0.018394674588636445 -0.0039766107008356892 0 -0.018483977551350811 -0.003980164721810126 0 -0.01839671657661638 -0.0040514360081693266 0 -0.01844632896404062 -0.0040113837080711359 0 -0.018394674588636445 -0.0039766107008356892 0 -0.018394674588636445 -0.0039766107008356892 0 -0.018526627652151493 -0.0039184407785161747 0 -0.018483977551350811 -0.003980164721810126 0 -0.018526627652151493 -0.0039184407785161747 0 -0.018549236877417156 -0.0039612924007925493 0 -0.01861365679876955 -0.0040160688367530915 0 -0.018483977551350811 -0.003980164721810126 0 -0.018549236877417156 -0.0039612924007925493 0 -0.018502813824510255 -0.0040149252193020998 0 -0.01844632896404062 -0.0040113837080711359 0 -0.018483977551350811 -0.003980164721810126 0 -0.018502813824510255 -0.0040149252193020998 0 -0.018526627652151493 -0.0039184407785161747 0 -0.018483977551350811 -0.003980164721810126 0 -0.018549236877417156 -0.0039612924007925493 0 -0.018617955023316479 -0.004102005222809642 0 -0.018502813824510255 -0.0040149252193020998 0 -0.01861365679876955 -0.0040160688367530915 0 -0.018617955023316479 -0.004102005222809642 0 -0.018467560693325048 -0.0040898673548882668 0 -0.018502813824510255 -0.0040149252193020998 0 -0.018549236877417156 -0.0039612924007925493 0 -0.018502813824510255 -0.0040149252193020998 0 -0.01861365679876955 -0.0040160688367530915 0 -0.018847688165951164 -0.004116128173859414 0 -0.018526627652151493 -0.0039184407785161747 0 -0.01861365679876955 -0.0040160688367530915 0 -0.017824803423068511 -0.0030489501776403715 0 -0.018149904424694951 -0.0026326624205360999 0 -0.018721065216969993 -0.003330757662497501 0 -0.017769079717333491 -0.0024335824874546102 0 -0.017824803423068511 -0.0030489501776403715 0 -0.018149904424694951 -0.0026326624205360999 0 -0.019284490993228858 -0.0040232003662275494 0 -0.017824803423068511 -0.0030489501776403715 0 -0.018721065216969993 -0.003330757662497501 0 -0.018149904424694951 -0.0026326624205360999 0 -0.018829191361232237 -0.0024192445909913996 0 -0.018960082386909546 -0.0028857353116426192 0 -0.01820134846255184 -0.002615878819801317 0 -0.019382970145137353 -0.0033367747630132999 0 -0.018149904424694951 -0.0026326624205360999 0 -0.018721065216969993 -0.003330757662497501 0 -0.019634847732763104 -0.0036301208199344529 0 -0.018829191361232237 -0.0024192445909913996 0 -0.018960082386909546 -0.0028857353116426192 0 -0.019807081321514066 -0.0023811005405421082 0 -0.020355877703305155 -0.0028691250161965724 0 -0.018960082386909546 -0.0028857353116426192 0 -0.019807081321514066 -0.0023811005405421082 0 -0.019807081321514066 -0.0023811005405421082 0 -0.019702751436762853 -0.0021859562423197218 0 -0.020415293605621609 -0.0024269354734821748 0 -0.020978651255661188 -0.0024692318025692135 0 -0.019807081321514066 -0.0023811005405421082 0 -0.020415293605621609 -0.0024269354734821748 0 -0.020355877703305155 -0.0028691250161965724 0 -0.020978651255661188 -0.0024692318025692135 0 -0.019807081321514066 -0.0023811005405421082 0 -0.018829191361232237 -0.0024192445909913996 0 -0.019807081321514066 -0.0023811005405421082 0 -0.01910081372820446 -0.0021107588155037651 0 -0.019807081321514066 -0.0023811005405421082 0 -0.019702751436762853 -0.0021859562423197218 0 -0.01910081372820446 -0.0021107588155037651 0 -0.019702751436762853 -0.0021859562423197218 0 -0.019163732892280943 -0.0018412777100147934 0 -0.019930567118341385 -0.0019619405601367691 0 -0.019702751436762853 -0.0021859562423197218 0 -0.01910081372820446 -0.0021107588155037651 0 -0.019163732892280943 -0.0018412777100147934 0 -0.01910081372820446 -0.0021107588155037651 0 -0.018394067528372065 -0.0021873916781125127 0 -0.018602196593176655 -0.0017112598753309804 0 -0.018829191361232237 -0.0024192445909913996 0 -0.01910081372820446 -0.0021107588155037651 0 -0.018394067528372065 -0.0021873916781125127 0 -0.018149904424694951 -0.0026326624205360999 0 -0.018829191361232237 -0.0024192445909913996 0 -0.018394067528372065 -0.0021873916781125127 0 -0.017992679761236009 -0.0018800838908518643 0 -0.018602196593176655 -0.0017112598753309804 0 -0.018093155362691155 -0.0014002565893993272 0 -0.017992679761236009 -0.0018800838908518643 0 -0.018394067528372065 -0.0021873916781125127 0 -0.018602196593176655 -0.0017112598753309804 0 -0.018602196593176655 -0.0017112598753309804 0 -0.018093155362691155 -0.0014002565893993272 0 -0.018958891531181916 -0.0014026860987338473 0 -0.018093155362691155 -0.0014002565893993272 0 -0.018958891531181916 -0.0014026860987338473 0 -0.018432520549982519 -0.0012497209016144339 0 -0.018958891531181916 -0.0014026860987338473 0 -0.019163732892280943 -0.0018412777100147934 0 -0.019930567118341385 -0.0019619405601367691 0 -0.018602196593176655 -0.0017112598753309804 0 -0.018958891531181916 -0.0014026860987338473 0 -0.019163732892280943 -0.0018412777100147934 0 -0.01910081372820446 -0.0021107588155037651 0 -0.018602196593176655 -0.0017112598753309804 0 -0.019163732892280943 -0.0018412777100147934 0 -0.020045242020954819 -0.0014435947455404756 0 -0.020671893431439475 -0.0017413496281757956 0 -0.019930567118341385 -0.0019619405601367691 0 -0.018958891531181916 -0.0014026860987338473 0 -0.020045242020954819 -0.0014435947455404756 0 -0.019930567118341385 -0.0019619405601367691 0 -0.018958891531181916 -0.0014026860987338473 0 -0.018684075531312599 -0.0013502641341646255 0 -0.018432520549982519 -0.0012497209016144339 0 -0.018970334596463051 -0.0013630206914283848 0 -0.019350343673749878 -0.0010510023023225493 0 -0.018958891531181916 -0.0014026860987338473 0 -0.020045242020954819 -0.0014435947455404756 0 -0.019992944665404872 -0.00072968441489036976 0 -0.020045242020954819 -0.0014435947455404756 0 -0.019992944665404872 -0.00072968441489036976 0 -0.020588277069681183 -0.0011109915492800932 0 -0.019992944665404872 -0.00072968441489036976 0 -0.020588277069681183 -0.0011109915492800932 0 -0.020692294762697891 -0.00031832036370368444 0 -0.020588277069681183 -0.0011109915492800932 0 -0.020692294762697891 -0.00031832036370368444 0 -0.0214879688748176 -0.0012694738330804537 0 -0.019350343673749878 -0.0010510023023225493 0 -0.019788985978186194 -0.0010847076561662271 0 -0.020588277069681183 -0.0011109915492800932 0 -0.020671893431439475 -0.0017413496281757956 0 -0.0214879688748176 -0.0012694738330804537 0 -0.020045242020954819 -0.0014435947455404756 0 -0.020588277069681183 -0.0011109915492800932 0 -0.020671893431439475 -0.0017413496281757956 0 -0.020671893431439475 -0.0017413496281757956 0 -0.020654846471088523 -0.0022670790156893205 0 -0.019930567118341385 -0.0019619405601367691 0 -0.020654846471088523 -0.0022670790156893205 0 -0.020788060883514169 -0.0027012296332443813 0 -0.021392843094512354 -0.0022045336667911746 0 -0.020671893431439475 -0.0017413496281757956 0 -0.020654846471088523 -0.0022670790156893205 0 -0.021392843094512354 -0.0022045336667911746 0 -0.020654846471088523 -0.0022670790156893205 0 -0.019930567118341385 -0.0019619405601367691 0 -0.020415293605621609 -0.0024269354734821748 0 -0.019702751436762853 -0.0021859562423197218 0 -0.019930567118341385 -0.0019619405601367691 0 -0.020415293605621609 -0.0024269354734821748 0 -0.020415293605621609 -0.0024269354734821748 0 -0.020653368637369805 -0.0024904244858294155 0 -0.020791442040611667 -0.0023937830780228629 0 -0.020978651255661188 -0.0024692318025692135 0 -0.020415293605621609 -0.0024269354734821748 0 -0.020653368637369805 -0.0024904244858294155 0 -0.020555676586212466 -0.0024750075858195179 0 -0.020572060053987339 -0.0024584662501675025 0 -0.020654846471088523 -0.0022670790156893205 0 -0.020415293605621609 -0.0024269354734821748 0 -0.020788060883514169 -0.0027012296332443813 0 -0.020668191065595684 -0.0025247481152392169 0 -0.020653368637369805 -0.0024904244858294155 0 -0.020791442040611667 -0.0023937830780228629 0 -0.022815680077493732 -0.00084609134011669315 0 -0.021946095767526003 -0.00053295100480986826 0 -0.022742902804780436 -0.00046008691275331961 0 -0.022815680077493732 -0.00084609134011669315 0 -0.02250921791757711 -0.00071179196510680462 0 -0.022636124095357871 -0.0011085048015578522 0 -0.022389963477002155 -0.0014485315927688619 0 -0.022595710847164687 -0.0011018580140702288 0 -0.02250921791757711 -0.00071179196510680462 0 -0.021946095767526003 -0.00053295100480986826 0 -0.021472529322932938 -0.00039101430089086986 0 -0.022326527896291189 -0.0021839606616229656 0 -0.021508841789976283 -0.0026979741073905228 0 -0.02215972030064917 -0.0033587782946547604 0 -0.022815680077493732 -0.00084609134011669315 0 -0.02250921791757711 -0.00071179196510680462 0 -0.021946095767526003 -0.00053295100480986826 0 -0.021946095767526003 -0.00053295100480986826 0 -0.022742902804780436 -0.00046008691275331961 0 -0.021404237245039405 -0.00033507336655412334 0 -0.022520034404356147 -7.0938770240491976e-07 0 -0.022742902804780436 -0.00046008691275331961 0 -0.021404237245039405 -0.00033507336655412334 0 -0.022520034404356147 -7.0938770240491976e-07 0 -0.022742902804780436 -0.00046008691275331961 0 -0.024618431965389116 -7.6304638458539416e-07 0 -0.022815680077493732 -0.00084609134011669315 0 -0.022742902804780436 -0.00046008691275331961 0 -0.0237068013025372 -0.0004509346828567096 0 -0.022742902804780436 -0.00046008691275331961 0 -0.0237068013025372 -0.0004509346828567096 0 -0.024618431965389116 -7.6304638458539416e-07 0 -0.0237068013025372 -0.0004509346828567096 0 -0.024618431965389116 -7.6304638458539416e-07 0 -0.024741470856262302 -0.00038221934058759458 0 -0.026717356483266567 -1.1288605473311785e-06 0 -0.024618431965389116 -7.6304638458539416e-07 0 -0.024741470856262302 -0.00038221934058759458 0 -0.0237068013025372 -0.0004509346828567096 0 -0.024741470856262302 -0.00038221934058759458 0 -0.023635817937957396 -0.00064608518838287377 0 -0.023779864613711191 -0.00045141642708243057 0 -0.024741470856262302 -0.00038221934058759458 0 -0.023635817937957396 -0.00064608518838287377 0 -0.023779864613711191 -0.00045141642708243057 0 -0.023635817937957396 -0.00064608518838287377 0 -0.023107221001744671 -0.00080799759938990931 0 -0.022815680077493732 -0.00084609134011669315 0 -0.023635817937957396 -0.00064608518838287377 0 -0.023107221001744671 -0.00080799759938990931 0 -0.022815680077493732 -0.00084609134011669315 0 -0.0237068013025372 -0.0004509346828567096 0 -0.023635817937957396 -0.00064608518838287377 0 -0.022815680077493732 -0.00084609134011669315 0 -0.022636124095357871 -0.0011085048015578522 0 -0.023107221001744671 -0.00080799759938990931 0 -0.022636124095357871 -0.0011085048015578522 0 -0.023107221001744671 -0.00080799759938990931 0 -0.022545575873772757 -0.00080826942826351159 0 -0.023012975098310871 -0.00040195148687475747 0 -0.023779864613711191 -0.00045141642708243057 0 -0.023107221001744671 -0.00080799759938990931 0 -0.023012975098310871 -0.00040195148687475747 0 -0.023107221001744671 -0.00080799759938990931 0 -0.022545575873772757 -0.00080826942826351159 0 -0.022636124095357871 -0.0011085048015578522 0 -0.022545575873772757 -0.00080826942826351159 0 -0.021922233762521545 -0.0010418140473032911 0 -0.02204524969829643 -0.00072995521666627489 0 -0.022545575873772757 -0.00080826942826351159 0 -0.021922233762521545 -0.0010418140473032911 0 -0.021922233762521545 -0.0010418140473032911 0 -0.021003826817128722 -0.0018618820993182381 0 -0.021074174378501884 -0.0012411637072747893 0 -0.021672804945768346 -0.00078722203433511013 0 -0.021922233762521545 -0.0010418140473032911 0 -0.021074174378501884 -0.0012411637072747893 0 -0.021922233762521545 -0.0010418140473032911 0 -0.021003826817128722 -0.0018618820993182381 0 -0.021436813163175382 -0.0021258313422186387 0 -0.022636124095357871 -0.0011085048015578522 0 -0.021922233762521545 -0.0010418140473032911 0 -0.021885983715162659 -0.0016229537964039381 0 -0.021862799044106439 -0.0010637720199298075 0 -0.021657507500576274 -0.001852895248408748 0 -0.020238267550134661 -0.0013607518846595731 0 -0.021074174378501884 -0.0012411637072747893 0 -0.020394630496583188 -0.0018708135519390052 0 -0.021053048252069908 -0.0010394450991659222 0 -0.020238267550134661 -0.0013607518846595731 0 -0.021074174378501884 -0.0012411637072747893 0 -0.021003826817128722 -0.0018618820993182381 0 -0.020394630496583188 -0.0018708135519390052 0 -0.020356239481782841 -0.0023215222194361289 0 -0.021003826817128722 -0.0018618820993182381 0 -0.021074174378501884 -0.0012411637072747893 0 -0.020394630496583188 -0.0018708135519390052 0 -0.020238267550134661 -0.0013607518846595731 0 -0.019695879195677491 -0.0020775973558059095 0 -0.020394630496583188 -0.0018708135519390052 0 -0.019695879195677491 -0.0020775973558059095 0 -0.020394630496583188 -0.0018708135519390052 0 -0.019922904371538368 -0.0023863351287091977 0 -0.019922904371538368 -0.0023863351287091977 0 -0.020356239481782841 -0.0023215222194361289 0 -0.019859843634807757 -0.0028034353473123121 0 -0.020394630496583188 -0.0018708135519390052 0 -0.019922904371538368 -0.0023863351287091977 0 -0.020356239481782841 -0.0023215222194361289 0 -0.021003826817128722 -0.0018618820993182381 0 -0.020356239481782841 -0.0023215222194361289 0 -0.020716601908660464 -0.0025832338009079609 0 -0.019859843634807757 -0.0028034353473123121 0 -0.020716601908660464 -0.0025832338009079609 0 -0.020076401219118783 -0.0032621585037536389 0 -0.020356239481782841 -0.0023215222194361289 0 -0.019859843634807757 -0.0028034353473123121 0 -0.020716601908660464 -0.0025832338009079609 0 -0.019467263356608578 -0.0026907435958953077 0 -0.019922904371538368 -0.0023863351287091977 0 -0.019859843634807757 -0.0028034353473123121 0 -0.019467263356608578 -0.0026907435958953077 0 -0.019859843634807757 -0.0028034353473123121 0 -0.019287103511902576 -0.0033503764478409097 0 -0.022326527896291189 -0.0021839606616229656 0 -0.022636124095357871 -0.0011085048015578522 0 -0.021885983715162659 -0.0016229537964039381 0 -0.021003826817128722 -0.0018618820993182381 0 -0.021436813163175382 -0.0021258313422186387 0 -0.020716601908660464 -0.0025832338009079609 0 -0.021436813163175382 -0.0021258313422186387 0 -0.020716601908660464 -0.0025832338009079609 0 -0.021129587734832089 -0.0029320039570427808 0 -0.020716601908660464 -0.0025832338009079609 0 -0.021129587734832089 -0.0029320039570427808 0 -0.020076401219118783 -0.0032621585037536389 0 -0.022326527896291189 -0.0021839606616229656 0 -0.021885983715162659 -0.0016229537964039381 0 -0.021508841789976283 -0.0026979741073905228 0 -0.021657507500576274 -0.001852895248408748 0 -0.021329387681857589 -0.0028505309641142251 0 -0.021129587734832089 -0.0029320039570427808 0 -0.020668844006887777 -0.0034834104411750077 0 -0.021147965534166934 -0.0039768241721712611 0 -0.021508841789976283 -0.0026979741073905228 0 -0.021147965534166934 -0.0039768241721712611 0 -0.02215972030064917 -0.0033587782946547604 0 -0.021329387681857589 -0.0028505309641142251 0 -0.021194836290860733 -0.0039267769775546794 0 -0.021129587734832089 -0.0029320039570427808 0 -0.020668844006887777 -0.0034834104411750077 0 -0.020076401219118783 -0.0032621585037536389 0 -0.020668844006887777 -0.0034834104411750077 0 -0.020076401219118783 -0.0032621585037536389 0 -0.020022350916610525 -0.0042930328251952329 0 -0.020668844006887777 -0.0034834104411750077 0 -0.021147965534166934 -0.0039768241721712611 0 -0.020022350916610525 -0.0042930328251952329 0 -0.019859843634807757 -0.0028034353473123121 0 -0.019287103511902576 -0.0033503764478409097 0 -0.020076401219118783 -0.0032621585037536389 0 -0.019287103511902576 -0.0033503764478409097 0 -0.020076401219118783 -0.0032621585037536389 0 -0.018783633519053579 -0.0043260009469046996 0 -0.020076401219118783 -0.0032621585037536389 0 -0.018783633519053579 -0.0043260009469046996 0 -0.020022350916610525 -0.0042930328251952329 0 -0.018687753844558952 -0.0038543659166565473 0 -0.018827370774618667 -0.0042977683529458926 0 -0.01785473418207378 -0.0042446500781129397 0 -0.017772898684778857 -0.004806428110000498 0 -0.018783633519053579 -0.0043260009469046996 0 -0.01785473418207378 -0.0042446500781129397 0 -0.017979987866286979 -0.0040249751490047539 0 -0.018783633519053579 -0.0043260009469046996 0 -0.017772898684778857 -0.004806428110000498 0 -0.018783633519053579 -0.0043260009469046996 0 -0.018482696274987855 -0.0051345837556769887 0 -0.018783633519053579 -0.0043260009469046996 0 -0.018482696274987855 -0.0051345837556769887 0 -0.020022350916610525 -0.0042930328251952329 0 -0.018482696274987855 -0.0051345837556769887 0 -0.019826678337013376 -0.00550821544508945 0 -0.017624887273615684 -0.006188209377919 0 -0.017772898684778857 -0.004806428110000498 0 -0.018482696274987855 -0.0051345837556769887 0 -0.017641914210851553 -0.0057231887690914335 0 -0.018482696274987855 -0.0051345837556769887 0 -0.017641914210851553 -0.0057231887690914335 0 -0.017624887273615684 -0.006188209377919 0 -0.021147965534166934 -0.0039768241721712611 0 -0.020766951172379301 -0.0048899161112951643 0 -0.020022350916610525 -0.0042930328251952329 0 -0.018482696274987855 -0.0051345837556769887 0 -0.020022350916610525 -0.0042930328251952329 0 -0.019826678337013376 -0.00550821544508945 0 -0.020766951172379301 -0.0048899161112951643 0 -0.020022350916610525 -0.0042930328251952329 0 -0.019826678337013376 -0.00550821544508945 0 -0.020766951172379301 -0.0048899161112951643 0 -0.019826678337013376 -0.00550821544508945 0 -0.02117310189661057 -0.0056532514605267007 0 -0.02117310189661057 -0.0056532514605267007 0 -0.022143074368511612 -0.0047298965791773102 0 -0.02214786111592704 -0.0060023057021543098 0 -0.020766951172379301 -0.0048899161112951643 0 -0.02117310189661057 -0.0056532514605267007 0 -0.022143074368511612 -0.0047298965791773102 0 -0.021058518892160601 -0.0024979823889664022 0 -0.02108104264894603 -0.0031286316619011964 0 -0.020118681322057217 -0.00021370583952941603 0 -0.018578911321519134 -0.00013481137222231914 0 -0.018763139723606305 -9.1655889873229401e-05 0 -0.021147965534166934 -0.0039768241721712611 0 -0.020766951172379301 -0.0048899161112951643 0 -0.022143074368511612 -0.0047298965791773102 0 -0.021058518892160601 -0.0024979823889664022 0 -0.021830196396149547 -0.0019258058908521529 0 -0.021147965534166934 -0.0039768241721712611 0 -0.022143074368511612 -0.0047298965791773102 0 -0.02215972030064917 -0.0033587782946547604 0 -0.021472529322932938 -0.00039101430089086986 0 -0.021404237245039405 -0.00033507336655412334 0 -0.020043410918280352 -0.00021204004585198468 0 -0.020118681322057217 -0.00021370583952941603 0 -0.021472529322932938 -0.00039101430089086986 0 -0.020043410918280352 -0.00021204004585198468 0 -0.021946095767526003 -0.00053295100480986826 0 -0.021472529322932938 -0.00039101430089086986 0 -0.021404237245039405 -0.00033507336655412334 0 -0.022389963477002155 -0.0014485315927688619 0 -0.021830196396149547 -0.0019258058908521529 0 -0.022520034404356147 -7.0938770240491976e-07 0 -0.021404237245039405 -0.00033507336655412334 0 -0.020421552026655358 -4.532087960044016e-07 0 -0.021404237245039405 -0.00033507336655412334 0 -0.020421552026655358 -4.532087960044016e-07 0 -0.020043410918280352 -0.00021204004585198468 0 -0.020421552026655358 -4.532087960044016e-07 0 -0.020043410918280352 -0.00021204004585198468 0 -0.018323126313542843 -2.3391245459890152e-07 0 -0.020118681322057217 -0.00021370583952941603 0 -0.020043410918280352 -0.00021204004585198468 0 -0.018578911321519134 -0.00013481137222231914 0 -0.020043410918280352 -0.00021204004585198468 0 -0.018578911321519134 -0.00013481137222231914 0 -0.018323126313542843 -2.3391245459890152e-07 0 -0.018578911321519134 -0.00013481137222231914 0 -0.017465506344725993 6.4174994313357032e-05 0 -0.01622445381418481 -6.2221903232110527e-07 0 -0.018578911321519134 -0.00013481137222231914 0 -0.018323126313542843 -2.3391245459890152e-07 0 -0.01622445381418481 -6.2221903232110527e-07 0 -0.018578911321519134 -0.00013481137222231914 0 -0.017465506344725993 6.4174994313357032e-05 0 -0.018763139723606305 -9.1655889873229401e-05 0 -0.017465506344725993 6.4174994313357032e-05 0 -0.018763139723606305 -9.1655889873229401e-05 0 -0.017828492008757992 0.00047045856218138975 0 -0.017465506344725993 6.4174994313357032e-05 0 -0.017245869340901759 0.0003379391711636162 0 -0.017828492008757992 0.00047045856218138975 0 -0.017465506344725993 6.4174994313357032e-05 0 -0.017245869340901759 0.0003379391711636162 0 -0.016348993047894528 0.00021108204182484927 0 -0.017465506344725993 6.4174994313357032e-05 0 -0.01622445381418481 -6.2221903232110527e-07 0 -0.016348993047894528 0.00021108204182484927 0 -0.02117310189661057 -0.0056532514605267007 0 -0.02214786111592704 -0.0060023057021543098 0 -0.021287394928560396 -0.0066992302554376316 0 -0.015679012444918639 -0.0063761437274828681 0 -0.015567560113379609 -0.0034284224067845895 0 -0.02108104264894603 -0.0031286316619011964 0 -0.015567560113379609 -0.0034284224067845895 0 -0.02214786111592704 -0.0060023057021543098 0 -0.021287394928560396 -0.0066992302554376316 0 -0.022211159108852692 -0.0070343368013966378 0 -0.010217727515984707 -0.0054719088438058309 0 -0.0096764849431952207 -0.0036130094041663787 0 -0.0082983405541232191 -0.0045432887576130733 0 -0.0096764849431952207 -0.0036130094041663787 0 -0.0082983405541232191 -0.0045432887576130733 0 -0.008205002374960222 -0.0035410278440927909 0 -0.0096764849431952207 -0.0036130094041663787 0 -0.008205002374960222 -0.0035410278440927909 0 -0.0084374287672255438 -0.0026780671050950725 0 -0.0096764849431952207 -0.0036130094041663787 0 -0.0084374287672255438 -0.0026780671050950725 0 -0.0095282336068447781 -0.0017786672857327862 0 -0.0096764849431952207 -0.0036130094041663787 0 -0.0095282336068447781 -0.0017786672857327862 0 -0.011348689881960836 -0.0026680969563255925 0 -0.01622445381418481 -6.2221903232110527e-07 0 -0.016348993047894528 0.00021108204182484927 0 -0.014127674330443258 2.5031041196146245e-06 0 -0.016348993047894528 0.00021108204182484927 0 -0.016577554536705827 0.00069662277590281133 0 -0.014127674330443258 2.5031041196146245e-06 0 -0.012498067930097547 -0.00070220333966118989 0 -0.014127120227009135 -3.8036577409595298e-07 0 -0.017245869340901759 0.0003379391711636162 0 -0.016348993047894528 0.00021108204182484927 0 -0.016577554536705827 0.00069662277590281133 0 -0.017245869340901759 0.0003379391711636162 0 -0.017828492008757992 0.00047045856218138975 0 -0.016577554536705827 0.00069662277590281133 0 -0.0082983405541232191 -0.0045432887576130733 0 -0.008205002374960222 -0.0035410278440927909 0 -0.0070138262226086901 -0.0039027335365039743 0 -0.015567560113379609 -0.0034284224067845895 0 -0.012498067930097547 -0.00070220333966118989 0 -0.008205002374960222 -0.0035410278440927909 0 -0.0070138262226086901 -0.0039027335365039743 0 -0.007538514378398687 -0.002902862587600565 0 -0.0070138262226086901 -0.0039027335365039743 0 -0.007538514378398687 -0.002902862587600565 0 -0.0067465578575464508 -0.00215463279847369 0 -0.008205002374960222 -0.0035410278440927909 0 -0.0084374287672255438 -0.0026780671050950725 0 -0.007538514378398687 -0.002902862587600565 0 -0.0084374287672255438 -0.0026780671050950725 0 -0.007538514378398687 -0.002902862587600565 0 -0.0076260309185036471 -0.0021113579545157741 0 -0.007538514378398687 -0.002902862587600565 0 -0.0067465578575464508 -0.00215463279847369 0 -0.0076260309185036471 -0.0021113579545157741 0 -0.014122749848322543 6.6552452090006698e-08 0 -0.013121666737524622 -0.00026120852777823249 0 -0.012395473999649546 -3.6759804569771782e-06 0 -0.012498067930097547 -0.00070220333966118989 0 -0.0097911027939001673 -0.0015269021650979213 0 -0.013354761952676724 0.00036403597593859455 0 -0.014122749848322543 6.6552452090006698e-08 0 -0.013121666737524622 -0.00026120852777823249 0 -0.014122749848322543 6.6552452090006698e-08 0 -0.012395473999649546 -3.6759804569771782e-06 0 -0.012046307899643997 -1.0898583059032763e-08 0 -0.0067465578575464508 -0.00215463279847369 0 -0.006552003172548144 -0.00052540038274791082 0 -0.0074878891783452146 -0.0011953303933719031 0 -0.013121666737524622 -0.00026120852777823249 0 -0.012395473999649546 -3.6759804569771782e-06 0 -0.012692659803652419 0.00066031388300585902 0 -0.0097911027939001673 -0.0015269021650979213 0 -0.0091649337927024715 0.00073526655216404186 0 -0.012221001242261498 0.00031576523646578036 0 -0.0091649337927024715 0.00073526655216404186 0 -0.012046307899643997 -1.0898583059032763e-08 0 -0.011220560267116481 -3.1396740457978838e-06 0 -0.0099662460549310231 -8.0746646712063979e-08 0 -0.012395473999649546 -3.6759804569771782e-06 0 -0.012046307899643997 -1.0898583059032763e-08 0 -0.011220560267116481 -3.1396740457978838e-06 0 -0.006552003172548144 -0.00052540038274791082 0 -0.0075245689876597003 -0.00022651926053065329 0 -0.0074878891783452146 -0.0011953303933719031 0 -0.0075245689876597003 -0.00022651926053065329 0 -0.0074878891783452146 -0.0011953303933719031 0 -0.0084394871966297497 -0.00059795683412165897 0 -0.0074878891783452146 -0.0011953303933719031 0 -0.0076260309185036471 -0.0021113579545157741 0 -0.008294806179236074 -0.0016635619818365756 0 -0.0067465578575464508 -0.00215463279847369 0 -0.0074878891783452146 -0.0011953303933719031 0 -0.0076260309185036471 -0.0021113579545157741 0 -0.0084374287672255438 -0.0026780671050950725 0 -0.0076260309185036471 -0.0021113579545157741 0 -0.008294806179236074 -0.0016635619818365756 0 -0.0084374287672255438 -0.0026780671050950725 0 -0.008294806179236074 -0.0016635619818365756 0 -0.0095282336068447781 -0.0017786672857327862 0 -0.008294806179236074 -0.0016635619818365756 0 -0.0095282336068447781 -0.0017786672857327862 0 -0.0084394871966297497 -0.00059795683412165897 0 -0.0095282336068447781 -0.0017786672857327862 0 -0.0095858207922931964 -0.00045845067057770188 0 -0.010926349226881035 -0.00081327015855797008 0 -0.0095282336068447781 -0.0017786672857327862 0 -0.0095858207922931964 -0.00045845067057770188 0 -0.0084394871966297497 -0.00059795683412165897 0 -0.0074878891783452146 -0.0011953303933719031 0 -0.008294806179236074 -0.0016635619818365756 0 -0.0084394871966297497 -0.00059795683412165897 0 -0.0084394871966297497 -0.00059795683412165897 0 -0.0079262491222210091 0.0004969860245794814 0 -0.0087407012016572951 0.00073800178741918266 0 -0.0095858207922931964 -0.00045845067057770188 0 -0.0084394871966297497 -0.00059795683412165897 0 -0.0087407012016572951 0.00073800178741918266 0 -0.0075245689876597003 -0.00022651926053065329 0 -0.0084394871966297497 -0.00059795683412165897 0 -0.0079262491222210091 0.0004969860245794814 0 -0.0095858207922931964 -0.00045845067057770188 0 -0.0087407012016572951 0.00073800178741918266 0 -0.010006415579185234 0.00039654917959317209 0 -0.0087407012016572951 0.00073800178741918266 0 -0.0094958609476399874 0.0012331415437127082 0 -0.0082570519041864042 0.001738160153202646 0 -0.0087407012016572951 0.00073800178741918266 0 -0.0094958609476399874 0.0012331415437127082 0 -0.010006415579185234 0.00039654917959317209 0 -0.0079262491222210091 0.0004969860245794814 0 -0.0087407012016572951 0.00073800178741918266 0 -0.0077071914495727726 0.0016287868107363532 0 -0.0087407012016572951 0.00073800178741918266 0 -0.0077071914495727726 0.0016287868107363532 0 -0.0082570519041864042 0.001738160153202646 0 -0.0063404569296973481 0.0015687666325993562 0 -0.0065264238993510406 0.0013936919062904804 0 -0.0079262491222210091 0.0004969860245794814 0 -0.0072489182209899868 0.00067115857646893426 0 -0.0077071914495727726 0.0016287868107363532 0 -0.0061537742531253426 0.0016846356359841428 0 -0.0059319993800403805 0.0024813259247073141 0 -0.0052483078913739128 0.0011166030605232946 0 -0.0064879359257691187 0.0014064451101199027 0 -0.0061537742531253426 0.0016846356359841428 0 -0.0068122060210131187 0.0021066751403779754 0 -0.0064879359257691187 0.0014064451101199027 0 -0.0068122060210131187 0.0021066751403779754 0 -0.0067886626527999486 0.00079892433007247229 0 -0.0095548016912897198 6.168675683633794e-06 0 -0.0099662460549310231 -8.0746646712063979e-08 0 -0.0078872432902940565 4.8704051569503625e-08 0 -0.0061537742531253426 0.0016846356359841428 0 -0.0068122060210131187 0.0021066751403779754 0 -0.0059319993800403805 0.0024813259247073141 0 -0.0091649337927024715 0.00073526655216404186 0 -0.0063404569296973481 0.0015687666325993562 0 -0.0065549113739422574 0.0035643577904624093 0 -0.0068122060210131187 0.0021066751403779754 0 -0.0059319993800403805 0.0024813259247073141 0 -0.0091649337927024715 0.00073526655216404186 0 -0.0081297579605720954 0.0011748295533068535 0 -0.011220560267116481 -3.1396740457978838e-06 0 -0.0095548016912897198 6.168675683633794e-06 0 -0.0099662460549310231 -8.0746646712063979e-08 0 -0.006552003172548144 -0.00052540038274791082 0 -0.0075245689876597003 -0.00022651926053065329 0 -0.0072489182209899868 0.00067115857646893426 0 -0.0075245689876597003 -0.00022651926053065329 0 -0.0079262491222210091 0.0004969860245794814 0 -0.0072489182209899868 0.00067115857646893426 0 -0.012703561039316915 0.00064182740525674557 0 -0.011917184403923435 0.00094005380669948135 0 -0.011950088583803344 0.00054070473509963744 0 -0.012703561039316915 0.00064182740525674557 0 -0.011950088583803344 0.00054070473509963744 0 -0.012635707693052733 3.5961396214422894e-05 0 -0.012703561039316915 0.00064182740525674557 0 -0.013902495326973234 0.00042921294946364545 0 -0.014440548040239684 0.0012268694014622656 0 -0.012764762376285812 0.00069339103940758106 0 -0.013564630852780601 0.00094321390855273796 0 -0.012511253075539968 0.0010351445996108662 0 -0.012758119783731953 0.00078032150230279414 0 -0.012716165392674577 0.00088398502812727926 0 -0.012703561039316915 0.00064182740525674557 0 -0.012511253075539968 0.0010351445996108662 0 -0.012758119783731953 0.00078032150230279414 0 -0.012703561039316915 0.00064182740525674557 0 -0.012511253075539968 0.0010351445996108662 0 -0.011917184403923435 0.00094005380669948135 0 -0.011917184403923435 0.00094005380669948135 0 -0.010935583673766697 0.00081463045684799769 0 -0.010563576970477126 0.0014886737820021239 0 -0.011917184403923435 0.00094005380669948135 0 -0.010935583673766697 0.00081463045684799769 0 -0.011950088583803344 0.00054070473509963744 0 -0.010935583673766697 0.00081463045684799769 0 -0.0094958609476399874 0.0012331415437127082 0 -0.010563576970477126 0.0014886737820021239 0 -0.010935583673766697 0.00081463045684799769 0 -0.0094958609476399874 0.0012331415437127082 0 -0.010006415579185234 0.00039654917959317209 0 -0.010935583673766697 0.00081463045684799769 0 -0.010006415579185234 0.00039654917959317209 0 -0.011256933013333447 0.00012066900644290245 0 -0.010935583673766697 0.00081463045684799769 0 -0.011256933013333447 0.00012066900644290245 0 -0.011950088583803344 0.00054070473509963744 0 -0.011256933013333447 0.00012066900644290245 0 -0.011950088583803344 0.00054070473509963744 0 -0.012635707693052733 3.5961396214422894e-05 0 -0.012635707693052733 3.5961396214422894e-05 0 -0.010926349226881035 -0.00081327015855797008 0 -0.01317337401132573 -0.0017356785147487766 0 -0.011256933013333447 0.00012066900644290245 0 -0.012635707693052733 3.5961396214422894e-05 0 -0.010926349226881035 -0.00081327015855797008 0 -0.0095858207922931964 -0.00045845067057770188 0 -0.010006415579185234 0.00039654917959317209 0 -0.010926349226881035 -0.00081327015855797008 0 -0.010006415579185234 0.00039654917959317209 0 -0.011256933013333447 0.00012066900644290245 0 -0.010926349226881035 -0.00081327015855797008 0 -0.011045463342921991 -0.00085666524704268139 0 -0.011852464675733228 -0.0026175934917777579 0 -0.010926349226881035 -0.00081327015855797008 0 -0.01317337401132573 -0.0017356785147487766 0 -0.012335654017298912 -0.0026497330771782842 0 -0.0095282336068447781 -0.0017786672857327862 0 -0.010926349226881035 -0.00081327015855797008 0 -0.011348689881960836 -0.0026680969563255925 0 -0.012635707693052733 3.5961396214422894e-05 0 -0.01317337401132573 -0.0017356785147487766 0 -0.015353404705030247 -0.0020128817166978111 0 -0.012846949644012206 1.4259265690654844e-05 0 -0.014427556583243567 -0.0011443870468971571 0 -0.012703561039316915 0.00064182740525674557 0 -0.013204310314472178 0.00020291490928132705 0 -0.013902495326973234 0.00042921294946364545 0 -0.012635707693052733 3.5961396214422894e-05 0 -0.013606573341794329 -0.00023416732411802815 0 -0.013204310314472178 0.00020291490928132705 0 -0.012703561039316915 0.00064182740525674557 0 -0.012635707693052733 3.5961396214422894e-05 0 -0.013204310314472178 0.00020291490928132705 0 -0.013606573341794329 -0.00023416732411802815 0 -0.013204310314472178 0.00020291490928132705 0 -0.013902495326973234 0.00042921294946364545 0 -0.013606573341794329 -0.00023416732411802815 0 -0.013902495326973234 0.00042921294946364545 0 -0.014551221634947485 0.00013628466533283676 0 -0.013606573341794329 -0.00023416732411802815 0 -0.01463741654741953 -0.00078932476352267433 0 -0.014551221634947485 0.00013628466533283676 0 -0.014427556583243567 -0.0011443870468971571 0 -0.01586522080311413 -0.0024473492162067332 0 -0.01317337401132573 -0.0017356785147487766 0 -0.015353404705030247 -0.0020128817166978111 0 -0.014856621632030043 -0.0035585303582957384 0 -0.015353404705030247 -0.0020128817166978111 0 -0.014856621632030043 -0.0035585303582957384 0 -0.017159511217599004 -0.0041339862810966166 0 -0.014856621632030043 -0.0035585303582957384 0 -0.017159511217599004 -0.0041339862810966166 0 -0.016002629261587038 -0.0051260534572157282 0 -0.01317337401132573 -0.0017356785147487766 0 -0.014856621632030043 -0.0035585303582957384 0 -0.012335654017298912 -0.0026497330771782842 0 -0.014856621632030043 -0.0035585303582957384 0 -0.012335654017298912 -0.0026497330771782842 0 -0.013704014303345377 -0.0044711559513083508 0 -0.014856621632030043 -0.0035585303582957384 0 -0.013704014303345377 -0.0044711559513083508 0 -0.016002629261587038 -0.0051260534572157282 0 -0.011852464675733228 -0.0026175934917777579 0 -0.012418369700605189 -0.0043262618124474978 0 -0.010217727515984707 -0.0054719088438058309 0 -0.0096764849431952207 -0.0036130094041663787 0 -0.011800326677728831 -0.0044897798120686399 0 -0.0096764849431952207 -0.0036130094041663787 0 -0.011348689881960836 -0.0026680969563255925 0 -0.011800326677728831 -0.0044897798120686399 0 -0.010217727515984707 -0.0054719088438058309 0 -0.011800326677728831 -0.0044897798120686399 0 -0.012242095442627145 -0.0063887738921424748 0 -0.015679012444918639 -0.0063761437274828681 0 -0.016566410101081282 -0.006451276872016699 0 -0.012418369700605189 -0.0043262618124474978 0 -0.016566410101081282 -0.006451276872016699 0 -0.013704014303345377 -0.0044711559513083508 0 -0.01478936788532936 -0.0060865401396352466 0 -0.016002629261587038 -0.0051260534572157282 0 -0.019826678337013376 -0.00550821544508945 0 -0.020166171471464156 -0.0074808902578597765 0 -0.017624887273615684 -0.006188209377919 0 -0.020106388952893687 -0.0059893783705042411 0 -0.016566410101081282 -0.006451276872016699 0 -0.02117310189661057 -0.0056532514605267007 0 -0.021287394928560396 -0.0066992302554376316 0 -0.02007716903134232 -0.0063277586444873144 0 -0.019826678337013376 -0.00550821544508945 0 -0.02117310189661057 -0.0056532514605267007 0 -0.02007716903134232 -0.0063277586444873144 0 -0.017159511217599004 -0.0041339862810966166 0 -0.017283960440056954 -0.0055916559084144392 0 -0.017709521677505186 -0.0056037372575611288 0 -0.017159511217599004 -0.0041339862810966166 0 -0.017283960440056954 -0.0055916559084144392 0 -0.016002629261587038 -0.0051260534572157282 0 -0.017283960440056954 -0.0055916559084144392 0 -0.016002629261587038 -0.0051260534572157282 0 -0.017624887273615684 -0.006188209377919 0 -0.01478936788532936 -0.0060865401396352466 0 -0.016002629261587038 -0.0051260534572157282 0 -0.017624887273615684 -0.006188209377919 0 -0.016566410101081282 -0.006451276872016699 0 -0.017887456659006047 -0.0064250749473543263 0 -0.017641914210851553 -0.0057231887690914335 0 -0.017283960440056954 -0.0055916559084144392 0 -0.017709521677505186 -0.0056037372575611288 0 -0.017641914210851553 -0.0057231887690914335 0 -0.017283960440056954 -0.0055916559084144392 0 -0.017624887273615684 -0.006188209377919 0 -0.017205526073474336 -0.0054230709897018737 0 -0.017641914210851553 -0.0057231887690914335 0 -0.017709521677505186 -0.0056037372575611288 0 -0.01586522080311413 -0.0024473492162067332 0 -0.016643753240401744 -0.0034007822185805415 0 -0.01463741654741953 -0.00078932476352267433 0 -0.015659340887834019 -0.0013152824397977909 0 -0.016035695782625141 -0.00086572721284589027 0 -0.015659340887834019 -0.0013152824397977909 0 -0.016838148692647437 -0.0012420370915700856 0 -0.016035695782625141 -0.00086572721284589027 0 -0.016867824967656059 -0.0035509588695631878 0 -0.016643753240401744 -0.0034007822185805415 0 -0.016512099957942037 -0.0017131661969904731 0 -0.015659340887834019 -0.0013152824397977909 0 -0.016838148692647437 -0.0012420370915700856 0 -0.017261285309838337 -0.0016484996868049993 0 -0.016838148692647437 -0.0012420370915700856 0 -0.01746238999261155 -0.0013263912480910222 0 -0.016838148692647437 -0.0012420370915700856 0 -0.01746238999261155 -0.0013263912480910222 0 -0.017657484748594233 -0.0010689904374817435 0 -0.0167538360095533 -0.0007429513922764219 0 -0.017572607143775926 -0.0010735034608998374 0 -0.016838148692647437 -0.0012420370915700856 0 -0.016921546070052688 -0.00067183145730896404 0 -0.017657484748594233 -0.0010689904374817435 0 -0.016838148692647437 -0.0012420370915700856 0 -0.016921546070052688 -0.00067183145730896404 0 -0.016035695782625141 -0.00086572721284589027 0 -0.016921546070052688 -0.00067183145730896404 0 -0.01587577827686875 -0.00022722623806084886 0 -0.016035695782625141 -0.00086572721284589027 0 -0.0167538360095533 -0.0007429513922764219 0 -0.015650160954862609 -0.00030612059128913138 0 -0.016581112867886265 -0.00082977358723738449 0 -0.016388478671003775 -0.00031323469509275838 0 -0.015448243178154498 -0.00037443520829517793 0 -0.016581112867886265 -0.00082977358723738449 0 -0.017657484748594233 -0.0010689904374817435 0 -0.01739904908568457 -0.00033211551772347776 0 -0.016581112867886265 -0.00082977358723738449 0 -0.016388478671003775 -0.00031323469509275838 0 -0.01739904908568457 -0.00033211551772347776 0 -0.016388478671003775 -0.00031323469509275838 0 -0.01739904908568457 -0.00033211551772347776 0 -0.0166265561963982 0.0001699345509251292 0 -0.016957754033918547 -0.00011988092374038775 0 -0.015884053973625974 0.00059075067395132673 0 -0.016388478671003775 -0.00031323469509275838 0 -0.015448243178154498 -0.00037443520829517793 0 -0.015932739318901577 8.0499308312268622e-05 0 -0.016388478671003775 -0.00031323469509275838 0 -0.015932739318901577 8.0499308312268622e-05 0 -0.0166265561963982 0.0001699345509251292 0 -0.01463741654741953 -0.00078932476352267433 0 -0.01587577827686875 -0.00022722623806084886 0 -0.014551221634947485 0.00013628466533283676 0 -0.015650160954862609 -0.00030612059128913138 0 -0.014654785703896162 0.0001356751649796531 0 -0.01463741654741953 -0.00078932476352267433 0 -0.01587577827686875 -0.00022722623806084886 0 -0.016035695782625141 -0.00086572721284589027 0 -0.019237224502263135 -0.00098635587264397332 0 -0.018664925526639418 -0.0010884777303754273 0 -0.019153952715488216 -0.00045370148008528157 0 -0.018664925526639418 -0.0010884777303754273 0 -0.01842093157073138 -0.00047861463618668697 0 -0.019153952715488216 -0.00045370148008528157 0 -0.018684075531312599 -0.0013502641341646255 0 -0.018822908937852996 -0.0012268330573733 0 -0.018664925526639418 -0.0010884777303754273 0 -0.019237224502263135 -0.00098635587264397332 0 -0.019069338023177833 -0.0015414892986582113 0 -0.018664925526639418 -0.0010884777303754273 0 -0.019788985978186194 -0.0010847076561662271 0 -0.018679102347842855 -0.0010119945944528021 0 -0.018684075531312599 -0.0013502641341646255 0 -0.018664925526639418 -0.0010884777303754273 0 -0.018432520549982519 -0.0012497209016144339 0 -0.018664925526639418 -0.0010884777303754273 0 -0.018317779105196278 -0.00096047340999809124 0 -0.018432520549982519 -0.0012497209016144339 0 -0.018664925526639418 -0.0010884777303754273 0 -0.018317779105196278 -0.00096047340999809124 0 -0.01842093157073138 -0.00047861463618668697 0 -0.018317779105196278 -0.00096047340999809124 0 -0.017869701624081635 -0.00062676997416991921 0 -0.01842093157073138 -0.00047861463618668697 0 -0.018317779105196278 -0.00096047340999809124 0 -0.017657484748594233 -0.0010689904374817435 0 -0.017869701624081635 -0.00062676997416991921 0 -0.018317779105196278 -0.00096047340999809124 0 -0.018432520549982519 -0.0012497209016144339 0 -0.017657484748594233 -0.0010689904374817435 0 -0.018093155362691155 -0.0014002565893993272 0 -0.01746238999261155 -0.0013263912480910222 0 -0.017657484748594233 -0.0010689904374817435 0 -0.018093155362691155 -0.0014002565893993272 0 -0.018432520549982519 -0.0012497209016144339 0 -0.017657484748594233 -0.0010689904374817435 0 -0.017657484748594233 -0.0010689904374817435 0 -0.01739904908568457 -0.00033211551772347776 0 -0.017869701624081635 -0.00062676997416991921 0 -0.016957754033918547 -0.00011988092374038775 0 -0.017761485068801118 -0.00061104430294410149 0 -0.016504083862482199 6.9389445980940149e-05 0 -0.017770676246727724 0.00032634068178065629 0 -0.016282976597026742 0.0013143991818620668 0 -0.016504083862482199 6.9389445980940149e-05 0 -0.016282976597026742 0.0013143991818620668 0 -0.01516674876310382 0.00099640385866507663 0 -0.017770676246727724 0.00032634068178065629 0 -0.017869701624081635 -0.00062676997416991921 0 -0.01842093157073138 -0.00047861463618668697 0 -0.016504083862482199 6.9389445980940149e-05 0 -0.017770676246727724 0.00032634068178065629 0 -0.017869701624081635 -0.00062676997416991921 0 -0.017770676246727724 0.00032634068178065629 0 -0.01842093157073138 -0.00047861463618668697 0 -0.018702101409771063 0.00034797344006624143 0 -0.017770676246727724 0.00032634068178065629 0 -0.018702101409771063 0.00034797344006624143 0 -0.01828811419354057 0.0012179933119118079 0 -0.018702101409771063 0.00034797344006624143 0 -0.019153433671238076 0.0012367593365781647 0 -0.019356329031128494 0.00039928272622940397 0 -0.01842093157073138 -0.00047861463618668697 0 -0.018702101409771063 0.00034797344006624143 0 -0.019153952715488216 -0.00045370148008528157 0 -0.018702101409771063 0.00034797344006624143 0 -0.019153952715488216 -0.00045370148008528157 0 -0.019356329031128494 0.00039928272622940397 0 -0.019265944106847496 0.0020435762245015372 0 -0.018677902684925279 0.0019796236936485694 0 -0.019153433671238076 0.0012367593365781647 0 -0.019410199318089114 0.0021631976278693593 0 -0.018677902684925279 0.0019796236936485694 0 -0.017954429051088967 0.0028989908930638865 0 -0.015211249453860412 0.0011527628554361378 0 -0.014891542994482979 0.0013747476247178815 0 -0.015211249453860412 0.0011527628554361378 0 -0.019854367925984596 0.0023157607612439581 0 -0.018677902684925279 0.0019796236936485694 0 -0.019153433671238076 0.0012367593365781647 0 -0.01828811419354057 0.0012179933119118079 0 -0.018702101409771063 0.00034797344006624143 0 -0.019153433671238076 0.0012367593365781647 0 -0.01828811419354057 0.0012179933119118079 0 -0.01828811419354057 0.0012179933119118079 0 -0.017864211805443186 0.0020083914445137444 0 -0.017391898996226753 0.001479601442617945 0 -0.018677902684925279 0.0019796236936485694 0 -0.01828811419354057 0.0012179933119118079 0 -0.017864211805443186 0.0020083914445137444 0 -0.018677902684925279 0.0019796236936485694 0 -0.017864211805443186 0.0020083914445137444 0 -0.017954429051088967 0.0028989908930638865 0 -0.017864211805443186 0.0020083914445137444 0 -0.017391898996226753 0.001479601442617945 0 -0.016761413130491468 0.0023828026361926691 0 -0.017864211805443186 0.0020083914445137444 0 -0.016761413130491468 0.0023828026361926691 0 -0.017954429051088967 0.0028989908930638865 0 -0.017770676246727724 0.00032634068178065629 0 -0.01828811419354057 0.0012179933119118079 0 -0.017391898996226753 0.001479601442617945 0 -0.017770676246727724 0.00032634068178065629 0 -0.017391898996226753 0.001479601442617945 0 -0.016282976597026742 0.0013143991818620668 0 -0.017391898996226753 0.001479601442617945 0 -0.016282976597026742 0.0013143991818620668 0 -0.016761413130491468 0.0023828026361926691 0 -0.016761413130491468 0.0023828026361926691 0 -0.015540682795497954 0.0019010184415028681 0 -0.015371362000491273 0.0027985019862666605 0 -0.016282976597026742 0.0013143991818620668 0 -0.016761413130491468 0.0023828026361926691 0 -0.015540682795497954 0.0019010184415028681 0 -0.01328457623629694 -0.00094866984554717586 0 -0.011635959984445124 -0.00033180525043950443 0 -0.01134943917490141 -0.001385939272521361 0 -0.01328457623629694 -0.00094866984554717586 0 -0.01134943917490141 -0.001385939272521361 0 -0.012179949576612838 -0.0020800475826151426 0 -0.016761413130491468 0.0023828026361926691 0 -0.016320732526198051 0.003653416185536832 0 -0.015371362000491273 0.0027985019862666605 0 -0.013707653075066635 0.00070457314129333207 0 -0.014313860991854112 0.0023498135433087761 0 -0.012158315791104138 0.00054868637851295205 0 -0.012300426280790923 0.00034024719858034982 0 -0.011942898755033854 0.00019252166332450269 0 -0.013707653075066635 0.00070457314129333207 0 -0.012622327946997521 -0.00099568549677154648 0 -0.016761413130491468 0.0023828026361926691 0 -0.016320732526198051 0.003653416185536832 0 -0.017954429051088967 0.0028989908930638865 0 -0.013707653075066635 0.00070457314129333207 0 -0.014891542994482979 0.0013747476247178815 0 -0.011635959984445124 -0.00033180525043950443 0 -0.01134943917490141 -0.001385939272521361 0 -0.010559937125972576 -0.00069074622689611431 0 -0.01134943917490141 -0.001385939272521361 0 -0.010800353571515603 -0.0021732907697114071 0 -0.012179949576612838 -0.0020800475826151426 0 -0.01134943917490141 -0.001385939272521361 0 -0.01013155922116296 -0.0014103392590851299 0 -0.010559937125972576 -0.00069074622689611431 0 -0.01134943917490141 -0.001385939272521361 0 -0.01013155922116296 -0.0014103392590851299 0 -0.010800353571515603 -0.0021732907697114071 0 -0.010016387173382851 0.00027721957936090847 0 -0.011635959984445124 -0.00033180525043950443 0 -0.010559937125972576 -0.00069074622689611431 0 -0.010016387173382851 0.00027721957936090847 0 -0.010559937125972576 -0.00069074622689611431 0 -0.0096668597120429002 -0.00060474511224434084 0 -0.01013155922116296 -0.0014103392590851299 0 -0.010559937125972576 -0.00069074622689611431 0 -0.0096668597120429002 -0.00060474511224434084 0 -0.014957581722907677 0.00057809020484902529 0 -0.015303176904261253 0.00020628309643024904 0 -0.015767469785547963 0.00064504382766217142 0 -0.014866887638526125 0.0012419400278434966 0 -0.014745622752407496 0.0011201148033627691 0 -0.014957581722907677 0.00057809020484902529 0 -0.015767469785547963 0.00064504382766217142 0 -0.014710586171338082 0.0010886822102486198 0 -0.013880303624713429 0.0019241216549389878 0 -0.013865441355400703 0.0016212238323233224 0 -0.014710586171338082 0.0010886822102486198 0 -0.014957581722907677 0.00057809020484902529 0 -0.01452988019491991 0.0007019002514502457 0 -0.014551221634947485 0.00013628466533283676 0 -0.014957581722907677 0.00057809020484902529 0 -0.01452988019491991 0.0007019002514502457 0 -0.014710586171338082 0.0010886822102486198 0 -0.013902495326973234 0.00042921294946364545 0 -0.01452988019491991 0.0007019002514502457 0 -0.014551221634947485 0.00013628466533283676 0 -0.015448243178154498 -0.00037443520829517793 0 -0.015303176904261253 0.00020628309643024904 0 -0.015932739318901577 8.0499308312268622e-05 0 -0.014957581722907677 0.00057809020484902529 0 -0.014551221634947485 0.00013628466533283676 0 -0.015303176904261253 0.00020628309643024904 0 -0.015448243178154498 -0.00037443520829517793 0 -0.014551221634947485 0.00013628466533283676 0 -0.015303176904261253 0.00020628309643024904 0 -0.01516674876310382 0.00099640385866507663 0 -0.013880303624713429 0.0019241216549389878 0 -0.014190950597678045 0.0017890364771381902 0 -0.015303176904261253 0.00020628309643024904 0 -0.015932739318901577 8.0499308312268622e-05 0 -0.015767469785547963 0.00064504382766217142 0 -0.015884053973625974 0.00059075067395132673 0 -0.014866887638526125 0.0012419400278434966 0 -0.015932739318901577 8.0499308312268622e-05 0 -0.0166265561963982 0.0001699345509251292 0 -0.015767469785547963 0.00064504382766217142 0 -0.01516674876310382 0.00099640385866507663 0 -0.015540682795497954 0.0019010184415028681 0 -0.014190950597678045 0.0017890364771381902 0 -0.016282976597026742 0.0013143991818620668 0 -0.01516674876310382 0.00099640385866507663 0 -0.015540682795497954 0.0019010184415028681 0 -0.015540682795497954 0.0019010184415028681 0 -0.014190950597678045 0.0017890364771381902 0 -0.015371362000491273 0.0027985019862666605 0 -0.014030665580106244 0.0017305618708416176 0 -0.014313860991854112 0.0023498135433087761 0 -0.013880303624713429 0.0019241216549389878 0 -0.014190950597678045 0.0017890364771381902 0 -0.013865441355400703 0.0016212238323233224 0 -0.014190950597678045 0.0017890364771381902 0 -0.013865441355400703 0.0016212238323233224 0 -0.013547642217979255 0.0014906888666550179 0 -0.014190950597678045 0.0017890364771381902 0 -0.013547642217979255 0.0014906888666550179 0 -0.012902912820220261 0.0015305314700729434 0 -0.013865441355400703 0.0016212238323233224 0 -0.014039159198656878 0.0012110835343446496 0 -0.013547642217979255 0.0014906888666550179 0 -0.014039159198656878 0.0012110835343446496 0 -0.013547642217979255 0.0014906888666550179 0 -0.013581338112411365 0.0010912261613547313 0 -0.013547642217979255 0.0014906888666550179 0 -0.013581338112411365 0.0010912261613547313 0 -0.013047093703678113 0.0010130799837012689 0 -0.013581338112411365 0.0010912261613547313 0 -0.014021531869112565 0.00095750057115171784 0 -0.013468164947830005 0.00075715926445842443 0 -0.013581338112411365 0.0010912261613547313 0 -0.013047093703678113 0.0010130799837012689 0 -0.013468164947830005 0.00075715926445842443 0 -0.014039159198656878 0.0012110835343446496 0 -0.013581338112411365 0.0010912261613547313 0 -0.014021531869112565 0.00095750057115171784 0 -0.012074087647073 0.00079206631013546138 0 -0.012902912820220261 0.0015305314700729434 0 -0.013047093703678113 0.0010130799837012689 0 -0.013547642217979255 0.0014906888666550179 0 -0.012902912820220261 0.0015305314700729434 0 -0.013047093703678113 0.0010130799837012689 0 -0.012074087647073 0.00079206631013546138 0 -0.013047093703678113 0.0010130799837012689 0 -0.012747873153789042 0.00044351531281174202 0 -0.013707653075066635 0.00070457314129333207 0 -0.012187723982250648 0.00060599514120440962 0 -0.012158315791104138 0.00054868637851295205 0 -0.012300426280790923 0.00034024719858034982 0 -0.012747873153789042 0.00044351531281174202 0 -0.012747873153789042 0.00044351531281174202 0 -0.012642637058728071 0.00029829967843330457 0 -0.013468164947830005 0.00075715926445842443 0 -0.013047093703678113 0.0010130799837012689 0 -0.012747873153789042 0.00044351531281174202 0 -0.013468164947830005 0.00075715926445842443 0 -0.012592075005027389 0.00031662323911819712 0 -0.012642637058728071 0.00029829967843330457 0 -0.012613708900208341 0.00036867079065143097 0 -0.012542415939767012 0.00029938667427699086 0 -0.012592075005027389 0.00031662323911819712 0 -0.012613708900208341 0.00036867079065143097 0 -0.012542415939767012 0.00029938667427699086 0 -0.012592075005027389 0.00031662323911819712 0 -0.012562937178775383 0.00029155464125973885 0 -0.012562937178775383 0.00029155464125973885 0 -0.012476230351591172 0.00025871795186910036 0 -0.012474108350825483 0.00030405198691900296 0 -0.012542415939767012 0.00029938667427699086 0 -0.012562937178775383 0.00029155464125973885 0 -0.012476230351591172 0.00025871795186910036 0 -0.012592075005027389 0.00031662323911819712 0 -0.012562937178775383 0.00029155464125973885 0 -0.012642637058728071 0.00029829967843330457 0 -0.012747873153789042 0.00044351531281174202 0 -0.012642637058728071 0.00029829967843330457 0 -0.012474108350825483 0.00030405198691900296 0 -0.012562937178775383 0.00029155464125973885 0 -0.012642637058728071 0.00029829967843330457 0 -0.012474108350825483 0.00030405198691900296 0 -0.012300426280790923 0.00034024719858034982 0 -0.012474108350825483 0.00030405198691900296 0 -0.012343296577510682 0.00019341245035802066 0 -0.012300426280790923 0.00034024719858034982 0 -0.012747873153789042 0.00044351531281174202 0 -0.012474108350825483 0.00030405198691900296 0 -0.012476230351591172 0.00025871795186910036 0 -0.012474108350825483 0.00030405198691900296 0 -0.012343296577510682 0.00019341245035802066 0 -0.012613708900208341 0.00036867079065143097 0 -0.012642293314050389 0.00043811741134474865 0 -0.012686394808619845 0.00059739979170182864 0 -0.012726449684172317 0.0003330024055422815 0 -0.01353777513770188 0.00066025292463005021 0 -0.012642637058728071 0.00029829967843330457 0 -0.012613708900208341 0.00036867079065143097 0 -0.012686394808619845 0.00059739979170182864 0 -0.012642637058728071 0.00029829967843330457 0 -0.013468164947830005 0.00075715926445842443 0 -0.014464763310786628 0.00068860933215850032 0 -0.014021531869112565 0.00095750057115171784 0 -0.013468164947830005 0.00075715926445842443 0 -0.014464763310786628 0.00068860933215850032 0 -0.012542415939767012 0.00029938667427699086 0 -0.012613708900208341 0.00036867079065143097 0 -0.012556163296371443 0.00032240952363012505 0 -0.012613708900208341 0.00036867079065143097 0 -0.012585664567864783 0.00035215262778860062 0 -0.012556163296371443 0.00032240952363012505 0 -0.012613708900208341 0.00036867079065143097 0 -0.012642293314050389 0.00043811741134474865 0 -0.012585664567864783 0.00035215262778860062 0 -0.012753901979584809 0.00065647416763838233 0 -0.012686394808619845 0.00059739979170182864 0 -0.012758119783731953 0.00078032150230279414 0 -0.012642293314050389 0.00043811741134474865 0 -0.012727127564287632 0.00046672526527845152 0 -0.012686394808619845 0.00059739979170182864 0 -0.012727127564287632 0.00046672526527845152 0 -0.012753901979584809 0.00065647416763838233 0 -0.012686394808619845 0.00059739979170182864 0 -0.013865441355400703 0.0016212238323233224 0 -0.014039159198656878 0.0012110835343446496 0 -0.014710586171338082 0.0010886822102486198 0 -0.014039159198656878 0.0012110835343446496 0 -0.014021531869112565 0.00095750057115171784 0 -0.014541943100494826 0.00095041265240510355 0 -0.014021531869112565 0.00095750057115171784 0 -0.014464763310786628 0.00068860933215850032 0 -0.014541943100494826 0.00095041265240510355 0 -0.014464763310786628 0.00068860933215850032 0 -0.014541943100494826 0.00095041265240510355 0 -0.014440548040239684 0.0012268694014622656 0 -0.014039159198656878 0.0012110835343446496 0 -0.014541943100494826 0.00095041265240510355 0 -0.014710586171338082 0.0010886822102486198 0 -0.01452988019491991 0.0007019002514502457 0 -0.014710586171338082 0.0010886822102486198 0 -0.014440548040239684 0.0012268694014622656 0 -0.013902495326973234 0.00042921294946364545 0 -0.01452988019491991 0.0007019002514502457 0 -0.014440548040239684 0.0012268694014622656 0 -0.014541943100494826 0.00095041265240510355 0 -0.014710586171338082 0.0010886822102486198 0 -0.014440548040239684 0.0012268694014622656 0 -0.012727127564287632 0.00046672526527845152 0 -0.012753901979584809 0.00065647416763838233 0 -0.01293891261579974 0.00020763775429005874 0 -0.012753901979584809 0.00065647416763838233 0 -0.012758119783731953 0.00078032150230279414 0 -0.012716165392674577 0.00088398502812727926 0 -0.012753901979584809 0.00065647416763838233 0 -0.012716165392674577 0.00088398502812727926 0 -0.012739823421179167 0.001121283865146332 0 -0.01353777513770188 0.00066025292463005021 0 -0.013564630852780601 0.00094321390855273796 0 -0.012569982671307909 0.0008061729075543346 0 -0.013500328930344044 0.00049139069478794611 0 -0.01293891261579974 0.00020763775429005874 0 -0.012771858000631563 0.00017014603588667374 0 -0.012713486417682111 0.00032730726781105777 0 -0.01293891261579974 0.00020763775429005874 0 -0.012771858000631563 0.00017014603588667374 0 -0.012803428465769458 -5.0529889055953731e-05 0 -0.01293891261579974 0.00020763775429005874 0 -0.012803428465769458 -5.0529889055953731e-05 0 -0.012987182930638221 -2.6676551969742933e-05 0 -0.010674187065508513 -0.00047282546188725204 0 -0.009097953527626032 -0.00063407526804788879 0 -0.012717205789634129 3.1309801998165742e-05 0 -0.012534681545406713 -0.00016911987828890107 0 -0.012803428465769458 -5.0529889055953731e-05 0 -0.012717205789634129 3.1309801998165742e-05 0 -0.012771858000631563 0.00017014603588667374 0 -0.012803428465769458 -5.0529889055953731e-05 0 -0.012717205789634129 3.1309801998165742e-05 0 -0.012584670165259772 1.3194047190868791e-05 0 -0.012534681545406713 -0.00016911987828890107 0 -0.012717205789634129 3.1309801998165742e-05 0 -0.012620297639701647 0.00013993225545360413 0 -0.012771858000631563 0.00017014603588667374 0 -0.012717205789634129 3.1309801998165742e-05 0 -0.012620297639701647 0.00013993225545360413 0 -0.012584670165259772 1.3194047190868791e-05 0 -0.012620297639701647 0.00013993225545360413 0 -0.012675150266836027 0.00023813964453796749 0 -0.012606266773279248 0.00028775382520328908 0 -0.012727127564287632 0.00046672526527845152 0 -0.01293891261579974 0.00020763775429005874 0 -0.012713486417682111 0.00032730726781105777 0 -0.012620297639701647 0.00013993225545360413 0 -0.012675150266836027 0.00023813964453796749 0 -0.012771858000631563 0.00017014603588667374 0 -0.012675150266836027 0.00023813964453796749 0 -0.012771858000631563 0.00017014603588667374 0 -0.012713486417682111 0.00032730726781105777 0 -0.012675150266836027 0.00023813964453796749 0 -0.012713486417682111 0.00032730726781105777 0 -0.012606266773279248 0.00028775382520328908 0 -0.012642293314050389 0.00043811741134474865 0 -0.012727127564287632 0.00046672526527845152 0 -0.012713486417682111 0.00032730726781105777 0 -0.012642293314050389 0.00043811741134474865 0 -0.012713486417682111 0.00032730726781105777 0 -0.012606266773279248 0.00028775382520328908 0 -0.012606266773279248 0.00028775382520328908 0 -0.012585664567864783 0.00035215262778860062 0 -0.012502482439462802 0.00024809994850175137 0 -0.012642293314050389 0.00043811741134474865 0 -0.012606266773279248 0.00028775382520328908 0 -0.012585664567864783 0.00035215262778860062 0 -0.012585664567864783 0.00035215262778860062 0 -0.012556163296371443 0.00032240952363012505 0 -0.012502482439462802 0.00024809994850175137 0 -0.012542415939767012 0.00029938667427699086 0 -0.012556163296371443 0.00032240952363012505 0 -0.01248876091410462 0.00026774607730521455 0 -0.012502482439462802 0.00024809994850175137 0 -0.012432537511717264 0.00021284574561671231 0 -0.01248876091410462 0.00026774607730521455 0 -0.012556163296371443 0.00032240952363012505 0 -0.012502482439462802 0.00024809994850175137 0 -0.01248876091410462 0.00026774607730521455 0 -0.012502482439462802 0.00024809994850175137 0 -0.012432537511717264 0.00021284574561671231 0 -0.012349846554115317 0.00014389645439761211 0 -0.012349846554115317 0.00014389645439761211 0 -0.01247461082995267 0.00016292031520478428 0 -0.012330929322334552 9.3564553056310927e-05 0 -0.012502482439462802 0.00024809994850175137 0 -0.012349846554115317 0.00014389645439761211 0 -0.01247461082995267 0.00016292031520478428 0 -0.012606266773279248 0.00028775382520328908 0 -0.012502482439462802 0.00024809994850175137 0 -0.01247461082995267 0.00016292031520478428 0 -0.012620297639701647 0.00013993225545360413 0 -0.012606266773279248 0.00028775382520328908 0 -0.01247461082995267 0.00016292031520478428 0 -0.012476230351591172 0.00025871795186910036 0 -0.012343296577510682 0.00019341245035802066 0 -0.012418366905836208 0.00022390561435494725 0 -0.012343296577510682 0.00019341245035802066 0 -0.012418366905836208 0.00022390561435494725 0 -0.012301927651394066 0.00014318637549235244 0 -0.012542415939767012 0.00029938667427699086 0 -0.012476230351591172 0.00025871795186910036 0 -0.012418366905836208 0.00022390561435494725 0 -0.012542415939767012 0.00029938667427699086 0 -0.012418366905836208 0.00022390561435494725 0 -0.01248876091410462 0.00026774607730521455 0 -0.012432537511717264 0.00021284574561671231 0 -0.012418366905836208 0.00022390561435494725 0 -0.01248876091410462 0.00026774607730521455 0 -0.012432537511717264 0.00021284574561671231 0 -0.012349846554115317 0.00014389645439761211 0 -0.012301927651394066 0.00014318637549235244 0 -0.012432537511717264 0.00021284574561671231 0 -0.012418366905836208 0.00022390561435494725 0 -0.012301927651394066 0.00014318637549235244 0 -0.012349846554115317 0.00014389645439761211 0 -0.012301927651394066 0.00014318637549235244 0 -0.012205418829534411 6.4147382007094422e-05 0 -0.012343296577510682 0.00019341245035802066 0 -0.012301927651394066 0.00014318637549235244 0 -0.012198921009548665 8.1549853584863831e-05 0 -0.012301927651394066 0.00014318637549235244 0 -0.012198921009548665 8.1549853584863831e-05 0 -0.012088351716700127 1.3733376984629888e-05 0 -0.012012530289475609 -4.9144383849447713e-05 0 -0.011711374733766764 -0.00014724969561954427 0 -0.012534681545406713 -0.00016911987828890107 0 -0.012198921009548665 8.1549853584863831e-05 0 -0.012088351716700127 1.3733376984629888e-05 0 -0.012093799562592692 -3.2695591408875626e-05 0 -0.012088351716700127 1.3733376984629888e-05 0 -0.012047870996072664 -2.2413427258853555e-05 0 -0.011930149282078157 -8.691884590225964e-05 0 -0.012047870996072664 -2.2413427258853555e-05 0 -0.012205418829534411 6.4147382007094422e-05 0 -0.012201733928210102 1.2480429014384137e-05 0 -0.012301927651394066 0.00014318637549235244 0 -0.012088351716700127 1.3733376984629888e-05 0 -0.012205418829534411 6.4147382007094422e-05 0 -0.012088351716700127 1.3733376984629888e-05 0 -0.012047870996072664 -2.2413427258853555e-05 0 -0.012205418829534411 6.4147382007094422e-05 0 -0.012349846554115317 0.00014389645439761211 0 -0.012205418829534411 6.4147382007094422e-05 0 -0.012330929322334552 9.3564553056310927e-05 0 -0.012205418829534411 6.4147382007094422e-05 0 -0.012201733928210102 1.2480429014384137e-05 0 -0.012330929322334552 9.3564553056310927e-05 0 -0.012047870996072664 -2.2413427258853555e-05 0 -0.012201733928210102 1.2480429014384137e-05 0 -0.012012530289475609 -4.9144383849447713e-05 0 -0.012047870996072664 -2.2413427258853555e-05 0 -0.012012530289475609 -4.9144383849447713e-05 0 -0.011930149282078157 -8.691884590225964e-05 0 -0.012012530289475609 -4.9144383849447713e-05 0 -0.011711374733766764 -0.00014724969561954427 0 -0.011930149282078157 -8.691884590225964e-05 0 -0.011608999377733787 -0.00024078544202130341 0 -0.010674187065508513 -0.00047282546188725204 0 -0.012620297639701647 0.00013993225545360413 0 -0.012584670165259772 1.3194047190868791e-05 0 -0.012438841385469043 5.0724970969436965e-05 0 -0.012620297639701647 0.00013993225545360413 0 -0.01247461082995267 0.00016292031520478428 0 -0.012438841385469043 5.0724970969436965e-05 0 -0.01247461082995267 0.00016292031520478428 0 -0.012330929322334552 9.3564553056310927e-05 0 -0.012438841385469043 5.0724970969436965e-05 0 -0.012201733928210102 1.2480429014384137e-05 0 -0.012330929322334552 9.3564553056310927e-05 0 -0.012438841385469043 5.0724970969436965e-05 0 -0.012201733928210102 1.2480429014384137e-05 0 -0.012012530289475609 -4.9144383849447713e-05 0 -0.012534681545406713 -0.00016911987828890107 0 -0.012201733928210102 1.2480429014384137e-05 0 -0.012438841385469043 5.0724970969436965e-05 0 -0.012534681545406713 -0.00016911987828890107 0 -0.012584670165259772 1.3194047190868791e-05 0 -0.012438841385469043 5.0724970969436965e-05 0 -0.012534681545406713 -0.00016911987828890107 0 -0.0019788486915344474 0.00048796969834090473 0 -0.0025662979718045638 0.00030979398218587093 0 -0.0029881375812789834 0.00067367596190658378 0 -0.008952466939054984 -0.00084562423578638793 0 -0.011431176355848865 -0.0001203807370538924 0 -0.0073788628800868826 0.00019343275015222734 0 -0.0066319304691606499 0.00043479355133166597 0 -0.0051474638145626332 0.00042235176541854594 0 -0.0017467540542045001 0.0011017773261601134 0 -0.0019788486915344474 0.00048796969834090473 0 -0.0029881375812789834 0.00067367596190658378 0 -0.011711374733766764 -0.00014724969561954427 0 -0.008952466939054984 -0.00084562423578638793 0 -0.011431176355848865 -0.0001203807370538924 0 -0.0017467540542045001 0.0011017773261601134 0 -0.0012925152896769876 0.00058628422463819017 0 -0.00028469131605408948 0.00057176004832993992 0 -0.0017467540542045001 0.0011017773261601134 0 -0.0019788486915344474 0.00048796969834090473 0 -0.0012925152896769876 0.00058628422463819017 0 -0.0019788486915344474 0.00048796969834090473 0 -0.0012925152896769876 0.00058628422463819017 0 -0.0011351343914210539 0.00019830890807697609 0 -0.0019788486915344474 0.00048796969834090473 0 -0.0011351343914210539 0.00019830890807697609 0 -0.0016602228477856896 -0.00044339658349472572 0 -0.0016602228477856896 -0.00044339658349472572 0 -0.0025662979718045638 0.00030979398218587093 0 -0.0030078946087533985 -0.00068270007258498832 0 -0.0019788486915344474 0.00048796969834090473 0 -0.0016602228477856896 -0.00044339658349472572 0 -0.0025662979718045638 0.00030979398218587093 0 -0.0025662979718045638 0.00030979398218587093 0 -0.0028757869303072704 0.00044687251364279796 0 -0.0029360103550452742 0.00047574782157822792 0 -0.0028473880891142938 -0.0001639853202819303 0 -0.00055177420897076202 0.00052915001625878787 0 -0.0028757869303072704 0.00044687251364279796 0 -0.0029744075247446142 0.00051654794178333677 0 -0.0029360103550452742 0.00047574782157822792 0 -0.0028757869303072704 0.00044687251364279796 0 -0.0029744075247446142 0.00051654794178333677 0 -0.0029881375812789834 0.00067367596190658378 0 -0.0025662979718045638 0.00030979398218587093 0 -0.0028757869303072704 0.00044687251364279796 0 -0.0029881375812789834 0.00067367596190658378 0 -0.0029744075247446142 0.00051654794178333677 0 -0.0029739738479922697 0.00039955959077513548 0 -0.0025254840622279135 0.00079828932598451855 0 -0.0029744075247446142 0.00051654794178333677 0 -0.0028350205852701402 0.00092075303662961011 0 -0.0025254840622279135 0.00079828932598451855 0 -0.005264211472150635 -0.0012187984043713299 0 -0.0029739738479922697 0.00039955959077513548 0 -0.002403580349961043 -0.0008220687187562196 0 -0.0029744075247446142 0.00051654794178333677 0 -0.0029739738479922697 0.00039955959077513548 0 -0.0029881375812789834 0.00067367596190658378 0 -0.009097953527626032 -0.00063407526804788879 0 -0.0074750790924745861 0.00015409992374095302 0 -0.003141722289101122 0.00045674267069755213 0 -0.0051474638145626332 0.00042235176541854594 0 -0.005264211472150635 -0.0012187984043713299 0 -0.0029739738479922697 0.00039955959077513548 0 -0.0073788628800868826 0.00019343275015222734 0 -0.008952466939054984 -0.00084562423578638793 0 -0.005264211472150635 -0.0012187984043713299 0 -0.0073788628800868826 0.00019343275015222734 0 -0.0040118861434545522 -0.0013784366330931563 0 -0.0038980336273367771 -0.0014591858714217123 0 -0.0038702514682408405 -0.0013658043649253948 0 -0.0062845131350156248 -0.00093514453850289977 0 -0.00037926653759183824 -0.00064348457973692854 0 -0.0062845131350156248 -0.00093514453850289977 0 -0.0068870303657060077 -0.0022993954022216649 0 -0.01013155922116296 -0.0014103392590851299 0 -0.010800353571515603 -0.0021732907697114071 0 -0.0093213279708561775 -0.0027976483440132851 0 -0.010800353571515603 -0.0021732907697114071 0 -0.011054781250543102 -0.0031848126502936193 0 -0.0093213279708561775 -0.0027976483440132851 0 -0.0062845131350156248 -0.00093514453850289977 0 -0.012622327946997521 -0.00099568549677154648 0 -0.010800353571515603 -0.0021732907697114071 0 -0.011054781250543102 -0.0031848126502936193 0 -0.012179949576612838 -0.0020800475826151426 0 -0.011612049467781381 -9.5102488830544319e-05 0 -0.012228423827408479 -0.00010088131477190168 0 -0.012092281822768312 3.7698683737005711e-05 0 0.0012821687347112413 0.0012634301132149082 0 7.193946661855142e-06 0.0013017247321249258 0 0.00088467398358715312 0.00082517146111051325 0 -0.0062845131350156248 -0.00093514453850289977 0 -0.0058409046271386406 0.00080181308982267888 0 -0.011612049467781381 -9.5102488830544319e-05 0 -0.011942898755033854 0.00019252166332450269 0 -0.012092281822768312 3.7698683737005711e-05 0 -0.011942898755033854 0.00019252166332450269 0 -0.012092281822768312 3.7698683737005711e-05 0 -0.012164646974922054 0.00010006327236005756 0 -0.012300426280790923 0.00034024719858034982 0 -0.011942898755033854 0.00019252166332450269 0 -0.012164646974922054 0.00010006327236005756 0 -0.012092281822768312 3.7698683737005711e-05 0 -0.012164646974922054 0.00010006327236005756 0 -0.012093799562592692 -3.2695591408875626e-05 0 -0.012300426280790923 0.00034024719858034982 0 -0.012343296577510682 0.00019341245035802066 0 -0.012164646974922054 0.00010006327236005756 0 -0.012343296577510682 0.00019341245035802066 0 -0.012198921009548665 8.1549853584863831e-05 0 -0.012164646974922054 0.00010006327236005756 0 -0.012198921009548665 8.1549853584863831e-05 0 -0.012164646974922054 0.00010006327236005756 0 -0.012093799562592692 -3.2695591408875626e-05 0 -0.012088351716700127 1.3733376984629888e-05 0 -0.011930149282078157 -8.691884590225964e-05 0 -0.012093799562592692 -3.2695591408875626e-05 0 -0.011930149282078157 -8.691884590225964e-05 0 -0.012228423827408479 -0.00010088131477190168 0 -0.012093799562592692 -3.2695591408875626e-05 0 -0.0066319304691606499 0.00043479355133166597 0 -0.0058409046271386406 0.00080181308982267888 0 -0.011711374733766764 -0.00014724969561954427 0 -0.011431176355848865 -0.0001203807370538924 0 -0.012228423827408479 -0.00010088131477190168 0 -0.011711374733766764 -0.00014724969561954427 0 -0.011930149282078157 -8.691884590225964e-05 0 -0.012228423827408479 -0.00010088131477190168 0 -0.012228423827408479 -0.00010088131477190168 0 -0.012092281822768312 3.7698683737005711e-05 0 -0.012093799562592692 -3.2695591408875626e-05 0 -0.0017467540542045001 0.0011017773261601134 0 7.193946661855142e-06 0.0013017247321249258 0 -0.00028469131605408948 0.00057176004832993992 0 -0.0012925152896769876 0.00058628422463819017 0 -0.0011351343914210539 0.00019830890807697609 0 -0.00028469131605408948 0.00057176004832993992 0 0.0017331937979393386 -3.5709469090914211e-05 0 0.0015962690655504819 -4.5397166050297453e-05 0 0.0016551736463395661 2.203279771311128e-05 0 -0.0011351343914210539 0.00019830890807697609 0 -0.0016602228477856896 -0.00044339658349472572 0 -0.00026222210098076081 -0.0002852433588981591 0 1.4073641807909794e-05 -0.00032206869038589912 0 0.00068824185070362454 -0.0001313127787899715 0 -0.0011351343914210539 0.00019830890807697609 0 -0.00028469131605408948 0.00057176004832993992 0 -0.00026222210098076081 -0.0002852433588981591 0 -0.00028469131605408948 0.00057176004832993992 0 -0.00026222210098076081 -0.0002852433588981591 0 0.0012084118406102881 6.8814490807777974e-05 0 0.0015962690655504819 -4.5397166050297453e-05 0 0.0012084118406102881 6.8814490807777974e-05 0 0.0015339152757567185 1.640227051481483e-05 0 0.00068824185070362454 -0.0001313127787899715 0 0.0011802144503027302 3.369230548262659e-05 0 7.193946661855142e-06 0.0013017247321249258 0 -0.00028469131605408948 0.00057176004832993992 0 0.00088467398358715312 0.00082517146111051325 0 -0.00028469131605408948 0.00057176004832993992 0 0.00088467398358715312 0.00082517146111051325 0 0.0012084118406102881 6.8814490807777974e-05 0 0.00088467398358715312 0.00082517146111051325 0 0.0012084118406102881 6.8814490807777974e-05 0 0.0017558059958184883 0.00042410962158214842 0 0.0012821687347112413 0.0012634301132149082 0 0.00088467398358715312 0.00082517146111051325 0 0.0017558059958184883 0.00042410962158214842 0 0.0012084118406102881 6.8814490807777974e-05 0 0.001583100346088377 5.8453959292762838e-05 0 0.0015753614697029726 -2.4500490400623419e-05 0 0.0012084118406102881 6.8814490807777974e-05 0 0.001583100346088377 5.8453959292762838e-05 0 0.0017558059958184883 0.00042410962158214842 0 0.0016213353692530045 -6.837206393038713e-06 0 0.001608395028396795 8.4777199335133366e-05 0 0.0016832564778959034 -4.3655921060236714e-07 0 0.0016213353692530045 -6.837206393038713e-06 0 0.0016343005603198615 -1.8906129616568667e-05 0 0.0016832564778959034 -4.3655921060236714e-07 0 0.001583100346088377 5.8453959292762838e-05 0 0.0015753614697029726 -2.4500490400623419e-05 0 0.0016343005603198615 -1.8906129616568667e-05 0 0.0016213353692530045 -6.837206393038713e-06 0 0.0015753614697029726 -2.4500490400623419e-05 0 0.0016343005603198615 -1.8906129616568667e-05 0 0.0012084118406102881 6.8814490807777974e-05 0 0.0015753614697029726 -2.4500490400623419e-05 0 0.0015339152757567185 1.640227051481483e-05 0 0.0015753614697029726 -2.4500490400623419e-05 0 0.0016592293351523639 -2.4658057508237213e-05 0 0.0015339152757567185 1.640227051481483e-05 0 0.0016213353692530045 -6.837206393038713e-06 0 0.0016592293351523639 -2.4658057508237213e-05 0 0.001608395028396795 8.4777199335133366e-05 0 0.0016213353692530045 -6.837206393038713e-06 0 0.0015753614697029726 -2.4500490400623419e-05 0 0.0016592293351523639 -2.4658057508237213e-05 0 0.0016592293351523639 -2.4658057508237213e-05 0 0.0017471279986007728 -2.3183567330246019e-05 0 0.0018871252485631871 7.6838639443274222e-05 0 0.0016592293351523639 -2.4658057508237213e-05 0 0.0017471279986007728 -2.3183567330246019e-05 0 0.0015339152757567185 1.640227051481483e-05 0 0.0017471279986007728 -2.3183567330246019e-05 0 0.0015339152757567185 1.640227051481483e-05 0 0.0016551736463395661 2.203279771311128e-05 0 0.0015962690655504819 -4.5397166050297453e-05 0 0.0015339152757567185 1.640227051481483e-05 0 0.0016551736463395661 2.203279771311128e-05 0 0.0016551736463395661 2.203279771311128e-05 0 0.0017114157828832278 4.3974905379857582e-05 0 0.0017307342458318352 3.3629060186788414e-05 0 0.0017471279986007728 -2.3183567330246019e-05 0 0.0017114157828832278 4.3974905379857582e-05 0 0.0017348140859908645 0.000124663339766539 0 0.0017471279986007728 -2.3183567330246019e-05 0 0.0016551736463395661 2.203279771311128e-05 0 0.0017114157828832278 4.3974905379857582e-05 0 0.0021674594481961179 2.6261066450242144e-05 0 0.0024991931241591051 1.2951270870566239e-05 0 0.002557609856383692 0.00024017812681158959 0 0.0017471279986007728 -2.3183567330246019e-05 0 0.0021674594481961179 2.6261066450242144e-05 0 0.0024991931241591051 1.2951270870566239e-05 0 0.0017978384483113008 -1.7576503229581479e-05 0 0.0021108701338712378 8.3309187842679303e-05 0 0.0021674594481961179 2.6261066450242144e-05 0 0.0023438751399004762 0.00024639295800513676 0 0.002808796168188547 0.00028895816671949007 0 0.0022422642362975552 2.7538819337282224e-05 0 0.0026608868344705724 0.00027106038524458612 0 0.0023438751399004762 0.00024639295800513676 0 0.002808796168188547 0.00028895816671949007 0 0.002967113558528522 0.00060902728645078252 0 0.0023438751399004762 0.00024639295800513676 0 0.0020288178258338375 0.00042541126808450907 0 0.0018871252485631871 7.6838639443274222e-05 0 0.0017471279986007728 -2.3183567330246019e-05 0 0.0021674594481961179 2.6261066450242144e-05 0 0.0018871252485631871 7.6838639443274222e-05 0 0.0021674594481961179 2.6261066450242144e-05 0 0.0023438751399004762 0.00024639295800513676 0 0.0018871252485631871 7.6838639443274222e-05 0 0.0016592293351523639 -2.4658057508237213e-05 0 0.0018871252485631871 7.6838639443274222e-05 0 0.001608395028396795 8.4777199335133366e-05 0 0.0024484800157414275 0.00040652521863962521 0 0.0019822570496604228 0.00013433813227330211 0 0.0020288178258338375 0.00042541126808450907 0 0.0018871252485631871 7.6838639443274222e-05 0 0.001608395028396795 8.4777199335133366e-05 0 0.0028583083002913512 0.00041511621058711159 0 0.0023393126384529564 0.0001549886053021753 0 0.0024764207876287578 0.00046517010533291583 0 0.0023393126384529564 0.0001549886053021753 0 0.0021589845416879324 0.00042037127695196955 0 0.0024764207876287578 0.00046517010533291583 0 0.0023393126384529564 0.0001549886053021753 0 0.0021589845416879324 0.00042037127695196955 0 0.0019304599791449034 0.00025261905928294199 0 0.0023393126384529564 0.0001549886053021753 0 0.0019304599791449034 0.00025261905928294199 0 0.0016832564778959034 -4.3655921060236714e-07 0 0.0019822570496604228 0.00013433813227330211 0 0.0017152162301795157 6.5814616620827039e-06 0 0.0019131014506751352 0.0001179507231028772 0 0.0018349643372631869 6.4165964465207412e-05 0 0.0018510905025664534 0.0001133834523615888 0 0.0014212498498067778 0.0013117058117706078 0 0.00090514146633722821 0.0012609760401463695 0 0.00098057305870554194 0.0017469164743898783 0 0.0014212498498067778 0.0013117058117706078 0 0.00090514146633722821 0.0012609760401463695 0 0.0012037405737863915 0.00070247200847722976 0 0.0014212498498067778 0.0013117058117706078 0 0.00098057305870554194 0.0017469164743898783 0 0.0016517949408031704 0.0018744801048750555 0 0.0019131014506751352 0.0001179507231028772 0 0.0018468261214526108 -1.3932322232642531e-05 0 0.0018349643372631869 6.4165964465207412e-05 0 0.0018970713431346361 0.00090833141171069078 0 -0.00055177420897076202 0.00052915001625878787 0 -0.00089883346686900345 0.0014015146532764761 0 -0.00055177420897076202 0.00052915001625878787 0 -0.0029744075247446142 0.00051654794178333677 0 -0.0028350205852701402 0.00092075303662961011 0 -0.0029360103550452742 0.00047574782157822792 0 1.4073641807909794e-05 -0.00032206869038589912 0 -0.00055177420897076202 0.00052915001625878787 0 0.0017331937979393386 -3.5709469090914211e-05 0 0.0018468261214526108 -1.3932322232642531e-05 0 0.0017859436048675602 2.2963602397406904e-05 0 0.0018468261214526108 -1.3932322232642531e-05 0 0.0017859436048675602 2.2963602397406904e-05 0 0.0018349643372631869 6.4165964465207412e-05 0 0.0017331937979393386 -3.5709469090914211e-05 0 0.0017859436048675602 2.2963602397406904e-05 0 0.0017307342458318352 3.3629060186788414e-05 0 0.0017331937979393386 -3.5709469090914211e-05 0 0.0016551736463395661 2.203279771311128e-05 0 0.0017307342458318352 3.3629060186788414e-05 0 0.0017859436048675602 2.2963602397406904e-05 0 0.0017307342458318352 3.3629060186788414e-05 0 0.001786625761906455 7.1585004655529027e-05 0 0.0017508832495605421 8.4187323225707971e-05 0 0.001786625761906455 7.1585004655529027e-05 0 0.0018128017374640997 0.00014582827893884368 0 0.0017114157828832278 4.3974905379857582e-05 0 0.0017508832495605421 8.4187323225707971e-05 0 0.0017348140859908645 0.000124663339766539 0 0.0017114157828832278 4.3974905379857582e-05 0 0.0017307342458318352 3.3629060186788414e-05 0 0.0017508832495605421 8.4187323225707971e-05 0 0.0017307342458318352 3.3629060186788414e-05 0 0.0017508832495605421 8.4187323225707971e-05 0 0.001786625761906455 7.1585004655529027e-05 0 0.001786625761906455 7.1585004655529027e-05 0 0.0018510905025664534 0.0001133834523615888 0 0.0018128017374640997 0.00014582827893884368 0 0.0018349643372631869 6.4165964465207412e-05 0 0.001786625761906455 7.1585004655529027e-05 0 0.0018510905025664534 0.0001133834523615888 0 0.0017859436048675602 2.2963602397406904e-05 0 0.0018349643372631869 6.4165964465207412e-05 0 0.001786625761906455 7.1585004655529027e-05 0 0.0018510905025664534 0.0001133834523615888 0 0.0018128017374640997 0.00014582827893884368 0 0.001921438634325474 0.00020079708666865832 0 0.0018128017374640997 0.00014582827893884368 0 0.0018296661471069013 0.00016677706287362247 0 0.001921438634325474 0.00020079708666865832 0 0.0017508832495605421 8.4187323225707971e-05 0 0.0018128017374640997 0.00014582827893884368 0 0.0017348140859908645 0.000124663339766539 0 0.0018128017374640997 0.00014582827893884368 0 0.0017348140859908645 0.000124663339766539 0 0.0018296661471069013 0.00016677706287362247 0 0.0021108701338712378 8.3309187842679303e-05 0 0.0023139888040861526 0.00019881547253853974 0 0.0024991931241591051 1.2951270870566239e-05 0 0.002557609856383692 0.00024017812681158959 0 0.0027941136074354418 0.00025993034189535953 0 0.0018296661471069013 0.00016677706287362247 0 0.001921438634325474 0.00020079708666865832 0 0.0022475820815784156 0.00014006626953176707 0 0.001921438634325474 0.00020079708666865832 0 0.0018947028907538698 0.00034815226925906162 0 0.0022475820815784156 0.00014006626953176707 0 0.0019131014506751352 0.0001179507231028772 0 0.0018510905025664534 0.0001133834523615888 0 0.001921438634325474 0.00020079708666865832 0 0.0019131014506751352 0.0001179507231028772 0 0.001921438634325474 0.00020079708666865832 0 0.0018947028907538698 0.00034815226925906162 0 0.0018970713431346361 0.00090833141171069078 0 0.0014818566986507943 0.00043922635385531736 0 0.00090514146633722821 0.0012609760401463695 0 0.0012037405737863915 0.00070247200847722976 0 0.00053170310180484094 0.00093826942752505392 0 0.0012037405737863915 0.00070247200847722976 0 0.00077367430141841152 0.00053079962230589159 0 0.00053170310180484094 0.00093826942752505392 0 0.0014818566986507943 0.00043922635385531736 0 0.001237695528648248 9.7708773625208186e-05 0 0.0018947028907538698 0.00034815226925906162 0 0.0011959335322737226 9.6124774856690614e-05 0 0.0022475820815784156 0.00014006626953176707 0 0.0012037405737863915 0.00070247200847722976 0 0.0011959335322737226 9.6124774856690614e-05 0 0.00077367430141841152 0.00053079962230589159 0 0.00039845831753989989 0.00024589175324523028 0 0.00077367430141841152 0.00053079962230589159 0 3.6620824015863815e-05 0.00056516852069161386 0 0.0011959335322737226 9.6124774856690614e-05 0 0.00039845831753989989 0.00024589175324523028 0 0.00077367430141841152 0.00053079962230589159 0 -0.00019637954778204146 0.00019109600338660548 0 3.6620824015863815e-05 0.00056516852069161386 0 -0.00061881321387797833 0.00061504667231196755 0 0.00039845831753989989 0.00024589175324523028 0 -0.00019637954778204146 0.00019109600338660548 0 3.6620824015863815e-05 0.00056516852069161386 0 3.6620824015863815e-05 0.00056516852069161386 0 -0.00017016938632646045 0.00096150254976834178 0 -0.00061881321387797833 0.00061504667231196755 0 3.6620824015863815e-05 0.00056516852069161386 0 0.00053170310180484094 0.00093826942752505392 0 -0.00017016938632646045 0.00096150254976834178 0 0.00077367430141841152 0.00053079962230589159 0 3.6620824015863815e-05 0.00056516852069161386 0 0.00053170310180484094 0.00093826942752505392 0 0.00090514146633722821 0.0012609760401463695 0 0.00098057305870554194 0.0017469164743898783 0 0.00017179495507128951 0.0016192702440693907 0 0.00053170310180484094 0.00093826942752505392 0 -0.00017016938632646045 0.00096150254976834178 0 0.00017179495507128951 0.0016192702440693907 0 0.00090514146633722821 0.0012609760401463695 0 0.00053170310180484094 0.00093826942752505392 0 0.00017179495507128951 0.0016192702440693907 0 -0.00017016938632646045 0.00096150254976834178 0 0.00017179495507128951 0.0016192702440693907 0 -0.00098084331927429137 0.0012619268415309986 0 -0.00093085244153065321 0.0014305606489051919 0 -0.00099673249702559317 0.0013084347647490222 0 -0.0020252685059495082 0.0013360310166917323 0 -0.0012637668102754766 0.0010054885470186445 0 -0.00098084331927429137 0.0012619268415309986 0 -0.0020252685059495082 0.0013360310166917323 0 -0.0012637668102754766 0.0010054885470186445 0 -0.0017925194819685786 0.00073083613910169859 0 -0.0020252685059495082 0.0013360310166917323 0 -0.0025254840622279135 0.00079828932598451855 0 -0.0017925194819685786 0.00073083613910169859 0 -0.00089883346686900345 0.0014015146532764761 0 -0.00093085244153065321 0.0014305606489051919 0 -0.0028350205852701402 0.00092075303662961011 0 -0.0020252685059495082 0.0013360310166917323 0 -0.0025254840622279135 0.00079828932598451855 0 -0.0027789545421064822 0.00062097916601922183 0 -0.0022449621588387543 0.00067734181771867644 0 -0.0012320173232751976 0.0012648118776811318 0 -0.0012637668102754766 0.0010054885470186445 0 -0.0011406431494758124 0.00078495849313684699 0 -0.0012320173232751976 0.0012648118776811318 0 -0.0012637668102754766 0.0010054885470186445 0 -0.00098084331927429137 0.0012619268415309986 0 -0.00098084331927429137 0.0012619268415309986 0 -0.0011179499703251278 0.00077867419635943851 0 -0.00061881321387797833 0.00061504667231196755 0 -0.00017016938632646045 0.00096150254976834178 0 -0.00098084331927429137 0.0012619268415309986 0 -0.00061881321387797833 0.00061504667231196755 0 -0.0012320173232751976 0.0012648118776811318 0 -0.00098084331927429137 0.0012619268415309986 0 -0.0011179499703251278 0.00077867419635943851 0 -0.0011179499703251278 0.00077867419635943851 0 -0.00061881321387797833 0.00061504667231196755 0 -0.000772255401324523 0.00021467448667442422 0 -0.0011179499703251278 0.00077867419635943851 0 -0.000772255401324523 0.00021467448667442422 0 -0.0021620941575965402 0.00045977218746099372 0 -0.00019637954778204146 0.00019109600338660548 0 -0.00061881321387797833 0.00061504667231196755 0 -0.000772255401324523 0.00021467448667442422 0 -0.000772255401324523 0.00021467448667442422 0 -0.0021620941575965402 0.00045977218746099372 0 -0.00095415422314204068 0.00014059142368120329 0 -0.0021620941575965402 0.00045977218746099372 0 -0.0010669064579171888 5.1532453097003406e-05 0 -0.00095415422314204068 0.00014059142368120329 0 -0.0021620941575965402 0.00045977218746099372 0 -0.0010669064579171888 5.1532453097003406e-05 0 -0.0024300945124883853 0.00020246946280403375 0 -0.0010669064579171888 5.1532453097003406e-05 0 -0.0016492105142704287 -6.591903722129793e-08 0 0.00043052556525724093 4.3629135159443833e-07 0 -0.0010669064579171888 5.1532453097003406e-05 0 -0.0016492105142704287 -6.591903722129793e-08 0 -0.0024300945124883853 0.00020246946280403375 0 -0.0016492105142704287 -6.591903722129793e-08 0 -0.0024300945124883853 0.00020246946280403375 0 -0.0037277766398158873 2.6998210193139747e-07 0 -0.0024300945124883853 0.00020246946280403375 0 -0.0038664916391142057 0.00020279134935547076 0 -0.0037277766398158873 2.6998210193139747e-07 0 -0.0038664916391142057 0.00020279134935547076 0 -0.0037277766398158873 2.6998210193139747e-07 0 -0.0046056613008454966 3.5585640279815941e-05 0 -0.0042299420845367626 0.00027497458639844026 0 -0.0021620941575965402 0.00045977218746099372 0 -0.0037181118094368366 0.00027354672669127275 0 -0.0012320173232751976 0.0012648118776811318 0 -0.0011179499703251278 0.00077867419635943851 0 -0.0021620941575965402 0.00045977218746099372 0 -0.0027789545421064822 0.00062097916601922183 0 -0.0023196348341857258 0.00045744530519509647 0 -0.0021620941575965402 0.00045977218746099372 0 -0.0024300945124883853 0.00020246946280403375 0 -0.0037181118094368366 0.00027354672669127275 0 -0.0038664916391142057 0.00020279134935547076 0 -0.0037181118094368366 0.00027354672669127275 0 -0.0047565769106593849 0.0004292088472970236 0 -0.0024300945124883853 0.00020246946280403375 0 -0.0038664916391142057 0.00020279134935547076 0 -0.0037181118094368366 0.00027354672669127275 0 -0.0042299420845367626 0.00027497458639844026 0 -0.0037181118094368366 0.00027354672669127275 0 -0.0047854245001537057 0.0003564687128286663 0 -0.0037181118094368366 0.00027354672669127275 0 -0.0047854245001537057 0.0003564687128286663 0 -0.0047565769106593849 0.0004292088472970236 0 -0.0047854245001537057 0.0003564687128286663 0 -0.0057740753549020444 0.00076108889884264879 0 -0.0052032030034502349 0.00085658123382293967 0 -0.0047854245001537057 0.0003564687128286663 0 -0.0047565769106593849 0.0004292088472970236 0 -0.0057740753549020444 0.00076108889884264879 0 -0.0038664916391142057 0.00020279134935547076 0 -0.0047565769106593849 0.0004292088472970236 0 -0.0046232087452548441 0.00018576326598477284 0 -0.0047565769106593849 0.0004292088472970236 0 -0.0049627917386430636 0.00026370204581947852 0 -0.0046232087452548441 0.00018576326598477284 0 -0.0049627917386430636 0.00026370204581947852 0 -0.0057740753549020444 0.00076108889884264879 0 -0.0050758909117973967 0.00012057949525873554 0 -0.0059414435557273142 0.00084831967949366039 0 -0.0064137011152672783 0.0012136491346545547 0 -0.0047565769106593849 0.0004292088472970236 0 -0.0049627917386430636 0.00026370204581947852 0 -0.0057740753549020444 0.00076108889884264879 0 -0.0066660156683500593 0.0020623456658840581 0 -0.0057740753549020444 0.00076108889884264879 0 -0.0078570229930219771 0.0022076865060914313 0 -0.0066660156683500593 0.0020623456658840581 0 -0.0057740753549020444 0.00076108889884264879 0 -0.0052032030034502349 0.00085658123382293967 0 -0.0037277766398158873 2.6998210193139747e-07 0 -0.0046056613008454966 3.5585640279815941e-05 0 -0.0058075656724537652 -6.5736137366980624e-07 0 -0.0038664916391142057 0.00020279134935547076 0 -0.0046056613008454966 3.5585640279815941e-05 0 -0.0046232087452548441 0.00018576326598477284 0 -0.0046056613008454966 3.5585640279815941e-05 0 -0.0046232087452548441 0.00018576326598477284 0 -0.0051905928211210669 6.9120028036453261e-05 0 -0.0049627917386430636 0.00026370204581947852 0 -0.0046232087452548441 0.00018576326598477284 0 -0.0051905928211210669 6.9120028036453261e-05 0 -0.0049627917386430636 0.00026370204581947852 0 -0.0051905928211210669 6.9120028036453261e-05 0 -0.0054254200465862247 0.00015861673739520115 0 -0.0051905928211210669 6.9120028036453261e-05 0 -0.0060439481715102474 2.0179804981594377e-05 0 -0.0054254200465862247 0.00015861673739520115 0 -0.0046056613008454966 3.5585640279815941e-05 0 -0.0051905928211210669 6.9120028036453261e-05 0 -0.0058075656724537652 -6.5736137366980624e-07 0 -0.0051905928211210669 6.9120028036453261e-05 0 -0.0058075656724537652 -6.5736137366980624e-07 0 -0.0060439481715102474 2.0179804981594377e-05 0 -0.0058075656724537652 -6.5736137366980624e-07 0 -0.0075275402212372942 1.9597172520635359e-06 0 -0.0060439481715102474 2.0179804981594377e-05 0 -0.0075275402212372942 1.9597172520635359e-06 0 -0.0060439481715102474 2.0179804981594377e-05 0 -0.0062495493984524551 0.00033677601574024635 0 -0.0060439481715102474 2.0179804981594377e-05 0 -0.0062495493984524551 0.00033677601574024635 0 -0.0054254200465862247 0.00015861673739520115 0 -0.0054254200465862247 0.00015861673739520115 0 -0.0055460620169623534 0.00050251756933623426 0 -0.0050758909117973967 0.00012057949525873554 0 -0.0062495493984524551 0.00033677601574024635 0 -0.0054254200465862247 0.00015861673739520115 0 -0.0055460620169623534 0.00050251756933623426 0 -0.0061537742531253426 0.0016846356359841428 0 -0.0052483078913739128 0.0011166030605232946 0 -0.0062123057276125765 0.0010077604711397068 0 -0.0052483078913739128 0.0011166030605232946 0 -0.0055460620169623534 0.00050251756933623426 0 -0.0062123057276125765 0.0010077604711397068 0 -0.0062495493984524551 0.00033677601574024635 0 -0.0055460620169623534 0.00050251756933623426 0 -0.0062123057276125765 0.0010077604711397068 0 -0.0081297579605720954 0.0011748295533068535 0 -0.0076979906110703515 -0.00013516018227846961 0 -0.0095548016912897198 6.168675683633794e-06 0 -0.007530669415345405 2.5059298659491877e-08 0 -0.0078872432902940565 4.8704051569503625e-08 0 -0.0068122060210131187 0.0021066751403779754 0 -0.0075275402212372942 1.9597172520635359e-06 0 -0.0067886626527999486 0.00079892433007247229 0 -0.0062495493984524551 0.00033677601574024635 0 -0.0062123057276125765 0.0010077604711397068 0 -0.0067886626527999486 0.00079892433007247229 0 -0.0064879359257691187 0.0014064451101199027 0 -0.0062123057276125765 0.0010077604711397068 0 -0.0067886626527999486 0.00079892433007247229 0 -0.0064879359257691187 0.0014064451101199027 0 -0.0061537742531253426 0.0016846356359841428 0 -0.0062123057276125765 0.0010077604711397068 0 -0.0075275402212372942 1.9597172520635359e-06 0 -0.0062495493984524551 0.00033677601574024635 0 -0.0067886626527999486 0.00079892433007247229 0 -0.0066660156683500593 0.0020623456658840581 0 -0.0077623566581470106 0.0020902497476134353 0 -0.0078570229930219771 0.0022076865060914313 0 -0.0077623566581470106 0.0020902497476134353 0 -0.0078570229930219771 0.0022076865060914313 0 -0.0082570519041864042 0.001738160153202646 0 -0.0066660156683500593 0.0020623456658840581 0 -0.0077623566581470106 0.0020902497476134353 0 -0.0087624253755034087 0.0019207895530430931 0 -0.0049627917386430636 0.00026370204581947852 0 -0.0054254200465862247 0.00015861673739520115 0 -0.0050758909117973967 0.00012057949525873554 0 -0.0077071914495727726 0.0016287868107363532 0 -0.0078570229930219771 0.0022076865060914313 0 -0.0082570519041864042 0.001738160153202646 0 -0.0052483078913739128 0.0011166030605232946 0 -0.0055460620169623534 0.00050251756933623426 0 -0.0050758909117973967 0.00012057949525873554 0 -0.0065264238993510406 0.0013936919062904804 0 -0.0064137011152672783 0.0012136491346545547 0 -0.0094958609476399874 0.0012331415437127082 0 -0.0082570519041864042 0.001738160153202646 0 -0.0087624253755034087 0.0019207895530430931 0 -0.0077623566581470106 0.0020902497476134353 0 -0.0082570519041864042 0.001738160153202646 0 -0.0087624253755034087 0.0019207895530430931 0 -0.0087624253755034087 0.0019207895530430931 0 -0.010309861362136727 0.0023175731411398423 0 -0.010563576970477126 0.0014886737820021239 0 -0.0094958609476399874 0.0012331415437127082 0 -0.0087624253755034087 0.0019207895530430931 0 -0.010563576970477126 0.0014886737820021239 0 -0.0087624253755034087 0.0019207895530430931 0 -0.010309861362136727 0.0023175731411398423 0 -0.0092875182213428085 0.0030927929778519253 0 -0.0066660156683500593 0.0020623456658840581 0 -0.0087624253755034087 0.0019207895530430931 0 -0.0092875182213428085 0.0030927929778519253 0 -0.010309861362136727 0.0023175731411398423 0 -0.011811336896261957 0.0020169169163613758 0 -0.010881330154096959 0.0032636169209838083 0 -0.010309861362136727 0.0023175731411398423 0 -0.0092875182213428085 0.0030927929778519253 0 -0.010881330154096959 0.0032636169209838083 0 -0.011917184403923435 0.00094005380669948135 0 -0.010563576970477126 0.0014886737820021239 0 -0.011811336896261957 0.0020169169163613758 0 -0.010309861362136727 0.0023175731411398423 0 -0.010563576970477126 0.0014886737820021239 0 -0.011811336896261957 0.0020169169163613758 0 -0.012511253075539968 0.0010351445996108662 0 -0.012226039533204594 0.0012225915503083227 0 -0.012512066064758385 0.0012371795474627357 0 -0.012356873289645588 0.0011889116192696026 0 -0.012398776004752596 0.0014029358416964438 0 -0.012511253075539968 0.0010351445996108662 0 -0.011917184403923435 0.00094005380669948135 0 -0.011811336896261957 0.0020169169163613758 0 -0.012511253075539968 0.0010351445996108662 0 -0.012716165392674577 0.00088398502812727926 0 -0.012739823421179167 0.001121283865146332 0 -0.012511253075539968 0.0010351445996108662 0 -0.012739823421179167 0.001121283865146332 0 -0.012512066064758385 0.0012371795474627357 0 -0.012739823421179167 0.001121283865146332 0 -0.012512066064758385 0.0012371795474627357 0 -0.012527097216646917 0.0015188484811540991 0 -0.013500328930344044 0.00049139069478794611 0 -0.0074750790924745861 0.00015409992374095302 0 -0.012226039533204594 0.0012225915503083227 0 -0.012512066064758385 0.0012371795474627357 0 -0.012527097216646917 0.0015188484811540991 0 -0.012226039533204594 0.0012225915503083227 0 -0.012527097216646917 0.0015188484811540991 0 -0.011958160942143014 0.0015540862443209245 0 -0.012398776004752596 0.0014029358416964438 0 -0.0067794720224812529 0.0017886076593110973 0 -0.0017605745183547957 0.00037284430304845867 0 -0.0023184121620592225 9.3798848018071873e-05 0 -0.0014608846107843328 0.00010885488544845434 0 -0.0074750790924745861 0.00015409992374095302 0 -0.0067794720224812529 0.0017886076593110973 0 -0.0017605745183547957 0.00037284430304845867 0 -0.0023184121620592225 9.3798848018071873e-05 0 -0.0017925194819685786 0.00073083613910169859 0 -0.0074750790924745861 0.00015409992374095302 0 -0.00025505441219933456 0.00083713880150576602 0 -0.0029739738479922697 0.00039955959077513548 0 -0.002403580349961043 -0.0008220687187562196 0 -0.0017925194819685786 0.00073083613910169859 0 -0.0029739738479922697 0.00039955959077513548 0 -0.0025254840622279135 0.00079828932598451855 0 -0.0017925194819685786 0.00073083613910169859 0 -0.0012637668102754766 0.0010054885470186445 0 -0.0017925194819685786 0.00073083613910169859 0 -0.0014778470946806681 0.00061529942979226984 0 -0.0017605745183547957 0.00037284430304845867 0 -0.0017925194819685786 0.00073083613910169859 0 -0.0014778470946806681 0.00061529942979226984 0 -0.0012637668102754766 0.0010054885470186445 0 -0.0014778470946806681 0.00061529942979226984 0 -0.0011406431494758124 0.00078495849313684699 0 -0.0042299420845367626 0.00027497458639844026 0 -0.0047854245001537057 0.0003564687128286663 0 -0.004437130885178768 0.00041421347955208139 0 -0.0047854245001537057 0.0003564687128286663 0 -0.004437130885178768 0.00041421347955208139 0 -0.0052032030034502349 0.00085658123382293967 0 -0.004437130885178768 0.00041421347955208139 0 -0.0045598986055582526 0.0018610190710388085 0 -0.0052032030034502349 0.00085658123382293967 0 -0.0066660156683500593 0.0020623456658840581 0 -0.0045598986055582526 0.0018610190710388085 0 -0.0052032030034502349 0.00085658123382293967 0 -0.0067862879466530947 0.0022075004513970103 0 -0.0070428248446444191 0.0024065024543623282 0 -0.0022449621588387543 0.00067734181771867644 0 -0.0067794720224812529 0.0017886076593110973 0 -0.0014778470946806681 0.00061529942979226984 0 -0.0011406431494758124 0.00078495849313684699 0 -0.0014608846107843328 0.00010885488544845434 0 -0.0017605745183547957 0.00037284430304845867 0 -0.0014778470946806681 0.00061529942979226984 0 -0.0014608846107843328 0.00010885488544845434 0 -0.004437130885178768 0.00041421347955208139 0 -0.0045598986055582526 0.0018610190710388085 0 -0.0035064678474267265 0.0018598206094399673 0 -0.0070428248446444191 0.0024065024543623282 0 -0.0067794720224812529 0.0017886076593110973 0 -0.004260804535175345 -0.00076432747985276047 0 -0.0043420871672189571 -0.00083759598468246047 0 -0.004376005934071614 -0.00088444887699653271 0 -0.004260804535175345 -0.00076432747985276047 0 -0.0043420871672189571 -0.00083759598468246047 0 -0.0042967442613504603 -0.00076835967014857393 0 -0.0043420871672189571 -0.00083759598468246047 0 -0.0042967442613504603 -0.00076835967014857393 0 -0.0043111300925382937 -0.00088746358128107277 0 -0.0042967442613504603 -0.00076835967014857393 0 -0.0042171852174612643 -0.00065509187246298988 0 -0.0042744387820875572 -0.00063014428086015579 0 -0.0042967442613504603 -0.00076835967014857393 0 -0.004345374952438555 -0.00078336974810164586 0 -0.0042744387820875572 -0.00063014428086015579 0 0.0016768484743569525 -0.0019612138220475696 0 -0.00022260040414507056 -0.001758672183370287 0 -0.004260804535175345 -0.00076432747985276047 0 -0.0042967442613504603 -0.00076835967014857393 0 -0.0042171852174612643 -0.00065509187246298988 0 -0.004260804535175345 -0.00076432747985276047 0 -0.0040378352770095265 -0.00060706014300679432 0 -0.0042171852174612643 -0.00065509187246298988 0 -0.0033496464598699359 -0.00067650106824200746 0 -0.0031347556907162367 -0.00050852396012034074 0 -0.0032223776516076288 -0.00067489384389553817 0 -0.0033496464598699359 -0.00067650106824200746 0 -0.0036461654412064284 -0.00076838110789290354 0 -0.0032223776516076288 -0.00067489384389553817 0 -0.0036056915923532518 -0.00075433765599969347 0 -0.0036529968305159563 -0.00074415077725346467 0 -0.0040378352770095265 -0.00060706014300679432 0 -0.0041512713734953828 -0.00080985288981645968 0 -0.0036461654412064284 -0.00076838110789290354 0 -0.004260804535175345 -0.00076432747985276047 0 -0.0040378352770095265 -0.00060706014300679432 0 -0.0041512713734953828 -0.00080985288981645968 0 -0.004260804535175345 -0.00076432747985276047 0 -0.0041512713734953828 -0.00080985288981645968 0 -0.004376005934071614 -0.00088444887699653271 0 -0.0041512713734953828 -0.00080985288981645968 0 -0.0041787677827635483 -0.0009808810100699714 0 -0.004376005934071614 -0.00088444887699653271 0 -0.0041512713734953828 -0.00080985288981645968 0 -0.0041787677827635483 -0.0009808810100699714 0 -0.0036461654412064284 -0.00076838110789290354 0 -0.0041787677827635483 -0.0009808810100699714 0 -0.0044583365812772384 -0.0012652959352057939 0 -0.0044769054075835179 -0.0010209383187268245 0 -0.0041787677827635483 -0.0009808810100699714 0 -0.004376005934071614 -0.00088444887699653271 0 -0.0044769054075835179 -0.0010209383187268245 0 -0.0044862682773641688 -0.00090432590927369701 0 -0.004376005934071614 -0.00088444887699653271 0 -0.0044372004167767655 -0.0008337642497379794 0 -0.0044862682773641688 -0.00090432590927369701 0 -0.004376005934071614 -0.00088444887699653271 0 -0.0044769054075835179 -0.0010209383187268245 0 -0.0043420871672189571 -0.00083759598468246047 0 -0.004384512835143916 -0.00083648197277749379 0 -0.0043070884701995708 -0.00085157230937605395 0 -0.004376005934071614 -0.00088444887699653271 0 -0.004384512835143916 -0.00083648197277749379 0 -0.0044372004167767655 -0.0008337642497379794 0 -0.0043420871672189571 -0.00083759598468246047 0 -0.004376005934071614 -0.00088444887699653271 0 -0.004384512835143916 -0.00083648197277749379 0 -0.004384512835143916 -0.00083648197277749379 0 -0.0044372004167767655 -0.0008337642497379794 0 -0.0043597103227276408 -0.00071278830835651633 0 -0.0044862682773641688 -0.00090432590927369701 0 -0.0044372004167767655 -0.0008337642497379794 0 -0.0045057080924629728 -0.00083497110593512612 0 -0.0044372004167767655 -0.0008337642497379794 0 -0.0043597103227276408 -0.00071278830835651633 0 -0.0044344851847132553 -0.00077117242353173354 0 -0.0043597103227276408 -0.00071278830835651633 0 -0.0044478338823559027 -0.00073036700679551662 0 -0.0044344851847132553 -0.00077117242353173354 0 -0.0043597103227276408 -0.00071278830835651633 0 -0.0044854530074307378 -0.00069497379696892043 0 -0.0044478338823559027 -0.00073036700679551662 0 -0.003916964466790027 -0.00061176503270001209 0 -0.0052961864649552354 -0.00065721092483863957 0 -0.0043597103227276408 -0.00071278830835651633 0 -0.0038664803012201736 -0.0004455639169234045 0 -0.0041034074218269283 -0.00078643078053889802 0 -0.0038664803012201736 -0.0004455639169234045 0 -0.0041034074218269283 -0.00078643078053889802 0 -0.0036962811019920073 -0.00079866037157220744 0 0.0040817280703554018 -0.0021343148322144519 0 0.0037570429066729957 -0.0022867278258900392 0 -0.0041034074218269283 -0.00078643078053889802 0 -0.0043070884701995708 -0.00085157230937605395 0 -0.0041070744317044799 -0.00094969122425955766 0 -0.0041034074218269283 -0.00078643078053889802 0 -0.0036962811019920073 -0.00079866037157220744 0 -0.0041070744317044799 -0.00094969122425955766 0 -0.004384512835143916 -0.00083648197277749379 0 -0.0043597103227276408 -0.00071278830835651633 0 -0.0043070884701995708 -0.00085157230937605395 0 -0.0043597103227276408 -0.00071278830835651633 0 -0.0041034074218269283 -0.00078643078053889802 0 -0.0043070884701995708 -0.00085157230937605395 0 0.011362971378588337 -0.0037550618765929719 0 0.011417989831664159 -0.0037150963411397521 0 0.011393397806979313 -0.0037703987486894649 0 -0.0052961864649552354 -0.00065721092483863957 0 0.0020002416202863473 -0.0018858322071076718 0 0.011362971378588337 -0.0037550618765929719 0 0.01136273723425717 -0.0036832998333883866 0 0.011417989831664159 -0.0037150963411397521 0 -0.0038664803012201736 -0.0004455639169234045 0 -0.0031122526057776176 -0.00029681646546033622 0 -0.0036962811019920073 -0.00079866037157220744 0 0.0020002416202863473 -0.0018858322071076718 0 0.0040817280703554018 -0.0021343148322144519 0 0.01136273723425717 -0.0036832998333883866 0 0.011417989831664159 -0.0037150963411397521 0 0.011412905072145657 -0.0036893903597350953 0 0.011417989831664159 -0.0037150963411397521 0 0.011485771192181891 -0.0037107819068699505 0 0.011451250226328251 -0.003738957228478848 0 0.011485771192181891 -0.0037107819068699505 0 0.011539656758266811 -0.0037101280202677164 0 0.011538568540919418 -0.0037152177873434021 0 0.011485771192181891 -0.0037107819068699505 0 0.011412905072145657 -0.0036893903597350953 0 0.011539656758266811 -0.0037101280202677164 0 0.011417989831664159 -0.0037150963411397521 0 0.011485771192181891 -0.0037107819068699505 0 0.011412905072145657 -0.0036893903597350953 0 0.01136273723425717 -0.0036832998333883866 0 0.011412905072145657 -0.0036893903597350953 0 0.011266836705091607 -0.0036537030518586353 0 0.011412905072145657 -0.0036893903597350953 0 0.011443391986104265 -0.003777314299076389 0 0.01130286774743126 -0.0037259123361458165 0 0.011412905072145657 -0.0036893903597350953 0 0.011443391986104265 -0.003777314299076389 0 0.011539656758266811 -0.0037101280202677164 0 0.011539656758266811 -0.0037101280202677164 0 0.011695062830637848 -0.0037227388028299186 0 0.011538568540919418 -0.0037152177873434021 0 0.011443391986104265 -0.003777314299076389 0 0.011539656758266811 -0.0037101280202677164 0 0.011695062830637848 -0.0037227388028299186 0 0.0037570429066729957 -0.0022867278258900392 0 0.0016768484743569525 -0.0019612138220475696 0 -0.0043111300925382937 -0.00088746358128107277 0 -0.0041070744317044799 -0.00094969122425955766 0 -0.0042532692453526129 -0.00098532681128428294 0 -0.0043070884701995708 -0.00085157230937605395 0 -0.0043111300925382937 -0.00088746358128107277 0 -0.0041070744317044799 -0.00094969122425955766 0 -0.0043420871672189571 -0.00083759598468246047 0 -0.0043070884701995708 -0.00085157230937605395 0 -0.0043111300925382937 -0.00088746358128107277 0 0.011266836705091607 -0.0036537030518586353 0 0.01130286774743126 -0.0037259123361458165 0 0.011093148483370122 -0.0037291850856715826 0 0.011412905072145657 -0.0036893903597350953 0 0.011266836705091607 -0.0036537030518586353 0 0.01130286774743126 -0.0037259123361458165 0 0.01130286774743126 -0.0037259123361458165 0 0.011093148483370122 -0.0037291850856715826 0 0.011287157807447473 -0.0038210540406921154 0 0.011443391986104265 -0.003777314299076389 0 0.01130286774743126 -0.0037259123361458165 0 0.011287157807447473 -0.0038210540406921154 0 0.0016768484743569525 -0.0019612138220475696 0 0.0097229000237467472 -0.0039636699539313388 0 -0.0042967442613504603 -0.00076835967014857393 0 -0.0043111300925382937 -0.00088746358128107277 0 -0.004345374952438555 -0.00078336974810164586 0 -0.0026876704945335878 -5.6192864893306564e-05 0 0.0016768484743569525 -0.0019612138220475696 0 0.0045206959908835722 -0.0023754943969152838 0 0.0046208252295035284 -0.0026565266572648244 0 0.0042981393303087477 -0.0026392183954960934 0 0.0097229000237467472 -0.0039636699539313388 0 0.0068888634860665423 -0.0035121089769174739 0 0.011093148483370122 -0.0037291850856715826 0 0.011143399286828221 -0.003904325676266601 0 0.011287157807447473 -0.0038210540406921154 0 0.0097229000237467472 -0.0039636699539313388 0 0.011493410538302844 -0.0035677186103564942 0 0.011287157807447473 -0.0038210540406921154 0 0.011311250785982921 -0.0039200113284703995 0 0.011399774577502426 -0.0038715453247735259 0 0.011179677140250588 -0.003877494034970706 0 0.011287157807447473 -0.0038210540406921154 0 0.011311250785982921 -0.0039200113284703995 0 0.011854878697855863 -0.0041500414472619013 0 0.011316132129421402 -0.0039793854398340791 0 0.011179677140250588 -0.003877494034970706 0 0.011311250785982921 -0.0039200113284703995 0 0.011230055190668315 -0.0040821533976807042 0 0.011311250785982921 -0.0039200113284703995 0 0.011230055190668315 -0.0040821533976807042 0 0.011472306699367588 -0.003970987490167794 0 0.011595727746048076 -0.0039480248550394625 0 0.011472306699367588 -0.003970987490167794 0 0.011534720611099582 -0.0039228759764075366 0 0.0097229000237467472 -0.0039636699539313388 0 0.011854878697855863 -0.0041500414472619013 0 0.010488332572249466 -0.0037719177562674602 0 0.010597011858839966 -0.0041344603111537195 0 0.010384087902599565 -0.0040473044374218468 0 0.010488332572249466 -0.0037719177562674602 0 0.010384087902599565 -0.0040473044374218468 0 0.010193727653172106 -0.0039579924361925305 0 0.010597011858839966 -0.0041344603111537195 0 0.010384087902599565 -0.0040473044374218468 0 0.010337255317840532 -0.0042461996787432395 0 0.011695062830637848 -0.0037227388028299186 0 0.012116406091603384 -0.0034490101757923852 0 0.011910225043678675 -0.0034744434225094682 0 0.011695062830637848 -0.0037227388028299186 0 0.011491880993473255 -0.003872132253895615 0 0.011506590197179693 -0.0039788838178791428 0 0.011443391986104265 -0.003777314299076389 0 0.011695062830637848 -0.0037227388028299186 0 0.011491880993473255 -0.003872132253895615 0 0.01172048751266406 -0.0037254858052476547 0 0.011818827644281596 -0.0036791547931802784 0 0.011443391986104265 -0.003777314299076389 0 0.011287157807447473 -0.0038210540406921154 0 0.011399774577502426 -0.0038715453247735259 0 0.011443391986104265 -0.003777314299076389 0 0.011491880993473255 -0.003872132253895615 0 0.011399774577502426 -0.0038715453247735259 0 0.011491880993473255 -0.003872132253895615 0 0.011399774577502426 -0.0038715453247735259 0 0.011472306699367588 -0.003970987490167794 0 0.011311250785982921 -0.0039200113284703995 0 0.011399774577502426 -0.0038715453247735259 0 0.011472306699367588 -0.003970987490167794 0 0.011472306699367588 -0.003970987490167794 0 0.011506590197179693 -0.0039788838178791428 0 0.011494269006120385 -0.0038951950836029177 0 0.011491880993473255 -0.003872132253895615 0 0.011472306699367588 -0.003970987490167794 0 0.011506590197179693 -0.0039788838178791428 0 0.012116406091603384 -0.0034490101757923852 0 0.011910225043678675 -0.0034744434225094682 0 0.012098453874697932 -0.0032619645618329673 0 0.011910225043678675 -0.0034744434225094682 0 0.012098453874697932 -0.0032619645618329673 0 0.012039149465394318 -0.0030014107665957248 0 0.011953646726532326 -0.0034409922621692819 0 0.012266933284284758 -0.0029426195536601954 0 0.012098453874697932 -0.0032619645618329673 0 0.012347477178884184 -0.0031146758645060734 0 0.012039149465394318 -0.0030014107665957248 0 0.012116406091603384 -0.0034490101757923852 0 0.012098453874697932 -0.0032619645618329673 0 0.012347477178884184 -0.0031146758645060734 0 0.011472306699367588 -0.003970987490167794 0 0.011494269006120385 -0.0038951950836029177 0 0.011534720611099582 -0.0039228759764075366 0 0.011818827644281596 -0.0036791547931802784 0 0.011849949908978247 -0.0035631856651423036 0 0.012347477178884184 -0.0031146758645060734 0 0.012320475392817713 -0.002774338238733074 0 0.012599765130620017 -0.0027287597869415721 0 0.012320475392817713 -0.002774338238733074 0 0.012039149465394318 -0.0030014107665957248 0 0.012203367136885733 -0.0024406234421933339 0 0.012347477178884184 -0.0031146758645060734 0 0.012320475392817713 -0.002774338238733074 0 0.012039149465394318 -0.0030014107665957248 0 0.012266933284284758 -0.0029426195536601954 0 0.01258161076605608 -0.0022747107499214016 0 0.013579487874779883 -0.0040925797962797824 0 0.014064835954772717 -0.0038816785129225616 0 0.013457844939870975 -0.0035775677566622687 0 0.014064835954772717 -0.0038816785129225616 0 0.013457844939870975 -0.0035775677566622687 0 0.01388928219810223 -0.0034272119716858458 0 0.011854878697855863 -0.0041500414472619013 0 0.012131331701638026 -0.004103064496024802 0 0.011494269006120385 -0.0038951950836029177 0 0.011534720611099582 -0.0039228759764075366 0 0.011586152690672943 -0.0038635231152182679 0 0.011595727746048076 -0.0039480248550394625 0 0.011534720611099582 -0.0039228759764075366 0 0.011586152690672943 -0.0038635231152182679 0 0.011854878697855863 -0.0041500414472619013 0 0.012525241157319192 -0.0037705659354770465 0 0.013457844939870975 -0.0035775677566622687 0 0.013332258795068525 -0.0030580906909259673 0 0.01388928219810223 -0.0034272119716858458 0 0.011494269006120385 -0.0038951950836029177 0 0.011586152690672943 -0.0038635231152182679 0 0.011569588991279406 -0.0037567087321084751 0 0.011849949908978247 -0.0035631856651423036 0 0.012665256792676051 -0.0030849402671545216 0 0.012525241157319192 -0.0037705659354770465 0 0.012665256792676051 -0.0030849402671545216 0 0.013332258795068525 -0.0030580906909259673 0 0.01388928219810223 -0.0034272119716858458 0 0.014031911355721297 -0.002936178333730746 0 0.014722067146403816 -0.0032739524143985022 0 0.014682879928847608 -0.0029147398898332596 0 0.014031911355721297 -0.002936178333730746 0 0.01388928219810223 -0.0034272119716858458 0 0.014535142734309024 -0.0036761227569477076 0 0.014031911355721297 -0.002936178333730746 0 0.013133524447748728 -0.0040618336394453881 0 0.014473448188925557 -0.0029373802750001354 0 0.014722067146403816 -0.0032739524143985022 0 0.014561231887399774 -0.0036457313581725252 0 0.014031911355721297 -0.002936178333730746 0 0.014722067146403816 -0.0032739524143985022 0 0.015059531114183395 -0.0034177989261996227 0 0.014561231887399774 -0.0036457313581725252 0 0.014722067146403816 -0.0032739524143985022 0 0.015152490593535942 -0.0029975305260941452 0 0.014682879928847608 -0.0029147398898332596 0 0.014722067146403816 -0.0032739524143985022 0 0.015059531114183395 -0.0034177989261996227 0 0.015152490593535942 -0.0029975305260941452 0 0.0029643666358237643 -0.0021809462429796611 0 0.0032283403244839528 -0.0025398654781706282 0 0.0043187476955097899 -0.0013003439372975684 0 0.014308294400153968 -0.0036278375334997744 0 0.013843707471765176 -0.004243651865258209 0 0.01306040410182582 -0.0041153697862457515 0 0.014805283197412106 -0.0034847974981103728 0 0.013133524447748728 -0.0040618336394453881 0 0.0080492030390599423 -0.0036740089672942949 0 0.0042686618253608612 -0.0014209591849934425 0 0.013843707471765176 -0.004243651865258209 0 0.013717409163568011 -0.0050215716721853845 0 0.014940839819810297 -0.0042128047478898513 0 0.014308294400153968 -0.0036278375334997744 0 0.013843707471765176 -0.004243651865258209 0 0.014940839819810297 -0.0042128047478898513 0 0.013133524447748728 -0.0040618336394453881 0 0.0080492030390599423 -0.0036740089672942949 0 0.013843707471765176 -0.004243651865258209 0 0.01306040410182582 -0.0041153697862457515 0 0.013717409163568011 -0.0050215716721853845 0 0.014064835954772717 -0.0038816785129225616 0 0.01388928219810223 -0.0034272119716858458 0 0.014535142734309024 -0.0036761227569477076 0 0.010080030014416522 -0.0043587387452572847 0 0.010120690314905791 -0.0041528239636165276 0 0.0099008857217239461 -0.004141661493028693 0 0.010337255317840532 -0.0042461996787432395 0 0.010080030014416522 -0.0043587387452572847 0 0.010120690314905791 -0.0041528239636165276 0 0.012131331701638026 -0.004103064496024802 0 0.013133524447748728 -0.0040618336394453881 0 0.010193727653172106 -0.0039579924361925305 0 0.010120690314905791 -0.0041528239636165276 0 0.0099008857217239461 -0.004141661493028693 0 0.010384087902599565 -0.0040473044374218468 0 0.010193727653172106 -0.0039579924361925305 0 0.010120690314905791 -0.0041528239636165276 0 0.010384087902599565 -0.0040473044374218468 0 0.010337255317840532 -0.0042461996787432395 0 0.010120690314905791 -0.0041528239636165276 0 0.0043713579714875659 -0.0027989473283669417 0 0.0041047799025794784 -0.0028695584428571328 0 0.0042981393303087477 -0.0026392183954960934 0 0.0068888634860665423 -0.0035121089769174739 0 0.0080492030390599423 -0.0036740089672942949 0 0.0043713579714875659 -0.0027989473283669417 0 0.0041556778523365459 -0.0029276297771412912 0 0.0041047799025794784 -0.0028695584428571328 0 -2.3211501409515868e-05 -0.0010797739036863502 0 -0.00022260040414507056 -0.001758672183370287 0 0.0080492030390599423 -0.0036740089672942949 0 -2.3211501409515868e-05 -0.0010797739036863502 0 -0.0041681944333444706 -0.00052205806001444268 0 -0.0042171852174612643 -0.00065509187246298988 0 -0.0042744387820875572 -0.00063014428086015579 0 -0.0041681944333444706 -0.00052205806001444268 0 -0.0042171852174612643 -0.00065509187246298988 0 -0.0041275279134804091 -0.00059543797849450882 0 0.0046208252295035284 -0.0026565266572648244 0 0.0043713579714875659 -0.0027989473283669417 0 0.0042981393303087477 -0.0026392183954960934 0 -0.0033496464598699359 -0.00067650106824200746 0 -0.0031347556907162367 -0.00050852396012034074 0 -0.0034666758420629322 -0.00047002870085682721 0 -0.0031347556907162367 -0.00050852396012034074 0 -0.0034666758420629322 -0.00047002870085682721 0 -0.0031898294322318102 -0.00017994383651622647 0 -0.0040378352770095265 -0.00060706014300679432 0 -0.0042171852174612643 -0.00065509187246298988 0 -0.0041275279134804091 -0.00059543797849450882 0 -0.0036056915923532518 -0.00075433765599969347 0 -0.0042860484999614427 -0.00015588566343886483 0 -0.0034666758420629322 -0.00047002870085682721 0 -0.0034370410504683253 -7.8369899868241196e-05 0 -0.0031898294322318102 -0.00017994383651622647 0 -0.0037026180423755362 -0.00013316656713560201 0 -0.0034666758420629322 -0.00047002870085682721 0 -0.0034370410504683253 -7.8369899868241196e-05 0 -2.3211501409515868e-05 -0.0010797739036863502 0 -0.0042860484999614427 -0.00015588566343886483 0 -0.0034370410504683253 -7.8369899868241196e-05 0 -0.0031898294322318102 -0.00017994383651622647 0 -0.00325037624824338 0.00013819627872590872 0 -0.0031898294322318102 -0.00017994383651622647 0 -0.0028606753589893608 0.00025713150999797377 0 -0.0028549121444228554 -0.00021125166555274738 0 -0.0031347556907162367 -0.00050852396012034074 0 -0.0031898294322318102 -0.00017994383651622647 0 -0.0028549121444228554 -0.00021125166555274738 0 -0.0031898294322318102 -0.00017994383651622647 0 -0.00325037624824338 0.00013819627872590872 0 -0.0028606753589893608 0.00025713150999797377 0 -0.00325037624824338 0.00013819627872590872 0 -0.0031042363246642558 0.00039933209600033655 0 -0.0028606753589893608 0.00025713150999797377 0 -2.3211501409515868e-05 -0.0010797739036863502 0 0.0042686618253608612 -0.0014209591849934425 0 -0.0037026180423755362 -0.00013316656713560201 0 -0.0034370410504683253 -7.8369899868241196e-05 0 -0.0034450490553711421 0.0002222444287163972 0 -0.0034370410504683253 -7.8369899868241196e-05 0 -0.00325037624824338 0.00013819627872590872 0 -0.0034450490553711421 0.0002222444287163972 0 -0.00325037624824338 0.00013819627872590872 0 -0.0033742578920410993 0.00028826101721600363 0 -0.0034450490553711421 0.0002222444287163972 0 -0.00325037624824338 0.00013819627872590872 0 -0.0031042363246642558 0.00039933209600033655 0 -0.0033742578920410993 0.00028826101721600363 0 0.0018845898140665502 -0.0020613779391401941 0 0.0042686618253608612 -0.0014209591849934425 0 0.014805283197412106 -0.0034847974981103728 0 0.015318388108483577 -0.0033185129140414593 0 0.014940839819810297 -0.0042128047478898513 0 0.015457539604031833 -0.003292377940164863 0 0.016036786428206343 -0.003053011362034389 0 -0.0033742578920410993 0.00028826101721600363 0 -0.0034671200420614431 0.00021367664381368863 0 -0.0029251867956085142 0.0009361430248013931 0 0.014308294400153968 -0.0036278375334997744 0 0.014940839819810297 -0.0042128047478898513 0 0.015457539604031833 -0.003292377940164863 0 0.015059531114183395 -0.0034177989261996227 0 0.015457539604031833 -0.003292377940164863 0 0.015152490593535942 -0.0029975305260941452 0 0.015457539604031833 -0.003292377940164863 0 0.015646588322082159 -0.00286897641971698 0 0.015152490593535942 -0.0029975305260941452 0 -0.0031042363246642558 0.00039933209600033655 0 -0.0033742578920410993 0.00028826101721600363 0 -0.0029251867956085142 0.0009361430248013931 0 -0.0031042363246642558 0.00039933209600033655 0 -0.0028606753589893608 0.00025713150999797377 0 -0.0029251867956085142 0.0009361430248013931 0 0.0042686618253608612 -0.0014209591849934425 0 0.0067854631786530683 -0.0010997479347308458 0 0.015457539604031833 -0.003292377940164863 0 0.016036786428206343 -0.003053011362034389 0 0.015646588322082159 -0.00286897641971698 0 -0.0028606753589893608 0.00025713150999797377 0 -0.0029251867956085142 0.0009361430248013931 0 -0.0021608484386774307 0.00087369961604781901 0 -0.0028606753589893608 0.00025713150999797377 0 -0.0023491682679700654 9.40292063905624e-05 0 -0.0021608484386774307 0.00087369961604781901 0 -0.0028606753589893608 0.00025713150999797377 0 -0.0023491682679700654 9.40292063905624e-05 0 -0.0028549121444228554 -0.00021125166555274738 0 -0.0023491682679700654 9.40292063905624e-05 0 -0.0017082063841247629 0.00045943263098368237 0 -0.0013562152199047763 -0.00010423488407343992 0 -0.0023491682679700654 9.40292063905624e-05 0 -0.0017082063841247629 0.00045943263098368237 0 -0.0021608484386774307 0.00087369961604781901 0 -0.0017082063841247629 0.00045943263098368237 0 -0.0021608484386774307 0.00087369961604781901 0 -0.0014143556342144797 0.00093566141665548731 0 -0.0014143556342144797 0.00093566141665548731 0 -0.0011128942651120908 0.00060440381302887718 0 -0.00074451148382834187 0.0011367186301535646 0 -0.0017082063841247629 0.00045943263098368237 0 -0.0014143556342144797 0.00093566141665548731 0 -0.0011128942651120908 0.00060440381302887718 0 -0.0011128942651120908 0.00060440381302887718 0 -0.00027865968407609086 0.00065289021415017344 0 -0.00074451148382834187 0.0011367186301535646 0 -0.0025010623687098136 -0.00033801732404256364 0 -0.0013302854972689188 0.00059855602934870574 0 -0.001415565592902314 -5.6771395697714667e-06 0 -0.0011128942651120908 0.00060440381302887718 0 -0.0013562152199047763 -0.00010423488407343992 0 -0.00027865968407609086 0.00065289021415017344 0 -0.0019274691299182012 -0.0001949308243891897 0 -0.00079425794039783093 0.0006147121204158933 0 -0.0025010623687098136 -0.00033801732404256364 0 -0.001415565592902314 -5.6771395697714667e-06 0 -0.0015442747887691565 -0.00041622590578077156 0 -0.0017082063841247629 0.00045943263098368237 0 -0.0011128942651120908 0.00060440381302887718 0 -0.0013562152199047763 -0.00010423488407343992 0 -0.0025010623687098136 -0.00033801732404256364 0 -0.0025273387872990494 -0.00063912573345977994 0 -0.0027142846105526032 -0.00056553779075206795 0 -0.0025010623687098136 -0.00033801732404256364 0 -0.0021676092164296147 -0.00056268625948892542 0 -0.0025273387872990494 -0.00063912573345977994 0 -0.0025010623687098136 -0.00033801732404256364 0 -0.0021676092164296147 -0.00056268625948892542 0 -0.0015442747887691565 -0.00041622590578077156 0 -0.0021676092164296147 -0.00056268625948892542 0 -0.0020825072893382187 -0.0007111674139762867 0 -0.0015442747887691565 -0.00041622590578077156 0 -0.002561032628530456 -0.0013014038573263252 0 -0.0024262112121769567 -0.00057599497770812933 0 -0.0021676092164296147 -0.00056268625948892542 0 -0.0020825072893382187 -0.0007111674139762867 0 -0.0025273387872990494 -0.00063912573345977994 0 -0.0020825072893382187 -0.0007111674139762867 0 -0.0025273387872990494 -0.00063912573345977994 0 -0.0026040497989526065 -0.00074733108283295887 0 -0.0025273387872990494 -0.00063912573345977994 0 -0.0027142846105526032 -0.00056553779075206795 0 -0.0028870490751938308 -0.00069524071105747372 0 -0.0031347556907162367 -0.00050852396012034074 0 -0.0027142846105526032 -0.00056553779075206795 0 -0.0028549121444228554 -0.00021125166555274738 0 -0.0031347556907162367 -0.00050852396012034074 0 -0.0027142846105526032 -0.00056553779075206795 0 -0.0032223776516076288 -0.00067489384389553817 0 -0.0023491682679700654 9.40292063905624e-05 0 -0.0027142846105526032 -0.00056553779075206795 0 -0.0028549121444228554 -0.00021125166555274738 0 -0.0023491682679700654 9.40292063905624e-05 0 -0.0013562152199047763 -0.00010423488407343992 0 -0.0027142846105526032 -0.00056553779075206795 0 -0.0019274691299182012 -0.0001949308243891897 0 -0.0026384638771997475 -0.00055756038794818402 0 0.0016176251095676511 0.00021286127182111247 0 0.0019304599791449034 0.00025261905928294199 0 0.0016832564778959034 -4.3655921060236714e-07 0 0.0016176251095676511 0.00021286127182111247 0 0.0019304599791449034 0.00025261905928294199 0 0.001894288300000591 0.00043778274938083381 0 0.0016176251095676511 0.00021286127182111247 0 0.0017148210425631575 0.00085367404465641887 0 0.001446567120002589 0.00064820209481602847 0 0.0021589845416879324 0.00042037127695196955 0 0.0019304599791449034 0.00025261905928294199 0 0.001894288300000591 0.00043778274938083381 0 0.0016351759889598159 0.00022391508193345735 0 0.0017937737070965012 0.00063472154958024577 0 0.0021589845416879324 0.00042037127695196955 0 0.001894288300000591 0.00043778274938083381 0 0.0020315987957976156 0.00057257649182825552 0 0.00042537204652368327 0.00030904870075253366 0 0.0013032817734391191 0.0011059559204685814 0 0.00041513186991227709 0.0014328905279140337 0 0.001446567120002589 0.00064820209481602847 0 0.0011811534474045842 0.00046829248839773885 0 0.0013032817734391191 0.0011059559204685814 0 0.0010595040889147791 0.00058878174547101697 0 0.0012096127723572397 0.00099467681446600842 0 0.0017148210425631575 0.00085367404465641887 0 0.001446567120002589 0.00064820209481602847 0 0.0013032817734391191 0.0011059559204685814 0 0.0016176251095676511 0.00021286127182111247 0 0.001446567120002589 0.00064820209481602847 0 0.0011811534474045842 0.00046829248839773885 0 0.0016176251095676511 0.00021286127182111247 0 0.0011811534474045842 0.00046829248839773885 0 0.001333994183973262 0.00012506093837166615 0 0.0016176251095676511 0.00021286127182111247 0 0.001333994183973262 0.00012506093837166615 0 0.0015399389341089877 3.8658928376493426e-05 0 0.00042537204652368327 0.00030904870075253366 0 -0.00055088522397718823 0.00026617615304536162 0 -0.00062852213714550476 -0.00062621133129003588 0 0.0011811534474045842 0.00046829248839773885 0 0.0010319304370007176 0.00010203858131833417 0 0.001333994183973262 0.00012506093837166615 0 0.0010595040889147791 0.00058878174547101697 0 -0.0013494142235282286 -0.00063959890987089825 0 0.00042537204652368327 0.00030904870075253366 0 -0.00055088522397718823 0.00026617615304536162 0 0.00041513186991227709 0.0014328905279140337 0 -0.0013302854972689188 0.00059855602934870574 0 -0.00055088522397718823 0.00026617615304536162 0 0.00041513186991227709 0.0014328905279140337 0 -0.00079425794039783093 0.0006147121204158933 0 0.00031654250723188503 0.0013945445684396191 0 -0.0013302854972689188 0.00059855602934870574 0 -0.001415565592902314 -5.6771395697714667e-06 0 -0.00055088522397718823 0.00026617615304536162 0 -0.00055088522397718823 0.00026617615304536162 0 -0.00092939232933537291 -0.00032670624434964242 0 -0.00062852213714550476 -0.00062621133129003588 0 -0.001415565592902314 -5.6771395697714667e-06 0 -0.00055088522397718823 0.00026617615304536162 0 -0.00092939232933537291 -0.00032670624434964242 0 -0.0010913401187718128 -0.000638671574968292 0 -0.0013494142235282286 -0.00063959890987089825 0 -0.001415565592902314 -5.6771395697714667e-06 0 -0.00092939232933537291 -0.00032670624434964242 0 -0.0015442747887691565 -0.00041622590578077156 0 -0.002561032628530456 -0.0013014038573263252 0 -0.0013494142235282286 -0.00063959890987089825 0 -0.001668211887657964 -0.0019246222561640721 0 -0.0015442747887691565 -0.00041622590578077156 0 -0.00059842864883740126 -0.00060142750351623844 0 -0.002561032628530456 -0.0013014038573263252 0 -0.001553645378064358 -0.00043835079816489638 0 -0.0036430493347854938 -0.001539669206776695 0 -0.0036635604717781206 -0.0015817440211419831 0 -0.0037258431221610603 -0.0015488332691279861 0 -0.00092939232933537291 -0.00032670624434964242 0 -0.0015442747887691565 -0.00041622590578077156 0 -0.00059842864883740126 -0.00060142750351623844 0 -0.0036430493347854938 -0.001539669206776695 0 -0.0037258431221610603 -0.0015488332691279861 0 -0.0036998433883290004 -0.0015093147609501107 0 -0.0013494142235282286 -0.00063959890987089825 0 -0.0011310992540394576 -0.00083756400876676949 0 0.0010319304370007176 0.00010203858131833417 0 0.0014132411570316533 -9.1270117404282678e-05 0 0.001333994183973262 0.00012506093837166615 0 0.0014132411570316533 -9.1270117404282678e-05 0 0.001333994183973262 0.00012506093837166615 0 0.0015399389341089877 3.8658928376493426e-05 0 0.0014132411570316533 -9.1270117404282678e-05 0 0.0015399389341089877 3.8658928376493426e-05 0 0.0016140553983099799 -3.2124488576624802e-05 0 0.0014132411570316533 -9.1270117404282678e-05 0 0.0016140553983099799 -3.2124488576624802e-05 0 0.0017018146727495341 8.0068678658699801e-06 0 -0.0037258431221610603 -0.0015488332691279861 0 -0.0038012865256064573 -0.0015104563015633404 0 -0.0036998433883290004 -0.0015093147609501107 0 -0.0011310992540394576 -0.00083756400876676949 0 -0.0011845995721735207 -0.00066759606665952849 0 0.0016140553983099799 -3.2124488576624802e-05 0 0.0016343005603198615 -1.8906129616568667e-05 0 0.0017018146727495341 8.0068678658699801e-06 0 0.0016140553983099799 -3.2124488576624802e-05 0 0.0016343005603198615 -1.8906129616568667e-05 0 0.0016832564778959034 -4.3655921060236714e-07 0 0.0015399389341089877 3.8658928376493426e-05 0 0.0016140553983099799 -3.2124488576624802e-05 0 0.0016832564778959034 -4.3655921060236714e-07 0 0.0016176251095676511 0.00021286127182111247 0 0.0015399389341089877 3.8658928376493426e-05 0 0.0016832564778959034 -4.3655921060236714e-07 0 -0.0038980336273367771 -0.0014591858714217123 0 -0.0038012865256064573 -0.0015104563015633404 0 -0.003814672535381146 -0.0014416387401201029 0 0.001583100346088377 5.8453959292762838e-05 0 0.0016343005603198615 -1.8906129616568667e-05 0 0.0017018146727495341 8.0068678658699801e-06 0 -0.00037926653759183824 -0.00064348457973692854 0 -0.0011845995721735207 -0.00066759606665952849 0 0.001583100346088377 5.8453959292762838e-05 0 0.0017558059958184883 0.00042410962158214842 0 0.0017018146727495341 8.0068678658699801e-06 0 -0.0038012865256064573 -0.0015104563015633404 0 -0.003814672535381146 -0.0014416387401201029 0 -0.0037352742838142518 -0.0014508437162094638 0 -0.0038012865256064573 -0.0015104563015633404 0 -0.0037352742838142518 -0.0014508437162094638 0 -0.0036998433883290004 -0.0015093147609501107 0 -0.0037352742838142518 -0.0014508437162094638 0 -0.0036998433883290004 -0.0015093147609501107 0 -0.0036537093878965523 -0.0014782419842731935 0 -0.0036430493347854938 -0.001539669206776695 0 -0.0036998433883290004 -0.0015093147609501107 0 -0.0036537093878965523 -0.0014782419842731935 0 -0.0037352742838142518 -0.0014508437162094638 0 -0.0036537093878965523 -0.0014782419842731935 0 -0.0036644282008269531 -0.001408278674043164 0 -0.0037352742838142518 -0.0014508437162094638 0 -0.0037633110832416155 -0.0013557646713867372 0 -0.0036644282008269531 -0.001408278674043164 0 -0.0076109361584377868 -0.002407511836593997 0 -0.0060944860523541259 -0.0019925689119065729 0 -0.0067757836104273697 -0.0016480361115182402 0 -0.0056997010190537522 -0.0018701718100493576 0 -0.0045548207942674316 -0.0015200741583280509 0 -0.0037633110832416155 -0.0013557646713867372 0 -0.0036644282008269531 -0.001408278674043164 0 -0.0036745558289145459 -0.0013387723606329564 0 -0.003814672535381146 -0.0014416387401201029 0 -0.0037352742838142518 -0.0014508437162094638 0 -0.0037633110832416155 -0.0013557646713867372 0 -0.003814672535381146 -0.0014416387401201029 0 -0.0037633110832416155 -0.0013557646713867372 0 -0.0038702514682408405 -0.0013658043649253948 0 -0.0056997010190537522 -0.0018701718100493576 0 -0.0068870303657060077 -0.0022993954022216649 0 -0.0076109361584377868 -0.002407511836593997 0 -0.0093213279708561775 -0.0027976483440132851 0 -0.0090545654495520871 -0.0012336964074773419 0 -0.0038980336273367771 -0.0014591858714217123 0 -0.003814672535381146 -0.0014416387401201029 0 -0.0038702514682408405 -0.0013658043649253948 0 -0.0032223776516076288 -0.00067489384389553817 0 -0.0028870490751938308 -0.00069524071105747372 0 -0.0034568665942465485 -0.00083618632965749341 0 -0.0031016573223713248 -0.00081348381692845364 0 -0.0028870490751938308 -0.00069524071105747372 0 -0.0034568665942465485 -0.00083618632965749341 0 -0.0036461654412064284 -0.00076838110789290354 0 -0.0032223776516076288 -0.00067489384389553817 0 -0.0034568665942465485 -0.00083618632965749341 0 -0.0027142846105526032 -0.00056553779075206795 0 -0.0032223776516076288 -0.00067489384389553817 0 -0.0028870490751938308 -0.00069524071105747372 0 -0.0028870490751938308 -0.00069524071105747372 0 -0.0026040497989526065 -0.00074733108283295887 0 -0.0028009646087671799 -0.00077498107394355115 0 -0.0025273387872990494 -0.00063912573345977994 0 -0.0028870490751938308 -0.00069524071105747372 0 -0.0026040497989526065 -0.00074733108283295887 0 -0.0026601771127300528 -0.00082670351971778728 0 -0.0026564299651171456 -0.00072876522235348223 0 -0.0026040497989526065 -0.00074733108283295887 0 -0.0026564299651171456 -0.00072876522235348223 0 -0.0026040497989526065 -0.00074733108283295887 0 -0.0028009646087671799 -0.00077498107394355115 0 -0.002561032628530456 -0.0013014038573263252 0 -0.0032254087640491971 -0.0010985136608775178 0 -0.0026564299651171456 -0.00072876522235348223 0 -0.0028009646087671799 -0.00077498107394355115 0 -0.0027200630908388568 -0.00092160809910405393 0 -0.0032254087640491971 -0.0010985136608775178 0 -0.003057116511395994 -0.001117551473353826 0 -0.0031016573223713248 -0.00081348381692845364 0 -0.0028870490751938308 -0.00069524071105747372 0 -0.0028009646087671799 -0.00077498107394355115 0 -0.0031016573223713248 -0.00081348381692845364 0 -0.0028009646087671799 -0.00077498107394355115 0 -0.003050741867847383 -0.0010196964725042565 0 -0.0028009646087671799 -0.00077498107394355115 0 -0.003050741867847383 -0.0010196964725042565 0 -0.0027200630908388568 -0.00092160809910405393 0 -0.003050741867847383 -0.0010196964725042565 0 -0.0027200630908388568 -0.00092160809910405393 0 -0.0027671050731424428 -0.0013184118225239368 0 -0.003057116511395994 -0.001117551473353826 0 -0.0045548207942674316 -0.0015200741583280509 0 -0.003050741867847383 -0.0010196964725042565 0 -0.0027671050731424428 -0.0013184118225239368 0 -0.0033499755461010436 -0.0014129169350245623 0 -0.003050741867847383 -0.0010196964725042565 0 -0.0037234919223783302 -0.00098965245957707859 0 -0.0033499755461010436 -0.0014129169350245623 0 -0.0037234919223783302 -0.00098965245957707859 0 -0.0044583365812772384 -0.0012652959352057939 0 -0.0033499755461010436 -0.0014129169350245623 0 -0.0031016573223713248 -0.00081348381692845364 0 -0.003050741867847383 -0.0010196964725042565 0 -0.0037234919223783302 -0.00098965245957707859 0 -0.0031016573223713248 -0.00081348381692845364 0 -0.0034568665942465485 -0.00083618632965749341 0 -0.0037234919223783302 -0.00098965245957707859 0 -0.0036461654412064284 -0.00076838110789290354 0 -0.0034568665942465485 -0.00083618632965749341 0 -0.0037234919223783302 -0.00098965245957707859 0 -0.0041787677827635483 -0.0009808810100699714 0 -0.0036461654412064284 -0.00076838110789290354 0 -0.0037234919223783302 -0.00098965245957707859 0 -0.0041787677827635483 -0.0009808810100699714 0 -0.0037234919223783302 -0.00098965245957707859 0 -0.0044583365812772384 -0.0012652959352057939 0 -0.0049896786900210759 -0.0010210745530889449 0 -0.0050641547693422457 -0.00073014837914809759 0 -0.0047788721239001922 -0.00081218957186742944 0 -0.0044583365812772384 -0.0012652959352057939 0 -0.0049896786900210759 -0.0010210745530889449 0 -0.0047788721239001922 -0.00081218957186742944 0 -0.0049896786900210759 -0.0010210745530889449 0 -0.0055438798460618688 -0.0012472081116748014 0 -0.0053510814751436039 -0.00087348077762164323 0 -0.0049896786900210759 -0.0010210745530889449 0 -0.0053468664753601155 -0.0016248740458511123 0 -0.0055438798460618688 -0.0012472081116748014 0 -0.0044583365812772384 -0.0012652959352057939 0 -0.0049896786900210759 -0.0010210745530889449 0 -0.0053468664753601155 -0.0016248740458511123 0 -0.004439383157924498 -0.0013128136100510122 0 -0.0043286659901105497 -0.0015013820743905312 0 -0.0053468664753601155 -0.0016248740458511123 0 -0.0058839998005202213 -0.0015588871982620991 0 -0.0055438798460618688 -0.0012472081116748014 0 -0.0060929008372714215 -0.001872513744995883 0 -0.0053468664753601155 -0.0016248740458511123 0 -0.0058839998005202213 -0.0015588871982620991 0 -0.0045548207942674316 -0.0015200741583280509 0 -0.0043286659901105497 -0.0015013820743905312 0 -0.0058839998005202213 -0.0015588871982620991 0 -0.0058716689018391407 -0.0013221340968133759 0 -0.0055438798460618688 -0.0012472081116748014 0 -0.0060944860523541259 -0.0019925689119065729 0 -0.0063086169412916943 -0.0016202116400659415 0 -0.0060940686911226082 -0.0017209896301579623 0 -0.0045548207942674316 -0.0015200741583280509 0 -0.0049155229764467597 -0.001735465031202234 0 -0.0063086169412916943 -0.0016202116400659415 0 -0.0060940686911226082 -0.0017209896301579623 0 -0.0061220828574607023 -0.0014924851955489275 0 -0.0060929008372714215 -0.001872513744995883 0 -0.0060940686911226082 -0.0017209896301579623 0 -0.0058839998005202213 -0.0015588871982620991 0 -0.0060940686911226082 -0.0017209896301579623 0 -0.0058839998005202213 -0.0015588871982620991 0 -0.0061220828574607023 -0.0014924851955489275 0 -0.0058839998005202213 -0.0015588871982620991 0 -0.0058716689018391407 -0.0013221340968133759 0 -0.0061220828574607023 -0.0014924851955489275 0 -0.0058716689018391407 -0.0013221340968133759 0 -0.0061220828574607023 -0.0014924851955489275 0 -0.0064780608596042826 -0.0012833809908120858 0 -0.0063086169412916943 -0.0016202116400659415 0 -0.0061220828574607023 -0.0014924851955489275 0 -0.0064780608596042826 -0.0012833809908120858 0 -0.0058716689018391407 -0.0013221340968133759 0 -0.0062848377877745909 -0.0012843378150603298 0 -0.0059976504572211839 -0.0011764971220195979 0 -0.0058716689018391407 -0.0013221340968133759 0 -0.0059976504572211839 -0.0011764971220195979 0 -0.005740515668430108 -0.0010298617168837821 0 -0.0059976504572211839 -0.0011764971220195979 0 -0.0061341653494698285 -0.0010205004653042161 0 -0.005740515668430108 -0.0010298617168837821 0 -0.0062848377877745909 -0.0012843378150603298 0 -0.0061341653494698285 -0.0010205004653042161 0 -0.0063306104795144754 -0.0010856720923248875 0 -0.0062848377877745909 -0.0012843378150603298 0 -0.0059976504572211839 -0.0011764971220195979 0 -0.0061341653494698285 -0.0010205004653042161 0 -0.0058716689018391407 -0.0013221340968133759 0 -0.0055438798460618688 -0.0012472081116748014 0 -0.005740515668430108 -0.0010298617168837821 0 -0.0055438798460618688 -0.0012472081116748014 0 -0.005740515668430108 -0.0010298617168837821 0 -0.0053510814751436039 -0.00087348077762164323 0 -0.005740515668430108 -0.0010298617168837821 0 -0.0056121350963142394 -0.00073322192787169868 0 -0.0053510814751436039 -0.00087348077762164323 0 -0.0056121350963142394 -0.00073322192787169868 0 -0.005337598537725384 -0.00061953842446216994 0 -0.0053510814751436039 -0.00087348077762164323 0 -0.005740515668430108 -0.0010298617168837821 0 -0.0056121350963142394 -0.00073322192787169868 0 -0.0058545186578348755 -0.00085005697414062349 0 -0.0056121350963142394 -0.00073322192787169868 0 -0.0058545186578348755 -0.00085005697414062349 0 -0.0058790653173241151 -0.00065301926797269754 0 -0.0061341653494698285 -0.0010205004653042161 0 -0.006437107845910452 -0.0009511200755586499 0 -0.0063158657721856188 -0.00077739846182637283 0 -0.0061341653494698285 -0.0010205004653042161 0 -0.0060739963118983699 -0.00081201900249517006 0 -0.0063158657721856188 -0.00077739846182637283 0 -0.0061341653494698285 -0.0010205004653042161 0 -0.0060739963118983699 -0.00081201900249517006 0 -0.0058545186578348755 -0.00085005697414062349 0 -0.0061341653494698285 -0.0010205004653042161 0 -0.005740515668430108 -0.0010298617168837821 0 -0.0058545186578348755 -0.00085005697414062349 0 -0.0060739963118983699 -0.00081201900249517006 0 -0.0058545186578348755 -0.00085005697414062349 0 -0.0058790653173241151 -0.00065301926797269754 0 -0.0060739963118983699 -0.00081201900249517006 0 -0.0058790653173241151 -0.00065301926797269754 0 -0.0061641732927748688 -0.00063631326069145259 0 -0.0061641732927748688 -0.00063631326069145259 0 -0.0064261197800061145 -0.00060258480164757317 0 -0.0063158657721856188 -0.00077739846182637283 0 -0.0060739963118983699 -0.00081201900249517006 0 -0.0061641732927748688 -0.00063631326069145259 0 -0.0063158657721856188 -0.00077739846182637283 0 -0.0061641732927748688 -0.00063631326069145259 0 -0.0062668942723035177 -0.00044516183066818448 0 -0.0059987148928123983 -0.00047550896374750392 0 -0.0061641732927748688 -0.00063631326069145259 0 -0.0062668942723035177 -0.00044516183066818448 0 -0.0064261197800061145 -0.00060258480164757317 0 -0.0058790653173241151 -0.00065301926797269754 0 -0.0061641732927748688 -0.00063631326069145259 0 -0.0059987148928123983 -0.00047550896374750392 0 -0.0058790653173241151 -0.00065301926797269754 0 -0.0059987148928123983 -0.00047550896374750392 0 -0.0056452246016387127 -0.00044785351718220311 0 -0.0059987148928123983 -0.00047550896374750392 0 -0.0056452246016387127 -0.00044785351718220311 0 -0.0060137824375413682 -0.00012145482408388283 0 -0.0052140602858849862 -0.001949111181948889 0 -0.013327992551039248 -0.00055069628527787829 0 -0.0062668942723035177 -0.00044516183066818448 0 -0.0064635042200261528 -0.00024918689872660381 0 -0.0060137824375413682 -0.00012145482408388283 0 -0.0062668942723035177 -0.00044516183066818448 0 -0.0059987148928123983 -0.00047550896374750392 0 -0.0060137824375413682 -0.00012145482408388283 0 -0.0056121350963142394 -0.00073322192787169868 0 -0.0058790653173241151 -0.00065301926797269754 0 -0.0056452246016387127 -0.00044785351718220311 0 -0.0056452246016387127 -0.00044785351718220311 0 -0.005427047363753202 -0.00047871455549678072 0 -0.0058308385012048117 -0.0003497098381990762 0 -0.0056121350963142394 -0.00073322192787169868 0 -0.0056452246016387127 -0.00044785351718220311 0 -0.005337598537725384 -0.00061953842446216994 0 -0.0056452246016387127 -0.00044785351718220311 0 -0.005337598537725384 -0.00061953842446216994 0 -0.005427047363753202 -0.00047871455549678072 0 -0.005337598537725384 -0.00061953842446216994 0 -0.0051895170961729856 -0.00054028176674287035 0 -0.005427047363753202 -0.00047871455549678072 0 -0.005337598537725384 -0.00061953842446216994 0 -0.0051895170961729856 -0.00054028176674287035 0 -0.0050641547693422457 -0.00073014837914809759 0 -0.0051895170961729856 -0.00054028176674287035 0 -0.0050641547693422457 -0.00073014837914809759 0 -0.0050631820060466903 -0.00057033881387089569 0 -0.0050641547693422457 -0.00073014837914809759 0 -0.0050631820060466903 -0.00057033881387089569 0 -0.0047788721239001922 -0.00081218957186742944 0 -0.005337598537725384 -0.00061953842446216994 0 -0.0050641547693422457 -0.00073014837914809759 0 -0.0053510814751436039 -0.00087348077762164323 0 -0.0049896786900210759 -0.0010210745530889449 0 -0.0050641547693422457 -0.00073014837914809759 0 -0.0053510814751436039 -0.00087348077762164323 0 -0.0096668597120429002 -0.00060474511224434084 0 -0.0090545654495520871 -0.0012336964074773419 0 -0.0084846387928482776 -0.00019294598338148817 0 -0.010016387173382851 0.00027721957936090847 0 -0.0096668597120429002 -0.00060474511224434084 0 -0.0084846387928482776 -0.00019294598338148817 0 -0.01013155922116296 -0.0014103392590851299 0 -0.0093213279708561775 -0.0027976483440132851 0 -0.0090545654495520871 -0.0012336964074773419 0 -0.01013155922116296 -0.0014103392590851299 0 -0.0096668597120429002 -0.00060474511224434084 0 -0.0090545654495520871 -0.0012336964074773419 0 -0.0076109361584377868 -0.002407511836593997 0 -0.0090545654495520871 -0.0012336964074773419 0 -0.0078971465888288198 -0.0009826140188394397 0 -0.0090545654495520871 -0.0012336964074773419 0 -0.0084846387928482776 -0.00019294598338148817 0 -0.0078971465888288198 -0.0009826140188394397 0 -0.0084846387928482776 -0.00019294598338148817 0 -0.0078971465888288198 -0.0009826140188394397 0 -0.0070160568461674205 -0.00071074201373442201 0 -0.01085027551643921 -0.00050273363958403135 0 -0.006800221966895106 -0.0014928537812036752 0 -0.0087257468244144772 0.00042072435301387581 0 -0.0090564927443585689 -0.00050797245590077729 0 -0.0071085041757791411 -0.0010407576198122185 0 -0.006800221966895106 -0.0014928537812036752 0 -0.0067840686029379633 -0.0011653604598676796 0 -0.0087257468244144772 0.00042072435301387581 0 -0.0078971465888288198 -0.0009826140188394397 0 -0.0072833916613962825 -0.0011115564495143299 0 -0.0070160568461674205 -0.00071074201373442201 0 -0.0076109361584377868 -0.002407511836593997 0 -0.0078971465888288198 -0.0009826140188394397 0 -0.0072554748516868084 -0.00150455183321065 0 -0.0076109361584377868 -0.002407511836593997 0 -0.0072554748516868084 -0.00150455183321065 0 -0.0067757836104273697 -0.0016480361115182402 0 -0.0078971465888288198 -0.0009826140188394397 0 -0.0072554748516868084 -0.00150455183321065 0 -0.0072833916613962825 -0.0011115564495143299 0 -0.0072554748516868084 -0.00150455183321065 0 -0.0072833916613962825 -0.0011115564495143299 0 -0.0069742614442970504 -0.0012419508746483649 0 -0.0072554748516868084 -0.00150455183321065 0 -0.0069742614442970504 -0.0012419508746483649 0 -0.0067757836104273697 -0.0016480361115182402 0 -0.0060944860523541259 -0.0019925689119065729 0 -0.0063086169412916943 -0.0016202116400659415 0 -0.0067757836104273697 -0.0016480361115182402 0 -0.0069742614442970504 -0.0012419508746483649 0 -0.0067757836104273697 -0.0016480361115182402 0 -0.0064780608596042826 -0.0012833809908120858 0 -0.0063086169412916943 -0.0016202116400659415 0 -0.0067757836104273697 -0.0016480361115182402 0 -0.0064780608596042826 -0.0012833809908120858 0 -0.0062848377877745909 -0.0012843378150603298 0 -0.006800221966895106 -0.0014928537812036752 0 -0.0066074500194551232 -0.0013271734095361373 0 -0.005889414762182528 -0.0013313577912493785 0 -0.0071085041757791411 -0.0010407576198122185 0 -0.0058716689018391407 -0.0013221340968133759 0 -0.0064780608596042826 -0.0012833809908120858 0 -0.0070160568461674205 -0.00071074201373442201 0 -0.0058716689018391407 -0.0013221340968133759 0 -0.0062848377877745909 -0.0012843378150603298 0 -0.006800221966895106 -0.0014928537812036752 0 -0.0072833916613962825 -0.0011115564495143299 0 -0.0069742614442970504 -0.0012419508746483649 0 -0.0070160568461674205 -0.00071074201373442201 0 -0.0069742614442970504 -0.0012419508746483649 0 -0.0064780608596042826 -0.0012833809908120858 0 -0.0070160568461674205 -0.00071074201373442201 0 -0.006800221966895106 -0.0014928537812036752 0 -0.0066074500194551232 -0.0013271734095361373 0 -0.0066978695874496362 -0.0012813346742671494 0 -0.0066074500194551232 -0.0013271734095361373 0 -0.0066978695874496362 -0.0012813346742671494 0 -0.0066378454107664546 -0.0011888432030418958 0 -0.0066978695874496362 -0.0012813346742671494 0 -0.0066378454107664546 -0.0011888432030418958 0 -0.0067840686029379633 -0.0011653604598676796 0 -0.006800221966895106 -0.0014928537812036752 0 -0.0066978695874496362 -0.0012813346742671494 0 -0.0067840686029379633 -0.0011653604598676796 0 -0.0066378454107664546 -0.0011888432030418958 0 -0.0067840686029379633 -0.0011653604598676796 0 -0.0066032095395130164 -0.0010286311401853303 0 -0.0066032095395130164 -0.0010286311401853303 0 -0.0064886573504234785 -0.00113552510768622 0 -0.006437107845910452 -0.0009511200755586499 0 -0.0061341653494698285 -0.0010205004653042161 0 -0.0063306104795144754 -0.0010856720923248875 0 -0.006437107845910452 -0.0009511200755586499 0 -0.0062848377877745909 -0.0012843378150603298 0 -0.0066074500194551232 -0.0013271734095361373 0 -0.0064886573504234785 -0.00113552510768622 0 -0.0066378454107664546 -0.0011888432030418958 0 -0.0066032095395130164 -0.0010286311401853303 0 -0.0064886573504234785 -0.00113552510768622 0 -0.0064886573504234785 -0.00113552510768622 0 -0.0063306104795144754 -0.0010856720923248875 0 -0.006437107845910452 -0.0009511200755586499 0 -0.0062848377877745909 -0.0012843378150603298 0 -0.0064886573504234785 -0.00113552510768622 0 -0.0063306104795144754 -0.0010856720923248875 0 -0.0066074500194551232 -0.0013271734095361373 0 -0.0066378454107664546 -0.0011888432030418958 0 -0.0064886573504234785 -0.00113552510768622 0 -0.0067840686029379633 -0.0011653604598676796 0 -0.0066412773325965242 -0.00076467009366900968 0 -0.0068771716168232761 -0.00038883865418187991 0 -0.006437107845910452 -0.0009511200755586499 0 -0.0066412773325965242 -0.00076467009366900968 0 -0.0063158657721856188 -0.00077739846182637283 0 -0.0066032095395130164 -0.0010286311401853303 0 -0.006437107845910452 -0.0009511200755586499 0 -0.0066412773325965242 -0.00076467009366900968 0 -0.0067840686029379633 -0.0011653604598676796 0 -0.0066032095395130164 -0.0010286311401853303 0 -0.0066412773325965242 -0.00076467009366900968 0 -0.0066412773325965242 -0.00076467009366900968 0 -0.0064261197800061145 -0.00060258480164757317 0 -0.006627514298804954 -0.00051075204280360523 0 -0.0066412773325965242 -0.00076467009366900968 0 -0.0064261197800061145 -0.00060258480164757317 0 -0.0063158657721856188 -0.00077739846182637283 0 -0.0062668942723035177 -0.00044516183066818448 0 -0.0064261197800061145 -0.00060258480164757317 0 -0.0064635042200261528 -0.00024918689872660381 0 -0.0064261197800061145 -0.00060258480164757317 0 -0.0064635042200261528 -0.00024918689872660381 0 -0.006627514298804954 -0.00051075204280360523 0 -0.010591399828984849 -0.00015123115140490789 0 -0.012889035946385272 0.00058871376647167913 0 -0.01565538612104192 -0.000581573781233712 0 -0.016922081013280764 -0.0010664808271218318 0 -0.016491280310791744 -4.3457521105534972e-06 0 -0.0064635042200261528 -0.00024918689872660381 0 -0.006627514298804954 -0.00051075204280360523 0 -0.0068771716168232761 -0.00038883865418187991 0 -0.0066412773325965242 -0.00076467009366900968 0 -0.006627514298804954 -0.00051075204280360523 0 -0.0068771716168232761 -0.00038883865418187991 0 -0.012889035946385272 0.00058871376647167913 0 -0.016236889428142727 0.0018638522604687048 0 -0.0078709619862977805 0.0033363915766847873 0 -0.0087257468244144772 0.00042072435301387581 0 -0.011347867766828532 0.002008109649556015 0 -0.0067840686029379633 -0.0011653604598676796 0 -0.0078709619862977805 0.0033363915766847873 0 -0.0087257468244144772 0.00042072435301387581 0 -0.0052495608871733681 -0.00086756869111012929 0 -0.012889035946385272 0.00058871376647167913 0 -0.01085027551643921 -0.00050273363958403135 0 -0.0087257468244144772 0.00042072435301387581 0 -0.011347867766828532 0.002008109649556015 0 -0.020625162125490541 0.0012293341607703438 0 -0.020071948021518935 0.0015492675624354407 0 -0.020261273364460153 0.0010331879477853325 0 -0.020071948021518935 0.0015492675624354407 0 -0.020261273364460153 0.0010331879477853325 0 -0.01988880721379763 0.00099063061811997897 0 -0.019153433671238076 0.0012367593365781647 0 -0.019606030212385748 0.0014509775638329165 0 -0.01988880721379763 0.00099063061811997897 0 -0.020071948021518935 0.0015492675624354407 0 -0.019606030212385748 0.0014509775638329165 0 -0.01988880721379763 0.00099063061811997897 0 -0.019265944106847496 0.0020435762245015372 0 -0.019153433671238076 0.0012367593365781647 0 -0.019606030212385748 0.0014509775638329165 0 -0.015211249453860412 0.0011527628554361378 0 -0.0090564927443585689 -0.00050797245590077729 0 -0.019265944106847496 0.0020435762245015372 0 -0.020071948021518935 0.0015492675624354407 0 -0.019606030212385748 0.0014509775638329165 0 -0.015211249453860412 0.0011527628554361378 0 -0.016236889428142727 0.0018638522604687048 0 -0.01489609296068352 0.00063580854287356638 0 -0.01085027551643921 -0.00050273363958403135 0 -0.011347867766828532 0.002008109649556015 0 -0.019153952715488216 -0.00045370148008528157 0 -0.019900695889957614 -9.5932374084960751e-05 0 -0.019356329031128494 0.00039928272622940397 0 -0.019153433671238076 0.0012367593365781647 0 -0.01988880721379763 0.00099063061811997897 0 -0.019356329031128494 0.00039928272622940397 0 -0.019914439513072889 0.00091692198007044961 0 -0.019768915044031835 0.00019897817738223479 0 -0.01988880721379763 0.00099063061811997897 0 -0.019900695889957614 -9.5932374084960751e-05 0 -0.019356329031128494 0.00039928272622940397 0 -0.01988880721379763 0.00099063061811997897 0 -0.019881957858631082 0.00040986774824507561 0 -0.020165872986663488 0.00071500467978204466 0 -0.020261273364460153 0.0010331879477853325 0 -0.01988880721379763 0.00099063061811997897 0 -0.020165872986663488 0.00071500467978204466 0 -0.020261273364460153 0.0010331879477853325 0 -0.020165872986663488 0.00071500467978204466 0 -0.020533992977441289 0.00071614755726560355 0 -0.019881957858631082 0.00040986774824507561 0 -0.020165872986663488 0.00071500467978204466 0 -0.02043639931444775 0.00021999438228142827 0 -0.021351105235356795 -0.00032206261175110514 0 -0.020417200671165273 -0.00049200517495608435 0 -0.021351105235356795 -0.00032206261175110514 0 -0.019117963677315126 0.00093577462305357933 0 -0.020165872986663488 0.00071500467978204466 0 -0.02043639931444775 0.00021999438228142827 0 -0.020533992977441289 0.00071614755726560355 0 -0.017737403388513751 0.0022046919471009905 0 -0.017330688094380341 0.00056805208283779802 0 -0.016051949481133022 0.0010712472170445971 0 -0.012889035946385272 0.00058871376647167913 0 -0.019117963677315126 0.00093577462305357933 0 -0.020625162125490541 0.0012293341607703438 0 -0.020261273364460153 0.0010331879477853325 0 -0.020533992977441289 0.00071614755726560355 0 -0.016922081013280764 -0.0010664808271218318 0 -0.017330688094380341 0.00056805208283779802 0 -0.016491280310791744 -4.3457521105534972e-06 0 -0.01565538612104192 -0.000581573781233712 0 -0.016051949481133022 0.0010712472170445971 0 -0.01436687448591711 -8.60749095625758e-05 0 -0.01565538612104192 -0.000581573781233712 0 -0.016491280310791744 -4.3457521105534972e-06 0 -0.016051949481133022 0.0010712472170445971 0 -0.017330688094380341 0.00056805208283779802 0 -0.016491280310791744 -4.3457521105534972e-06 0 -0.016051949481133022 0.0010712472170445971 0 -0.023346012496981334 -0.0024358301227985855 0 -0.023345148796925279 -0.0018417654863010012 0 -0.022901626219582291 -0.0024053870447608662 0 -0.02380924737467258 -0.0020305429804775787 0 -0.023346012496981334 -0.0024358301227985855 0 -0.023345148796925279 -0.0018417654863010012 0 -0.023345148796925279 -0.0018417654863010012 0 -0.023326164047754457 -0.0013843490614320164 0 -0.023642170379123976 -0.0014178630369663622 0 -0.023345148796925279 -0.0018417654863010012 0 -0.023326164047754457 -0.0013843490614320164 0 -0.023003469138834887 -0.0016118882577363378 0 -0.023642170379123976 -0.0014178630369663622 0 -0.023822833919653834 -0.0014499798228494436 0 -0.023805767848948611 -0.0012338070949112761 0 -0.023642170379123976 -0.0014178630369663622 0 -0.023661568140535733 -0.001699841976430308 0 -0.023822833919653834 -0.0014499798228494436 0 -0.02380924737467258 -0.0020305429804775787 0 -0.023345148796925279 -0.0018417654863010012 0 -0.023661568140535733 -0.001699841976430308 0 -0.023345148796925279 -0.0018417654863010012 0 -0.023642170379123976 -0.0014178630369663622 0 -0.023661568140535733 -0.001699841976430308 0 -0.02380924737467258 -0.0020305429804775787 0 -0.023661568140535733 -0.001699841976430308 0 -0.023822833919653834 -0.0014499798228494436 0 -0.021351105235356795 -0.00032206261175110514 0 -0.024296753383782402 -0.001977840666389888 0 -0.019881957858631082 0.00040986774824507561 0 -0.02043639931444775 0.00021999438228142827 0 -0.019874107926705246 -0.00018959522090940812 0 -0.021351105235356795 -0.00032206261175110514 0 -0.021231537829908151 -0.00075978183034516248 0 -0.023757900570461978 -0.0015697121673061388 0 -0.023822833919653834 -0.0014499798228494436 0 -0.023908777135576004 -0.0014892450790193982 0 -0.023822833919653834 -0.0014499798228494436 0 -0.023934507237047091 -0.0013522566722141002 0 -0.023908777135576004 -0.0014892450790193982 0 -0.022705035470385587 -0.0013220170760303033 0 -0.021231537829908151 -0.00075978183034516248 0 -0.019788985978186194 -0.0010847076561662271 0 -0.021231537829908151 -0.00075978183034516248 0 -0.020852046501688794 -0.0010676690343561087 0 -0.021506265989899732 -0.0011741897709802772 0 -0.021523568771388901 -0.00059907985420611651 0 -0.019237224502263135 -0.00098635587264397332 0 -0.019069338023177833 -0.0015414892986582113 0 -0.019841695459890309 -0.0010242828250950472 0 -0.019768915044031835 0.00019897817738223479 0 -0.021231537829908151 -0.00075978183034516248 0 -0.019153952715488216 -0.00045370148008528157 0 -0.019900695889957614 -9.5932374084960751e-05 0 -0.019841695459890309 -0.0010242828250950472 0 -0.019237224502263135 -0.00098635587264397332 0 -0.019153952715488216 -0.00045370148008528157 0 -0.019841695459890309 -0.0010242828250950472 0 -0.022006740526764341 -0.002634127814080183 0 -0.022106840652372717 -0.0018353643798445141 0 -0.021074064367100926 -0.0023852288116838595 0 -0.014044115852656166 -0.0017444314535588576 0 -0.012494714689128897 -0.0015270737016545312 0 -0.0051895170961729856 -0.00054028176674287035 0 -0.0053514833119252328 -0.0004293620066106115 0 -0.0051096139701579217 -0.00074869836626807599 0 -0.0051895170961729856 -0.00054028176674287035 0 -0.0051096139701579217 -0.00074869836626807599 0 -0.0050631820060466903 -0.00057033881387089569 0 -0.0051895170961729856 -0.00054028176674287035 0 -0.0053514833119252328 -0.0004293620066106115 0 -0.005427047363753202 -0.00047871455549678072 0 -0.0053514833119252328 -0.0004293620066106115 0 -0.005427047363753202 -0.00047871455549678072 0 -0.0058308385012048117 -0.0003497098381990762 0 -0.014044115852656166 -0.0017444314535588576 0 -0.013327992551039248 -0.00055069628527787829 0 -0.022006740526764341 -0.002634127814080183 0 -0.022766521546200104 -0.0028549841320706006 0 -0.022901626219582291 -0.0024053870447608662 0 -0.020417200671165273 -0.00049200517495608435 0 -0.013327992551039248 -0.00055069628527787829 0 -0.023346012496981334 -0.0024358301227985855 0 -0.022766521546200104 -0.0028549841320706006 0 -0.022901626219582291 -0.0024053870447608662 0 -0.010591399828984849 -0.00015123115140490789 0 -0.013327992551039248 -0.00055069628527787829 0 -0.023345148796925279 -0.0018417654863010012 0 -0.022901626219582291 -0.0024053870447608662 0 -0.022697974064247138 -0.0020714267715052728 0 -0.022006740526764341 -0.002634127814080183 0 -0.022901626219582291 -0.0024053870447608662 0 -0.022697974064247138 -0.0020714267715052728 0 -0.022006740526764341 -0.002634127814080183 0 -0.022697974064247138 -0.0020714267715052728 0 -0.022106840652372717 -0.0018353643798445141 0 -0.022697974064247138 -0.0020714267715052728 0 -0.023003469138834887 -0.0016118882577363378 0 -0.022106840652372717 -0.0018353643798445141 0 -0.023345148796925279 -0.0018417654863010012 0 -0.022697974064247138 -0.0020714267715052728 0 -0.023003469138834887 -0.0016118882577363378 0 -0.023326164047754457 -0.0013843490614320164 0 -0.023003469138834887 -0.0016118882577363378 0 -0.022750405418900749 -0.0011466747487624308 0 -0.023003469138834887 -0.0016118882577363378 0 -0.022106840652372717 -0.0018353643798445141 0 -0.022750405418900749 -0.0011466747487624308 0 -0.022106840652372717 -0.0018353643798445141 0 -0.021732786657326308 -0.0013083307269304387 0 -0.022750405418900749 -0.0011466747487624308 0 -0.022106840652372717 -0.0018353643798445141 0 -0.021326640442479696 -0.001743544146714899 0 -0.021732786657326308 -0.0013083307269304387 0 -0.022106840652372717 -0.0018353643798445141 0 -0.021326640442479696 -0.001743544146714899 0 -0.021074064367100926 -0.0023852288116838595 0 -0.021732786657326308 -0.0013083307269304387 0 -0.020931384111205893 -0.0012985737493755782 0 -0.021780906744999828 -0.00059165580328687101 0 -0.021326640442479696 -0.001743544146714899 0 -0.021732786657326308 -0.0013083307269304387 0 -0.020931384111205893 -0.0012985737493755782 0 -0.025324003401680374 -0.0012725320252420091 0 -0.024912818650303988 -0.0014586122306161878 0 -0.025215650372927553 -0.0010756760320504808 0 -0.025324003401680374 -0.0012725320252420091 0 -0.024912818650303988 -0.0014586122306161878 0 -0.024953497772520761 -0.0018517257356310179 0 -0.024407311964789576 -0.0010941675957093803 0 -0.015486637890163267 -0.001241803092999022 0 -0.015486637890163267 -0.001241803092999022 0 -0.0099800557818851571 -0.0036101753013664949 0 -0.021326640442479696 -0.001743544146714899 0 -0.020931384111205893 -0.0012985737493755782 0 -0.02071045330147157 -0.0018933432168107929 0 -0.020931384111205893 -0.0012985737493755782 0 -0.020035073643412778 -0.0020273282546071007 0 -0.02071045330147157 -0.0018933432168107929 0 -0.021326640442479696 -0.001743544146714899 0 -0.02071045330147157 -0.0018933432168107929 0 -0.021074064367100926 -0.0023852288116838595 0 -0.020035073643412778 -0.0020273282546071007 0 -0.02071045330147157 -0.0018933432168107929 0 -0.021074064367100926 -0.0023852288116838595 0 -0.02392330491209016 -0.0013207599577907338 0 -0.024377075691584354 -0.0011466335344475164 0 -0.024321206581382388 -0.0017595939380316266 0 -0.02392330491209016 -0.0013207599577907338 0 -0.024321206581382388 -0.0017595939380316266 0 -0.023560631539194229 -0.0015451180361589713 0 -0.02392330491209016 -0.0013207599577907338 0 -0.024377075691584354 -0.0011466335344475164 0 -0.023798630012100155 -0.00096516160117103057 0 -0.024912818650303988 -0.0014586122306161878 0 -0.024377075691584354 -0.0011466335344475164 0 -0.024321206581382388 -0.0017595939380316266 0 -0.024912818650303988 -0.0014586122306161878 0 -0.024377075691584354 -0.0011466335344475164 0 -0.025215650372927553 -0.0010756760320504808 0 -0.024912818650303988 -0.0014586122306161878 0 -0.024953497772520761 -0.0018517257356310179 0 -0.024321206581382388 -0.0017595939380316266 0 -0.0052751897999416342 -0.0017515154686405712 0 -0.0067270343176447861 -0.0026231963462439809 0 -0.0056006947981447246 -0.0014255132039575609 0 -0.0067270343176447861 -0.0026231963462439809 0 -0.0065428908805051271 -0.0012712422774531784 0 -0.0056006947981447246 -0.0014255132039575609 0 -0.015486637890163267 -0.001241803092999022 0 -0.015472706966660896 -0.0022060823234476964 0 -0.0067270343176447861 -0.0026231963462439809 0 -0.0081130587836876367 -0.0020800763713773795 0 -0.0065428908805051271 -0.0012712422774531784 0 -0.015472706966660896 -0.0022060823234476964 0 -0.016274334040940988 -0.0024612170784002268 0 -0.0067270343176447861 -0.0026231963462439809 0 -0.0081130587836876367 -0.0020800763713773795 0 -0.0086953794954165008 -0.0034396965887475432 0 -0.0080146305700080252 -0.0010025935194805941 0 -0.0065428908805051271 -0.0012712422774531784 0 -0.0059057692430747252 -0.00024864552627159621 0 -0.0081130587836876367 -0.0020800763713773795 0 -0.0080146305700080252 -0.0010025935194805941 0 -0.0065428908805051271 -0.0012712422774531784 0 -0.0065428908805051271 -0.0012712422774531784 0 -0.0056419792071503447 -0.00084912524761991248 0 -0.0059057692430747252 -0.00024864552627159621 0 -0.0065428908805051271 -0.0012712422774531784 0 -0.0056419792071503447 -0.00084912524761991248 0 -0.0056006947981447246 -0.0014255132039575609 0 -0.0056419792071503447 -0.00084912524761991248 0 -0.0059057692430747252 -0.00024864552627159621 0 -0.00524289264281836 -0.00064007263092994142 0 -0.0080146305700080252 -0.0010025935194805941 0 -0.0059057692430747252 -0.00024864552627159621 0 -0.0087758145161189183 0.00051250999415964975 0 -0.0060306707414025914 -0.00015796450943642964 0 -0.0071057767149158551 0.00010025163086022345 0 -0.015486637890163267 -0.001241803092999022 0 -0.012494714689128897 -0.0015270737016545312 0 -0.0051096139701579217 -0.00074869836626807599 0 -0.005358474011602248 -0.00097169600076663998 0 -0.00524289264281836 -0.00064007263092994142 0 -0.0054961539693526027 -0.001417081950800689 0 -0.0051096139701579217 -0.00074869836626807599 0 -0.005358474011602248 -0.00097169600076663998 0 -0.0054961539693526027 -0.001417081950800689 0 -0.0056006947981447246 -0.0014255132039575609 0 -0.005358474011602248 -0.00097169600076663998 0 -0.0056419792071503447 -0.00084912524761991248 0 -0.0056006947981447246 -0.0014255132039575609 0 -0.005358474011602248 -0.00097169600076663998 0 -0.0059057692430747252 -0.00024864552627159621 0 -0.00524289264281836 -0.00064007263092994142 0 -0.0050474407422965214 -0.00055885646396981747 0 -0.0056419792071503447 -0.00084912524761991248 0 -0.005358474011602248 -0.00097169600076663998 0 -0.00524289264281836 -0.00064007263092994142 0 -0.0051096139701579217 -0.00074869836626807599 0 -0.00524289264281836 -0.00064007263092994142 0 -0.0050631820060466903 -0.00057033881387089569 0 -0.00524289264281836 -0.00064007263092994142 0 -0.0050631820060466903 -0.00057033881387089569 0 -0.0050474407422965214 -0.00055885646396981747 0 -0.0050631820060466903 -0.00057033881387089569 0 -0.0050474407422965214 -0.00055885646396981747 0 -0.0047788721239001922 -0.00081218957186742944 0 -0.005051584786428716 -0.00054351350120597876 0 -0.0050474407422965214 -0.00055885646396981747 0 -0.0047788721239001922 -0.00081218957186742944 0 -0.0059057692430747252 -0.00024864552627159621 0 -0.005051584786428716 -0.00054351350120597876 0 -0.0050474407422965214 -0.00055885646396981747 0 -0.0059057692430747252 -0.00024864552627159621 0 -0.005051584786428716 -0.00054351350120597876 0 -0.0055639505217656773 -0.00053391815987218773 0 -0.0059057692430747252 -0.00024864552627159621 0 -0.0055639505217656773 -0.00053391815987218773 0 -0.0054361015214040558 -0.00021017486309051012 0 -0.005051584786428716 -0.00054351350120597876 0 -0.004514327989352267 -0.00061492528772752334 0 -0.0046820047783617267 -0.00082030404926574578 0 -0.0050601682352320746 -0.0005478426784626373 0 -0.0050359831739273274 -0.00058018712847310978 0 -0.0046820047783617267 -0.00082030404926574578 0 -0.0044814475466147643 -0.00073512984276081063 0 -0.0045057080924629728 -0.00083497110593512612 0 -0.004514327989352267 -0.00061492528772752334 0 -0.0046820047783617267 -0.00082030404926574578 0 -0.0044814475466147643 -0.00073512984276081063 0 -0.0044814475466147643 -0.00073512984276081063 0 -0.0045057080924629728 -0.00083497110593512612 0 -0.0044344851847132553 -0.00077117242353173354 0 -0.0044372004167767655 -0.0008337642497379794 0 -0.0045057080924629728 -0.00083497110593512612 0 -0.0044344851847132553 -0.00077117242353173354 0 -0.0044862682773641688 -0.00090432590927369701 0 -0.0046820047783617267 -0.00082030404926574578 0 -0.0045057080924629728 -0.00083497110593512612 0 -0.0044862682773641688 -0.00090432590927369701 0 -0.0046820047783617267 -0.00082030404926574578 0 -0.0044769054075835179 -0.0010209383187268245 0 -0.0044583365812772384 -0.0012652959352057939 0 -0.0044769054075835179 -0.0010209383187268245 0 -0.0047788721239001922 -0.00081218957186742944 0 -0.0046820047783617267 -0.00082030404926574578 0 -0.0044769054075835179 -0.0010209383187268245 0 -0.0047788721239001922 -0.00081218957186742944 0 -0.005051584786428716 -0.00054351350120597876 0 -0.0046820047783617267 -0.00082030404926574578 0 -0.0047788721239001922 -0.00081218957186742944 0 -0.004512051979088578 -0.00069420108280398825 0 -0.0045632149707678892 -0.0006822329765712457 0 -0.0046482905482674993 -0.00064061570879340416 0 -0.0044980873914715449 -0.00068931647461330432 0 -0.0045632149707678892 -0.0006822329765712457 0 -0.0045131824804196721 -0.00069174070208984583 0 0.0020002416202863473 -0.0018858322071076718 0 -0.0011980845229810977 -0.0022226713680232359 0 -0.0044980873914715449 -0.00068931647461330432 0 -0.004512051979088578 -0.00069420108280398825 0 -0.0045632149707678892 -0.0006822329765712457 0 -0.0044854530074307378 -0.00069497379696892043 0 -0.0044980873914715449 -0.00068931647461330432 0 -0.004512051979088578 -0.00069420108280398825 0 -0.0044854530074307378 -0.00069497379696892043 0 -0.004512051979088578 -0.00069420108280398825 0 -0.0044478338823559027 -0.00073036700679551662 0 -0.004512051979088578 -0.00069420108280398825 0 -0.0044478338823559027 -0.00073036700679551662 0 -0.0044645136994664828 -0.00072558392674110835 0 -0.0044814475466147643 -0.00073512984276081063 0 -0.0044344851847132553 -0.00077117242353173354 0 -0.0044645136994664828 -0.00072558392674110835 0 -0.0044478338823559027 -0.00073036700679551662 0 -0.0044344851847132553 -0.00077117242353173354 0 -0.0044645136994664828 -0.00072558392674110835 0 -0.0044814475466147643 -0.00073512984276081063 0 -0.0044645136994664828 -0.00072558392674110835 0 -0.0044843377123786185 -0.00069049079806170329 0 -0.004512051979088578 -0.00069420108280398825 0 -0.0044645136994664828 -0.00072558392674110835 0 -0.0044843377123786185 -0.00069049079806170329 0 -0.0050359831739273274 -0.00058018712847310978 0 -0.0048238640165065919 -0.00064747014780923223 0 -0.004514327989352267 -0.00061492528772752334 0 -0.0044814475466147643 -0.00073512984276081063 0 -0.0044843377123786185 -0.00069049079806170329 0 -0.0055639505217656773 -0.00053391815987218773 0 -0.0051697958516961481 -0.00062460831034263464 0 -0.0054361015214040558 -0.00021017486309051012 0 -0.0051697958516961481 -0.00062460831034263464 0 -0.0050018259186371964 -0.00024237469087556548 0 -0.0054361015214040558 -0.00021017486309051012 0 -0.0051697958516961481 -0.00062460831034263464 0 -0.0046482905482674993 -0.00064061570879340416 0 -0.0050018259186371964 -0.00024237469087556548 0 -0.0046482905482674993 -0.00064061570879340416 0 -0.0046590247213503131 -0.00036305174494113745 0 -0.0050018259186371964 -0.00024237469087556548 0 -0.0048238640165065919 -0.00064747014780923223 0 -0.0046524247937890168 -0.00064491453497611062 0 -0.004512051979088578 -0.00069420108280398825 0 -0.0044843377123786185 -0.00069049079806170329 0 -0.0046482905482674993 -0.00064061570879340416 0 -0.0045632149707678892 -0.0006822329765712457 0 -0.0046482905482674993 -0.00064061570879340416 0 -0.0045564976325175354 -0.00058549692679109755 0 -0.0046482905482674993 -0.00064061570879340416 0 -0.0046590247213503131 -0.00036305174494113745 0 -0.0045564976325175354 -0.00058549692679109755 0 -0.013441886083863456 0.00020447418784413064 0 -0.012913450717581244 -0.00087140936715791656 0 -0.014405928181199889 -0.00081989422042587584 0 -0.0090208814714093019 -9.0751154542587141e-05 0 -0.0081766617978070201 0.00011019440270878945 0 -0.013441886083863456 0.00020447418784413064 0 -0.011357292999161566 0.00048379112993641456 0 -0.012913450717581244 -0.00087140936715791656 0 -0.011357292999161566 0.00048379112993641456 0 -0.011366695827597797 -0.0011113071879370296 0 -0.012913450717581244 -0.00087140936715791656 0 -0.011366695827597797 -0.0011113071879370296 0 -0.012913450717581244 -0.00087140936715791656 0 -0.01258141892528496 -0.0020187230958300644 0 -0.012913450717581244 -0.00087140936715791656 0 -0.014405928181199889 -0.00081989422042587584 0 -0.014005993489494165 -0.0018737333554135573 0 -0.012913450717581244 -0.00087140936715791656 0 -0.01258141892528496 -0.0020187230958300644 0 -0.014005993489494165 -0.0018737333554135573 0 -0.0080146305700080252 -0.0010025935194805941 0 -0.0087758145161189183 0.00051250999415964975 0 -0.010107707900909459 -0.00041068595539398348 0 -0.0081766617978070201 0.00011019440270878945 0 -0.0071057767149158551 0.00010025163086022345 0 -0.011357292999161566 0.00048379112993641456 0 -0.0087758145161189183 0.00051250999415964975 0 -0.010107707900909459 -0.00041068595539398348 0 -0.011357292999161566 0.00048379112993641456 0 -0.011366695827597797 -0.0011113071879370296 0 -0.010107707900909459 -0.00041068595539398348 0 -0.011366695827597797 -0.0011113071879370296 0 -0.0097470376053538609 -0.0015575613392148852 0 -0.011191959288291694 -0.0022873143299290081 0 -0.011366695827597797 -0.0011113071879370296 0 -0.010107707900909459 -0.00041068595539398348 0 -0.0097470376053538609 -0.0015575613392148852 0 -0.0080146305700080252 -0.0010025935194805941 0 -0.010107707900909459 -0.00041068595539398348 0 -0.0097470376053538609 -0.0015575613392148852 0 -0.0081130587836876367 -0.0020800763713773795 0 -0.0080146305700080252 -0.0010025935194805941 0 -0.0097470376053538609 -0.0015575613392148852 0 -0.0081130587836876367 -0.0020800763713773795 0 -0.0097470376053538609 -0.0015575613392148852 0 -0.0095673022434126231 -0.002535570181361461 0 -0.0081130587836876367 -0.0020800763713773795 0 -0.0095673022434126231 -0.002535570181361461 0 -0.0086953794954165008 -0.0034396965887475432 0 -0.0095673022434126231 -0.002535570181361461 0 -0.010242196750899522 -0.0033768144088724729 0 -0.0086953794954165008 -0.0034396965887475432 0 -0.0097470376053538609 -0.0015575613392148852 0 -0.0095673022434126231 -0.002535570181361461 0 -0.011191959288291694 -0.0022873143299290081 0 -0.0095673022434126231 -0.002535570181361461 0 -0.011191959288291694 -0.0022873143299290081 0 -0.010242196750899522 -0.0033768144088724729 0 -0.011191959288291694 -0.0022873143299290081 0 -0.011183659477743709 -0.003079326664195357 0 -0.010242196750899522 -0.0033768144088724729 0 -0.010937355240114056 -0.0041360734107751002 0 -0.010242196750899522 -0.0033768144088724729 0 -0.0086953794954165008 -0.0034396965887475432 0 -0.011183659477743709 -0.003079326664195357 0 -0.010914283369429191 -0.0038405723682742227 0 -0.012113106135639363 -0.0031651666906901093 0 -0.011183659477743709 -0.003079326664195357 0 -0.010914283369429191 -0.0038405723682742227 0 -0.010242196750899522 -0.0033768144088724729 0 -0.015982837805521333 -0.003331691500072502 0 -0.011783113865629498 -0.0021875391518829494 0 -0.022850580316005609 -0.0012739766838885899 0 -0.023560631539194229 -0.0015451180361589713 0 -0.023383078362611609 -0.0010684761570800886 0 -0.015982837805521333 -0.003331691500072502 0 -0.016274334040940988 -0.0024612170784002268 0 -0.02392330491209016 -0.0013207599577907338 0 -0.023560631539194229 -0.0015451180361589713 0 -0.023383078362611609 -0.0010684761570800886 0 -0.02392330491209016 -0.0013207599577907338 0 -0.023383078362611609 -0.0010684761570800886 0 -0.023798630012100155 -0.00096516160117103057 0 -0.01258141892528496 -0.0020187230958300644 0 -0.013508302106389824 -0.0029521786544289942 0 -0.014005993489494165 -0.0018737333554135573 0 -0.01258141892528496 -0.0020187230958300644 0 -0.012113106135639363 -0.0031651666906901093 0 -0.013508302106389824 -0.0029521786544289942 0 -0.011366695827597797 -0.0011113071879370296 0 -0.011191959288291694 -0.0022873143299290081 0 -0.01258141892528496 -0.0020187230958300644 0 -0.011191959288291694 -0.0022873143299290081 0 -0.01258141892528496 -0.0020187230958300644 0 -0.012113106135639363 -0.0031651666906901093 0 -0.011191959288291694 -0.0022873143299290081 0 -0.011183659477743709 -0.003079326664195357 0 -0.012113106135639363 -0.0031651666906901093 0 -0.012113106135639363 -0.0031651666906901093 0 -0.012793253669619606 -0.0034252002235368685 0 -0.013508302106389824 -0.0029521786544289942 0 -0.010914283369429191 -0.0038405723682742227 0 -0.012113106135639363 -0.0031651666906901093 0 -0.012666611554084613 -0.0040413061788490768 0 -0.015982837805521333 -0.003331691500072502 0 -0.014864490645556146 -0.0037396755827566711 0 -0.012113106135639363 -0.0031651666906901093 0 -0.012793253669619606 -0.0034252002235368685 0 -0.012666611554084613 -0.0040413061788490768 0 -0.012793253669619606 -0.0034252002235368685 0 -0.013260156915319394 -0.0035295299588803545 0 -0.012666611554084613 -0.0040413061788490768 0 -0.013260156915319394 -0.0035295299588803545 0 -0.013508302106389824 -0.0029521786544289942 0 -0.014123896578393245 -0.0037518850822586005 0 -0.012793253669619606 -0.0034252002235368685 0 -0.013260156915319394 -0.0035295299588803545 0 -0.013508302106389824 -0.0029521786544289942 0 -0.016185136727353468 -0.0038274405039081748 0 -0.014864490645556146 -0.0037396755827566711 0 -0.017629628288311678 -0.003593376324641781 0 -0.017576719635471066 -0.003644757267936922 0 -0.017681263843641434 -0.0036051602547474315 0 -0.014123896578393245 -0.0037518850822586005 0 -0.014772710808395028 -0.0040761087204575861 0 -0.012666611554084613 -0.0040413061788490768 0 -0.013260156915319394 -0.0035295299588803545 0 -0.014123896578393245 -0.0037518850822586005 0 -0.012666611554084613 -0.0040413061788490768 0 -0.017629628288311678 -0.003593376324641781 0 -0.017681263843641434 -0.0036051602547474315 0 -0.017691149205732937 -0.0035899543689619255 0 -0.017629628288311678 -0.003593376324641781 0 -0.017691149205732937 -0.0035899543689619255 0 -0.017749089470796887 -0.0035466482415423008 0 -0.017629628288311678 -0.003593376324641781 0 -0.017576719635471066 -0.003644757267936922 0 -0.017570920518842181 -0.003560180806756743 0 -0.015982837805521333 -0.003331691500072502 0 -0.021458812439182871 -0.0020904142680897328 0 -0.017657078052562336 -0.0035979300804394069 0 -0.017681263843641434 -0.0036051602547474315 0 -0.017700652784778285 -0.0035889472343321842 0 -0.017681263843641434 -0.0036051602547474315 0 -0.017691149205732937 -0.0035899543689619255 0 -0.017700652784778285 -0.0035889472343321842 0 -0.019767257301876617 -0.0036302037321985022 0 -0.021458812439182871 -0.0020904142680897328 0 -0.024116484629513019 -0.0017217062041599079 0 -0.024094693638743687 -0.0016722722226610233 0 -0.024173793692962145 -0.001669240704870329 0 -0.021458812439182871 -0.0020904142680897328 0 -0.023593800917751609 -0.00048076439700799349 0 -0.022260881631631511 -0.00051782858315850533 0 -0.022718237864694964 0.00014133684850753153 0 -0.022894023748865511 -0.0006258705061110212 0 -0.017749089470796887 -0.0035466482415423008 0 -0.017572406659004256 -0.003498178616663951 0 -0.017467438951150757 -0.0033142794288870355 0 -0.021458812439182871 -0.0020904142680897328 0 -0.020134941030719479 -0.0024913439986460309 0 -0.017572406659004256 -0.003498178616663951 0 -0.017467438951150757 -0.0033142794288870355 0 -0.017511780752724415 -0.0035088529990582986 0 -0.017570920518842181 -0.003560180806756743 0 -0.017572406659004256 -0.003498178616663951 0 -0.017511780752724415 -0.0035088529990582986 0 -0.017629628288311678 -0.003593376324641781 0 -0.017570920518842181 -0.003560180806756743 0 -0.017572406659004256 -0.003498178616663951 0 -0.017629628288311678 -0.003593376324641781 0 -0.017749089470796887 -0.0035466482415423008 0 -0.017572406659004256 -0.003498178616663951 0 -0.024094693638743687 -0.0016722722226610233 0 -0.024142056482356837 -0.0016272953085574408 0 -0.024173793692962145 -0.001669240704870329 0 -0.024142056482356837 -0.0016272953085574408 0 -0.024228279795533117 -0.0016091352309431128 0 -0.024173793692962145 -0.001669240704870329 0 -0.026851147345008795 -0.0023741822601347534 0 -0.024845488389786372 -0.0009875113335946384 0 -0.028465688067292431 -0.0029163834785208742 0 -0.027441618508621334 -0.0028577470529146092 0 -0.027943220093228277 -0.0032995123442949594 0 -0.024094693638743687 -0.0016722722226610233 0 -0.024142056482356837 -0.0016272953085574408 0 -0.02408997637723069 -0.0016512202512681509 0 -0.026851147345008795 -0.0023741822601347534 0 -0.025249516668808519 -0.0028201245740745199 0 -0.028465688067292431 -0.0029163834785208742 0 -0.028970626722218371 -0.0034295185724666877 0 -0.02950002716229793 -0.0030045555980908129 0 -0.023339660545857691 0.00074265131647432959 0 -0.023264785374583662 0.00035147335208760694 0 -0.02384399217201618 0.00032272046177113031 0 -0.023339660545857691 0.00074265131647432959 0 -0.02329496134689436 0.00091962782432379033 0 -0.02384399217201618 0.00032272046177113031 0 -0.025717749011931447 -0.0019165181251503962 0 -0.025133869351840612 -0.00057923418867086222 0 -0.027001048169109178 -0.0023662828018042432 0 -0.02673771384554589 -0.0019783895975765162 0 -0.02670934626852281 -0.0022621109876779385 0 -0.027001048169109178 -0.0023662828018042432 0 -0.02670934626852281 -0.0022621109876779385 0 -0.026831262580043331 -0.00240057358550397 0 -0.023339660545857691 0.00074265131647432959 0 -0.023167997492094663 0.00074993885345794853 0 -0.023264785374583662 0.00035147335208760694 0 -0.023339660545857691 0.00074265131647432959 0 -0.02329496134689436 0.00091962782432379033 0 -0.02319073412704075 0.00073861919023015155 0 -0.025717749011931447 -0.0019165181251503962 0 -0.024845488389786372 -0.0009875113335946384 0 -0.023849663341164496 -0.00058150739474620349 0 -0.024845488389786372 -0.0009875113335946384 0 -0.023167997492094663 0.00074993885345794853 0 -0.022718237864694964 0.00014133684850753153 0 -0.023264785374583662 0.00035147335208760694 0 -0.022718237864694964 0.00014133684850753153 0 -0.023264785374583662 0.00035147335208760694 0 -0.023245650328393163 -0.00021759804856431574 0 -0.024845488389786372 -0.0009875113335946384 0 -0.023593800917751609 -0.00048076439700799349 0 -0.023264785374583662 0.00035147335208760694 0 -0.023245650328393163 -0.00021759804856431574 0 -0.02384399217201618 0.00032272046177113031 0 -0.023245650328393163 -0.00021759804856431574 0 -0.023841436219788202 -0.00028217547012092734 0 -0.02384399217201618 0.00032272046177113031 0 -0.023245650328393163 -0.00021759804856431574 0 -0.023594538577778462 -0.000620700201945988 0 -0.023841436219788202 -0.00028217547012092734 0 -0.023245650328393163 -0.00021759804856431574 0 -0.023594538577778462 -0.000620700201945988 0 -0.023240134651043909 -0.00068696187432020124 0 -0.022718237864694964 0.00014133684850753153 0 -0.023245650328393163 -0.00021759804856431574 0 -0.022894023748865511 -0.0006258705061110212 0 -0.023245650328393163 -0.00021759804856431574 0 -0.022894023748865511 -0.0006258705061110212 0 -0.023240134651043909 -0.00068696187432020124 0 -0.022850580316005609 -0.0012739766838885899 0 -0.022894023748865511 -0.0006258705061110212 0 -0.023086736269120136 -0.00090915196784912276 0 -0.022850580316005609 -0.0012739766838885899 0 -0.022260881631631511 -0.00051782858315850533 0 -0.022894023748865511 -0.0006258705061110212 0 -0.022894023748865511 -0.0006258705061110212 0 -0.023086736269120136 -0.00090915196784912276 0 -0.023240134651043909 -0.00068696187432020124 0 -0.022850580316005609 -0.0012739766838885899 0 -0.023086736269120136 -0.00090915196784912276 0 -0.023383078362611609 -0.0010684761570800886 0 -0.023594538577778462 -0.000620700201945988 0 -0.023240134651043909 -0.00068696187432020124 0 -0.023383078362611609 -0.0010684761570800886 0 -0.023086736269120136 -0.00090915196784912276 0 -0.023240134651043909 -0.00068696187432020124 0 -0.023383078362611609 -0.0010684761570800886 0 -0.023594538577778462 -0.000620700201945988 0 -0.023383078362611609 -0.0010684761570800886 0 -0.023798630012100155 -0.00096516160117103057 0 -0.023594538577778462 -0.000620700201945988 0 -0.023798630012100155 -0.00096516160117103057 0 -0.024083011275575949 -0.00064205981732250042 0 -0.024377075691584354 -0.0011466335344475164 0 -0.023798630012100155 -0.00096516160117103057 0 -0.024083011275575949 -0.00064205981732250042 0 -0.024377075691584354 -0.0011466335344475164 0 -0.024083011275575949 -0.00064205981732250042 0 -0.024527604240685792 -0.00079139045882743655 0 -0.024527604240685792 -0.00079139045882743655 0 -0.024471581043358899 -0.00030406289821155452 0 -0.025215650372927553 -0.0010756760320504808 0 -0.025344470657487184 -0.00091394386842441838 0 -0.025250639235279943 -0.0010405265561046484 0 -0.026151992099757305 -0.0013452751317828949 0 -0.025215650372927553 -0.0010756760320504808 0 -0.02564492390717376 -0.0013703805943147964 0 -0.024377075691584354 -0.0011466335344475164 0 -0.024527604240685792 -0.00079139045882743655 0 -0.025215650372927553 -0.0010756760320504808 0 -0.024083011275575949 -0.00064205981732250042 0 -0.024527604240685792 -0.00079139045882743655 0 -0.024471581043358899 -0.00030406289821155452 0 -0.026151992099757305 -0.0013452751317828949 0 -0.02564492390717376 -0.0013703805943147964 0 -0.026070812925402562 -0.0017250762389131565 0 -0.024471581043358899 -0.00030406289821155452 0 -0.023841436219788202 -0.00028217547012092734 0 -0.02384399217201618 0.00032272046177113031 0 -0.024083011275575949 -0.00064205981732250042 0 -0.024471581043358899 -0.00030406289821155452 0 -0.023841436219788202 -0.00028217547012092734 0 -0.023594538577778462 -0.000620700201945988 0 -0.024083011275575949 -0.00064205981732250042 0 -0.023841436219788202 -0.00028217547012092734 0 -0.025242488773896458 -0.0012309031164646211 0 -0.025215650372927553 -0.0010756760320504808 0 -0.025235030987010507 -0.001343120964104362 0 -0.025324003401680374 -0.0012725320252420091 0 -0.025242488773896458 -0.0012309031164646211 0 -0.025215650372927553 -0.0010756760320504808 0 -0.025215650372927553 -0.0010756760320504808 0 -0.02564492390717376 -0.0013703805943147964 0 -0.025235030987010507 -0.001343120964104362 0 -0.02564492390717376 -0.0013703805943147964 0 -0.025235030987010507 -0.001343120964104362 0 -0.026070812925402562 -0.0017250762389131565 0 -0.025262410945906724 -0.0012061931744803507 0 -0.025910201805220228 -0.0016742798347569002 0 -0.024745065565840298 -0.0010302075513566574 0 -0.024632345028823773 -0.0019613009304335544 0 -0.023857489214683423 -0.0011515443596903283 0 -0.024632345028823773 -0.0019613009304335544 0 -0.026070812925402562 -0.0017250762389131565 0 -0.026171035575334269 -0.0022361913016843778 0 -0.024745065565840298 -0.0010302075513566574 0 -0.024632345028823773 -0.0019613009304335544 0 -0.026070812925402562 -0.0017250762389131565 0 -0.025475909783685025 -0.0020195544236027503 0 -0.026133245854153078 -0.0022237556586812801 0 -0.026335056423429939 -0.0021079708995021804 0 -0.026297744351815384 -0.0022512284789109106 0 -0.026171035575334269 -0.0022361913016843778 0 -0.026297744351815384 -0.0022512284789109106 0 -0.026171035575334269 -0.0022361913016843778 0 -0.026347163714576946 -0.0023602706343074467 0 -0.026297744351815384 -0.0022512284789109106 0 -0.026347163714576946 -0.0023602706343074467 0 -0.026345641484893163 -0.0023795198168813383 0 -0.026297744351815384 -0.0022512284789109106 0 -0.026309832859970895 -0.0022505757159979041 0 -0.026345641484893163 -0.0023795198168813383 0 -0.026335056423429939 -0.0021079708995021804 0 -0.026297744351815384 -0.0022512284789109106 0 -0.026309832859970895 -0.0022505757159979041 0 -0.026309832859970895 -0.0022505757159979041 0 -0.026288971078271568 -0.0023724988883082497 0 -0.026172623321832032 -0.0021679506843121222 0 -0.026335056423429939 -0.0021079708995021804 0 -0.026309832859970895 -0.0022505757159979041 0 -0.026172623321832032 -0.0021679506843121222 0 -0.026151992099757305 -0.0013452751317828949 0 -0.026410563018375476 -0.0020286536309924641 0 -0.02673771384554589 -0.0019783895975765162 0 -0.025344470657487184 -0.00091394386842441838 0 -0.025133869351840612 -0.00057923418867086222 0 -0.026151992099757305 -0.0013452751317828949 0 -0.026410563018375476 -0.0020286536309924641 0 -0.026070812925402562 -0.0017250762389131565 0 -0.026410563018375476 -0.0020286536309924641 0 -0.026070812925402562 -0.0017250762389131565 0 -0.026171035575334269 -0.0022361913016843778 0 -0.026410563018375476 -0.0020286536309924641 0 -0.026171035575334269 -0.0022361913016843778 0 -0.026476734897879921 -0.0023394641954640897 0 -0.026171035575334269 -0.0022361913016843778 0 -0.026476734897879921 -0.0023394641954640897 0 -0.026347163714576946 -0.0023602706343074467 0 -0.026476734897879921 -0.0023394641954640897 0 -0.02670934626852281 -0.0022621109876779385 0 -0.026681508274145452 -0.0024198250983808625 0 -0.026410563018375476 -0.0020286536309924641 0 -0.026476734897879921 -0.0023394641954640897 0 -0.02670934626852281 -0.0022621109876779385 0 -0.026410563018375476 -0.0020286536309924641 0 -0.02673771384554589 -0.0019783895975765162 0 -0.02670934626852281 -0.0022621109876779385 0 -0.02670934626852281 -0.0022621109876779385 0 -0.026681508274145452 -0.0024198250983808625 0 -0.026831262580043331 -0.00240057358550397 0 -0.026681508274145452 -0.0024198250983808625 0 -0.026596502622688291 -0.0025018610669743204 0 -0.026740913287248282 -0.0025994223134956649 0 -0.026681508274145452 -0.0024198250983808625 0 -0.026740913287248282 -0.0025994223134956649 0 -0.026864438223530712 -0.0025572374315617368 0 -0.026596502622688291 -0.0025018610669743204 0 -0.026740913287248282 -0.0025994223134956649 0 -0.026637133025320944 -0.002604545471469274 0 -0.026596502622688291 -0.0025018610669743204 0 -0.026539459401473019 -0.0025833729465797825 0 -0.026637133025320944 -0.002604545471469274 0 -0.026476734897879921 -0.0023394641954640897 0 -0.026681508274145452 -0.0024198250983808625 0 -0.026596502622688291 -0.0025018610669743204 0 -0.026476734897879921 -0.0023394641954640897 0 -0.0264811186651078 -0.002456249061351948 0 -0.026347163714576946 -0.0023602706343074467 0 -0.026476734897879921 -0.0023394641954640897 0 -0.026596502622688291 -0.0025018610669743204 0 -0.0264811186651078 -0.002456249061351948 0 -0.026347163714576946 -0.0023602706343074467 0 -0.026453813868049875 -0.0025058820765964792 0 -0.026402253942317166 -0.0024813927459331996 0 -0.0264811186651078 -0.002456249061351948 0 -0.026347163714576946 -0.0023602706343074467 0 -0.026453813868049875 -0.0025058820765964792 0 -0.026453813868049875 -0.0025058820765964792 0 -0.026539459401473019 -0.0025833729465797825 0 -0.026472244283486018 -0.0025819493377492453 0 -0.026453813868049875 -0.0025058820765964792 0 -0.026472244283486018 -0.0025819493377492453 0 -0.026402253942317166 -0.0024813927459331996 0 -0.026596502622688291 -0.0025018610669743204 0 -0.0264811186651078 -0.002456249061351948 0 -0.026539459401473019 -0.0025833729465797825 0 -0.0264811186651078 -0.002456249061351948 0 -0.026453813868049875 -0.0025058820765964792 0 -0.026539459401473019 -0.0025833729465797825 0 -0.026539459401473019 -0.0025833729465797825 0 -0.02652278913199814 -0.0026356018211492276 0 -0.026598249234474184 -0.0026506247494642058 0 -0.026539459401473019 -0.0025833729465797825 0 -0.02652278913199814 -0.0026356018211492276 0 -0.026472244283486018 -0.0025819493377492453 0 -0.02652278913199814 -0.0026356018211492276 0 -0.026567391522947469 -0.0026887532445427037 0 -0.026598249234474184 -0.0026506247494642058 0 -0.02652278913199814 -0.0026356018211492276 0 -0.026472244283486018 -0.0025819493377492453 0 -0.026498816616214369 -0.00267247558060259 0 -0.026472244283486018 -0.0025819493377492453 0 -0.026498816616214369 -0.00267247558060259 0 -0.026437057434075477 -0.0026016113499843728 0 -0.026498816616214369 -0.00267247558060259 0 -0.026567391522947469 -0.0026887532445427037 0 -0.026531918552688952 -0.0027483393872782137 0 -0.026498816616214369 -0.00267247558060259 0 -0.026455999474109249 -0.0026909385172751471 0 -0.026531918552688952 -0.0027483393872782137 0 -0.026567391522947469 -0.0026887532445427037 0 -0.026609244109170215 -0.0027489053838514752 0 -0.026531918552688952 -0.0027483393872782137 0 -0.02652278913199814 -0.0026356018211492276 0 -0.026498816616214369 -0.00267247558060259 0 -0.026567391522947469 -0.0026887532445427037 0 -0.026653444265863864 -0.0027077079077556009 0 -0.02670434096045745 -0.0027914546877572102 0 -0.026609244109170215 -0.0027489053838514752 0 -0.026567391522947469 -0.0026887532445427037 0 -0.026653444265863864 -0.0027077079077556009 0 -0.026609244109170215 -0.0027489053838514752 0 -0.026567391522947469 -0.0026887532445427037 0 -0.026653444265863864 -0.0027077079077556009 0 -0.026598249234474184 -0.0026506247494642058 0 -0.026653444265863864 -0.0027077079077556009 0 -0.026770014924142674 -0.0027412248530894355 0 -0.026698576613165544 -0.0026634260777254099 0 -0.026653444265863864 -0.0027077079077556009 0 -0.026770014924142674 -0.0027412248530894355 0 -0.02670434096045745 -0.0027914546877572102 0 -0.026770014924142674 -0.0027412248530894355 0 -0.02670434096045745 -0.0027914546877572102 0 -0.026825540354644354 -0.0027703104410294376 0 -0.026770014924142674 -0.0027412248530894355 0 -0.026698576613165544 -0.0026634260777254099 0 -0.026740913287248282 -0.0025994223134956649 0 -0.026698576613165544 -0.0026634260777254099 0 -0.026740913287248282 -0.0025994223134956649 0 -0.026637133025320944 -0.002604545471469274 0 -0.026653444265863864 -0.0027077079077556009 0 -0.026698576613165544 -0.0026634260777254099 0 -0.026637133025320944 -0.002604545471469274 0 -0.026539459401473019 -0.0025833729465797825 0 -0.026637133025320944 -0.002604545471469274 0 -0.026598249234474184 -0.0026506247494642058 0 -0.026653444265863864 -0.0027077079077556009 0 -0.026637133025320944 -0.002604545471469274 0 -0.026598249234474184 -0.0026506247494642058 0 -0.026288971078271568 -0.0023724988883082497 0 -0.026352062476214182 -0.0024950822516981754 0 -0.026345641484893163 -0.0023795198168813383 0 -0.026309832859970895 -0.0022505757159979041 0 -0.026288971078271568 -0.0023724988883082497 0 -0.026345641484893163 -0.0023795198168813383 0 -0.026288971078271568 -0.0023724988883082497 0 -0.026352062476214182 -0.0024950822516981754 0 -0.026300528710016223 -0.0025653048889353498 0 -0.026352062476214182 -0.0024950822516981754 0 -0.026388513689650547 -0.0025147066028650099 0 -0.026406242194097238 -0.0026292489524494061 0 -0.026352062476214182 -0.0024950822516981754 0 -0.026388513689650547 -0.0025147066028650099 0 -0.026345641484893163 -0.0023795198168813383 0 -0.026347163714576946 -0.0023602706343074467 0 -0.026345641484893163 -0.0023795198168813383 0 -0.026402253942317166 -0.0024813927459331996 0 -0.026388513689650547 -0.0025147066028650099 0 -0.026345641484893163 -0.0023795198168813383 0 -0.026402253942317166 -0.0024813927459331996 0 -0.026388513689650547 -0.0025147066028650099 0 -0.026402253942317166 -0.0024813927459331996 0 -0.026437057434075477 -0.0026016113499843728 0 -0.026437057434075477 -0.0026016113499843728 0 -0.026455999474109249 -0.0026909385172751471 0 -0.026406242194097238 -0.0026292489524494061 0 -0.026472244283486018 -0.0025819493377492453 0 -0.026402253942317166 -0.0024813927459331996 0 -0.026437057434075477 -0.0026016113499843728 0 -0.026388513689650547 -0.0025147066028650099 0 -0.026437057434075477 -0.0026016113499843728 0 -0.026406242194097238 -0.0026292489524494061 0 -0.026498816616214369 -0.00267247558060259 0 -0.026437057434075477 -0.0026016113499843728 0 -0.026455999474109249 -0.0026909385172751471 0 -0.026425552549288675 -0.0027255434052265884 0 -0.026406242194097238 -0.0026292489524494061 0 -0.026394811302867662 -0.002692494818705077 0 -0.026455999474109249 -0.0026909385172751471 0 -0.026425552549288675 -0.0027255434052265884 0 -0.026406242194097238 -0.0026292489524494061 0 -0.026406242194097238 -0.0026292489524494061 0 -0.026359329391013011 -0.0026302789642517412 0 -0.026394811302867662 -0.002692494818705077 0 -0.026352062476214182 -0.0024950822516981754 0 -0.026406242194097238 -0.0026292489524494061 0 -0.026359329391013011 -0.0026302789642517412 0 -0.026425552549288675 -0.0027255434052265884 0 -0.026394811302867662 -0.002692494818705077 0 -0.026397129301347206 -0.002768327840251379 0 -0.026394811302867662 -0.002692494818705077 0 -0.026376121051633852 -0.0027133736777166708 0 -0.026397129301347206 -0.002768327840251379 0 -0.026359329391013011 -0.0026302789642517412 0 -0.026394811302867662 -0.002692494818705077 0 -0.026376121051633852 -0.0027133736777166708 0 -0.026376121051633852 -0.0027133736777166708 0 -0.026379983101184234 -0.0027738017855581279 0 -0.02635121628873904 -0.002723713646799816 0 -0.026359329391013011 -0.0026302789642517412 0 -0.026376121051633852 -0.0027133736777166708 0 -0.02635121628873904 -0.002723713646799816 0 -0.026376121051633852 -0.0027133736777166708 0 -0.026379983101184234 -0.0027738017855581279 0 -0.026397129301347206 -0.002768327840251379 0 -0.026352062476214182 -0.0024950822516981754 0 -0.026359329391013011 -0.0026302789642517412 0 -0.026300528710016223 -0.0025653048889353498 0 -0.026359329391013011 -0.0026302789642517412 0 -0.026300528710016223 -0.0025653048889353498 0 -0.02635121628873904 -0.002723713646799816 0 -0.026390821703303657 -0.0028304640081121598 0 -0.026400270007981341 -0.0028657604008215671 0 -0.026379537106580121 -0.0028725955358685326 0 -0.026390821703303657 -0.0028304640081121598 0 -0.026404254237352272 -0.0028462615272148916 0 -0.026400270007981341 -0.0028657604008215671 0 -0.026390821703303657 -0.0028304640081121598 0 -0.026405446920031158 -0.0028207206319667247 0 -0.026404254237352272 -0.0028462615272148916 0 -0.026390821703303657 -0.0028304640081121598 0 -0.026379983101184234 -0.0027738017855581279 0 -0.026387010140849366 -0.0028282998083053912 0 -0.026379983101184234 -0.0027738017855581279 0 -0.02635121628873904 -0.002723713646799816 0 -0.026387010140849366 -0.0028282998083053912 0 -0.026390821703303657 -0.0028304640081121598 0 -0.026379983101184234 -0.0027738017855581279 0 -0.026397129301347206 -0.002768327840251379 0 -0.026390821703303657 -0.0028304640081121598 0 -0.026397129301347206 -0.002768327840251379 0 -0.026405446920031158 -0.0028207206319667247 0 -0.026425552549288675 -0.0027255434052265884 0 -0.026397129301347206 -0.002768327840251379 0 -0.026419299866117154 -0.0027972688190823765 0 -0.026397129301347206 -0.002768327840251379 0 -0.026419299866117154 -0.0027972688190823765 0 -0.026405446920031158 -0.0028207206319667247 0 -0.026419299866117154 -0.0027972688190823765 0 -0.026405446920031158 -0.0028207206319667247 0 -0.026425448511188054 -0.0028413412054216877 0 -0.026405446920031158 -0.0028207206319667247 0 -0.026404254237352272 -0.0028462615272148916 0 -0.026425448511188054 -0.0028413412054216877 0 -0.026419299866117154 -0.0027972688190823765 0 -0.026453769116771289 -0.0028161052952306756 0 -0.026467292883562751 -0.0027688744257548525 0 -0.026419299866117154 -0.0027972688190823765 0 -0.026453769116771289 -0.0028161052952306756 0 -0.026425448511188054 -0.0028413412054216877 0 -0.026425552549288675 -0.0027255434052265884 0 -0.026419299866117154 -0.0027972688190823765 0 -0.026467292883562751 -0.0027688744257548525 0 -0.026455999474109249 -0.0026909385172751471 0 -0.026425552549288675 -0.0027255434052265884 0 -0.026467292883562751 -0.0027688744257548525 0 -0.026455999474109249 -0.0026909385172751471 0 -0.026467292883562751 -0.0027688744257548525 0 -0.026531918552688952 -0.0027483393872782137 0 -0.026453769116771289 -0.0028161052952306756 0 -0.026467292883562751 -0.0027688744257548525 0 -0.026530318891394775 -0.0028357543197914019 0 -0.026453769116771289 -0.0028161052952306756 0 -0.026468538077825923 -0.0028600957406364953 0 -0.026530318891394775 -0.0028357543197914019 0 -0.026512039833287634 -0.0028808195451555259 0 -0.026468538077825923 -0.0028600957406364953 0 -0.026530318891394775 -0.0028357543197914019 0 -0.026512039833287634 -0.0028808195451555259 0 -0.026488381410489852 -0.0029093195459460965 0 -0.026553576301348206 -0.0029104720164712357 0 -0.026512039833287634 -0.0028808195451555259 0 -0.026488381410489852 -0.0029093195459460965 0 -0.026468538077825923 -0.0028600957406364953 0 -0.026488381410489852 -0.0029093195459460965 0 -0.026468538077825923 -0.0028600957406364953 0 -0.026419068704867783 -0.0028748040759321762 0 -0.026453769116771289 -0.0028161052952306756 0 -0.026468538077825923 -0.0028600957406364953 0 -0.026425448511188054 -0.0028413412054216877 0 -0.026468538077825923 -0.0028600957406364953 0 -0.026425448511188054 -0.0028413412054216877 0 -0.026419068704867783 -0.0028748040759321762 0 -0.026088069150987075 -0.0027357888065483102 0 -0.026698829387368599 -0.0016441114561144225 0 -0.026400270007981341 -0.0028657604008215671 0 -0.026379537106580121 -0.0028725955358685326 0 -0.02641811443855871 -0.0028721816089748655 0 -0.026419068704867783 -0.0028748040759321762 0 -0.026400270007981341 -0.0028657604008215671 0 -0.02641811443855871 -0.0028721816089748655 0 -0.026404254237352272 -0.0028462615272148916 0 -0.026425448511188054 -0.0028413412054216877 0 -0.026419068704867783 -0.0028748040759321762 0 -0.026404254237352272 -0.0028462615272148916 0 -0.026419068704867783 -0.0028748040759321762 0 -0.026400270007981341 -0.0028657604008215671 0 -0.026351024740944824 -0.0029662869430341242 0 -0.026698829387368599 -0.0016441114561144225 0 -0.026488381410489852 -0.0029093195459460965 0 -0.026419068704867783 -0.0028748040759321762 0 -0.026415059564877389 -0.0029228929489444723 0 -0.02670434096045745 -0.0027914546877572102 0 -0.026661775350238774 -0.0028736649204036775 0 -0.026825540354644354 -0.0027703104410294376 0 -0.026608116106207724 -0.0039338785296541062 0 -0.027022414245073224 -0.0033255962680864633 0 -0.02670434096045745 -0.0027914546877572102 0 -0.026606827039336377 -0.002804960795451731 0 -0.026661775350238774 -0.0028736649204036775 0 -0.02670434096045745 -0.0027914546877572102 0 -0.026609244109170215 -0.0027489053838514752 0 -0.026606827039336377 -0.002804960795451731 0 -0.026606827039336377 -0.002804960795451731 0 -0.026530318891394775 -0.0028357543197914019 0 -0.026661775350238774 -0.0028736649204036775 0 -0.026609244109170215 -0.0027489053838514752 0 -0.026606827039336377 -0.002804960795451731 0 -0.026531918552688952 -0.0027483393872782137 0 -0.026467292883562751 -0.0027688744257548525 0 -0.026531918552688952 -0.0027483393872782137 0 -0.026530318891394775 -0.0028357543197914019 0 -0.026606827039336377 -0.002804960795451731 0 -0.026531918552688952 -0.0027483393872782137 0 -0.026530318891394775 -0.0028357543197914019 0 -0.026530318891394775 -0.0028357543197914019 0 -0.026553576301348206 -0.0029104720164712357 0 -0.026661775350238774 -0.0028736649204036775 0 -0.026553576301348206 -0.0029104720164712357 0 -0.026661775350238774 -0.0028736649204036775 0 -0.026593592388188536 -0.0029739138512008432 0 -0.026512039833287634 -0.0028808195451555259 0 -0.026530318891394775 -0.0028357543197914019 0 -0.026553576301348206 -0.0029104720164712357 0 -0.026895338863028063 -0.0046610799491290135 0 -0.027222579879753829 -0.0049811150191850333 0 -0.026669320596814493 -0.0052064735040566103 0 -0.026608116106207724 -0.0039338785296541062 0 -0.02767647669260551 -0.0034521884309872681 0 -0.027222579879753829 -0.0049811150191850333 0 -0.027384626330420301 -0.0047918351937980561 0 -0.027179503807869501 -0.0046216589202326798 0 -0.027411022672368789 -0.0049575414841025517 0 -0.027384626330420301 -0.0047918351937980561 0 -0.027529944247323447 -0.0050244894928550545 0 -0.027222579879753829 -0.0049811150191850333 0 -0.027411022672368789 -0.0049575414841025517 0 -0.027529944247323447 -0.0050244894928550545 0 -0.027222579879753829 -0.0049811150191850333 0 -0.027411022672368789 -0.0049575414841025517 0 -0.027384626330420301 -0.0047918351937980561 0 -0.027384626330420301 -0.0047918351937980561 0 -0.027179503807869501 -0.0046216589202326798 0 -0.027395075659006535 -0.0044679929784988224 0 -0.027384626330420301 -0.0047918351937980561 0 -0.027395075659006535 -0.0044679929784988224 0 -0.027651230715010876 -0.0046321350381544084 0 -0.026895338863028063 -0.0046610799491290135 0 -0.027222579879753829 -0.0049811150191850333 0 -0.027179503807869501 -0.0046216589202326798 0 -0.027395075659006535 -0.0044679929784988224 0 -0.027404472339443198 -0.0041757878796918821 0 -0.027092394247158917 -0.0039963872911081165 0 -0.026895338863028063 -0.0046610799491290135 0 -0.027179503807869501 -0.0046216589202326798 0 -0.027092394247158917 -0.0039963872911081165 0 -0.027179503807869501 -0.0046216589202326798 0 -0.027395075659006535 -0.0044679929784988224 0 -0.027092394247158917 -0.0039963872911081165 0 -0.027638664390800118 -0.004307884776483981 0 -0.027981481325098354 -0.0043919942908039536 0 -0.027865649121930951 -0.0041063109003324268 0 -0.027404472339443198 -0.0041757878796918821 0 -0.027638664390800118 -0.004307884776483981 0 -0.027606747229455941 -0.0040142624865649353 0 -0.027395075659006535 -0.0044679929784988224 0 -0.027404472339443198 -0.0041757878796918821 0 -0.027638664390800118 -0.004307884776483981 0 -0.027395075659006535 -0.0044679929784988224 0 -0.027638664390800118 -0.004307884776483981 0 -0.027651230715010876 -0.0046321350381544084 0 -0.027638664390800118 -0.004307884776483981 0 -0.027651230715010876 -0.0046321350381544084 0 -0.027981481325098354 -0.0043919942908039536 0 -0.027651230715010876 -0.0046321350381544084 0 -0.028020158171919673 -0.0047706683030388783 0 -0.027981481325098354 -0.0043919942908039536 0 -0.027651230715010876 -0.0046321350381544084 0 -0.028020158171919673 -0.0047706683030388783 0 -0.027529944247323447 -0.0050244894928550545 0 -0.030934631923322336 -0.00344214322178877 0 -0.028880971519417244 -0.0043088285983951865 0 -0.029424878750813017 -0.004136336700934007 0 -0.029396346011405009 -0.0041196819172840526 0 -0.029277362800819759 -0.0041938081587102171 0 -0.027384626330420301 -0.0047918351937980561 0 -0.027651230715010876 -0.0046321350381544084 0 -0.027529944247323447 -0.0050244894928550545 0 -0.028630915850394092 -0.004495073890030934 0 -0.028880971519417244 -0.0043088285983951865 0 -0.029424878750813017 -0.004136336700934007 0 -0.029396346011405009 -0.0041196819172840526 0 -0.029492719794783639 -0.0040672515779785062 0 -0.03327976369664367 -0.002849463362239442 0 -0.032909408410087597 -0.002812876329613806 0 -0.03305397587108868 -0.0026065875864508575 0 -0.030934631923322336 -0.00344214322178877 0 -0.029066393278361344 -0.0043561231893715678 0 -0.03327976369664367 -0.002849463362239442 0 -0.032909408410087597 -0.002812876329613806 0 -0.032770706129738342 -0.0031762237552462806 0 -0.030934631923322336 -0.00344214322178877 0 -0.031201400802776561 -0.0036744377061561349 0 -0.032909408410087597 -0.002812876329613806 0 -0.032769536086825764 -0.0025744629275908483 0 -0.032638746107283671 -0.0028592266222082878 0 -0.032909408410087597 -0.002812876329613806 0 -0.03305397587108868 -0.0026065875864508575 0 -0.032769536086825764 -0.0025744629275908483 0 -0.032909408410087597 -0.002812876329613806 0 -0.032770706129738342 -0.0031762237552462806 0 -0.032638746107283671 -0.0028592266222082878 0 -0.029498362259184018 -0.0041246732797972146 0 -0.029458891354293179 -0.0041826157120870436 0 -0.029458872213795596 -0.004168596866019586 0 -0.028592131049644469 -0.0044776112935612199 0 -0.028251701689860294 -0.0041497152114764275 0 -0.028655916433727235 -0.0041132851998487768 0 -0.028592131049644469 -0.0044776112935612199 0 -0.028655916433727235 -0.0041132851998487768 0 -0.029061676304348749 -0.0042267938601997842 0 -0.029458891354293179 -0.0041826157120870436 0 -0.029458872213795596 -0.004168596866019586 0 -0.029459072030081735 -0.0040916250831581364 0 -0.029066393278361344 -0.0043561231893715678 0 -0.029280565706308232 -0.0041438856437291524 0 -0.028592131049644469 -0.0044776112935612199 0 -0.027981481325098354 -0.0043919942908039536 0 -0.028251701689860294 -0.0041497152114764275 0 -0.028630915850394092 -0.004495073890030934 0 -0.029066393278361344 -0.0043561231893715678 0 -0.028020158171919673 -0.0047706683030388783 0 -0.028592131049644469 -0.0044776112935612199 0 -0.027981481325098354 -0.0043919942908039536 0 -0.027981481325098354 -0.0043919942908039536 0 -0.028251701689860294 -0.0041497152114764275 0 -0.027865649121930951 -0.0041063109003324268 0 -0.028415183697016955 -0.0037206322809165355 0 -0.028086865091594929 -0.0039233050357630594 0 -0.027856870034482829 -0.0036826086493303247 0 -0.028251701689860294 -0.0041497152114764275 0 -0.028086865091594929 -0.0039233050357630594 0 -0.027865649121930951 -0.0041063109003324268 0 -0.028251701689860294 -0.0041497152114764275 0 -0.028415183697016955 -0.0037206322809165355 0 -0.028655916433727235 -0.0041132851998487768 0 -0.028251701689860294 -0.0041497152114764275 0 -0.028415183697016955 -0.0037206322809165355 0 -0.028086865091594929 -0.0039233050357630594 0 -0.028655916433727235 -0.0041132851998487768 0 -0.028941094586518293 -0.0038400210555141084 0 -0.029061676304348749 -0.0042267938601997842 0 -0.028415183697016955 -0.0037206322809165355 0 -0.028655916433727235 -0.0041132851998487768 0 -0.028941094586518293 -0.0038400210555141084 0 -0.028465688067292431 -0.0029163834785208742 0 -0.028415183697016955 -0.0037206322809165355 0 -0.028970626722218371 -0.0034295185724666877 0 -0.028415183697016955 -0.0037206322809165355 0 -0.028941094586518293 -0.0038400210555141084 0 -0.028970626722218371 -0.0034295185724666877 0 -0.028465688067292431 -0.0029163834785208742 0 -0.028415183697016955 -0.0037206322809165355 0 -0.027943220093228277 -0.0032995123442949594 0 -0.028415183697016955 -0.0037206322809165355 0 -0.027943220093228277 -0.0032995123442949594 0 -0.027856870034482829 -0.0036826086493303247 0 -0.027441618508621334 -0.0028577470529146092 0 -0.027943220093228277 -0.0032995123442949594 0 -0.027527112046112318 -0.0033170194158318057 0 -0.027527112046112318 -0.0033170194158318057 0 -0.02730229644932641 -0.003126110444558643 0 -0.027458100746428429 -0.0037336037760439846 0 -0.027943220093228277 -0.0032995123442949594 0 -0.027527112046112318 -0.0033170194158318057 0 -0.027856870034482829 -0.0036826086493303247 0 -0.027527112046112318 -0.0033170194158318057 0 -0.027856870034482829 -0.0036826086493303247 0 -0.027458100746428429 -0.0037336037760439846 0 -0.027307431879704146 -0.0030692421697793783 0 -0.027441618508621334 -0.0028577470529146092 0 -0.027527112046112318 -0.0033170194158318057 0 -0.025717749011931447 -0.0019165181251503962 0 -0.027333575460790911 -0.0034313076208891654 0 -0.02727875588627654 -0.0030909414817060356 0 -0.027527112046112318 -0.0033170194158318057 0 -0.02730229644932641 -0.003126110444558643 0 -0.02727875588627654 -0.0030909414817060356 0 -0.02730229644932641 -0.003126110444558643 0 -0.027045440025700942 -0.0029394339464628005 0 -0.02730229644932641 -0.003126110444558643 0 -0.027045440025700942 -0.0029394339464628005 0 -0.026825540354644354 -0.0027703104410294376 0 -0.027262998696529834 -0.0031089620732382556 0 -0.027022414245073224 -0.0033255962680864633 0 -0.02730229644932641 -0.003126110444558643 0 -0.027092394247158917 -0.0039963872911081165 0 -0.027458100746428429 -0.0037336037760439846 0 -0.027001048169109178 -0.0023662828018042432 0 -0.026831262580043331 -0.00240057358550397 0 -0.026864438223530712 -0.0025572374315617368 0 -0.025717749011931447 -0.0019165181251503962 0 -0.026892253141578684 -0.002728805075181898 0 -0.026681508274145452 -0.0024198250983808625 0 -0.026831262580043331 -0.00240057358550397 0 -0.026864438223530712 -0.0025572374315617368 0 -0.026770014924142674 -0.0027412248530894355 0 -0.026740913287248282 -0.0025994223134956649 0 -0.026864438223530712 -0.0025572374315617368 0 -0.026770014924142674 -0.0027412248530894355 0 -0.027045440025700942 -0.0029394339464628005 0 -0.026825540354644354 -0.0027703104410294376 0 -0.026807321786354057 -0.0027882590862700735 0 -0.026892253141578684 -0.002728805075181898 0 -0.027404472339443198 -0.0041757878796918821 0 -0.027092394247158917 -0.0039963872911081165 0 -0.027458100746428429 -0.0037336037760439846 0 -0.027404472339443198 -0.0041757878796918821 0 -0.027606747229455941 -0.0040142624865649353 0 -0.027458100746428429 -0.0037336037760439846 0 -0.027606747229455941 -0.0040142624865649353 0 -0.027865649121930951 -0.0041063109003324268 0 -0.027856870034482829 -0.0036826086493303247 0 -0.027638664390800118 -0.004307884776483981 0 -0.027606747229455941 -0.0040142624865649353 0 -0.027865649121930951 -0.0041063109003324268 0 -0.028086865091594929 -0.0039233050357630594 0 -0.027865649121930951 -0.0041063109003324268 0 -0.027856870034482829 -0.0036826086493303247 0 -0.027606747229455941 -0.0040142624865649353 0 -0.027856870034482829 -0.0036826086493303247 0 -0.027458100746428429 -0.0037336037760439846 0 -0.020572060053987339 -0.0024584662501675025 0 -0.022827421179300408 -0.002550660570464827 0 -0.023093039089913364 -0.0022582785076521415 0 -0.02289859341497516 -0.0018791890471178605 0 -0.022881916589199667 -0.0025296362759117145 0 -0.020788060883514169 -0.0027012296332443813 0 -0.021392843094512354 -0.0022045336667911746 0 -0.021351353649187613 -0.0029641263542098542 0 -0.020791442040611667 -0.0023937830780228629 0 -0.021167137728676882 -0.0024777359171559961 0 -0.020945397514450702 -0.0025242882083265764 0 -0.022065968711311536 -0.0020604430019516141 0 -0.022827421179300408 -0.002550660570464827 0 -0.023093039089913364 -0.0022582785076521415 0 -0.023117182610003336 -0.0026387680450432986 0 -0.022881916589199667 -0.0025296362759117145 0 -0.023426512000172234 -0.0021846882270076858 0 -0.024211171549510996 -0.002991583148448663 0 -0.023339222226268407 -0.002281290990182793 0 -0.023093039089913364 -0.0022582785076521415 0 -0.023117182610003336 -0.0026387680450432986 0 -0.023426512000172234 -0.0021846882270076858 0 -0.023693186430342864 -0.001617971217225653 0 -0.023339222226268407 -0.002281290990182793 0 -0.023093039089913364 -0.0022582785076521415 0 -0.023228287941672837 -0.0019728712346317981 0 -0.023093039089913364 -0.0022582785076521415 0 -0.023228287941672837 -0.0019728712346317981 0 -0.02289859341497516 -0.0018791890471178605 0 -0.023339222226268407 -0.002281290990182793 0 -0.023228287941672837 -0.0019728712346317981 0 -0.023565441401683207 -0.0019225640489563983 0 -0.023584281547134118 -0.0014372422765901204 0 -0.023693186430342864 -0.001617971217225653 0 -0.023228287941672837 -0.0019728712346317981 0 -0.023243367042614291 -0.0015743578505107454 0 -0.023565441401683207 -0.0019225640489563983 0 -0.023228287941672837 -0.0019728712346317981 0 -0.02289859341497516 -0.0018791890471178605 0 -0.023243367042614291 -0.0015743578505107454 0 -0.022065968711311536 -0.0020604430019516141 0 -0.022396481728291104 -0.0013400058500898874 0 -0.020671893431439475 -0.0017413496281757956 0 -0.021392843094512354 -0.0022045336667911746 0 -0.0214879688748176 -0.0012694738330804537 0 -0.02289859341497516 -0.0018791890471178605 0 -0.022917184071043661 -0.0012246242199352015 0 -0.023243367042614291 -0.0015743578505107454 0 -0.019788985978186194 -0.0010847076561662271 0 -0.022396481728291104 -0.0013400058500898874 0 -0.020852046501688794 -0.0010676690343561087 0 -0.021506265989899732 -0.0011741897709802772 0 -0.021491174548445173 -0.0017482346950811645 0 -0.022705035470385587 -0.0013220170760303033 0 -0.022396481728291104 -0.0013400058500898874 0 -0.023934507237047091 -0.0013522566722141002 0 -0.023908277145372293 -0.0012060843561477273 0 -0.023805767848948611 -0.0012338070949112761 0 -0.023822833919653834 -0.0014499798228494436 0 -0.023934507237047091 -0.0013522566722141002 0 -0.023805767848948611 -0.0012338070949112761 0 -0.023908277145372293 -0.0012060843561477273 0 -0.023805767848948611 -0.0012338070949112761 0 -0.023799024993629393 -0.00113915783094317 0 -0.023805767848948611 -0.0012338070949112761 0 -0.023799024993629393 -0.00113915783094317 0 -0.023775810796466013 -0.0011187352939616942 0 -0.022396481728291104 -0.0013400058500898874 0 -0.023584281547134118 -0.0014372422765901204 0 -0.023799024993629393 -0.00113915783094317 0 -0.023775810796466013 -0.0011187352939616942 0 -0.023775223422964648 -0.0012424637903487184 0 -0.023775810796466013 -0.0011187352939616942 0 -0.02378824480899859 -0.0010064683222806873 0 -0.023775223422964648 -0.0012424637903487184 0 -0.023775810796466013 -0.0011187352939616942 0 -0.023647791687994045 -0.0012149175807163789 0 -0.02378824480899859 -0.0010064683222806873 0 -0.023805767848948611 -0.0012338070949112761 0 -0.023775810796466013 -0.0011187352939616942 0 -0.023647791687994045 -0.0012149175807163789 0 -0.023642170379123976 -0.0014178630369663622 0 -0.023805767848948611 -0.0012338070949112761 0 -0.023647791687994045 -0.0012149175807163789 0 -0.023647791687994045 -0.0012149175807163789 0 -0.02378824480899859 -0.0010064683222806873 0 -0.023210973507924386 -0.0011425837467850186 0 -0.023326164047754457 -0.0013843490614320164 0 -0.023647791687994045 -0.0012149175807163789 0 -0.023210973507924386 -0.0011425837467850186 0 -0.023326164047754457 -0.0013843490614320164 0 -0.023642170379123976 -0.0014178630369663622 0 -0.023647791687994045 -0.0012149175807163789 0 -0.02378824480899859 -0.0010064683222806873 0 -0.024173091196818815 -0.0013442094677808571 0 -0.025101410390544542 -0.0012160462123056732 0 -0.023803979769907509 -0.0010070824028770456 0 -0.024017479082842821 -0.0011154791267751563 0 -0.02378824480899859 -0.0010064683222806873 0 -0.024173091196818815 -0.0013442094677808571 0 -0.023775223422964648 -0.0012424637903487184 0 -0.024481838085457761 -0.0016157661246249608 0 -0.024045439375317831 -0.0015167296009112171 0 -0.024304918848073231 -0.0018639127875280668 0 -0.024481838085457761 -0.0016157661246249608 0 -0.024045439375317831 -0.0015167296009112171 0 -0.024173091196818815 -0.0013442094677808571 0 -0.024045439375317831 -0.0015167296009112171 0 -0.024173091196818815 -0.0013442094677808571 0 -0.023775223422964648 -0.0012424637903487184 0 -0.024045439375317831 -0.0015167296009112171 0 -0.023775223422964648 -0.0012424637903487184 0 -0.02384143407651548 -0.0014885121723444718 0 -0.023799024993629393 -0.00113915783094317 0 -0.023775223422964648 -0.0012424637903487184 0 -0.023775667516982079 -0.0012376985155577013 0 -0.023805917737082995 -0.0013265618286054316 0 -0.023693186430342864 -0.001617971217225653 0 -0.023775223422964648 -0.0012424637903487184 0 -0.023629167443803983 -0.0015359624029063902 0 -0.02384143407651548 -0.0014885121723444718 0 -0.023629167443803983 -0.0015359624029063902 0 -0.023822528700480721 -0.001699728963176877 0 -0.02384143407651548 -0.0014885121723444718 0 -0.023693186430342864 -0.001617971217225653 0 -0.023736181972396086 -0.0016496982000872658 0 -0.024045439375317831 -0.0015167296009112171 0 -0.023822528700480721 -0.001699728963176877 0 -0.024032789610730038 -0.0018840512361720883 0 -0.024045439375317831 -0.0015167296009112171 0 -0.023822528700480721 -0.001699728963176877 0 -0.02384143407651548 -0.0014885121723444718 0 -0.023822528700480721 -0.001699728963176877 0 -0.024032789610730038 -0.0018840512361720883 0 -0.023838962039536341 -0.0020772445704614218 0 -0.02348365218066395 -0.0019633195694401485 0 -0.023822528700480721 -0.001699728963176877 0 -0.023838962039536341 -0.0020772445704614218 0 -0.02348365218066395 -0.0019633195694401485 0 -0.023705835176322861 -0.0015730193158444328 0 -0.023822528700480721 -0.001699728963176877 0 -0.02348365218066395 -0.0019633195694401485 0 -0.023838962039536341 -0.0020772445704614218 0 -0.023649811479653615 -0.0022941345165568912 0 -0.024032789610730038 -0.0018840512361720883 0 -0.023838962039536341 -0.0020772445704614218 0 -0.024232563560181518 -0.002195570214234264 0 -0.023838962039536341 -0.0020772445704614218 0 -0.024232563560181518 -0.002195570214234264 0 -0.023946418754074477 -0.0023429798665601303 0 -0.024232563560181518 -0.002195570214234264 0 -0.024304918848073231 -0.0018639127875280668 0 -0.024759123526063076 -0.0020733187948894969 0 -0.024032789610730038 -0.0018840512361720883 0 -0.024232563560181518 -0.002195570214234264 0 -0.024304918848073231 -0.0018639127875280668 0 -0.024481838085457761 -0.0016157661246249608 0 -0.024304918848073231 -0.0018639127875280668 0 -0.024759123526063076 -0.0020733187948894969 0 -0.024045439375317831 -0.0015167296009112171 0 -0.024032789610730038 -0.0018840512361720883 0 -0.024304918848073231 -0.0018639127875280668 0 -0.024759123526063076 -0.0020733187948894969 0 -0.025289693049042772 -0.0018712954898571772 0 -0.024904966830547038 -0.0017133857565060668 0 -0.024759123526063076 -0.0020733187948894969 0 -0.025289693049042772 -0.0018712954898571772 0 -0.025321519023945079 -0.0022746108970292328 0 -0.024481838085457761 -0.0016157661246249608 0 -0.024759123526063076 -0.0020733187948894969 0 -0.024904966830547038 -0.0017133857565060668 0 -0.025289693049042772 -0.0018712954898571772 0 -0.025540926474626507 -0.001730210517159653 0 -0.025810043470561782 -0.0021022326226005014 0 -0.025289693049042772 -0.0018712954898571772 0 -0.025810043470561782 -0.0021022326226005014 0 -0.025321519023945079 -0.0022746108970292328 0 -0.025289693049042772 -0.0018712954898571772 0 -0.025540926474626507 -0.001730210517159653 0 -0.025101410390544542 -0.0012160462123056732 0 -0.025540926474626507 -0.001730210517159653 0 -0.025101410390544542 -0.0012160462123056732 0 -0.025919996158362862 -0.0016692380857737733 0 -0.024017479082842821 -0.0011154791267751563 0 -0.024585839859933938 -0.0015731445197145137 0 -0.024481838085457761 -0.0016157661246249608 0 -0.024904966830547038 -0.0017133857565060668 0 -0.025101410390544542 -0.0012160462123056732 0 -0.025289693049042772 -0.0018712954898571772 0 -0.024904966830547038 -0.0017133857565060668 0 -0.025101410390544542 -0.0012160462123056732 0 -0.024481838085457761 -0.0016157661246249608 0 -0.024173091196818815 -0.0013442094677808571 0 -0.025101410390544542 -0.0012160462123056732 0 -0.02378824480899859 -0.0010064683222806873 0 -0.022911525429700649 -0.00095452246256990574 0 -0.023210973507924386 -0.0011425837467850186 0 -0.022911525429700649 -0.00095452246256990574 0 -0.023210973507924386 -0.0011425837467850186 0 -0.022913703285484033 -0.001061429474399429 0 -0.023210973507924386 -0.0011425837467850186 0 -0.022750405418900749 -0.0011466747487624308 0 -0.022913703285484033 -0.001061429474399429 0 -0.023326164047754457 -0.0013843490614320164 0 -0.023210973507924386 -0.0011425837467850186 0 -0.022750405418900749 -0.0011466747487624308 0 -0.022750405418900749 -0.0011466747487624308 0 -0.022913703285484033 -0.001061429474399429 0 -0.023003947463647059 -0.0010633544496838846 0 -0.022911525429700649 -0.00095452246256990574 0 -0.023003947463647059 -0.0010633544496838846 0 -0.023236069261789543 -0.0014954559871930174 0 -0.022911525429700649 -0.00095452246256990574 0 -0.022913703285484033 -0.001061429474399429 0 -0.023003947463647059 -0.0010633544496838846 0 -0.023003947463647059 -0.0010633544496838846 0 -0.023478422388431001 -0.00051574523054145991 0 -0.023857489214683423 -0.0011515443596903283 0 -0.023003947463647059 -0.0010633544496838846 0 -0.023857489214683423 -0.0011515443596903283 0 -0.023236069261789543 -0.0014954559871930174 0 -0.023094414940270192 -0.00097074509530441298 0 -0.023178412290444685 -0.0010973383023277555 0 -0.022750405418900749 -0.0011466747487624308 0 -0.023003947463647059 -0.0010633544496838846 0 -0.022988972830381541 -0.0010629164630167275 0 -0.021732786657326308 -0.0013083307269304387 0 -0.022750405418900749 -0.0011466747487624308 0 -0.021780906744999828 -0.00059165580328687101 0 -0.022416971038824701 -0.00098676826025061171 0 -0.023178412290444685 -0.0010973383023277555 0 -0.025324003401680374 -0.0012725320252420091 0 -0.025242488773896458 -0.0012309031164646211 0 -0.025173781099042884 -0.0012241963632439747 0 -0.025242488773896458 -0.0012309031164646211 0 -0.025235030987010507 -0.001343120964104362 0 -0.025173781099042884 -0.0012241963632439747 0 -0.024407311964789576 -0.0010941675957093803 0 -0.023178412290444685 -0.0010973383023277555 0 -0.024745065565840298 -0.0010302075513566574 0 -0.023478422388431001 -0.00051574523054145991 0 -0.023857489214683423 -0.0011515443596903283 0 -0.025262410945906724 -0.0012061931744803507 0 -0.023178412290444685 -0.0010973383023277555 0 -0.024632345028823773 -0.0019613009304335544 0 -0.023857489214683423 -0.0011515443596903283 0 -0.023236069261789543 -0.0014954559871930174 0 -0.025475909783685025 -0.0020195544236027503 0 -0.024585839859933938 -0.0015731445197145137 0 -0.026335056423429939 -0.0021079708995021804 0 -0.025919996158362862 -0.0016692380857737733 0 -0.026172623321832032 -0.0021679506843121222 0 -0.025540926474626507 -0.001730210517159653 0 -0.025919996158362862 -0.0016692380857737733 0 -0.025810043470561782 -0.0021022326226005014 0 -0.025919996158362862 -0.0016692380857737733 0 -0.025810043470561782 -0.0021022326226005014 0 -0.026172623321832032 -0.0021679506843121222 0 -0.025810043470561782 -0.0021022326226005014 0 -0.026172623321832032 -0.0021679506843121222 0 -0.026094084472717046 -0.0024174044153025928 0 -0.026300528710016223 -0.0025653048889353498 0 -0.026094084472717046 -0.0024174044153025928 0 -0.026258028057529522 -0.0027076967104870302 0 -0.026288971078271568 -0.0023724988883082497 0 -0.026300528710016223 -0.0025653048889353498 0 -0.026094084472717046 -0.0024174044153025928 0 -0.026288971078271568 -0.0023724988883082497 0 -0.026172623321832032 -0.0021679506843121222 0 -0.026094084472717046 -0.0024174044153025928 0 -0.025810043470561782 -0.0021022326226005014 0 -0.026094084472717046 -0.0024174044153025928 0 -0.025739282342752832 -0.0024041460356555269 0 -0.026094084472717046 -0.0024174044153025928 0 -0.025739282342752832 -0.0024041460356555269 0 -0.025900877807117549 -0.0026713523917020563 0 -0.025900877807117549 -0.0026713523917020563 0 -0.026246367105818545 -0.002847268991293451 0 -0.025660676395418081 -0.0031428886385764052 0 -0.026094084472717046 -0.0024174044153025928 0 -0.025900877807117549 -0.0026713523917020563 0 -0.026258028057529522 -0.0027076967104870302 0 -0.025900877807117549 -0.0026713523917020563 0 -0.026258028057529522 -0.0027076967104870302 0 -0.026246367105818545 -0.002847268991293451 0 -0.026258028057529522 -0.0027076967104870302 0 -0.026434740044964704 -0.0028614252106224608 0 -0.026246367105818545 -0.002847268991293451 0 -0.026300528710016223 -0.0025653048889353498 0 -0.026258028057529522 -0.0027076967104870302 0 -0.02635121628873904 -0.002723713646799816 0 -0.026258028057529522 -0.0027076967104870302 0 -0.02635121628873904 -0.002723713646799816 0 -0.026434740044964704 -0.0028614252106224608 0 -0.02635121628873904 -0.002723713646799816 0 -0.026387010140849366 -0.0028282998083053912 0 -0.026434740044964704 -0.0028614252106224608 0 -0.026387010140849366 -0.0028282998083053912 0 -0.026434740044964704 -0.0028614252106224608 0 -0.026379537106580121 -0.0028725955358685326 0 -0.026434740044964704 -0.0028614252106224608 0 -0.026772418570169466 -0.0028732585298564422 0 -0.026246367105818545 -0.002847268991293451 0 -0.026434740044964704 -0.0028614252106224608 0 -0.026772418570169466 -0.0028732585298564422 0 -0.026379537106580121 -0.0028725955358685326 0 -0.026390821703303657 -0.0028304640081121598 0 -0.026387010140849366 -0.0028282998083053912 0 -0.026379537106580121 -0.0028725955358685326 0 -0.026379537106580121 -0.0028725955358685326 0 -0.026586296435362165 -0.0017620055896953469 0 -0.025093593435880676 -0.00042646815476931374 0 -0.026772418570169466 -0.0028732585298564422 0 -0.026379537106580121 -0.0028725955358685326 0 -0.026586296435362165 -0.0017620055896953469 0 -0.026772418570169466 -0.0028732585298564422 0 -0.026586296435362165 -0.0017620055896953469 0 -0.028121930666900028 -0.0016687164940374099 0 -0.026586296435362165 -0.0017620055896953469 0 -0.026690474312720747 -0.00087781831879821823 0 -0.028121930666900028 -0.0016687164940374099 0 -0.026586296435362165 -0.0017620055896953469 0 -0.026690474312720747 -0.00087781831879821823 0 -0.025093593435880676 -0.00042646815476931374 0 -0.028121930666900028 -0.0016687164940374099 0 -0.030075701689702982 -0.0032595969327096938 0 -0.030335204538282336 -0.0013195200041135142 0 -0.026772418570169466 -0.0028732585298564422 0 -0.028121930666900028 -0.0016687164940374099 0 -0.030075701689702982 -0.0032595969327096938 0 -0.026772418570169466 -0.0028732585298564422 0 -0.026246367105818545 -0.002847268991293451 0 -0.025660676395418081 -0.0031428886385764052 0 -0.02678307005095875 -0.0028813452980478754 0 -0.027801009160056723 -0.0031610560493928368 0 -0.030075701689702982 -0.0032595969327096938 0 -0.030335204538282336 -0.0013195200041135142 0 -0.031281311434098583 -0.00214478287996372 0 -0.031281311434098583 -0.00214478287996372 0 -0.032163874598436427 -0.0015491239079779297 0 -0.031189157053460634 -0.0012821896391436132 0 -0.030335204538282336 -0.0013195200041135142 0 -0.031281311434098583 -0.00214478287996372 0 -0.031189157053460634 -0.0012821896391436132 0 -0.031281311434098583 -0.00214478287996372 0 -0.031616055483157442 -0.0031637034295720996 0 -0.032027585670862661 -0.0024239188680578341 0 -0.027801009160056723 -0.0031610560493928368 0 -0.028156417038796316 -0.003086968914059289 0 -0.030075701689702982 -0.0032595969327096938 0 -0.031281311434098583 -0.00214478287996372 0 -0.031616055483157442 -0.0031637034295720996 0 -0.02478132441053834 -0.0030154734188695144 0 -0.025387741435645417 -0.0026663687874539412 0 -0.024863827204067435 -0.0025852846472848396 0 -0.025900877807117549 -0.0026713523917020563 0 -0.025660676395418081 -0.0031428886385764052 0 -0.025387741435645417 -0.0026663687874539412 0 -0.025660676395418081 -0.0031428886385764052 0 -0.02478132441053834 -0.0030154734188695144 0 -0.025387741435645417 -0.0026663687874539412 0 -0.025739282342752832 -0.0024041460356555269 0 -0.025900877807117549 -0.0026713523917020563 0 -0.025387741435645417 -0.0026663687874539412 0 -0.025810043470561782 -0.0021022326226005014 0 -0.025739282342752832 -0.0024041460356555269 0 -0.025321519023945079 -0.0022746108970292328 0 -0.025739282342752832 -0.0024041460356555269 0 -0.025387741435645417 -0.0026663687874539412 0 -0.025321519023945079 -0.0022746108970292328 0 -0.024759123526063076 -0.0020733187948894969 0 -0.025321519023945079 -0.0022746108970292328 0 -0.024863827204067435 -0.0025852846472848396 0 -0.024759123526063076 -0.0020733187948894969 0 -0.024863827204067435 -0.0025852846472848396 0 -0.024532312434278728 -0.0024769101272234888 0 -0.025387741435645417 -0.0026663687874539412 0 -0.025321519023945079 -0.0022746108970292328 0 -0.024863827204067435 -0.0025852846472848396 0 -0.024232563560181518 -0.002195570214234264 0 -0.024759123526063076 -0.0020733187948894969 0 -0.024532312434278728 -0.0024769101272234888 0 -0.024532312434278728 -0.0024769101272234888 0 -0.024212959907876811 -0.0025228388930306602 0 -0.024518281494208271 -0.0028879920604503867 0 -0.024863827204067435 -0.0025852846472848396 0 -0.024532312434278728 -0.0024769101272234888 0 -0.024518281494208271 -0.0028879920604503867 0 -0.024232563560181518 -0.002195570214234264 0 -0.024532312434278728 -0.0024769101272234888 0 -0.024212959907876811 -0.0025228388930306602 0 -0.024232563560181518 -0.002195570214234264 0 -0.023946418754074477 -0.0023429798665601303 0 -0.024212959907876811 -0.0025228388930306602 0 -0.023782098924295475 -0.0026639921518710188 0 -0.024212959907876811 -0.0025228388930306602 0 -0.024518281494208271 -0.0028879920604503867 0 -0.023946418754074477 -0.0023429798665601303 0 -0.023649811479653615 -0.0022941345165568912 0 -0.023782098924295475 -0.0026639921518710188 0 -0.023838962039536341 -0.0020772445704614218 0 -0.023946418754074477 -0.0023429798665601303 0 -0.023649811479653615 -0.0022941345165568912 0 -0.023946418754074477 -0.0023429798665601303 0 -0.023782098924295475 -0.0026639921518710188 0 -0.024212959907876811 -0.0025228388930306602 0 -0.024025158649845807 -0.0027381713292347321 0 -0.024484255868300209 -0.0029040150404107431 0 -0.02436955115315876 -0.002901831192704347 0 -0.024356638258947867 -0.0028925869283143494 0 -0.024518281494208271 -0.0028879920604503867 0 -0.032615279325977908 -0.0030490478573745581 0 -0.032759229506803066 -0.0027356806106419757 0 -0.03287945025226633 -0.0027861492369447836 0 -0.032615279325977908 -0.0030490478573745581 0 -0.032243540821129409 -0.0028280068696517847 0 -0.032759229506803066 -0.0027356806106419757 0 -0.02478132441053834 -0.0030154734188695144 0 -0.024356638258947867 -0.0028925869283143494 0 -0.024518281494208271 -0.0028879920604503867 0 -0.028156417038796316 -0.003086968914059289 0 -0.028596285754519359 -0.0029444486665285998 0 -0.02478132441053834 -0.0030154734188695144 0 -0.024863827204067435 -0.0025852846472848396 0 -0.024518281494208271 -0.0028879920604503867 0 -0.031616055483157442 -0.0031637034295720996 0 -0.032615279325977908 -0.0030490478573745581 0 -0.032243540821129409 -0.0028280068696517847 0 -0.031616055483157442 -0.0031637034295720996 0 -0.032243540821129409 -0.0028280068696517847 0 -0.032027585670862661 -0.0024239188680578341 0 -0.031281311434098583 -0.00214478287996372 0 -0.032027585670862661 -0.0024239188680578341 0 -0.032163874598436427 -0.0015491239079779297 0 -0.032027585670862661 -0.0024239188680578341 0 -0.032163874598436427 -0.0015491239079779297 0 -0.032783908857545521 -0.0024676795354224988 0 -0.032560038468225569 -0.0018822923570789669 0 -0.032798611131498061 -0.0024237793923500483 0 -0.032951325996584138 -0.0021533484961362426 0 -0.032783908857545521 -0.0024676795354224988 0 -0.033035640322647268 -0.0022935966057255771 0 -0.032243540821129409 -0.0028280068696517847 0 -0.032027585670862661 -0.0024239188680578341 0 -0.032783908857545521 -0.0024676795354224988 0 -0.032243540821129409 -0.0028280068696517847 0 -0.032783908857545521 -0.0024676795354224988 0 -0.032759229506803066 -0.0027356806106419757 0 -0.032783908857545521 -0.0024676795354224988 0 -0.032759229506803066 -0.0027356806106419757 0 -0.032961115519736989 -0.0025201803266722738 0 -0.032759229506803066 -0.0027356806106419757 0 -0.032961115519736989 -0.0025201803266722738 0 -0.03287945025226633 -0.0027861492369447836 0 -0.032961115519736989 -0.0025201803266722738 0 -0.032996674752890434 -0.0025764643926827627 0 -0.032980931447756476 -0.002736704641868321 0 -0.032961115519736989 -0.0025201803266722738 0 -0.032980931447756476 -0.002736704641868321 0 -0.03287945025226633 -0.0027861492369447836 0 -0.032961115519736989 -0.0025201803266722738 0 -0.033035640322647268 -0.0022935966057255771 0 -0.03279457692451989 -0.0025699567780792724 0 -0.032783908857545521 -0.0024676795354224988 0 -0.032961115519736989 -0.0025201803266722738 0 -0.033035640322647268 -0.0022935966057255771 0 -0.032812685907522572 -0.0034893146637170794 0 -0.03279457692451989 -0.0025699567780792724 0 -0.031495195813573018 -0.0048896618358242614 0 -0.032961115519736989 -0.0025201803266722738 0 -0.03279457692451989 -0.0025699567780792724 0 -0.032996674752890434 -0.0025764643926827627 0 -0.032633024291388174 -0.0027874082184562335 0 -0.032427236573350705 -0.0037309153960743075 0 -0.032061036295043581 -0.0050565041092704033 0 -0.032568212541348125 -0.0042491560300938844 0 -0.031495195813573018 -0.0048896618358242614 0 -0.032061036295043581 -0.0050565041092704033 0 -0.031495195813573018 -0.0048896618358242614 0 -0.031453237536485844 -0.005788110791251141 0 -0.032568212541348125 -0.0042491560300938844 0 -0.032812685907522572 -0.0034893146637170794 0 -0.031495195813573018 -0.0048896618358242614 0 -0.032427236573350705 -0.0037309153960743075 0 -0.030213222555178668 -0.0043166287146767009 0 -0.031672287329653361 -0.0055533147945464253 0 -0.032061036295043581 -0.0050565041092704033 0 -0.031188109664053148 -0.0058519885602415856 0 -0.032103637784983159 -0.0055029875606867505 0 -0.030213222555178668 -0.0043166287146767009 0 -0.031114727170703935 -0.005803274771184053 0 -0.031672287329653361 -0.0055533147945464253 0 -0.031188109664053148 -0.0058519885602415856 0 -0.032996674752890434 -0.0025764643926827627 0 -0.033085865339517531 -0.0029090443169995871 0 -0.032980931447756476 -0.002736704641868321 0 -0.031114727170703935 -0.005803274771184053 0 -0.031015152952812753 -0.0056480468541426658 0 -0.031188109664053148 -0.0058519885602415856 0 -0.031015152952812753 -0.0056480468541426658 0 -0.031188109664053148 -0.0058519885602415856 0 -0.031949970947049343 -0.0048628281439419326 0 -0.033085865339517531 -0.0029090443169995871 0 -0.032927530994475998 -0.0028890289558452589 0 -0.03302666532913983 -0.0030009621719684207 0 -0.030213222555178668 -0.0043166287146767009 0 -0.026810901435512711 -0.0039200810421201066 0 -0.030213222555178668 -0.0043166287146767009 0 -0.028180750573877998 -0.0033031920676204001 0 -0.033085865339517531 -0.0029090443169995871 0 -0.032980931447756476 -0.002736704641868321 0 -0.032927530994475998 -0.0028890289558452589 0 -0.032980931447756476 -0.002736704641868321 0 -0.03287945025226633 -0.0027861492369447836 0 -0.032927530994475998 -0.0028890289558452589 0 -0.032615279325977908 -0.0030490478573745581 0 -0.03287945025226633 -0.0027861492369447836 0 -0.032927530994475998 -0.0028890289558452589 0 -0.032615279325977908 -0.0030490478573745581 0 -0.032927530994475998 -0.0028890289558452589 0 -0.03302666532913983 -0.0030009621719684207 0 -0.028596285754519359 -0.0029444486665285998 0 -0.028180750573877998 -0.0033031920676204001 0 -0.02436955115315876 -0.002901831192704347 0 -0.024356638258947867 -0.0028925869283143494 0 -0.024576584659855696 -0.0028851882388221204 0 -0.02436955115315876 -0.002901831192704347 0 -0.024528079840444503 -0.002962968826232561 0 -0.024576584659855696 -0.0028851882388221204 0 -0.024211171549510996 -0.002991583148448663 0 -0.028180750573877998 -0.0033031920676204001 0 -0.023649811479653615 -0.0022941345165568912 0 -0.023782098924295475 -0.0026639921518710188 0 -0.023213302237273602 -0.002392609881698982 0 -0.024025158649845807 -0.0027381713292347321 0 -0.024211171549510996 -0.002991583148448663 0 -0.02348365218066395 -0.0019633195694401485 0 -0.023649811479653615 -0.0022941345165568912 0 -0.023213302237273602 -0.002392609881698982 0 -0.02533704194144926 -0.0030451689641990539 0 -0.025381320923417269 -0.0031216026554556527 0 -0.025344440781966699 -0.0031795807807446941 0 -0.022827421179300408 -0.002550660570464827 0 -0.026810901435512711 -0.0039200810421201066 0 -0.025444584822518372 -0.0030949116726397643 0 -0.02533704194144926 -0.0030451689641990539 0 -0.025381320923417269 -0.0031216026554556527 0 -0.024211171549510996 -0.002991583148448663 0 -0.022827421179300408 -0.002550660570464827 0 -0.021167137728676882 -0.0024777359171559961 0 -0.020945397514450702 -0.0025242882083265764 0 -0.021185063945088865 -0.0027619389958914182 0 -0.030221112965163058 -0.0048868350636510922 0 -0.031015152952812753 -0.0056480468541426658 0 -0.031949970947049343 -0.0048628281439419326 0 -0.025444584822518372 -0.0030949116726397643 0 -0.025381320923417269 -0.0031216026554556527 0 -0.025391379809386778 -0.0031926868016603112 0 -0.028580757303201143 -0.0037935539952406185 0 -0.028559681626200886 -0.0042013212470831838 0 -0.028355474269364699 -0.0041397545320599029 0 -0.026810901435512711 -0.0039200810421201066 0 -0.028180750573877998 -0.0033031920676204001 0 -0.025381320923417269 -0.0031216026554556527 0 -0.025344440781966699 -0.0031795807807446941 0 -0.025391379809386778 -0.0031926868016603112 0 -0.034125538548914446 -0.00096567623159213767 0 -0.033862225151613794 -0.0010057554524543087 0 -0.034200893780548733 -0.00060516345204621354 0 -0.033862225151613794 -0.0010057554524543087 0 -0.033875686501803504 -0.00073115220462390094 0 -0.034200893780548733 -0.00060516345204621354 0 -0.033862225151613794 -0.0010057554524543087 0 -0.033617923055035984 -0.001427245706016219 0 -0.033552840250275842 -0.0013053462013792572 0 -0.033862225151613794 -0.0010057554524543087 0 -0.033552840250275842 -0.0013053462013792572 0 -0.033875686501803504 -0.00073115220462390094 0 -0.033852601497447246 -0.0015541744055369 0 -0.034125538548914446 -0.00096567623159213767 0 -0.033617923055035984 -0.001427245706016219 0 -0.034125538548914446 -0.00096567623159213767 0 -0.033862225151613794 -0.0010057554524543087 0 -0.033617923055035984 -0.001427245706016219 0 -0.033852601497447246 -0.0015541744055369 0 -0.033617923055035984 -0.001427245706016219 0 -0.033253525367680926 -0.0019808510932074882 0 -0.033522566607959089 -0.0022020920055322571 0 -0.03279457692451989 -0.0025699567780792724 0 -0.033253525367680926 -0.0019808510932074882 0 -0.033522566607959089 -0.0022020920055322571 0 -0.033852601497447246 -0.0015541744055369 0 -0.033253525367680926 -0.0019808510932074882 0 -0.033035640322647268 -0.0022935966057255771 0 -0.03279457692451989 -0.0025699567780792724 0 -0.033253525367680926 -0.0019808510932074882 0 -0.033035640322647268 -0.0022935966057255771 0 -0.033253525367680926 -0.0019808510932074882 0 -0.033304824494881126 -0.0017785146983165664 0 -0.033617923055035984 -0.001427245706016219 0 -0.033304824494881126 -0.0017785146983165664 0 -0.033552840250275842 -0.0013053462013792572 0 -0.033617923055035984 -0.001427245706016219 0 -0.033253525367680926 -0.0019808510932074882 0 -0.033304824494881126 -0.0017785146983165664 0 -0.033304824494881126 -0.0017785146983165664 0 -0.03328338980748876 -0.0015928963055259772 0 -0.033552840250275842 -0.0013053462013792572 0 -0.032951325996584138 -0.0021533484961362426 0 -0.033304824494881126 -0.0017785146983165664 0 -0.03328338980748876 -0.0015928963055259772 0 -0.032951325996584138 -0.0021533484961362426 0 -0.033035640322647268 -0.0022935966057255771 0 -0.033304824494881126 -0.0017785146983165664 0 -0.032163874598436427 -0.0015491239079779297 0 -0.03145423755258548 -0.00085581436427094478 0 -0.031189157053460634 -0.0012821896391436132 0 -0.032560038468225569 -0.0018822923570789669 0 -0.032255697594500442 -0.0013287463077946314 0 -0.032951325996584138 -0.0021533484961362426 0 -0.03328338980748876 -0.0015928963055259772 0 -0.033014357458361537 -0.0017400626554935497 0 -0.03328338980748876 -0.0015928963055259772 0 -0.03348755146819133 -0.0011323328297035624 0 -0.033014357458361537 -0.0017400626554935497 0 -0.03348755146819133 -0.0011323328297035624 0 -0.033351121774172897 -0.00091636763932687873 0 -0.033014357458361537 -0.0017400626554935497 0 -0.03348755146819133 -0.0011323328297035624 0 -0.033552840250275842 -0.0013053462013792572 0 -0.033875686501803504 -0.00073115220462390094 0 -0.03328338980748876 -0.0015928963055259772 0 -0.03348755146819133 -0.0011323328297035624 0 -0.033552840250275842 -0.0013053462013792572 0 -0.03348755146819133 -0.0011323328297035624 0 -0.033875686501803504 -0.00073115220462390094 0 -0.033827918483175741 -0.00043076215494120354 0 -0.03348755146819133 -0.0011323328297035624 0 -0.033351121774172897 -0.00091636763932687873 0 -0.033827918483175741 -0.00043076215494120354 0 -0.033351121774172897 -0.00091636763932687873 0 -0.033599167444834779 -0.00016551079034013067 0 -0.033827918483175741 -0.00043076215494120354 0 -0.032918071421094465 -0.00075081371030452865 0 -0.033351121774172897 -0.00091636763932687873 0 -0.033599167444834779 -0.00016551079034013067 0 -0.032918071421094465 -0.00075081371030452865 0 -0.031554901729123175 -0.00038291010858317363 0 -0.033599167444834779 -0.00016551079034013067 0 -0.031566323021202145 -0.00037113584181146995 0 -0.032013387842943643 -0.00095185246357628 0 -0.032918071421094465 -0.00075081371030452865 0 -0.031554901729123175 -0.00038291010858317363 0 -0.032890069571927159 -0.0013543973935273913 0 -0.031554901729123175 -0.00038291010858317363 0 -0.031210506199476056 -0.00061736102964956609 0 -0.03089240303492605 -0.00072352468470553914 0 -0.033351121774172897 -0.00091636763932687873 0 -0.032890069571927159 -0.0013543973935273913 0 -0.033014357458361537 -0.0017400626554935497 0 -0.032918071421094465 -0.00075081371030452865 0 -0.033351121774172897 -0.00091636763932687873 0 -0.032890069571927159 -0.0013543973935273913 0 -0.031210506199476056 -0.00061736102964956609 0 -0.03145423755258548 -0.00085581436427094478 0 -0.030859854868191428 -0.0009346834623636651 0 -0.032013387842943643 -0.00095185246357628 0 -0.032255697594500442 -0.0013287463077946314 0 -0.03145423755258548 -0.00085581436427094478 0 -0.031189157053460634 -0.0012821896391436132 0 -0.030859854868191428 -0.0009346834623636651 0 -0.030335204538282336 -0.0013195200041135142 0 -0.031189157053460634 -0.0012821896391436132 0 -0.030859854868191428 -0.0009346834623636651 0 -0.031210506199476056 -0.00061736102964956609 0 -0.030859854868191428 -0.0009346834623636651 0 -0.03089240303492605 -0.00072352468470553914 0 -0.030859854868191428 -0.0009346834623636651 0 -0.030592360580626091 -0.0010661938641836439 0 -0.03089240303492605 -0.00072352468470553914 0 -0.030335204538282336 -0.0013195200041135142 0 -0.030859854868191428 -0.0009346834623636651 0 -0.030592360580626091 -0.0010661938641836439 0 -0.028121930666900028 -0.0016687164940374099 0 -0.030335204538282336 -0.0013195200041135142 0 -0.027914048691325247 0.00046646414969335931 0 -0.030391285150227206 -0.0013201446989120316 0 -0.029042213167214212 -0.00013484583943949909 0 -0.027914048691325247 0.00046646414969335931 0 -0.026375135314490861 0.00027720179714791547 0 -0.025830293588814439 0.0019531187970991566 0 -0.026690474312720747 -0.00087781831879821823 0 -0.028121930666900028 -0.0016687164940374099 0 -0.027914048691325247 0.00046646414969335931 0 -0.026690474312720747 -0.00087781831879821823 0 -0.026375135314490861 0.00027720179714791547 0 -0.025093593435880676 -0.00042646815476931374 0 -0.026690474312720747 -0.00087781831879821823 0 -0.027914048691325247 0.00046646414969335931 0 -0.026375135314490861 0.00027720179714791547 0 -0.029042213167214212 -0.00013484583943949909 0 -0.028992132447148482 -0.00054101285959307034 0 -0.030592360580626091 -0.0010661938641836439 0 -0.03089240303492605 -0.00072352468470553914 0 -0.030351799081063884 -0.00089218838097026838 0 -0.031093533937969559 -0.00067285632091554717 0 -0.028992132447148482 -0.00054101285959307034 0 -0.03089240303492605 -0.00072352468470553914 0 -0.030503421232279924 -0.00042109767280726503 0 -0.030351799081063884 -0.00089218838097026838 0 -0.03089240303492605 -0.00072352468470553914 0 -0.030963755964120831 -0.00042212369136944352 0 -0.030503421232279924 -0.00042109767280726503 0 -0.030963755964120831 -0.00042212369136944352 0 -0.030503421232279924 -0.00042109767280726503 0 -0.030979244876327607 -1.6604081672107166e-05 0 -0.031554901729123175 -0.00038291010858317363 0 -0.03089240303492605 -0.00072352468470553914 0 -0.030963755964120831 -0.00042212369136944352 0 -0.031554901729123175 -0.00038291010858317363 0 -0.030963755964120831 -0.00042212369136944352 0 -0.030979244876327607 -1.6604081672107166e-05 0 -0.034998840437963072 -3.7436281244217582e-07 0 -0.03460189738876894 -0.00011608385295787406 0 -0.034998579470548991 -1.3138166389480666e-07 0 -0.031585557027267057 -0.00081713679652212071 0 -0.031789103678957875 -0.00023533536427497012 0 -0.031423765567559943 -0.00044390972746077639 0 -0.031093533937969559 -0.00067285632091554717 0 -0.032649542664507127 -1.49054127622731e-05 0 -0.030503421232279924 -0.00042109767280726503 0 -0.030979244876327607 -1.6604081672107166e-05 0 -0.030671677202808879 0.00062844932379759377 0 -0.031789103678957875 -0.00023533536427497012 0 -0.031423765567559943 -0.00044390972746077639 0 -0.031305360130818152 -6.5373904424164683e-05 0 -0.034565930519900027 -7.2713865374757198e-05 0 -0.034728127963849845 -1.3416008646792372e-06 0 -0.034411456943257035 2.6906566924170213e-05 0 -0.032649542664507127 -1.49054127622731e-05 0 -0.033039621522083479 0.00023852455223163718 0 -0.030979244876327607 -1.6604081672107166e-05 0 -0.030671677202808879 0.00062844932379759377 0 -0.031604076094370055 0.00050698571768859209 0 -0.031554901729123175 -0.00038291010858317363 0 -0.030979244876327607 -1.6604081672107166e-05 0 -0.031604076094370055 0.00050698571768859209 0 -0.034565930519900027 -7.2713865374757198e-05 0 -0.034755541337333905 -9.7542741590440907e-05 0 -0.034643261883112703 -0.00012596347551681591 0 -0.034565930519900027 -7.2713865374757198e-05 0 -0.034714257978741211 -4.5885141761525728e-05 0 -0.034728127963849845 -1.3416008646792372e-06 0 -0.034565930519900027 -7.2713865374757198e-05 0 -0.034714257978741211 -4.5885141761525728e-05 0 -0.034755541337333905 -9.7542741590440907e-05 0 -0.034714257978741211 -4.5885141761525728e-05 0 -0.034755943423387226 -7.0544840583212581e-05 0 -0.034755541337333905 -9.7542741590440907e-05 0 -0.034721275461244504 -3.2305817806303759e-05 0 -0.034755943423387226 -7.0544840583212581e-05 0 -0.034780236039014215 -6.4123573883100894e-05 0 -0.032649542664507127 -1.49054127622731e-05 0 -0.033437869964872032 -0.00021537469998872337 0 -0.034714257978741211 -4.5885141761525728e-05 0 -0.034721275461244504 -3.2305817806303759e-05 0 -0.034755943423387226 -7.0544840583212581e-05 0 -0.033051469753531591 0.00016836630495552346 0 -0.032649542664507127 -1.49054127622731e-05 0 -0.034755541337333905 -9.7542741590440907e-05 0 -0.034788807590548941 -8.0611471914897599e-05 0 -0.034998840437963072 -3.7436281244217582e-07 0 -0.034755943423387226 -7.0544840583212581e-05 0 -0.034788807590548941 -8.0611471914897599e-05 0 -0.034780236039014215 -6.4123573883100894e-05 0 -0.034755943423387226 -7.0544840583212581e-05 0 -0.034755541337333905 -9.7542741590440907e-05 0 -0.034788807590548941 -8.0611471914897599e-05 0 -0.035007731724752404 -7.2560798026352578e-06 0 -0.03500001064274013 5.5877479915114164e-09 0 -0.034997470362587692 -1.7148424111030992e-06 0 -0.035037921767240368 3.6829798136990732e-05 0 -0.03499985247814745 -1.7579410540386793e-07 0 -0.034755541337333905 -9.7542741590440907e-05 0 -0.034998840437963072 -3.7436281244217582e-07 0 -0.034643261883112703 -0.00012596347551681591 0 -0.034643261883112703 -0.00012596347551681591 0 -0.03460189738876894 -0.00011608385295787406 0 -0.034148856344888172 -0.00016613535618551257 0 -0.034998840437963072 -3.7436281244217582e-07 0 -0.034643261883112703 -0.00012596347551681591 0 -0.03460189738876894 -0.00011608385295787406 0 -0.034565930519900027 -7.2713865374757198e-05 0 -0.034148856344888172 -0.00016613535618551257 0 -0.034411456943257035 2.6906566924170213e-05 0 -0.034565930519900027 -7.2713865374757198e-05 0 -0.034643261883112703 -0.00012596347551681591 0 -0.034148856344888172 -0.00016613535618551257 0 -0.033039621522083479 0.00023852455223163718 0 -0.033588868058108852 -0.00010370706737497316 0 -0.031554901729123175 -0.00038291010858317363 0 -0.031604076094370055 0.00050698571768859209 0 -0.033599167444834779 -0.00016551079034013067 0 -0.034148856344888172 -0.00016613535618551257 0 -0.034411456943257035 2.6906566924170213e-05 0 -0.033599167444834779 -0.00016551079034013067 0 -0.034148856344888172 -0.00016613535618551257 0 -0.033599167444834779 -0.00016551079034013067 0 -0.033827918483175741 -0.00043076215494120354 0 -0.0349998701811002 -7.4592100907050541e-08 0 -0.034998579470548991 -1.3138166389480666e-07 0 -0.034592144836610536 -0.0002274927799948787 0 -0.034148856344888172 -0.00016613535618551257 0 -0.033827918483175741 -0.00043076215494120354 0 -0.034272242084238971 -0.00025950624393095297 0 -0.03460189738876894 -0.00011608385295787406 0 -0.034148856344888172 -0.00016613535618551257 0 -0.034272242084238971 -0.00025950624393095297 0 -0.033875686501803504 -0.00073115220462390094 0 -0.033827918483175741 -0.00043076215494120354 0 -0.034272242084238971 -0.00025950624393095297 0 -0.03460189738876894 -0.00011608385295787406 0 -0.034272242084238971 -0.00025950624393095297 0 -0.034998579470548991 -1.3138166389480666e-07 0 -0.034272242084238971 -0.00025950624393095297 0 -0.034998579470548991 -1.3138166389480666e-07 0 -0.034592144836610536 -0.0002274927799948787 0 -0.034272242084238971 -0.00025950624393095297 0 -0.034592144836610536 -0.0002274927799948787 0 -0.034200893780548733 -0.00060516345204621354 0 -0.033875686501803504 -0.00073115220462390094 0 -0.034272242084238971 -0.00025950624393095297 0 -0.034200893780548733 -0.00060516345204621354 0 -0.034509655228825278 -0.00050593952926225377 0 -0.034592144836610536 -0.0002274927799948787 0 -0.034200893780548733 -0.00060516345204621354 0 -0.033252560834064665 -0.0019447182305501525 0 -0.033435975696240745 -0.0017654988210619288 0 -0.033223370859193892 -0.0017680326215919492 0 -0.033252560834064665 -0.0019447182305501525 0 -0.033223370859193892 -0.0017680326215919492 0 -0.033110076585521835 -0.0018938731244104922 0 -0.033223370859193892 -0.0017680326215919492 0 -0.033033871499960364 -0.0017548856511889013 0 -0.033110076585521835 -0.0018938731244104922 0 -0.033142587164189954 -0.0020212172922497596 0 -0.033252560834064665 -0.0019447182305501525 0 -0.033110076585521835 -0.0018938731244104922 0 -0.033142587164189954 -0.0020212172922497596 0 -0.033252560834064665 -0.0019447182305501525 0 -0.033214288915868036 -0.0020537679080225371 0 -0.033252560834064665 -0.0019447182305501525 0 -0.033392323548023468 -0.0019383274075147423 0 -0.033317145631421297 -0.0020571274065413498 0 -0.033252560834064665 -0.0019447182305501525 0 -0.033317145631421297 -0.0020571274065413498 0 -0.033214288915868036 -0.0020537679080225371 0 -0.033570376848961588 -0.0019836757811362276 0 -0.033435975696240745 -0.0017654988210619288 0 -0.033807955154278618 -0.0017279082354287937 0 -0.033392323548023468 -0.0019383274075147423 0 -0.033570376848961588 -0.0019836757811362276 0 -0.033317145631421297 -0.0020571274065413498 0 -0.033252560834064665 -0.0019447182305501525 0 -0.033392323548023468 -0.0019383274075147423 0 -0.033435975696240745 -0.0017654988210619288 0 -0.033392323548023468 -0.0019383274075147423 0 -0.033570376848961588 -0.0019836757811362276 0 -0.033435975696240745 -0.0017654988210619288 0 -0.033435975696240745 -0.0017654988210619288 0 -0.03360270870003456 -0.0014848470842729314 0 -0.03330133472784675 -0.0014654792871669198 0 -0.033435975696240745 -0.0017654988210619288 0 -0.03360270870003456 -0.0014848470842729314 0 -0.033807955154278618 -0.0017279082354287937 0 -0.033223370859193892 -0.0017680326215919492 0 -0.033033871499960364 -0.0017548856511889013 0 -0.03330133472784675 -0.0014654792871669198 0 -0.033203982675818894 -0.001520645899930566 0 -0.033488055098517482 -0.0012479543106229194 0 -0.033344051235484166 -0.0011163302689213949 0 -0.033368435157525016 -0.0012944444056211776 0 -0.033676398704138966 -0.0010308994581742816 0 -0.033435975696240745 -0.0017654988210619288 0 -0.033223370859193892 -0.0017680326215919492 0 -0.03330133472784675 -0.0014654792871669198 0 -0.033344051235484166 -0.0011163302689213949 0 -0.033368435157525016 -0.0012944444056211776 0 -0.032987449612330091 -0.0014877357318428912 0 -0.033376996194639741 -0.0010750017093161877 0 -0.033233825875663515 -0.0010446867788095654 0 -0.033282628836984213 -0.00097949448296941665 0 -0.033376996194639741 -0.0010750017093161877 0 -0.033233825875663515 -0.0010446867788095654 0 -0.033190476924037954 -0.0011635765579569334 0 -0.033367444147094256 -0.001098267670490372 0 -0.033050942306431366 -0.0014804747030393614 0 -0.033376996194639741 -0.0010750017093161877 0 -0.033164841817372837 -0.0012584593590671382 0 -0.033142991794223961 -0.0014552125157819683 0 -0.033079969225245261 -0.0010436680993373615 0 -0.033190476924037954 -0.0011635765579569334 0 -0.033045487824815319 -0.0012247755203366089 0 -0.033079969225245261 -0.0010436680993373615 0 -0.033045487824815319 -0.0012247755203366089 0 -0.0329429009189149 -0.0011109516826357316 0 -0.033079969225245261 -0.0010436680993373615 0 -0.033233825875663515 -0.0010446867788095654 0 -0.033190476924037954 -0.0011635765579569334 0 -0.033376996194639741 -0.0010750017093161877 0 -0.033190476924037954 -0.0011635765579569334 0 -0.033164841817372837 -0.0012584593590671382 0 -0.033164841817372837 -0.0012584593590671382 0 -0.033045487824815319 -0.0012247755203366089 0 -0.033011243430387173 -0.00137413679062309 0 -0.033190476924037954 -0.0011635765579569334 0 -0.033164841817372837 -0.0012584593590671382 0 -0.033045487824815319 -0.0012247755203366089 0 -0.033368435157525016 -0.0012944444056211776 0 -0.032987449612330091 -0.0014877357318428912 0 -0.033001418463386216 -0.0015858416689821511 0 -0.033164841817372837 -0.0012584593590671382 0 -0.033011243430387173 -0.00137413679062309 0 -0.033142991794223961 -0.0014552125157819683 0 -0.033011243430387173 -0.00137413679062309 0 -0.033142991794223961 -0.0014552125157819683 0 -0.032947042436394645 -0.001528869710688724 0 -0.03291495085305942 -0.0020097087285874948 0 -0.032804159859292331 -0.0019822238281639215 0 -0.032977658474579931 -0.0019313128030271911 0 -0.03291495085305942 -0.0020097087285874948 0 -0.032804159859292331 -0.0019822238281639215 0 -0.032852991265930123 -0.0020396485666160655 0 -0.033203982675818894 -0.001520645899930566 0 -0.032893308750422547 -0.0017853863021444877 0 -0.033033871499960364 -0.0017548856511889013 0 -0.032804159859292331 -0.0019822238281639215 0 -0.032977658474579931 -0.0019313128030271911 0 -0.033033871499960364 -0.0017548856511889013 0 -0.033110076585521835 -0.0018938731244104922 0 -0.032977658474579931 -0.0019313128030271911 0 -0.03291495085305942 -0.0020097087285874948 0 -0.032977658474579931 -0.0019313128030271911 0 -0.033028911450030306 -0.0020160831980049437 0 -0.033142587164189954 -0.0020212172922497596 0 -0.033110076585521835 -0.0018938731244104922 0 -0.033028911450030306 -0.0020160831980049437 0 -0.033110076585521835 -0.0018938731244104922 0 -0.032977658474579931 -0.0019313128030271911 0 -0.033028911450030306 -0.0020160831980049437 0 -0.033028911450030306 -0.0020160831980049437 0 -0.033082044501199254 -0.0020997722894631116 0 -0.033023375426097172 -0.0021583485957990716 0 -0.033142587164189954 -0.0020212172922497596 0 -0.033028911450030306 -0.0020160831980049437 0 -0.033082044501199254 -0.0020997722894631116 0 -0.033142587164189954 -0.0020212172922497596 0 -0.033082044501199254 -0.0020997722894631116 0 -0.033158469344918645 -0.0021055780383355382 0 -0.03291495085305942 -0.0020097087285874948 0 -0.033028911450030306 -0.0020160831980049437 0 -0.033023375426097172 -0.0021583485957990716 0 -0.03291495085305942 -0.0020097087285874948 0 -0.033023375426097172 -0.0021583485957990716 0 -0.032894581896140244 -0.0021281936752561396 0 -0.033082044501199254 -0.0020997722894631116 0 -0.033023375426097172 -0.0021583485957990716 0 -0.033135666358539387 -0.0022094813977964456 0 -0.033082044501199254 -0.0020997722894631116 0 -0.033135666358539387 -0.0022094813977964456 0 -0.033158469344918645 -0.0021055780383355382 0 -0.033023375426097172 -0.0021583485957990716 0 -0.033062414850484549 -0.002286715226693407 0 -0.033135666358539387 -0.0022094813977964456 0 -0.032804159859292331 -0.0019822238281639215 0 -0.032809462328601491 -0.0020832163709688998 0 -0.032852991265930123 -0.0020396485666160655 0 -0.032804159859292331 -0.0019822238281639215 0 -0.032809462328601491 -0.0020832163709688998 0 -0.032685141410146813 -0.002117776043955332 0 -0.03291495085305942 -0.0020097087285874948 0 -0.032852991265930123 -0.0020396485666160655 0 -0.032894581896140244 -0.0021281936752561396 0 -0.032809462328601491 -0.0020832163709688998 0 -0.032852991265930123 -0.0020396485666160655 0 -0.032894581896140244 -0.0021281936752561396 0 -0.032894581896140244 -0.0021281936752561396 0 -0.032784939403888325 -0.0021890790044833326 0 -0.032885767391714289 -0.0023296190792093312 0 -0.033023375426097172 -0.0021583485957990716 0 -0.032894581896140244 -0.0021281936752561396 0 -0.032885767391714289 -0.0023296190792093312 0 -0.032809462328601491 -0.0020832163709688998 0 -0.032784939403888325 -0.0021890790044833326 0 -0.032685141410146813 -0.002117776043955332 0 -0.032809462328601491 -0.0020832163709688998 0 -0.032894581896140244 -0.0021281936752561396 0 -0.032784939403888325 -0.0021890790044833326 0 -0.032784939403888325 -0.0021890790044833326 0 -0.032731860076044852 -0.0023195752681649793 0 -0.032686979047794176 -0.0022090717879269363 0 -0.032784939403888325 -0.0021890790044833326 0 -0.032686979047794176 -0.0022090717879269363 0 -0.032685141410146813 -0.002117776043955332 0 -0.032731860076044852 -0.0023195752681649793 0 -0.032885767391714289 -0.0023296190792093312 0 -0.032769536086825764 -0.0025744629275908483 0 -0.032784939403888325 -0.0021890790044833326 0 -0.032731860076044852 -0.0023195752681649793 0 -0.032885767391714289 -0.0023296190792093312 0 -0.032885767391714289 -0.0023296190792093312 0 -0.03305397587108868 -0.0026065875864508575 0 -0.032769536086825764 -0.0025744629275908483 0 -0.033023375426097172 -0.0021583485957990716 0 -0.032885767391714289 -0.0023296190792093312 0 -0.033062414850484549 -0.002286715226693407 0 -0.03327976369664367 -0.002849463362239442 0 -0.033287303601147303 -0.0023789351091480968 0 -0.033634887267833834 -0.0023871610502369804 0 -0.032885767391714289 -0.0023296190792093312 0 -0.03305397587108868 -0.0026065875864508575 0 -0.033287303601147303 -0.0023789351091480968 0 -0.03327976369664367 -0.002849463362239442 0 -0.03305397587108868 -0.0026065875864508575 0 -0.033287303601147303 -0.0023789351091480968 0 -0.032843583988543909 -0.002329656888068363 0 -0.03340062717661705 -0.002340693317343428 0 -0.030888100961577094 -0.0031029510743608626 0 -0.030155448230586031 -0.0034148490970402449 0 -0.030309724772053816 -0.0037753491382257216 0 -0.030934631923322336 -0.00344214322178877 0 -0.031951750502737339 -0.0026520077185978428 0 -0.033062414850484549 -0.002286715226693407 0 -0.033230516473019354 -0.0022456914463802914 0 -0.033135666358539387 -0.0022094813977964456 0 -0.03340062717661705 -0.002340693317343428 0 -0.031951750502737339 -0.0026520077185978428 0 -0.033230516473019354 -0.0022456914463802914 0 -0.033135666358539387 -0.0022094813977964456 0 -0.033223955340580855 -0.0022394191950212677 0 -0.033135666358539387 -0.0022094813977964456 0 -0.033158469344918645 -0.0021055780383355382 0 -0.033208456339952279 -0.0021371855028497152 0 -0.033135666358539387 -0.0022094813977964456 0 -0.033223955340580855 -0.0022394191950212677 0 -0.033208456339952279 -0.0021371855028497152 0 -0.033230516473019354 -0.0022456914463802914 0 -0.033223955340580855 -0.0022394191950212677 0 -0.033129724968389451 -0.0022668857330256959 0 -0.031951750502737339 -0.0026520077185978428 0 -0.031649521519298993 -0.0025734464543009658 0 -0.033223955340580855 -0.0022394191950212677 0 -0.033317145631421297 -0.0020571274065413498 0 -0.033208456339952279 -0.0021371855028497152 0 -0.033317145631421297 -0.0020571274065413498 0 -0.033214288915868036 -0.0020537679080225371 0 -0.033208456339952279 -0.0021371855028497152 0 -0.033142587164189954 -0.0020212172922497596 0 -0.033214288915868036 -0.0020537679080225371 0 -0.033158469344918645 -0.0021055780383355382 0 -0.033214288915868036 -0.0020537679080225371 0 -0.033158469344918645 -0.0021055780383355382 0 -0.033208456339952279 -0.0021371855028497152 0 -0.033570376848961588 -0.0019836757811362276 0 -0.033223955340580855 -0.0022394191950212677 0 -0.033317145631421297 -0.0020571274065413498 0 -0.033029434866654148 -0.0023306164905781781 0 -0.033223955340580855 -0.0022394191950212677 0 -0.033129724968389451 -0.0022668857330256959 0 -0.032264922203612927 -0.0023198849334936634 0 -0.033602559440208367 -0.0020823703726307839 0 -0.03032094679205732 -0.002631393136674578 0 -0.030234472191291335 -0.0027136178574143251 0 -0.03018784148336125 -0.0026856644993660779 0 -0.03016509372378252 -0.002761187270404693 0 -0.030234472191291335 -0.0027136178574143251 0 -0.030149187807464853 -0.0027159020283932444 0 -0.032264922203612927 -0.0023198849334936634 0 -0.031649521519298993 -0.0025734464543009658 0 -0.030234472191291335 -0.0027136178574143251 0 -0.03018784148336125 -0.0026856644993660779 0 -0.030149187807464853 -0.0027159020283932444 0 -0.03018784148336125 -0.0026856644993660779 0 -0.030138818957517414 -0.0026628582346168543 0 -0.030149187807464853 -0.0027159020283932444 0 -0.029008568288491909 -0.0037298423015635906 0 -0.029747807840316751 -0.0031436499476293588 0 -0.031951750502737339 -0.0026520077185978428 0 -0.029008568288491909 -0.0037298423015635906 0 -0.03032094679205732 -0.002631393136674578 0 -0.03018784148336125 -0.0026856644993660779 0 -0.030169397000337023 -0.002635069013541312 0 -0.030155448230586031 -0.0034148490970402449 0 -0.030309724772053816 -0.0037753491382257216 0 -0.029648058879939473 -0.0037693206632832873 0 -0.03018784148336125 -0.0026856644993660779 0 -0.030169397000337023 -0.002635069013541312 0 -0.030138818957517414 -0.0026628582346168543 0 -0.027222579879753829 -0.0049811150191850333 0 -0.027529944247323447 -0.0050244894928550545 0 -0.027180131391080997 -0.0052277889320618762 0 -0.028880971519417244 -0.0043088285983951865 0 -0.029008568288491909 -0.0037298423015635906 0 -0.029008568288491909 -0.0037298423015635906 0 -0.02767647669260551 -0.0034521884309872681 0 -0.030155979662679046 -0.0026499705027986536 0 -0.030138818957517414 -0.0026628582346168543 0 -0.03004812498061073 -0.0026580772517846431 0 -0.030138818957517414 -0.0026628582346168543 0 -0.03004812498061073 -0.0026580772517846431 0 -0.030107180916989412 -0.0026885789442550371 0 -0.027222579879753829 -0.0049811150191850333 0 -0.027180131391080997 -0.0052277889320618762 0 -0.026669320596814493 -0.0052064735040566103 0 -0.026553576301348206 -0.0029104720164712357 0 -0.026593592388188536 -0.0029739138512008432 0 -0.026533245959985269 -0.0029618986694459953 0 -0.02767647669260551 -0.0034521884309872681 0 -0.026249033372679208 -0.0030157803188657212 0 -0.02767647669260551 -0.0034521884309872681 0 -0.028318423812766887 -0.002864148671596001 0 -0.03004812498061073 -0.0026580772517846431 0 -0.03002941345362092 -0.0027269031155863015 0 -0.03009644094604744 -0.0027206313652309365 0 -0.026630344956206697 -0.0029600233510414364 0 -0.026588273421888561 -0.0030415950137635439 0 -0.026533245959985269 -0.0029618986694459953 0 -0.03002941345362092 -0.0027269031155863015 0 -0.03009644094604744 -0.0027206313652309365 0 -0.030080948215018621 -0.0027599093605776902 0 -0.03016509372378252 -0.002761187270404693 0 -0.03009644094604744 -0.0027206313652309365 0 -0.030149187807464853 -0.0027159020283932444 0 -0.030138818957517414 -0.0026628582346168543 0 -0.030149187807464853 -0.0027159020283932444 0 -0.030107180916989412 -0.0026885789442550371 0 -0.03009644094604744 -0.0027206313652309365 0 -0.030149187807464853 -0.0027159020283932444 0 -0.030107180916989412 -0.0026885789442550371 0 -0.03004812498061073 -0.0026580772517846431 0 -0.03009644094604744 -0.0027206313652309365 0 -0.030107180916989412 -0.0026885789442550371 0 -0.026698829387368599 -0.0016441114561144225 0 -0.028992132447148482 -0.00054101285959307034 0 -0.026375135314490861 0.00027720179714791547 0 -0.025093593435880676 -0.00042646815476931374 0 -0.025830293588814439 0.0019531187970991566 0 -0.026698829387368599 -0.0016441114561144225 0 -0.02754203328003078 -0.0024376670186215853 0 -0.026415059564877389 -0.0029228929489444723 0 -0.026482541916407348 -0.0029537946788331247 0 -0.026492294792987644 -0.0030234593232224246 0 -0.026482541916407348 -0.0029537946788331247 0 -0.026533245959985269 -0.0029618986694459953 0 -0.026492294792987644 -0.0030234593232224246 0 -0.026488381410489852 -0.0029093195459460965 0 -0.026415059564877389 -0.0029228929489444723 0 -0.026482541916407348 -0.0029537946788331247 0 -0.026488381410489852 -0.0029093195459460965 0 -0.026482541916407348 -0.0029537946788331247 0 -0.026533245959985269 -0.0029618986694459953 0 -0.026488381410489852 -0.0029093195459460965 0 -0.026553576301348206 -0.0029104720164712357 0 -0.026533245959985269 -0.0029618986694459953 0 -0.026588273421888561 -0.0030415950137635439 0 -0.026492294792987644 -0.0030234593232224246 0 -0.026568628515366129 -0.003111558701492983 0 -0.026588273421888561 -0.0030415950137635439 0 -0.026533245959985269 -0.0029618986694459953 0 -0.026492294792987644 -0.0030234593232224246 0 -0.028315448382751386 -0.0010896293553455773 0 -0.028645629850256395 -0.0017068139796709641 0 -0.028118495541005081 -0.0017735330518032959 0 -0.028645629850256395 -0.0017068139796709641 0 -0.028118495541005081 -0.0017735330518032959 0 -0.028530801098054462 -0.0020891692939618051 0 -0.028992132447148482 -0.00054101285959307034 0 -0.029964426438230021 -0.0017279143851830516 0 -0.031585557027267057 -0.00081713679652212071 0 -0.031381450060986978 -0.0013801576334456734 0 -0.031118858129005583 -0.0011795805451861408 0 -0.031585557027267057 -0.00081713679652212071 0 -0.031118858129005583 -0.0011795805451861408 0 -0.03118947900731911 -0.00081477249611333678 0 -0.02754203328003078 -0.0024376670186215853 0 -0.029043993946297589 -0.0024794474132179174 0 -0.028645629850256395 -0.0017068139796709641 0 -0.028530801098054462 -0.0020891692939618051 0 -0.028985479387686607 -0.002341197016349893 0 -0.031118858129005583 -0.0011795805451861408 0 -0.030845232738668772 -0.00097703142169168391 0 -0.03118947900731911 -0.00081477249611333678 0 -0.029964426438230021 -0.0017279143851830516 0 -0.029984790586077927 -0.0018064687607707722 0 -0.028530801098054462 -0.0020891692939618051 0 -0.028985479387686607 -0.002341197016349893 0 -0.028955917299410189 -0.0024053772684912217 0 -0.029984790586077927 -0.0018064687607707722 0 -0.030140597811058815 -0.0024775762997633001 0 -0.029303352550919926 -0.001751637472731403 0 -0.029118740402358206 -0.0021416850117338586 0 -0.029740477605761109 -0.0026099177262528194 0 -0.029043993946297589 -0.0024794474132179174 0 -0.030140597811058815 -0.0024775762997633001 0 -0.029043993946297589 -0.0024794474132179174 0 -0.029984790586077927 -0.0018064687607707722 0 -0.031958344025812484 -0.0021367975941315297 0 -0.0326297061261289 -0.0012081302599530185 0 -0.03216757263822681 -0.0010482902452989473 0 -0.029984790586077927 -0.0018064687607707722 0 -0.031892743202950602 -0.00080178170524769271 0 -0.032113051383052288 -0.0022550233413537275 0 -0.031958344025812484 -0.0021367975941315297 0 -0.0326297061261289 -0.0012081302599530185 0 -0.030845232738668772 -0.00097703142169168391 0 -0.03118947900731911 -0.00081477249611333678 0 -0.03107253475395836 -0.00052217012611825546 0 -0.031585557027267057 -0.00081713679652212071 0 -0.03118947900731911 -0.00081477249611333678 0 -0.031423765567559943 -0.00044390972746077639 0 -0.03118947900731911 -0.00081477249611333678 0 -0.031423765567559943 -0.00044390972746077639 0 -0.03107253475395836 -0.00052217012611825546 0 -0.03016509372378252 -0.002761187270404693 0 -0.03009644094604744 -0.0027206313652309365 0 -0.030080948215018621 -0.0027599093605776902 0 -0.03016509372378252 -0.002761187270404693 0 -0.030080948215018621 -0.0027599093605776902 0 -0.030098971230733979 -0.0027984085482545603 0 -0.031963042496203548 -0.0023204927716490029 0 -0.032128760727200702 -0.002139720339886277 0 -0.032112086457120437 -0.0021054141493026886 0 -0.032264922203612927 -0.0023198849334936634 0 -0.033048200556312447 -0.0018478758860157938 0 -0.032264922203612927 -0.0023198849334936634 0 -0.030887501064232516 -0.0026630829613335412 0 -0.028318423812766887 -0.002864148671596001 0 -0.029043993946297589 -0.0024794474132179174 0 -0.03002941345362092 -0.0027269031155863015 0 -0.030080948215018621 -0.0027599093605776902 0 -0.030043662265211834 -0.0027773143104753597 0 -0.030043662265211834 -0.0027773143104753597 0 -0.030035239823244516 -0.0027982634872704246 0 -0.030098971230733979 -0.0027984085482545603 0 -0.03002941345362092 -0.0027269031155863015 0 -0.030016567740189556 -0.0027808627556193291 0 -0.030043662265211834 -0.0027773143104753597 0 -0.030016567740189556 -0.0027808627556193291 0 -0.030026974813703044 -0.0027938027884676741 0 -0.030043662265211834 -0.0027773143104753597 0 -0.030026974813703044 -0.0027938027884676741 0 -0.030043662265211834 -0.0027773143104753597 0 -0.030035239823244516 -0.0027982634872704246 0 -0.030080948215018621 -0.0027599093605776902 0 -0.030043662265211834 -0.0027773143104753597 0 -0.030098971230733979 -0.0027984085482545603 0 -0.031958344025812484 -0.0021367975941315297 0 -0.031647511767181086 -0.0015065547717847468 0 -0.03216757263822681 -0.0010482902452989473 0 -0.030035239823244516 -0.0027982634872704246 0 -0.030056690491343921 -0.0028283946830518648 0 -0.030098971230733979 -0.0027984085482545603 0 -0.031532994921906872 -0.0017893171370809175 0 -0.030887501064232516 -0.0026630829613335412 0 -0.032330639463564383 -0.0019493932934336196 0 -0.032128760727200702 -0.002139720339886277 0 -0.032112086457120437 -0.0021054141493026886 0 -0.030028214006714678 -0.0027940374520420532 0 -0.030035239823244516 -0.0027982634872704246 0 -0.030056690491343921 -0.0028283946830518648 0 -0.030140597811058815 -0.0024775762997633001 0 -0.031532994921906872 -0.0017893171370809175 0 -0.030140597811058815 -0.0024775762997633001 0 -0.030146918970170571 -0.0025051790782731104 0 -0.031532994921906872 -0.0017893171370809175 0 -0.032879825940055799 -0.0015557579907307772 0 -0.032330639463564383 -0.0019493932934336196 0 -0.032112086457120437 -0.0021054141493026886 0 -0.032296003954663914 -0.0018770960032736172 0 -0.033048200556312447 -0.0018478758860157938 0 -0.032879825940055799 -0.0015557579907307772 0 -0.033807955154278618 -0.0017279082354287937 0 -0.033808268400037068 -0.0014699044718504441 0 -0.034077032277660693 -0.001435052794965408 0 -0.03360270870003456 -0.0014848470842729314 0 -0.033807955154278618 -0.0017279082354287937 0 -0.033808268400037068 -0.0014699044718504441 0 -0.03360270870003456 -0.0014848470842729314 0 -0.033791867172286973 -0.0012889291655631668 0 -0.033808268400037068 -0.0014699044718504441 0 -0.03360270870003456 -0.0014848470842729314 0 -0.033791867172286973 -0.0012889291655631668 0 -0.033634129933956265 -0.0011255451545301341 0 -0.033791867172286973 -0.0012889291655631668 0 -0.034002711229695406 -0.0012646634177839273 0 -0.033930731455956778 -0.0010796911086629567 0 -0.033791867172286973 -0.0012889291655631668 0 -0.033634129933956265 -0.0011255451545301341 0 -0.033930731455956778 -0.0010796911086629567 0 -0.033791867172286973 -0.0012889291655631668 0 -0.033808268400037068 -0.0014699044718504441 0 -0.034002711229695406 -0.0012646634177839273 0 -0.032879825940055799 -0.0015557579907307772 0 -0.033547307525956992 -0.0015733817747858247 0 -0.033808268400037068 -0.0014699044718504441 0 -0.034077032277660693 -0.001435052794965408 0 -0.034002711229695406 -0.0012646634177839273 0 -0.034090558237338309 -0.0014474287540659459 0 -0.034148157305259892 -0.0012130786791939086 0 -0.034002711229695406 -0.0012646634177839273 0 -0.031569715016703297 -0.0012569944086052841 0 -0.03216757263822681 -0.0010482902452989473 0 -0.032088565918356682 -0.0006351188915911123 0 -0.031532994921906872 -0.0017893171370809175 0 -0.032148386427111424 -0.0010950554879343198 0 -0.031686113663768216 -0.0014884047932214718 0 -0.031569715016703297 -0.0012569944086052841 0 -0.03216757263822681 -0.0010482902452989473 0 -0.034090558237338309 -0.0014474287540659459 0 -0.034148157305259892 -0.0012130786791939086 0 -0.034339668968970442 -0.0011499340936805039 0 -0.032879825940055799 -0.0015557579907307772 0 -0.033188491844783674 -0.000940801814520795 0 -0.034148157305259892 -0.0012130786791939086 0 -0.034002711229695406 -0.0012646634177839273 0 -0.034159413292118246 -0.00098871320510519976 0 -0.034002711229695406 -0.0012646634177839273 0 -0.034159413292118246 -0.00098871320510519976 0 -0.033930731455956778 -0.0010796911086629567 0 -0.034159413292118246 -0.00098871320510519976 0 -0.03457916198606123 -0.00085985888274892378 0 -0.034086054681694677 -0.00069105240685283305 0 -0.034148157305259892 -0.0012130786791939086 0 -0.034159413292118246 -0.00098871320510519976 0 -0.034339668968970442 -0.0011499340936805039 0 -0.034159413292118246 -0.00098871320510519976 0 -0.0340642618002562 -0.00073757319233379293 0 -0.034086054681694677 -0.00069105240685283305 0 -0.034159413292118246 -0.00098871320510519976 0 -0.033930731455956778 -0.0010796911086629567 0 -0.0340642618002562 -0.00073757319233379293 0 -0.033766933758208342 -0.00097929014461267563 0 -0.034047715561628611 -0.00075069973325744507 0 -0.033929219630470124 -0.00073239788066378861 0 -0.033880224139492356 -0.0008374942041161678 0 -0.0340642618002562 -0.00073757319233379293 0 -0.033929219630470124 -0.00073239788066378861 0 -0.033880224139492356 -0.0008374942041161678 0 -0.033778521483103931 -0.00079180070428172425 0 -0.033634129933956265 -0.0011255451545301341 0 -0.033930731455956778 -0.0010796911086629567 0 -0.0340642618002562 -0.00073757319233379293 0 -0.031423765567559943 -0.00044390972746077639 0 -0.03107253475395836 -0.00052217012611825546 0 -0.031305360130818152 -6.5373904424164683e-05 0 -0.0326297061261289 -0.0012081302599530185 0 -0.032633741411274904 -0.00052084962429087809 0 -0.033134150582103554 -0.00017545876323568876 0 -0.031892743202950602 -0.00080178170524769271 0 -0.033437869964872032 -0.00021537469998872337 0 -0.032413203835793145 -0.00082325087310470657 0 -0.0326297061261289 -0.0012081302599530185 0 -0.032633741411274904 -0.00052084962429087809 0 -0.032413203835793145 -0.00082325087310470657 0 -0.032088565918356682 -0.0006351188915911123 0 -0.032633741411274904 -0.00052084962429087809 0 -0.032413203835793145 -0.00082325087310470657 0 -0.0326297061261289 -0.0012081302599530185 0 -0.03216757263822681 -0.0010482902452989473 0 -0.032413203835793145 -0.00082325087310470657 0 -0.03216757263822681 -0.0010482902452989473 0 -0.032088565918356682 -0.0006351188915911123 0 -0.034295462766764762 -0.00041178994400217366 0 -0.034649074939871745 -0.00037127125743609176 0 -0.034159413292118246 -0.00098871320510519976 0 -0.034339668968970442 -0.0011499340936805039 0 -0.03457916198606123 -0.00085985888274892378 0 -0.033188491844783674 -0.000940801814520795 0 -0.034295462766764762 -0.00041178994400217366 0 -0.032088565918356682 -0.0006351188915911123 0 -0.032632876728003746 6.5356644843628976e-07 0 -0.032633741411274904 -0.00052084962429087809 0 -0.034879976919165188 -0.00011051739482001805 0 -0.034949438797556631 -0.00013200756025131551 0 -0.034982559489104378 -1.128682085665164e-05 0 -0.032632876728003746 6.5356644843628976e-07 0 -0.032633741411274904 -0.00052084962429087809 0 -0.033134150582103554 -0.00017545876323568876 0 -0.034295462766764762 -0.00041178994400217366 0 -0.033437869964872032 -0.00021537469998872337 0 -0.035037921767240368 3.6829798136990732e-05 0 -0.033437869964872032 -0.00021537469998872337 0 -0.035007731724752404 -7.2560798026352578e-06 0 -0.034949438797556631 -0.00013200756025131551 0 -0.034982559489104378 -1.128682085665164e-05 0 -0.035007731724752404 -7.2560798026352578e-06 0 -0.034982559489104378 -1.128682085665164e-05 0 -0.034997470362587692 -1.7148424111030992e-06 0 -0.034988782357597989 -4.2570904139968215e-06 0 -0.034982559489104378 -1.128682085665164e-05 0 -0.034990436354460135 -7.3384005536998717e-06 0 -0.034295462766764762 -0.00041178994400217366 0 -0.035158849982504202 0.000163141932965323 0 -0.034982559489104378 -1.128682085665164e-05 0 -0.034990436354460135 -7.3384005536998717e-06 0 -0.034993415349912203 -5.1310057736136984e-06 0 -0.034988782357597989 -4.2570904139968215e-06 0 -0.034990436354460135 -7.3384005536998717e-06 0 -0.034995354396143305 -5.6017107867211148e-06 0 -0.034988782357597989 -4.2570904139968215e-06 0 -0.034995354396143305 -5.6017107867211148e-06 0 -0.034994688771153963 -6.2638092733621609e-06 0 -0.034990436354460135 -7.3384005536998717e-06 0 -0.034995354396143305 -5.6017107867211148e-06 0 -0.034993415349912203 -5.1310057736136984e-06 0 -0.034995354396143305 -5.6017107867211148e-06 0 -0.034999983181377148 -5.4034421830097449e-09 0 -0.035000003023197085 -7.001844969542404e-09 0 -0.034995354396143305 -5.6017107867211148e-06 0 -0.034993415349912203 -5.1310057736136984e-06 0 -0.034999983181377148 -5.4034421830097449e-09 0 -0.03500001064274013 5.5877479915114164e-09 0 -0.034999983181377148 -5.4034421830097449e-09 0 -0.034997470362587692 -1.7148424111030992e-06 0 -0.034993415349912203 -5.1310057736136984e-06 0 -0.034999983181377148 -5.4034421830097449e-09 0 -0.034997470362587692 -1.7148424111030992e-06 0 -0.034982559489104378 -1.128682085665164e-05 0 -0.034993415349912203 -5.1310057736136984e-06 0 -0.034997470362587692 -1.7148424111030992e-06 0 -0.033929219630470124 -0.00073239788066378861 0 -0.033866941117343723 -0.00060049767073070987 0 -0.034086054681694677 -0.00069105240685283305 0 -0.034365926738168566 -0.00030463589247023149 0 -0.034649074939871745 -0.00037127125743609176 0 -0.034993359257012337 -9.2659163101641081e-06 0 -0.034994688771153963 -6.2638092733621609e-06 0 -0.034998022137858145 -3.4901880369803444e-06 0 -0.033929219630470124 -0.00073239788066378861 0 -0.033866941117343723 -0.00060049767073070987 0 -0.033793449788144178 -0.0007048129945391409 0 -0.033929219630470124 -0.00073239788066378861 0 -0.0340642618002562 -0.00073757319233379293 0 -0.034086054681694677 -0.00069105240685283305 0 -0.034995354396143305 -5.6017107867211148e-06 0 -0.034994688771153963 -6.2638092733621609e-06 0 -0.034998022137858145 -3.4901880369803444e-06 0 -0.034995354396143305 -5.6017107867211148e-06 0 -0.035000003023197085 -7.001844969542404e-09 0 -0.034998022137858145 -3.4901880369803444e-06 0 -0.035000003023197085 -7.001844969542404e-09 0 -0.034998022137858145 -3.4901880369803444e-06 0 -0.034999966235492147 4.6211891425487773e-09 0 -0.034993359257012337 -9.2659163101641081e-06 0 -0.034998022137858145 -3.4901880369803444e-06 0 -0.034999966235492147 4.6211891425487773e-09 0 -0.035000505533732351 2.6270729724389095e-07 0 -0.034574342424960908 -0.00012438968707295867 0 -0.034993359257012337 -9.2659163101641081e-06 0 -0.034999966235492147 4.6211891425487773e-09 0 -0.03497434712664594 -8.0130501512308018e-06 0 -0.034999996774651133 2.2145726628618232e-09 0 -0.035000005421246691 -5.5003333797732693e-09 0 -0.034998754845507997 -2.5898673759736533e-06 0 -0.035000005421246691 -5.5003333797732693e-09 0 -0.034998754845507997 -2.5898673759736533e-06 0 -0.034998720870602025 -3.8002557087311289e-06 0 -0.034574342424960908 -0.00012438968707295867 0 -0.035012651058574422 -0.00010427297841110092 0 -0.033669366780556979 -0.00053391082244709878 0 -0.033614781121164283 -0.00065044111181923202 0 -0.033484433791647984 -0.00066031182348425465 0 -0.033669366780556979 -0.00053391082244709878 0 -0.033692724364729462 -0.00066102247444148712 0 -0.033614781121164283 -0.00065044111181923202 0 -0.033692724364729462 -0.00066102247444148712 0 -0.033614781121164283 -0.00065044111181923202 0 -0.033644144916010213 -0.00070581802657256553 0 -0.033614781121164283 -0.00065044111181923202 0 -0.033644144916010213 -0.00070581802657256553 0 -0.033577162987680695 -0.0007060949603756644 0 -0.033866941117343723 -0.00060049767073070987 0 -0.033669366780556979 -0.00053391082244709878 0 -0.033692724364729462 -0.00066102247444148712 0 -0.033866941117343723 -0.00060049767073070987 0 -0.033692724364729462 -0.00066102247444148712 0 -0.033793449788144178 -0.0007048129945391409 0 -0.034365926738168566 -0.00030463589247023149 0 -0.034574342424960908 -0.00012438968707295867 0 -0.033929219630470124 -0.00073239788066378861 0 -0.033793449788144178 -0.0007048129945391409 0 -0.033778521483103931 -0.00079180070428172425 0 -0.033778521483103931 -0.00079180070428172425 0 -0.033707772163385066 -0.0007950432034365681 0 -0.033704791811811449 -0.00073739985958979563 0 -0.033793449788144178 -0.0007048129945391409 0 -0.033778521483103931 -0.00079180070428172425 0 -0.033704791811811449 -0.00073739985958979563 0 -0.033692724364729462 -0.00066102247444148712 0 -0.033793449788144178 -0.0007048129945391409 0 -0.033704791811811449 -0.00073739985958979563 0 -0.033704791811811449 -0.00073739985958979563 0 -0.033644144916010213 -0.00070581802657256553 0 -0.033646563800985088 -0.00077648537542038341 0 -0.033692724364729462 -0.00066102247444148712 0 -0.033704791811811449 -0.00073739985958979563 0 -0.033644144916010213 -0.00070581802657256553 0 -0.033644144916010213 -0.00070581802657256553 0 -0.033646563800985088 -0.00077648537542038341 0 -0.033577162987680695 -0.0007060949603756644 0 -0.033513109482233766 -0.00080265039619798189 0 -0.033646563800985088 -0.00077648537542038341 0 -0.03364916419922373 -0.00082438368586254388 0 -0.033707772163385066 -0.0007950432034365681 0 -0.033704791811811449 -0.00073739985958979563 0 -0.033646563800985088 -0.00077648537542038341 0 -0.033707772163385066 -0.0007950432034365681 0 -0.033646563800985088 -0.00077648537542038341 0 -0.03364916419922373 -0.00082438368586254388 0 -0.033707772163385066 -0.0007950432034365681 0 -0.03364916419922373 -0.00082438368586254388 0 -0.033676398704138966 -0.0010308994581742816 0 -0.033376996194639741 -0.0010750017093161877 0 -0.03364916419922373 -0.00082438368586254388 0 -0.033448435263833183 -0.00088224717139259409 0 -0.033367444147094256 -0.001098267670490372 0 -0.033631279782412732 -0.00083476323721963703 0 -0.033344051235484166 -0.0011163302689213949 0 -0.03364916419922373 -0.00082438368586254388 0 -0.033676398704138966 -0.0010308994581742816 0 -0.033513109482233766 -0.00080265039619798189 0 -0.03364916419922373 -0.00082438368586254388 0 -0.033448435263833183 -0.00088224717139259409 0 -0.033880224139492356 -0.0008374942041161678 0 -0.033778521483103931 -0.00079180070428172425 0 -0.033676398704138966 -0.0010308994581742816 0 -0.033778521483103931 -0.00079180070428172425 0 -0.033707772163385066 -0.0007950432034365681 0 -0.033676398704138966 -0.0010308994581742816 0 -0.033766933758208342 -0.00097929014461267563 0 -0.033488055098517482 -0.0012479543106229194 0 -0.03360270870003456 -0.0014848470842729314 0 -0.033634129933956265 -0.0011255451545301341 0 -0.03330133472784675 -0.0014654792871669198 0 -0.033266433117108904 -0.00089138739494507349 0 -0.033279771938163248 -0.0007906401056300312 0 -0.033082093687451949 -0.00078461038288091289 0 -0.033170733833119838 -0.0009391444662807004 0 -0.033266433117108904 -0.00089138739494507349 0 -0.033082093687451949 -0.00078461038288091289 0 -0.033025623907673808 -0.00090145647753318197 0 -0.033170733833119838 -0.0009391444662807004 0 -0.033082093687451949 -0.00078461038288091289 0 -0.033079969225245261 -0.0010436680993373615 0 -0.033025623907673808 -0.00090145647753318197 0 -0.033170733833119838 -0.0009391444662807004 0 -0.033079969225245261 -0.0010436680993373615 0 -0.033025623907673808 -0.00090145647753318197 0 -0.032937371472562836 -0.00098069694904610264 0 -0.033079969225245261 -0.0010436680993373615 0 -0.033233825875663515 -0.0010446867788095654 0 -0.033170733833119838 -0.0009391444662807004 0 -0.033170733833119838 -0.0009391444662807004 0 -0.033282628836984213 -0.00097949448296941665 0 -0.033266433117108904 -0.00089138739494507349 0 -0.033233825875663515 -0.0010446867788095654 0 -0.033170733833119838 -0.0009391444662807004 0 -0.033282628836984213 -0.00097949448296941665 0 -0.033376996194639741 -0.0010750017093161877 0 -0.033282628836984213 -0.00097949448296941665 0 -0.033352631609311248 -0.00093765449279942399 0 -0.033282628836984213 -0.00097949448296941665 0 -0.033352631609311248 -0.00093765449279942399 0 -0.033266433117108904 -0.00089138739494507349 0 -0.033376996194639741 -0.0010750017093161877 0 -0.033352631609311248 -0.00093765449279942399 0 -0.033448435263833183 -0.00088224717139259409 0 -0.033352631609311248 -0.00093765449279942399 0 -0.033448435263833183 -0.00088224717139259409 0 -0.033359151173305818 -0.00083702688440178785 0 -0.033448435263833183 -0.00088224717139259409 0 -0.033359151173305818 -0.00083702688440178785 0 -0.033432689061883729 -0.00081097953959891912 0 -0.033513109482233766 -0.00080265039619798189 0 -0.033448435263833183 -0.00088224717139259409 0 -0.033432689061883729 -0.00081097953959891912 0 -0.033352631609311248 -0.00093765449279942399 0 -0.033266433117108904 -0.00089138739494507349 0 -0.033359151173305818 -0.00083702688440178785 0 -0.033266433117108904 -0.00089138739494507349 0 -0.033359151173305818 -0.00083702688440178785 0 -0.033279771938163248 -0.0007906401056300312 0 -0.033359151173305818 -0.00083702688440178785 0 -0.033432689061883729 -0.00081097953959891912 0 -0.03328393165912908 -0.00068006994573856921 0 -0.03352902409996264 -0.00078479175067270365 0 -0.033644180956357628 -0.00058137762087749655 0 -0.033359151173305818 -0.00083702688440178785 0 -0.033279771938163248 -0.0007906401056300312 0 -0.03328393165912908 -0.00068006994573856921 0 -0.033513109482233766 -0.00080265039619798189 0 -0.033646563800985088 -0.00077648537542038341 0 -0.03328393165912908 -0.00068006994573856921 0 -0.033646563800985088 -0.00077648537542038341 0 -0.033577162987680695 -0.0007060949603756644 0 -0.033487727399330279 -0.00074045084884546497 0 -0.03350303083824932 -0.00073279716761723279 0 -0.033644180956357628 -0.00058137762087749655 0 -0.033513109482233766 -0.00080265039619798189 0 -0.033432689061883729 -0.00081097953959891912 0 -0.03328393165912908 -0.00068006994573856921 0 -0.033644180956357628 -0.00058137762087749655 0 -0.034231136818827633 -0.00040795517157589704 0 -0.033577162987680695 -0.0007060949603756644 0 -0.033487727399330279 -0.00074045084884546497 0 -0.033484433791647984 -0.00066031182348425465 0 -0.03327223391271189 -0.00067318920973891833 0 -0.033082093687451949 -0.00078461038288091289 0 -0.032931269782406687 -0.00066677522109061704 0 -0.034258741413106746 -0.0003934290054372734 0 -0.034179130122793458 -0.00036748391616390379 0 -0.034114237704138323 -0.00036939268478144278 0 -0.034258741413106746 -0.0003934290054372734 0 -0.034179130122793458 -0.00036748391616390379 0 -0.034258143631293869 -0.00032029443724903038 0 -0.033644180956357628 -0.00058137762087749655 0 -0.033561610537968585 -0.00052165617089050314 0 -0.033279771938163248 -0.0007906401056300312 0 -0.03327223391271189 -0.00067318920973891833 0 -0.033082093687451949 -0.00078461038288091289 0 -0.034145509800417834 -0.00027340695105376825 0 -0.034277088108765306 -0.0003109696128428325 0 -0.034283570139807602 -9.9959865632983136e-05 0 -0.034179130122793458 -0.00036748391616390379 0 -0.034145509800417834 -0.00027340695105376825 0 -0.034114237704138323 -0.00036939268478144278 0 -0.034179130122793458 -0.00036748391616390379 0 -0.034145509800417834 -0.00027340695105376825 0 -0.034277088108765306 -0.0003109696128428325 0 -0.034215872975966552 -0.0003557514214714134 0 -0.034231136818827633 -0.00040795517157589704 0 -0.034574342424960908 -0.00012438968707295867 0 -0.034231136818827633 -0.00040795517157589704 0 -0.035003725131792236 -7.1131064400379845e-06 0 -0.034998720870602025 -3.8002557087311289e-06 0 -0.034983809576979878 -1.868434629283583e-05 0 -0.033614781121164283 -0.00065044111181923202 0 -0.033577162987680695 -0.0007060949603756644 0 -0.033484433791647984 -0.00066031182348425465 0 -0.034231136818827633 -0.00040795517157589704 0 -0.034656841574333283 6.4546655534403996e-05 0 -0.034998720870602025 -3.8002557087311289e-06 0 -0.034983809576979878 -1.868434629283583e-05 0 -0.035002315698042803 -2.0165161181469029e-09 0 -0.035000005421246691 -5.5003333797732693e-09 0 -0.034998720870602025 -3.8002557087311289e-06 0 -0.035002315698042803 -2.0165161181469029e-09 0 -0.034656841574333283 6.4546655534403996e-05 0 -0.034541363894051311 -9.8510373284533184e-05 0 -0.035002344659435164 -9.4224402970188231e-11 0 -0.03499900923139241 -1.5043767718361222e-06 0 -0.034999995098432636 -2.1044229272802112e-09 0 -0.034145509800417834 -0.00027340695105376825 0 -0.034283570139807602 -9.9959865632983136e-05 0 -0.034119814340116891 -0.00017472924052093199 0 -0.03499900923139241 -1.5043767718361222e-06 0 -0.034999995098432636 -2.1044229272802112e-09 0 -0.034996597495113163 -2.2390861203593037e-06 0 -0.034541363894051311 -9.8510373284533184e-05 0 -0.034552341743381315 -0.00017481259893750099 0 -0.034999995098432636 -2.1044229272802112e-09 0 -0.034996597495113163 -2.2390861203593037e-06 0 -0.034999995697631583 -4.0346085697329069e-10 0 -0.03396105928240585 -0.00025097053548567755 0 -0.034044919394431813 -0.00034891124554934229 0 -0.033954077688496655 -0.00034764829823268403 0 -0.034552341743381315 -0.00017481259893750099 0 -0.03395908780507282 -0.0002589971644249048 0 -0.034145509800417834 -0.00027340695105376825 0 -0.034119814340116891 -0.00017472924052093199 0 -0.033964386991207948 -0.00024720622097937361 0 -0.034145509800417834 -0.00027340695105376825 0 -0.033964386991207948 -0.00024720622097937361 0 -0.034044919394431813 -0.00034891124554934229 0 -0.034145509800417834 -0.00027340695105376825 0 -0.034114237704138323 -0.00036939268478144278 0 -0.034044919394431813 -0.00034891124554934229 0 -0.034714133700878488 -3.1445775202924897e-05 0 -0.034998968616110744 4.4839047223614323e-07 0 -0.034999469751378028 -3.981738862651781e-07 0 -0.0347030076098764 -4.7228441629041621e-05 0 -0.034714133700878488 -3.1445775202924897e-05 0 -0.034999469751378028 -3.981738862651781e-07 0 -0.034714133700878488 -3.1445775202924897e-05 0 -0.034721537192618085 -0.00011044537322887156 0 -0.034210899656352892 -9.5179070994639751e-05 0 -0.0347030076098764 -4.7228441629041621e-05 0 -0.034714133700878488 -3.1445775202924897e-05 0 -0.034210899656352892 -9.5179070994639751e-05 0 -0.035068701586459743 -0.00015822401475682437 0 -0.034998968616110744 4.4839047223614323e-07 0 -0.034721537192618085 -0.00011044537322887156 0 -0.034552341743381315 -0.00017481259893750099 0 -0.035000356844653621 -1.5642188356762729e-07 0 -0.034714133700878488 -3.1445775202924897e-05 0 -0.034998968616110744 4.4839047223614323e-07 0 -0.034721537192618085 -0.00011044537322887156 0 -0.034552341743381315 -0.00017481259893750099 0 -0.033811935606224912 -0.00049103286689267166 0 -0.03396105928240585 -0.00025097053548567755 0 -0.033796804106648475 -0.00032715366823230619 0 -0.033954077688496655 -0.00034764829823268403 0 -0.035068701586459743 -0.00015822401475682437 0 -0.03436468955031266 -0.00048689286740592481 0 -0.034721537192618085 -0.00011044537322887156 0 -0.033811935606224912 -0.00049103286689267166 0 -0.033289315223389952 -0.00054312249228652756 0 -0.03436468955031266 -0.00048689286740592481 0 -0.034721537192618085 -0.00011044537322887156 0 -0.034210899656352892 -9.5179070994639751e-05 0 -0.0347030076098764 -4.7228441629041621e-05 0 -0.034210899656352892 -9.5179070994639751e-05 0 -0.034953440775015429 5.0566464419802769e-05 0 -0.034210899656352892 -9.5179070994639751e-05 0 -0.034196424793625155 -0.00051061164080421254 0 -0.033830382521154355 -0.000467272068243232 0 -0.03436468955031266 -0.00048689286740592481 0 -0.034210899656352892 -9.5179070994639751e-05 0 -0.034196424793625155 -0.00051061164080421254 0 -0.034561758604566936 -0.00061532775307043418 0 -0.033574293962228309 -0.0007449692430565618 0 -0.034196424793625155 -0.00051061164080421254 0 -0.033574293962228309 -0.0007449692430565618 0 -0.034196424793625155 -0.00051061164080421254 0 -0.033830382521154355 -0.000467272068243232 0 -0.033811935606224912 -0.00049103286689267166 0 -0.033747262520632461 -0.00055876416102463352 0 -0.033811935606224912 -0.00049103286689267166 0 -0.033857941643996824 -0.00049678049246080461 0 -0.033574293962228309 -0.0007449692430565618 0 -0.033830382521154355 -0.000467272068243232 0 -0.033334259900851378 -0.00074654854615318939 0 -0.033830382521154355 -0.000467272068243232 0 -0.033402804939474777 -0.00055563383434950088 0 -0.033334259900851378 -0.00074654854615318939 0 -0.034210899656352892 -9.5179070994639751e-05 0 -0.033830382521154355 -0.000467272068243232 0 -0.033402804939474777 -0.00055563383434950088 0 -0.032914838506031469 -0.0007661385866718054 0 -0.033029782144661617 -0.00072044558813809628 0 -0.032712768731438711 -0.00069972640317008783 0 -0.032914838506031469 -0.0007661385866718054 0 -0.033334259900851378 -0.00074654854615318939 0 -0.033060961795881805 -0.00071858739530312468 0 -0.033574293962228309 -0.0007449692430565618 0 -0.033334259900851378 -0.00074654854615318939 0 -0.033029782144661617 -0.00072044558813809628 0 -0.033171767936870954 -0.00089706572613271088 0 -0.033574293962228309 -0.0007449692430565618 0 -0.033029782144661617 -0.00072044558813809628 0 -0.032914838506031469 -0.0007661385866718054 0 -0.033334259900851378 -0.00074654854615318939 0 -0.033029782144661617 -0.00072044558813809628 0 -0.033029782144661617 -0.00072044558813809628 0 -0.032712768731438711 -0.00069972640317008783 0 -0.032721950681109883 -0.00072825885940555504 0 -0.033171767936870954 -0.00089706572613271088 0 -0.033029782144661617 -0.00072044558813809628 0 -0.032721950681109883 -0.00072825885940555504 0 -0.032712768731438711 -0.00069972640317008783 0 -0.032697600693053448 -0.00080083744145702587 0 -0.032445149797343947 -0.0010551751477155277 0 -0.032712768731438711 -0.00069972640317008783 0 -0.032344730484979989 -0.00073383294358365383 0 -0.032445149797343947 -0.0010551751477155277 0 -0.032914838506031469 -0.0007661385866718054 0 -0.032712768731438711 -0.00069972640317008783 0 -0.032344730484979989 -0.00073383294358365383 0 -0.032931269782406687 -0.00066677522109061704 0 -0.032721950681109883 -0.00072825885940555504 0 -0.032856982337665784 -0.00081090459541183983 0 -0.033561610537968585 -0.00052165617089050314 0 -0.033289315223389952 -0.00054312249228652756 0 -0.034114237704138323 -0.00036939268478144278 0 -0.034044919394431813 -0.00034891124554934229 0 -0.033954077688496655 -0.00034764829823268403 0 -0.033082093687451949 -0.00078461038288091289 0 -0.032931269782406687 -0.00066677522109061704 0 -0.032856982337665784 -0.00081090459541183983 0 -0.032721950681109883 -0.00072825885940555504 0 -0.032697600693053448 -0.00080083744145702587 0 -0.032856982337665784 -0.00081090459541183983 0 -0.032712768731438711 -0.00069972640317008783 0 -0.032721950681109883 -0.00072825885940555504 0 -0.032697600693053448 -0.00080083744145702587 0 -0.032697600693053448 -0.00080083744145702587 0 -0.032856982337665784 -0.00081090459541183983 0 -0.032766691018847577 -0.0010294592693923595 0 -0.032856982337665784 -0.00081090459541183983 0 -0.032937371472562836 -0.00098069694904610264 0 -0.032766691018847577 -0.0010294592693923595 0 -0.033025623907673808 -0.00090145647753318197 0 -0.033082093687451949 -0.00078461038288091289 0 -0.032856982337665784 -0.00081090459541183983 0 -0.033025623907673808 -0.00090145647753318197 0 -0.032856982337665784 -0.00081090459541183983 0 -0.032937371472562836 -0.00098069694904610264 0 -0.032937371472562836 -0.00098069694904610264 0 -0.0329429009189149 -0.0011109516826357316 0 -0.032766691018847577 -0.0010294592693923595 0 -0.033079969225245261 -0.0010436680993373615 0 -0.032937371472562836 -0.00098069694904610264 0 -0.0329429009189149 -0.0011109516826357316 0 -0.032766691018847577 -0.0010294592693923595 0 -0.03284772373528274 -0.0012836828368642168 0 -0.032598108951379962 -0.0012877148103964547 0 -0.033045487824815319 -0.0012247755203366089 0 -0.0329429009189149 -0.0011109516826357316 0 -0.03284772373528274 -0.0012836828368642168 0 -0.033045487824815319 -0.0012247755203366089 0 -0.033011243430387173 -0.00137413679062309 0 -0.03284772373528274 -0.0012836828368642168 0 -0.0329429009189149 -0.0011109516826357316 0 -0.032766691018847577 -0.0010294592693923595 0 -0.03284772373528274 -0.0012836828368642168 0 -0.033011243430387173 -0.00137413679062309 0 -0.03284772373528274 -0.0012836828368642168 0 -0.03287483787425028 -0.0014610330627727662 0 -0.033011243430387173 -0.00137413679062309 0 -0.03287483787425028 -0.0014610330627727662 0 -0.032947042436394645 -0.001528869710688724 0 -0.03284772373528274 -0.0012836828368642168 0 -0.03287483787425028 -0.0014610330627727662 0 -0.03272103586867995 -0.0014505652419080257 0 -0.03284772373528274 -0.0012836828368642168 0 -0.03272103586867995 -0.0014505652419080257 0 -0.032598108951379962 -0.0012877148103964547 0 -0.03287483787425028 -0.0014610330627727662 0 -0.03272103586867995 -0.0014505652419080257 0 -0.032777301256255394 -0.0015584024930639993 0 -0.03272103586867995 -0.0014505652419080257 0 -0.032777301256255394 -0.0015584024930639993 0 -0.032664027158299871 -0.0016099008692375281 0 -0.03272103586867995 -0.0014505652419080257 0 -0.032664027158299871 -0.0016099008692375281 0 -0.032544392254917003 -0.0015518707537514119 0 -0.032664027158299871 -0.0016099008692375281 0 -0.032551828299380421 -0.0016892320102231794 0 -0.032544392254917003 -0.0015518707537514119 0 -0.032664027158299871 -0.0016099008692375281 0 -0.032551828299380421 -0.0016892320102231794 0 -0.032636207135892437 -0.0017668617927629972 0 -0.032664027158299871 -0.0016099008692375281 0 -0.032749092622800319 -0.0016711223733436743 0 -0.032636207135892437 -0.0017668617927629972 0 -0.032777301256255394 -0.0015584024930639993 0 -0.032664027158299871 -0.0016099008692375281 0 -0.032749092622800319 -0.0016711223733436743 0 -0.032947042436394645 -0.001528869710688724 0 -0.032830796676293093 -0.0016002786121042194 0 -0.032750438935673587 -0.0018018790127048267 0 -0.032749092622800319 -0.0016711223733436743 0 -0.032830796676293093 -0.0016002786121042194 0 -0.032750438935673587 -0.0018018790127048267 0 -0.033142991794223961 -0.0014552125157819683 0 -0.032947042436394645 -0.001528869710688724 0 -0.032750438935673587 -0.0018018790127048267 0 -0.032777301256255394 -0.0015584024930639993 0 -0.032749092622800319 -0.0016711223733436743 0 -0.032830796676293093 -0.0016002786121042194 0 -0.03287483787425028 -0.0014610330627727662 0 -0.032947042436394645 -0.001528869710688724 0 -0.032830796676293093 -0.0016002786121042194 0 -0.03287483787425028 -0.0014610330627727662 0 -0.032777301256255394 -0.0015584024930639993 0 -0.032830796676293093 -0.0016002786121042194 0 -0.032361744157707921 -0.0015055627716213929 0 -0.032401444108570494 -0.001737329310457699 0 -0.032208278489534628 -0.0017459856508074594 0 -0.032361744157707921 -0.0015055627716213929 0 -0.032544392254917003 -0.0015518707537514119 0 -0.032401444108570494 -0.001737329310457699 0 -0.032551828299380421 -0.0016892320102231794 0 -0.032544392254917003 -0.0015518707537514119 0 -0.032401444108570494 -0.001737329310457699 0 -0.032361744157707921 -0.0015055627716213929 0 -0.032544392254917003 -0.0015518707537514119 0 -0.032598108951379962 -0.0012877148103964547 0 -0.03272103586867995 -0.0014505652419080257 0 -0.032544392254917003 -0.0015518707537514119 0 -0.032598108951379962 -0.0012877148103964547 0 -0.032361744157707921 -0.0015055627716213929 0 -0.032598108951379962 -0.0012877148103964547 0 -0.032445149797343947 -0.0010551751477155277 0 -0.032766691018847577 -0.0010294592693923595 0 -0.032598108951379962 -0.0012877148103964547 0 -0.032445149797343947 -0.0010551751477155277 0 -0.032697600693053448 -0.00080083744145702587 0 -0.032766691018847577 -0.0010294592693923595 0 -0.032445149797343947 -0.0010551751477155277 0 -0.032344730484979989 -0.00073383294358365383 0 -0.031667570542792248 -0.0015095427735364565 0 -0.030889723140345857 -0.0012934456663801156 0 -0.032344730484979989 -0.00073383294358365383 0 -0.032445149797343947 -0.0010551751477155277 0 -0.031667570542792248 -0.0015095427735364565 0 -0.031667570542792248 -0.0015095427735364565 0 -0.032056176723712332 -0.0016067475838320981 0 -0.03165911191326385 -0.0019509787930229025 0 -0.031667570542792248 -0.0015095427735364565 0 -0.031406769345829824 -0.001881199163019406 0 -0.03165911191326385 -0.0019509787930229025 0 -0.031667570542792248 -0.0015095427735364565 0 -0.031406769345829824 -0.001881199163019406 0 -0.031083310303069843 -0.0018869966442126515 0 -0.032445149797343947 -0.0010551751477155277 0 -0.031667570542792248 -0.0015095427735364565 0 -0.032056176723712332 -0.0016067475838320981 0 -0.032361744157707921 -0.0015055627716213929 0 -0.032445149797343947 -0.0010551751477155277 0 -0.032056176723712332 -0.0016067475838320981 0 -0.032361744157707921 -0.0015055627716213929 0 -0.032056176723712332 -0.0016067475838320981 0 -0.032208278489534628 -0.0017459856508074594 0 -0.032056176723712332 -0.0016067475838320981 0 -0.031986403451253136 -0.0019506831128274515 0 -0.032208278489534628 -0.0017459856508074594 0 -0.032056176723712332 -0.0016067475838320981 0 -0.031986403451253136 -0.0019506831128274515 0 -0.03165911191326385 -0.0019509787930229025 0 -0.031986403451253136 -0.0019506831128274515 0 -0.03165911191326385 -0.0019509787930229025 0 -0.031713266637237364 -0.0023385928994758198 0 -0.03165911191326385 -0.0019509787930229025 0 -0.031431473739140986 -0.0022813200948289709 0 -0.031713266637237364 -0.0023385928994758198 0 -0.031986403451253136 -0.0019506831128274515 0 -0.031713266637237364 -0.0023385928994758198 0 -0.032023156802583934 -0.0021425576425213133 0 -0.031406769345829824 -0.001881199163019406 0 -0.03117902776491243 -0.0022402628371384664 0 -0.031083310303069843 -0.0018869966442126515 0 -0.031406769345829824 -0.001881199163019406 0 -0.03165911191326385 -0.0019509787930229025 0 -0.03117902776491243 -0.0022402628371384664 0 -0.03165911191326385 -0.0019509787930229025 0 -0.03117902776491243 -0.0022402628371384664 0 -0.031431473739140986 -0.0022813200948289709 0 -0.03117902776491243 -0.0022402628371384664 0 -0.031172491305879898 -0.0025937583935631008 0 -0.030797165632535664 -0.0028265693200123262 0 -0.03117902776491243 -0.0022402628371384664 0 -0.031431473739140986 -0.0022813200948289709 0 -0.031172491305879898 -0.0025937583935631008 0 -0.031431473739140986 -0.0022813200948289709 0 -0.031172491305879898 -0.0025937583935631008 0 -0.031713266637237364 -0.0023385928994758198 0 -0.031713266637237364 -0.0023385928994758198 0 -0.031964625312885638 -0.0023307371629647435 0 -0.032023156802583934 -0.0021425576425213133 0 -0.031172491305879898 -0.0025937583935631008 0 -0.031713266637237364 -0.0023385928994758198 0 -0.031243980869886355 -0.0028337389110159408 0 -0.031713266637237364 -0.0023385928994758198 0 -0.031964625312885638 -0.0023307371629647435 0 -0.031721406992590379 -0.0026957924799946606 0 -0.031713266637237364 -0.0023385928994758198 0 -0.031721406992590379 -0.0026957924799946606 0 -0.031243980869886355 -0.0028337389110159408 0 -0.032052699646130757 -0.002487704558969656 0 -0.031964625312885638 -0.0023307371629647435 0 -0.031721406992590379 -0.0026957924799946606 0 -0.032052699646130757 -0.002487704558969656 0 -0.032147023862401036 -0.0026735714599061856 0 -0.031721406992590379 -0.0026957924799946606 0 -0.032052699646130757 -0.002487704558969656 0 -0.031964625312885638 -0.0023307371629647435 0 -0.032155783134140518 -0.002332697633307033 0 -0.031964625312885638 -0.0023307371629647435 0 -0.032155783134140518 -0.002332697633307033 0 -0.032200217616387597 -0.0021626578595329623 0 -0.031964625312885638 -0.0023307371629647435 0 -0.032023156802583934 -0.0021425576425213133 0 -0.032200217616387597 -0.0021626578595329623 0 -0.032316470004029013 -0.0022552940830341756 0 -0.032405376387154253 -0.0023393529246091009 0 -0.032414527077563149 -0.0022265741706198184 0 -0.032316470004029013 -0.0022552940830341756 0 -0.032414527077563149 -0.0022265741706198184 0 -0.032391214703403892 -0.0021849174884191504 0 -0.032316470004029013 -0.0022552940830341756 0 -0.032155783134140518 -0.002332697633307033 0 -0.032200217616387597 -0.0021626578595329623 0 -0.032316470004029013 -0.0022552940830341756 0 -0.032155783134140518 -0.002332697633307033 0 -0.032240824325242806 -0.0024263411191149864 0 -0.032052699646130757 -0.002487704558969656 0 -0.032155783134140518 -0.002332697633307033 0 -0.032240824325242806 -0.0024263411191149864 0 -0.032240824325242806 -0.0024263411191149864 0 -0.032356841117080905 -0.0025053898671618144 0 -0.032405376387154253 -0.0023393529246091009 0 -0.032316470004029013 -0.0022552940830341756 0 -0.032240824325242806 -0.0024263411191149864 0 -0.032405376387154253 -0.0023393529246091009 0 -0.032240824325242806 -0.0024263411191149864 0 -0.032356841117080905 -0.0025053898671618144 0 -0.032147023862401036 -0.0026735714599061856 0 -0.032052699646130757 -0.002487704558969656 0 -0.032240824325242806 -0.0024263411191149864 0 -0.032147023862401036 -0.0026735714599061856 0 -0.032481422855764032 -0.0026363095021961248 0 -0.032356841117080905 -0.0025053898671618144 0 -0.032147023862401036 -0.0026735714599061856 0 -0.032481422855764032 -0.0026363095021961248 0 -0.032356841117080905 -0.0025053898671618144 0 -0.032489927351917955 -0.0024107493814990925 0 -0.032481422855764032 -0.0026363095021961248 0 -0.032594760612626394 -0.0024455363406927877 0 -0.032489927351917955 -0.0024107493814990925 0 -0.032769536086825764 -0.0025744629275908483 0 -0.032481422855764032 -0.0026363095021961248 0 -0.032594760612626394 -0.0024455363406927877 0 -0.032731860076044852 -0.0023195752681649793 0 -0.032769536086825764 -0.0025744629275908483 0 -0.032594760612626394 -0.0024455363406927877 0 -0.032731860076044852 -0.0023195752681649793 0 -0.032594760612626394 -0.0024455363406927877 0 -0.03260045877435562 -0.0022860372944632943 0 -0.032594760612626394 -0.0024455363406927877 0 -0.03260045877435562 -0.0022860372944632943 0 -0.032489927351917955 -0.0024107493814990925 0 -0.032731860076044852 -0.0023195752681649793 0 -0.03260045877435562 -0.0022860372944632943 0 -0.032686979047794176 -0.0022090717879269363 0 -0.032356841117080905 -0.0025053898671618144 0 -0.032405376387154253 -0.0023393529246091009 0 -0.032489927351917955 -0.0024107493814990925 0 -0.03260045877435562 -0.0022860372944632943 0 -0.032489927351917955 -0.0024107493814990925 0 -0.032514202181071761 -0.0022891482223354313 0 -0.032405376387154253 -0.0023393529246091009 0 -0.032489927351917955 -0.0024107493814990925 0 -0.032514202181071761 -0.0022891482223354313 0 -0.03260045877435562 -0.0022860372944632943 0 -0.032514202181071761 -0.0022891482223354313 0 -0.032559929228315819 -0.0022140305970206643 0 -0.032514202181071761 -0.0022891482223354313 0 -0.032512159406480147 -0.0022200786653644253 0 -0.032456817962042743 -0.0022704284879549647 0 -0.032514202181071761 -0.0022891482223354313 0 -0.032512159406480147 -0.0022200786653644253 0 -0.032559929228315819 -0.0022140305970206643 0 -0.032405376387154253 -0.0023393529246091009 0 -0.032456817962042743 -0.0022704284879549647 0 -0.032414527077563149 -0.0022265741706198184 0 -0.032512159406480147 -0.0022200786653644253 0 -0.032456817962042743 -0.0022704284879549647 0 -0.032509860861614677 -0.0021767415159989595 0 -0.032405376387154253 -0.0023393529246091009 0 -0.032514202181071761 -0.0022891482223354313 0 -0.032456817962042743 -0.0022704284879549647 0 -0.032456817962042743 -0.0022704284879549647 0 -0.032414527077563149 -0.0022265741706198184 0 -0.032509860861614677 -0.0021767415159989595 0 -0.033142991794223961 -0.0014552125157819683 0 -0.032527853293301136 -0.0021218862921985478 0 -0.032750438935673587 -0.0018018790127048267 0 -0.032987449612330091 -0.0014877357318428912 0 -0.033001418463386216 -0.0015858416689821511 0 -0.032610961900849632 -0.001891200284651108 0 -0.032804159859292331 -0.0019822238281639215 0 -0.032527853293301136 -0.0021218862921985478 0 -0.032685141410146813 -0.002117776043955332 0 -0.032414527077563149 -0.0022265741706198184 0 -0.032463669067011737 -0.0021717272746695098 0 -0.032509860861614677 -0.0021767415159989595 0 -0.032527853293301136 -0.0021218862921985478 0 -0.032568494250655902 -0.0021445068300856426 0 -0.032685141410146813 -0.002117776043955332 0 -0.032893308750422547 -0.0017853863021444877 0 -0.032591420704749782 -0.0019863251751961828 0 -0.033050942306431366 -0.0014804747030393614 0 -0.032591420704749782 -0.0019863251751961828 0 -0.032463669067011737 -0.0021717272746695098 0 -0.032527853293301136 -0.0021218862921985478 0 -0.032420091258260689 -0.0021207504712158869 0 -0.032463669067011737 -0.0021717272746695098 0 -0.032527853293301136 -0.0021218862921985478 0 -0.032509860861614677 -0.0021767415159989595 0 -0.032527853293301136 -0.0021218862921985478 0 -0.032509860861614677 -0.0021767415159989595 0 -0.032536113755683285 -0.0021803499372628427 0 -0.032512159406480147 -0.0022200786653644253 0 -0.032509860861614677 -0.0021767415159989595 0 -0.032536113755683285 -0.0021803499372628427 0 -0.032536113755683285 -0.0021803499372628427 0 -0.032559929228315819 -0.0022140305970206643 0 -0.032568494250655902 -0.0021445068300856426 0 -0.032559929228315819 -0.0022140305970206643 0 -0.032568494250655902 -0.0021445068300856426 0 -0.032623966942269975 -0.002186491352733595 0 -0.032512159406480147 -0.0022200786653644253 0 -0.032536113755683285 -0.0021803499372628427 0 -0.032559929228315819 -0.0022140305970206643 0 -0.032527853293301136 -0.0021218862921985478 0 -0.032536113755683285 -0.0021803499372628427 0 -0.032568494250655902 -0.0021445068300856426 0 -0.032577640007976978 -0.0020054768108823426 0 -0.032534710337529041 -0.0020589718991147147 0 -0.032538242275409746 -0.0019062405474572614 0 -0.032534710337529041 -0.0020589718991147147 0 -0.032538242275409746 -0.0019062405474572614 0 -0.032459266109650567 -0.002003200295078313 0 -0.032527853293301136 -0.0021218862921985478 0 -0.032420091258260689 -0.0021207504712158869 0 -0.032459266109650567 -0.002003200295078313 0 -0.032527853293301136 -0.0021218862921985478 0 -0.032534710337529041 -0.0020589718991147147 0 -0.032459266109650567 -0.002003200295078313 0 -0.032527853293301136 -0.0021218862921985478 0 -0.032577640007976978 -0.0020054768108823426 0 -0.032534710337529041 -0.0020589718991147147 0 -0.032568494250655902 -0.0021445068300856426 0 -0.032623966942269975 -0.002186491352733595 0 -0.032685141410146813 -0.002117776043955332 0 -0.032686979047794176 -0.0022090717879269363 0 -0.032623966942269975 -0.002186491352733595 0 -0.032685141410146813 -0.002117776043955332 0 -0.03260045877435562 -0.0022860372944632943 0 -0.032559929228315819 -0.0022140305970206643 0 -0.032623966942269975 -0.002186491352733595 0 -0.03260045877435562 -0.0022860372944632943 0 -0.032686979047794176 -0.0022090717879269363 0 -0.032623966942269975 -0.002186491352733595 0 -0.032527853293301136 -0.0021218862921985478 0 -0.032577640007976978 -0.0020054768108823426 0 -0.032750438935673587 -0.0018018790127048267 0 -0.032577640007976978 -0.0020054768108823426 0 -0.032538242275409746 -0.0019062405474572614 0 -0.032630258887300277 -0.0018713163587851765 0 -0.032577640007976978 -0.0020054768108823426 0 -0.032750438935673587 -0.0018018790127048267 0 -0.032630258887300277 -0.0018713163587851765 0 -0.032749092622800319 -0.0016711223733436743 0 -0.032750438935673587 -0.0018018790127048267 0 -0.032636207135892437 -0.0017668617927629972 0 -0.032750438935673587 -0.0018018790127048267 0 -0.032630258887300277 -0.0018713163587851765 0 -0.032636207135892437 -0.0017668617927629972 0 -0.032551828299380421 -0.0016892320102231794 0 -0.032636207135892437 -0.0017668617927629972 0 -0.032503706136185126 -0.0018037577054820185 0 -0.032538242275409746 -0.0019062405474572614 0 -0.032630258887300277 -0.0018713163587851765 0 -0.032636207135892437 -0.0017668617927629972 0 -0.032538242275409746 -0.0019062405474572614 0 -0.032636207135892437 -0.0017668617927629972 0 -0.032503706136185126 -0.0018037577054820185 0 -0.032503706136185126 -0.0018037577054820185 0 -0.032418803357674671 -0.0019029158514022033 0 -0.032401444108570494 -0.001737329310457699 0 -0.032551828299380421 -0.0016892320102231794 0 -0.032503706136185126 -0.0018037577054820185 0 -0.032401444108570494 -0.001737329310457699 0 -0.032538242275409746 -0.0019062405474572614 0 -0.032418803357674671 -0.0019029158514022033 0 -0.032459266109650567 -0.002003200295078313 0 -0.032538242275409746 -0.0019062405474572614 0 -0.032503706136185126 -0.0018037577054820185 0 -0.032418803357674671 -0.0019029158514022033 0 -0.032418803357674671 -0.0019029158514022033 0 -0.032401444108570494 -0.001737329310457699 0 -0.032238116675131018 -0.0019395142632960371 0 -0.032418803357674671 -0.0019029158514022033 0 -0.032238116675131018 -0.0019395142632960371 0 -0.032352019971214348 -0.0020384068700151333 0 -0.032401444108570494 -0.001737329310457699 0 -0.032208278489534628 -0.0017459856508074594 0 -0.032238116675131018 -0.0019395142632960371 0 -0.031986403451253136 -0.0019506831128274515 0 -0.032208278489534628 -0.0017459856508074594 0 -0.032238116675131018 -0.0019395142632960371 0 -0.031986403451253136 -0.0019506831128274515 0 -0.032238116675131018 -0.0019395142632960371 0 -0.032023156802583934 -0.0021425576425213133 0 -0.032238116675131018 -0.0019395142632960371 0 -0.032023156802583934 -0.0021425576425213133 0 -0.032200217616387597 -0.0021626578595329623 0 -0.032200217616387597 -0.0021626578595329623 0 -0.032341439397717345 -0.0021490456160206659 0 -0.032352019971214348 -0.0020384068700151333 0 -0.032316470004029013 -0.0022552940830341756 0 -0.032200217616387597 -0.0021626578595329623 0 -0.032341439397717345 -0.0021490456160206659 0 -0.032316470004029013 -0.0022552940830341756 0 -0.032391214703403892 -0.0021849174884191504 0 -0.032341439397717345 -0.0021490456160206659 0 -0.032414527077563149 -0.0022265741706198184 0 -0.032463669067011737 -0.0021717272746695098 0 -0.032391214703403892 -0.0021849174884191504 0 -0.032391214703403892 -0.0021849174884191504 0 -0.032420091258260689 -0.0021207504712158869 0 -0.032341439397717345 -0.0021490456160206659 0 -0.032463669067011737 -0.0021717272746695098 0 -0.032391214703403892 -0.0021849174884191504 0 -0.032420091258260689 -0.0021207504712158869 0 -0.032420091258260689 -0.0021207504712158869 0 -0.032341439397717345 -0.0021490456160206659 0 -0.032352019971214348 -0.0020384068700151333 0 -0.032420091258260689 -0.0021207504712158869 0 -0.032459266109650567 -0.002003200295078313 0 -0.032352019971214348 -0.0020384068700151333 0 -0.032418803357674671 -0.0019029158514022033 0 -0.032459266109650567 -0.002003200295078313 0 -0.032352019971214348 -0.0020384068700151333 0 -0.032238116675131018 -0.0019395142632960371 0 -0.032200217616387597 -0.0021626578595329623 0 -0.032352019971214348 -0.0020384068700151333 0 -0.02989919210510052 -0.0019656171349855568 0 -0.029586960546475062 -0.0021455431279850654 0 -0.02978746826272595 -0.0024033001098687991 0 -0.02989919210510052 -0.0019656171349855568 0 -0.02978746826272595 -0.0024033001098687991 0 -0.030215890671127763 -0.0021967205067825145 0 -0.02989919210510052 -0.0019656171349855568 0 -0.030215890671127763 -0.0021967205067825145 0 -0.030288118477981428 -0.0016974065489700106 0 -0.02989919210510052 -0.0019656171349855568 0 -0.029610880450998467 -0.0018552066336534985 0 -0.029766495162123797 -0.0015920482197316363 0 -0.02989919210510052 -0.0019656171349855568 0 -0.029610880450998467 -0.0018552066336534985 0 -0.029586960546475062 -0.0021455431279850654 0 -0.029334434411882666 -0.0019620076721236441 0 -0.029197976534114614 -0.001697411911806319 0 -0.029044660028002631 -0.0024927843809329671 0 -0.029610880450998467 -0.0018552066336534985 0 -0.029334434411882666 -0.0019620076721236441 0 -0.029439145369136652 -0.001700832447868303 0 -0.029610880450998467 -0.0018552066336534985 0 -0.029334434411882666 -0.0019620076721236441 0 -0.029586960546475062 -0.0021455431279850654 0 -0.029334434411882666 -0.0019620076721236441 0 -0.029338024625009711 -0.0022217443553667615 0 -0.029044660028002631 -0.0024927843809329671 0 -0.029334434411882666 -0.0019620076721236441 0 -0.029197976534114614 -0.001697411911806319 0 -0.029439145369136652 -0.001700832447868303 0 -0.029338024625009711 -0.0022217443553667615 0 -0.029586960546475062 -0.0021455431279850654 0 -0.029480848807647175 -0.002366784955959155 0 -0.029334434411882666 -0.0019620076721236441 0 -0.029338024625009711 -0.0022217443553667615 0 -0.029586960546475062 -0.0021455431279850654 0 -0.029480848807647175 -0.002366784955959155 0 -0.0294735202365435 -0.0026094227870736356 0 -0.02978746826272595 -0.0024033001098687991 0 -0.029480848807647175 -0.002366784955959155 0 -0.029305207684017735 -0.0024956198829548539 0 -0.0294735202365435 -0.0026094227870736356 0 -0.029586960546475062 -0.0021455431279850654 0 -0.029480848807647175 -0.002366784955959155 0 -0.02978746826272595 -0.0024033001098687991 0 -0.029338024625009711 -0.0022217443553667615 0 -0.029305207684017735 -0.0024956198829548539 0 -0.029044660028002631 -0.0024927843809329671 0 -0.029338024625009711 -0.0022217443553667615 0 -0.029480848807647175 -0.002366784955959155 0 -0.029305207684017735 -0.0024956198829548539 0 -0.029305207684017735 -0.0024956198829548539 0 -0.029044660028002631 -0.0024927843809329671 0 -0.029195869970874148 -0.0027601193077031014 0 -0.029305207684017735 -0.0024956198829548539 0 -0.0294735202365435 -0.0026094227870736356 0 -0.029195869970874148 -0.0027601193077031014 0 -0.02978746826272595 -0.0024033001098687991 0 -0.030082548734410134 -0.0027040299663187799 0 -0.030215890671127763 -0.0021967205067825145 0 -0.02978746826272595 -0.0024033001098687991 0 -0.030082548734410134 -0.0027040299663187799 0 -0.029713212425637861 -0.0028520404559030069 0 -0.0294735202365435 -0.0026094227870736356 0 -0.02978746826272595 -0.0024033001098687991 0 -0.029713212425637861 -0.0028520404559030069 0 -0.030082548734410134 -0.0027040299663187799 0 -0.030602421810716093 -0.0024561886161743292 0 -0.030372163461133941 -0.0031521535598037784 0 -0.030082548734410134 -0.0027040299663187799 0 -0.030602421810716093 -0.0024561886161743292 0 -0.030215890671127763 -0.0021967205067825145 0 -0.03117902776491243 -0.0022402628371384664 0 -0.030602421810716093 -0.0024561886161743292 0 -0.030797165632535664 -0.0028265693200123262 0 -0.03117902776491243 -0.0022402628371384664 0 -0.030602421810716093 -0.0024561886161743292 0 -0.031083310303069843 -0.0018869966442126515 0 -0.030602421810716093 -0.0024561886161743292 0 -0.031083310303069843 -0.0018869966442126515 0 -0.030615267377277371 -0.0019145083350810294 0 -0.030602421810716093 -0.0024561886161743292 0 -0.030215890671127763 -0.0021967205067825145 0 -0.030615267377277371 -0.0019145083350810294 0 -0.030215890671127763 -0.0021967205067825145 0 -0.030615267377277371 -0.0019145083350810294 0 -0.030288118477981428 -0.0016974065489700106 0 -0.030288118477981428 -0.0016974065489700106 0 -0.030889723140345857 -0.0012934456663801156 0 -0.030108853201277624 -0.0012127904353239336 0 -0.030615267377277371 -0.0019145083350810294 0 -0.030288118477981428 -0.0016974065489700106 0 -0.030889723140345857 -0.0012934456663801156 0 -0.031667570542792248 -0.0015095427735364565 0 -0.031083310303069843 -0.0018869966442126515 0 -0.030889723140345857 -0.0012934456663801156 0 -0.031083310303069843 -0.0018869966442126515 0 -0.030615267377277371 -0.0019145083350810294 0 -0.030889723140345857 -0.0012934456663801156 0 -0.030889723140345857 -0.0012934456663801156 0 -0.030364242863795615 -0.00070550756753762016 0 -0.030108853201277624 -0.0012127904353239336 0 -0.030889723140345857 -0.0012934456663801156 0 -0.030364242863795615 -0.00070550756753762016 0 -0.03091052132319257 -3.5257780474349379e-05 0 -0.030364242863795615 -0.00070550756753762016 0 -0.029803877755302282 -0.00075495109454611314 0 -0.030108853201277624 -0.0012127904353239336 0 -0.029803877755302282 -0.00075495109454611314 0 -0.030108853201277624 -0.0012127904353239336 0 -0.029607491276626915 -0.0011881894080798278 0 -0.030288118477981428 -0.0016974065489700106 0 -0.030108853201277624 -0.0012127904353239336 0 -0.029766495162123797 -0.0015920482197316363 0 -0.030108853201277624 -0.0012127904353239336 0 -0.029766495162123797 -0.0015920482197316363 0 -0.029607491276626915 -0.0011881894080798278 0 -0.02989919210510052 -0.0019656171349855568 0 -0.030288118477981428 -0.0016974065489700106 0 -0.029766495162123797 -0.0015920482197316363 0 -0.029302011351886082 -0.0011538715524156604 0 -0.029316100763650359 -0.00092248945914321745 0 -0.028899750160468255 -0.001852991151876967 0 -0.029197976534114614 -0.001697411911806319 0 -0.029302011351886082 -0.0011538715524156604 0 -0.029036168160650588 -0.0017574894199575935 0 -0.031960686377691193 -0.00070111369323685687 0 -0.030409961116797241 -0.00069180112739043102 0 -0.029197976534114614 -0.001697411911806319 0 -0.029467634014674546 -0.0014683249876586211 0 -0.029302011351886082 -0.0011538715524156604 0 -0.029610880450998467 -0.0018552066336534985 0 -0.029766495162123797 -0.0015920482197316363 0 -0.029439145369136652 -0.001700832447868303 0 -0.029197976534114614 -0.001697411911806319 0 -0.029439145369136652 -0.001700832447868303 0 -0.029467634014674546 -0.0014683249876586211 0 -0.029766495162123797 -0.0015920482197316363 0 -0.029439145369136652 -0.001700832447868303 0 -0.029467634014674546 -0.0014683249876586211 0 -0.029467634014674546 -0.0014683249876586211 0 -0.029302011351886082 -0.0011538715524156604 0 -0.029607491276626915 -0.0011881894080798278 0 -0.029766495162123797 -0.0015920482197316363 0 -0.029467634014674546 -0.0014683249876586211 0 -0.029607491276626915 -0.0011881894080798278 0 -0.030998574958489303 -0.0010631528726458516 0 -0.031960686377691193 -0.00070111369323685687 0 -0.029302011351886082 -0.0011538715524156604 0 -0.029607491276626915 -0.0011881894080798278 0 -0.02929912409714816 -0.00089712701133017991 0 -0.029803877755302282 -0.00075495109454611314 0 -0.029607491276626915 -0.0011881894080798278 0 -0.02929912409714816 -0.00089712701133017991 0 -0.031960686377691193 -0.00070111369323685687 0 -0.033970153895293093 -0.00031740111286959272 0 -0.029803877755302282 -0.00075495109454611314 0 -0.02929912409714816 -0.00089712701133017991 0 -0.029561758426835647 -0.00023501488809579105 0 -0.0326070797738496 -0.00053872646639330603 0 -0.032623471475921262 -0.00047184618934247935 0 -0.032638972135609533 -0.00048208718633152071 0 -0.031960686377691193 -0.00070111369323685687 0 -0.031047388863785354 -0.00041222376267548481 0 -0.03513155599779668 -0.00045175515652608634 0 -0.035157826823046127 -0.000302280604342266 0 -0.035034281830746847 -0.00039984775032609639 0 -0.029803877755302282 -0.00075495109454611314 0 -0.029561758426835647 -0.00023501488809579105 0 -0.030091437687379572 -0.00026158533357260622 0 -0.029561758426835647 -0.00023501488809579105 0 -0.030091437687379572 -0.00026158533357260622 0 -0.029855951002458258 0.00043633513935692475 0 -0.030364242863795615 -0.00070550756753762016 0 -0.029803877755302282 -0.00075495109454611314 0 -0.030091437687379572 -0.00026158533357260622 0 -0.031047388863785354 -0.00041222376267548481 0 -0.03190513466743241 -0.00029615540029387339 0 -0.033970153895293093 -0.00031740111286959272 0 -0.034076741217886848 -0.0004103195206955916 0 -0.035157826823046127 -0.000302280604342266 0 -0.035168248611457197 -0.00016660373848845092 0 -0.035090590397060792 -0.00018036792283048124 0 -0.032623471475921262 -0.00047184618934247935 0 -0.032659828503559238 -0.00043719583310039193 0 -0.032635868791275877 -0.00042176465311835241 0 -0.03190513466743241 -0.00029615540029387339 0 -0.034076741217886848 -0.0004103195206955916 0 -0.032623471475921262 -0.00047184618934247935 0 -0.032638972135609533 -0.00048208718633152071 0 -0.032659828503559238 -0.00043719583310039193 0 -0.032344730484979989 -0.00073383294358365383 0 -0.030889723140345857 -0.0012934456663801156 0 -0.03091052132319257 -3.5257780474349379e-05 0 -0.032914838506031469 -0.0007661385866718054 0 -0.032344730484979989 -0.00073383294358365383 0 -0.032987436425482873 -0.00078944075105037302 0 -0.032425007591697766 -0.0007435086623671321 0 -0.031764452884746275 -0.00036331714923994543 0 -0.030364242863795615 -0.00070550756753762016 0 -0.030091437687379572 -0.00026158533357260622 0 -0.03091052132319257 -3.5257780474349379e-05 0 -0.03190513466743241 -0.00029615540029387339 0 -0.031764452884746275 -0.00036331714923994543 0 -0.03242866060273477 -0.00061301833956580538 0 -0.032987436425482873 -0.00078944075105037302 0 -0.032775646470657768 -0.00055638090525733522 0 -0.030091437687379572 -0.00026158533357260622 0 -0.029855951002458258 0.00043633513935692475 0 -0.03091052132319257 -3.5257780474349379e-05 0 -0.032987436425482873 -0.00078944075105037302 0 -0.032775646470657768 -0.00055638090525733522 0 -0.033060961795881805 -0.00071858739530312468 0 -0.032914838506031469 -0.0007661385866718054 0 -0.032987436425482873 -0.00078944075105037302 0 -0.033060961795881805 -0.00071858739530312468 0 -0.033402804939474777 -0.00055563383434950088 0 -0.033334259900851378 -0.00074654854615318939 0 -0.033060961795881805 -0.00071858739530312468 0 -0.034210899656352892 -9.5179070994639751e-05 0 -0.033402804939474777 -0.00055563383434950088 0 -0.032871854459237217 -0.00027719501023070359 0 -0.034227761522889352 -0.00010123123040474043 0 -0.033889869024623327 -0.0001125357237113159 0 -0.033402804939474777 -0.00055563383434950088 0 -0.033060961795881805 -0.00071858739530312468 0 -0.032871854459237217 -0.00027719501023070359 0 -0.032775646470657768 -0.00055638090525733522 0 -0.033060961795881805 -0.00071858739530312468 0 -0.032871854459237217 -0.00027719501023070359 0 -0.032775646470657768 -0.00055638090525733522 0 -0.032871854459237217 -0.00027719501023070359 0 -0.032562984961081294 -0.0003285210868684885 0 -0.033889869024623327 -0.0001125357237113159 0 -0.033996590706555689 -0.00015504745523345129 0 -0.03500047613317632 5.4084359304928136e-07 0 -0.033996590706555689 -0.00015504745523345129 0 -0.034953440775015429 5.0566464419802769e-05 0 -0.03500023743817933 2.173875521454674e-07 0 -0.035003608071706702 4.5160923461731496e-05 0 -0.034953440775015429 5.0566464419802769e-05 0 -0.03500023743817933 2.173875521454674e-07 0 -0.034999469751378028 -3.981738862651781e-07 0 -0.0347030076098764 -4.7228441629041621e-05 0 -0.034953440775015429 5.0566464419802769e-05 0 -0.034999469751378028 -3.981738862651781e-07 0 -0.033725067887415583 -0.0004064790825767252 0 -0.033728804154046305 -0.00025337047446864351 0 -0.033404441951924151 -0.00039916646534556623 0 -0.034386596763191515 -0.00034512418951009857 0 -0.034396369481226104 -0.00010102008720481859 0 -0.034910167773913627 -0.00035455684765982732 0 -0.034544547707563114 -0.00019343701586689596 0 -0.034076741217886848 -0.0004103195206955916 0 -0.033511205129319141 -0.00014695126367376499 0 -0.033728804154046305 -0.00025337047446864351 0 -0.033404441951924151 -0.00039916646534556623 0 -0.034544547707563114 -0.00019343701586689596 0 -0.033996590706555689 -0.00015504745523345129 0 -0.03242866060273477 -0.00061301833956580538 0 -0.032775646470657768 -0.00055638090525733522 0 -0.032562984961081294 -0.0003285210868684885 0 -0.03190513466743241 -0.00029615540029387339 0 -0.033996590706555689 -0.00015504745523345129 0 -0.035000002129673059 -2.6965403388290793e-09 0 -0.034993935234946878 -4.7977395301134489e-06 0 -0.034999978928101159 -3.5112267211539264e-09 0 -0.034992048690588556 -5.3236578276890951e-06 0 -0.034993935234946878 -4.7977395301134489e-06 0 -0.034999978928101159 -3.5112267211539264e-09 0 -0.035006934864041515 -1.8776981554192452e-05 0 -0.035000041532313585 -2.9043973806437388e-08 0 -0.035005020696897232 -1.3875591724953601e-05 0 -0.034544547707563114 -0.00019343701586689596 0 -0.035000067905681206 1.982111740689097e-07 0 -0.035007129400201287 -2.2625990201315441e-05 0 -0.035005020696897232 -1.3875591724953601e-05 0 -0.034999993090678104 -1.6649508676054952e-08 0 -0.035000041532313585 -2.9043973806437388e-08 0 -0.035005020696897232 -1.3875591724953601e-05 0 -0.034999993090678104 -1.6649508676054952e-08 0 -0.035007129400201287 -2.2625990201315441e-05 0 -0.035006665388373118 -2.6514597818947941e-05 0 -0.035017353329737294 -4.4575069631023996e-05 0 -0.035007129400201287 -2.2625990201315441e-05 0 -0.035005020696897232 -1.3875591724953601e-05 0 -0.035006665388373118 -2.6514597818947941e-05 0 -0.034544547707563114 -0.00019343701586689596 0 -0.035068716411895517 -0.00017173871049829182 0 -0.035168248611457197 -0.00016660373848845092 0 -0.035058859658951773 -9.45950192142322e-05 0 -0.035090590397060792 -0.00018036792283048124 0 -0.034076741217886848 -0.0004103195206955916 0 -0.035068716411895517 -0.00017173871049829182 0 -0.035006934864041515 -1.8776981554192452e-05 0 -0.035005020696897232 -1.3875591724953601e-05 0 -0.035006665388373118 -2.6514597818947941e-05 0 -0.035068716411895517 -0.00017173871049829182 0 -0.035006815566619477 -9.8405202271634843e-05 0 -0.035058859658951773 -9.45950192142322e-05 0 -0.035033927940550005 -0.00013588185684280748 0 -0.035090590397060792 -0.00018036792283048124 0 -0.035033927940550005 -0.00013588185684280748 0 -0.035090590397060792 -0.00018036792283048124 0 -0.035014243987273187 -0.00019933693122020792 0 -0.034973680151286192 -0.00015774918129616479 0 -0.035000973271617199 -0.00012938785326639592 0 -0.034980092378277781 -8.812343172613242e-05 0 -0.034973680151286192 -0.00015774918129616479 0 -0.035000973271617199 -0.00012938785326639592 0 -0.035014243987273187 -0.00019933693122020792 0 -0.035033927940550005 -0.00013588185684280748 0 -0.035000973271617199 -0.00012938785326639592 0 -0.035014243987273187 -0.00019933693122020792 0 -0.035033927940550005 -0.00013588185684280748 0 -0.035000973271617199 -0.00012938785326639592 0 -0.035009130707454032 -7.744021026983528e-05 0 -0.035069404423388087 -7.0692286384334141e-05 0 -0.035017353329737294 -4.4575069631023996e-05 0 -0.035009130707454032 -7.744021026983528e-05 0 -0.035068716411895517 -0.00017173871049829182 0 -0.035022197227073122 -0.00012290777759259866 0 -0.035058859658951773 -9.45950192142322e-05 0 -0.035033927940550005 -0.00013588185684280748 0 -0.035009130707454032 -7.744021026983528e-05 0 -0.035017353329737294 -4.4575069631023996e-05 0 -0.035009130707454032 -7.744021026983528e-05 0 -0.034999146484926143 -4.7631302494283865e-05 0 -0.035000973271617199 -0.00012938785326639592 0 -0.035009130707454032 -7.744021026983528e-05 0 -0.034980092378277781 -8.812343172613242e-05 0 -0.035009130707454032 -7.744021026983528e-05 0 -0.034980092378277781 -8.812343172613242e-05 0 -0.034999146484926143 -4.7631302494283865e-05 0 -0.034980092378277781 -8.812343172613242e-05 0 -0.034989586468251996 -2.8283929168139372e-05 0 -0.034999146484926143 -4.7631302494283865e-05 0 -0.034989586468251996 -2.8283929168139372e-05 0 -0.034999146484926143 -4.7631302494283865e-05 0 -0.035004252326662447 -2.4068742037279045e-05 0 -0.035017353329737294 -4.4575069631023996e-05 0 -0.034999146484926143 -4.7631302494283865e-05 0 -0.035004252326662447 -2.4068742037279045e-05 0 -0.035007129400201287 -2.2625990201315441e-05 0 -0.035017353329737294 -4.4575069631023996e-05 0 -0.035004252326662447 -2.4068742037279045e-05 0 -0.035007129400201287 -2.2625990201315441e-05 0 -0.035004252326662447 -2.4068742037279045e-05 0 -0.034999993090678104 -1.6649508676054952e-08 0 -0.034989586468251996 -2.8283929168139372e-05 0 -0.035004252326662447 -2.4068742037279045e-05 0 -0.034999993090678104 -1.6649508676054952e-08 0 -0.034989586468251996 -2.8283929168139372e-05 0 -0.034999993090678104 -1.6649508676054952e-08 0 -0.035000016689968723 -1.1293952700608875e-07 0 -0.034989586468251996 -2.8283929168139372e-05 0 -0.035000016689968723 -1.1293952700608875e-07 0 -0.03496261747856045 -6.1573467586857608e-05 0 -0.034980092378277781 -8.812343172613242e-05 0 -0.034989586468251996 -2.8283929168139372e-05 0 -0.03496261747856045 -6.1573467586857608e-05 0 -0.035000016689968723 -1.1293952700608875e-07 0 -0.034925363029385433 -7.3882975054350759e-05 0 -0.03496261747856045 -6.1573467586857608e-05 0 -0.035000016689968723 -1.1293952700608875e-07 0 -0.034925363029385433 -7.3882975054350759e-05 0 -0.034904237597818626 -3.7729383310871681e-05 0 -0.034925363029385433 -7.3882975054350759e-05 0 -0.034931173239704287 -0.00016195345876113309 0 -0.034848237551920035 -0.00021101487618322326 0 -0.034925363029385433 -7.3882975054350759e-05 0 -0.034848237551920035 -0.00021101487618322326 0 -0.03480364798050356 -0.00014518537697067195 0 -0.034980092378277781 -8.812343172613242e-05 0 -0.03496261747856045 -6.1573467586857608e-05 0 -0.034931173239704287 -0.00016195345876113309 0 -0.034925363029385433 -7.3882975054350759e-05 0 -0.03496261747856045 -6.1573467586857608e-05 0 -0.034931173239704287 -0.00016195345876113309 0 -0.034973680151286192 -0.00015774918129616479 0 -0.034980092378277781 -8.812343172613242e-05 0 -0.034931173239704287 -0.00016195345876113309 0 -0.034973680151286192 -0.00015774918129616479 0 -0.034931173239704287 -0.00016195345876113309 0 -0.034954502546943683 -0.00022372430825884734 0 -0.034931173239704287 -0.00016195345876113309 0 -0.034899855077845404 -0.00029063300435642786 0 -0.034954502546943683 -0.00022372430825884734 0 -0.034931173239704287 -0.00016195345876113309 0 -0.034848237551920035 -0.00021101487618322326 0 -0.034899855077845404 -0.00029063300435642786 0 -0.034848237551920035 -0.00021101487618322326 0 -0.03481490279505603 -0.00032800038415536909 0 -0.034899855077845404 -0.00029063300435642786 0 -0.034848237551920035 -0.00021101487618322326 0 -0.03481490279505603 -0.00032800038415536909 0 -0.03476196760349505 -0.00026717686544283875 0 -0.03481490279505603 -0.00032800038415536909 0 -0.03470719844065414 -0.00037759398995199886 0 -0.034793457646477358 -0.00043883500271861764 0 -0.03481490279505603 -0.00032800038415536909 0 -0.03476196760349505 -0.00026717686544283875 0 -0.03470719844065414 -0.00037759398995199886 0 -0.03481490279505603 -0.00032800038415536909 0 -0.034899855077845404 -0.00029063300435642786 0 -0.034886318467177303 -0.00040208640308933948 0 -0.034899855077845404 -0.00029063300435642786 0 -0.034886318467177303 -0.00040208640308933948 0 -0.03497949764955096 -0.00030364222002084433 0 -0.03481490279505603 -0.00032800038415536909 0 -0.034886318467177303 -0.00040208640308933948 0 -0.034793457646477358 -0.00043883500271861764 0 -0.034886318467177303 -0.00040208640308933948 0 -0.034959039430466313 -0.00039778713885742705 0 -0.03497949764955096 -0.00030364222002084433 0 -0.034959039430466313 -0.00039778713885742705 0 -0.03497949764955096 -0.00030364222002084433 0 -0.035034281830746847 -0.00039984775032609639 0 -0.035157826823046127 -0.000302280604342266 0 -0.035034281830746847 -0.00039984775032609639 0 -0.035058782232001422 -0.00027762442775368542 0 -0.03497949764955096 -0.00030364222002084433 0 -0.035034281830746847 -0.00039984775032609639 0 -0.035058782232001422 -0.00027762442775368542 0 -0.035157826823046127 -0.000302280604342266 0 -0.035058782232001422 -0.00027762442775368542 0 -0.035090590397060792 -0.00018036792283048124 0 -0.035058782232001422 -0.00027762442775368542 0 -0.035090590397060792 -0.00018036792283048124 0 -0.035014243987273187 -0.00019933693122020792 0 -0.034899855077845404 -0.00029063300435642786 0 -0.03497949764955096 -0.00030364222002084433 0 -0.034954502546943683 -0.00022372430825884734 0 -0.034973680151286192 -0.00015774918129616479 0 -0.035014243987273187 -0.00019933693122020792 0 -0.034954502546943683 -0.00022372430825884734 0 -0.03497949764955096 -0.00030364222002084433 0 -0.035014243987273187 -0.00019933693122020792 0 -0.034954502546943683 -0.00022372430825884734 0 -0.03497949764955096 -0.00030364222002084433 0 -0.035058782232001422 -0.00027762442775368542 0 -0.035014243987273187 -0.00019933693122020792 0 -0.034984497194104132 -1.8838762272186939e-05 0 -0.034975617566346089 -5.5095024850189005e-05 0 -0.034961110959960379 -3.8741998092805962e-05 0 -0.035012231703706528 -1.6714507274056893e-05 0 -0.034975406831705878 -5.2795225150733884e-05 0 -0.035008569505901442 -2.8188881941347022e-05 0 -0.035005464182445829 -4.417618736839385e-05 0 -0.034975617566346089 -5.5095024850189005e-05 0 -0.034984497194104132 -1.8838762272186939e-05 0 -0.035003988858233956 -1.9070763820852754e-05 0 -0.034975617566346089 -5.5095024850189005e-05 0 -0.034984497194104132 -1.8838762272186939e-05 0 -0.034998013698057072 -7.7584078895910666e-06 0 -0.035003988858233956 -1.9070763820852754e-05 0 -0.034984497194104132 -1.8838762272186939e-05 0 -0.034998013698057072 -7.7584078895910666e-06 0 -0.03498649352903356 -2.8886649671966722e-06 0 -0.035000006191806023 -5.5265486353771256e-09 0 -0.034998013698057072 -7.7584078895910666e-06 0 -0.03498649352903356 -2.8886649671966722e-06 0 -0.034998013698057072 -7.7584078895910666e-06 0 -0.035003988858233956 -1.9070763820852754e-05 0 -0.035003272915871818 -4.28890287385348e-06 0 -0.035000006191806023 -5.5265486353771256e-09 0 -0.034998013698057072 -7.7584078895910666e-06 0 -0.035003272915871818 -4.28890287385348e-06 0 -0.035000006191806023 -5.5265486353771256e-09 0 -0.035003272915871818 -4.28890287385348e-06 0 -0.035000007750656537 -2.3814120502713717e-09 0 -0.034397873694107919 -0.00016869358058722544 0 -0.034910932729885331 1.3815709520847056e-05 0 -0.034136088496100732 -2.3646991781598322e-05 0 -0.034598707274987622 7.0696798176536505e-05 0 -0.034600555970713105 -0.0001737070292885975 0 -0.035012231703706528 -1.6714507274056893e-05 0 -0.034910932729885331 1.3815709520847056e-05 0 -0.035008569505901442 -2.8188881941347022e-05 0 -0.035005464182445829 -4.417618736839385e-05 0 -0.035027418268059309 -3.9645000570748993e-06 0 -0.034798874576868179 -4.4099850331171408e-05 0 -0.03480364798050356 -0.00014518537697067195 0 -0.034600555970713105 -0.0001737070292885975 0 -0.034798874576868179 -4.4099850331171408e-05 0 -0.034598707274987622 7.0696798176536505e-05 0 -0.034600555970713105 -0.0001737070292885975 0 -0.034798874576868179 -4.4099850331171408e-05 0 -0.034598707274987622 7.0696798176536505e-05 0 -0.034999244322892746 2.8687546326289583e-07 0 -0.034910932729885331 1.3815709520847056e-05 0 -0.034999801380839288 -4.4564256191486591e-08 0 -0.034910932729885331 1.3815709520847056e-05 0 -0.035000010617083785 2.971310925894017e-08 0 -0.034998467836915653 -4.6932246197958106e-07 0 -0.035000004844472785 7.3427111736421567e-10 0 -0.034999994312493718 -8.4903154154488392e-10 0 -0.034798874576868179 -4.4099850331171408e-05 0 -0.034999244322892746 2.8687546326289583e-07 0 -0.034904237597818626 -3.7729383310871681e-05 0 -0.035000016689968723 -1.1293952700608875e-07 0 -0.034999244322892746 2.8687546326289583e-07 0 -0.034904237597818626 -3.7729383310871681e-05 0 -0.034925363029385433 -7.3882975054350759e-05 0 -0.034904237597818626 -3.7729383310871681e-05 0 -0.03480364798050356 -0.00014518537697067195 0 -0.034798874576868179 -4.4099850331171408e-05 0 -0.034904237597818626 -3.7729383310871681e-05 0 -0.03480364798050356 -0.00014518537697067195 0 -0.034848237551920035 -0.00021101487618322326 0 -0.03480364798050356 -0.00014518537697067195 0 -0.03476196760349505 -0.00026717686544283875 0 -0.03480364798050356 -0.00014518537697067195 0 -0.034651432668557858 -0.00030912154748921253 0 -0.03476196760349505 -0.00026717686544283875 0 -0.034651432668557858 -0.00030912154748921253 0 -0.03470719844065414 -0.00037759398995199886 0 -0.034564962463554241 -0.00045685057299922247 0 -0.034651432668557858 -0.00030912154748921253 0 -0.03476196760349505 -0.00026717686544283875 0 -0.03470719844065414 -0.00037759398995199886 0 -0.034651432668557858 -0.00030912154748921253 0 -0.034564962463554241 -0.00045685057299922247 0 -0.034513955159346354 -0.00038647494278619491 0 -0.034564962463554241 -0.00045685057299922247 0 -0.034513955159346354 -0.00038647494278619491 0 -0.034427921768443226 -0.00045943943113880431 0 -0.034513955159346354 -0.00038647494278619491 0 -0.034600555970713105 -0.0001737070292885975 0 -0.034383425258493895 -0.00041230479101342577 0 -0.034651432668557858 -0.00030912154748921253 0 -0.034513955159346354 -0.00038647494278619491 0 -0.034600555970713105 -0.0001737070292885975 0 -0.03480364798050356 -0.00014518537697067195 0 -0.034651432668557858 -0.00030912154748921253 0 -0.034600555970713105 -0.0001737070292885975 0 -0.034136088496100732 -2.3646991781598322e-05 0 -0.034600555970713105 -0.0001737070292885975 0 -0.034383425258493895 -0.00041230479101342577 0 -0.034136088496100732 -2.3646991781598322e-05 0 -0.034081559048468699 -0.00053811824196126567 0 -0.034383425258493895 -0.00041230479101342577 0 -0.034513955159346354 -0.00038647494278619491 0 -0.034383425258493895 -0.00041230479101342577 0 -0.034427921768443226 -0.00045943943113880431 0 -0.034383425258493895 -0.00041230479101342577 0 -0.034427921768443226 -0.00045943943113880431 0 -0.034339580537944663 -0.00044713835860020549 0 -0.031004607917759931 -0.00066421890748388486 0 -0.030895066120996951 -0.00057810578367279201 0 -0.034383425258493895 -0.00041230479101342577 0 -0.034076251435591155 -0.0009229276308231121 0 -0.034093764540654013 -0.0010058589717761835 0 -0.03428801898540719 0.0001248338527744137 0 -0.030895066120996951 -0.00057810578367279201 0 -0.034081559048468699 -0.00053811824196126567 0 -0.034383425258493895 -0.00041230479101342577 0 -0.034076251435591155 -0.0009229276308231121 0 -0.034076251435591155 -0.0009229276308231121 0 -0.033718335434376211 -0.00063241060104007028 0 -0.033523293854263406 -0.0010339618655166281 0 -0.034081559048468699 -0.00053811824196126567 0 -0.034076251435591155 -0.0009229276308231121 0 -0.033718335434376211 -0.00063241060104007028 0 -0.034076251435591155 -0.0009229276308231121 0 -0.034092318707683367 -0.0010183471710311454 0 -0.033523293854263406 -0.0010339618655166281 0 -0.034092318707683367 -0.0010183471710311454 0 -0.033523293854263406 -0.0010339618655166281 0 -0.033624431242453838 -0.0017207916280209197 0 -0.033718335434376211 -0.00063241060104007028 0 -0.033523293854263406 -0.0010339618655166281 0 -0.033247697615417245 -0.0005109776056201967 0 -0.034136088496100732 -2.3646991781598322e-05 0 -0.033718335434376211 -0.00063241060104007028 0 -0.033247697615417245 -0.0005109776056201967 0 -0.034136088496100732 -2.3646991781598322e-05 0 -0.034081559048468699 -0.00053811824196126567 0 -0.033718335434376211 -0.00063241060104007028 0 -0.034397873694107919 -0.00016869358058722544 0 -0.03492101113123891 0.00010041225447305114 0 -0.035005464182445829 -4.417618736839385e-05 0 -0.034954973432791837 -0.00010922810753478479 0 -0.034975617566346089 -5.5095024850189005e-05 0 -0.034954973432791837 -0.00010922810753478479 0 -0.034975617566346089 -5.5095024850189005e-05 0 -0.034942759130708337 -6.9458491815353212e-05 0 -0.025100501312285001 -0.0012982053787470782 0 -0.025374604062244004 -0.0013563295082536667 0 -0.025313646359713095 -0.0015305468144945734 0 -0.025100501312285001 -0.0012982053787470782 0 -0.025312510739966574 -0.0012197112561467798 0 -0.025374604062244004 -0.0013563295082536667 0 -0.015034661472575924 -0.0052622725188087808 0 -0.014289658358106623 -0.004485263301910499 0 -0.015721360478890088 -0.0041915380903904797 0 -0.022649326888947347 -0.0032464696257828367 0 -0.019600320062305689 -0.0029087203862966466 0 -0.025100501312285001 -0.0012982053787470782 0 -0.025276950880414564 -0.0010394073299285905 0 -0.025312510739966574 -0.0012197112561467798 0 -0.022649326888947347 -0.0032464696257828367 0 -0.029623642446655971 -0.00081427984357605363 0 -0.033523293854263406 -0.0010339618655166281 0 -0.033624431242453838 -0.0017207916280209197 0 -0.032274560428660941 -0.0014280408716766089 0 -0.030895066120996951 -0.00057810578367279201 0 -0.029623642446655971 -0.00081427984357605363 0 -0.025276950880414564 -0.0010394073299285905 0 -0.025312510739966574 -0.0012197112561467798 0 -0.025504430020843065 -0.0011736950299386557 0 -0.030895066120996951 -0.00057810578367279201 0 -0.029924478188080958 -0.00082758372941341726 0 -0.034427921768443226 -0.00045943943113880431 0 -0.034328234959814588 -0.00055695770547839875 0 -0.034453591507136609 -0.00051757311544468507 0 -0.025505494903408976 -0.00075749762883422231 0 -0.025276950880414564 -0.0010394073299285905 0 -0.025504430020843065 -0.0011736950299386557 0 -0.034427921768443226 -0.00045943943113880431 0 -0.034339580537944663 -0.00044713835860020549 0 -0.034328234959814588 -0.00055695770547839875 0 -0.034328234959814588 -0.00055695770547839875 0 -0.034480109033488304 -0.00058735137597446094 0 -0.034312849521034861 -0.00070337396197417185 0 -0.025504430020843065 -0.0011736950299386557 0 -0.025374604062244004 -0.0013563295082536667 0 -0.025452987625500374 -0.0014952729385204469 0 -0.029924478188080958 -0.00082758372941341726 0 -0.028386168583733513 -0.001379319090124203 0 -0.025312510739966574 -0.0012197112561467798 0 -0.025504430020843065 -0.0011736950299386557 0 -0.025374604062244004 -0.0013563295082536667 0 -0.025374604062244004 -0.0013563295082536667 0 -0.025452987625500374 -0.0014952729385204469 0 -0.025313646359713095 -0.0015305468144945734 0 -0.034480109033488304 -0.00058735137597446094 0 -0.034574152872477261 -0.00069395262794707201 0 -0.034312849521034861 -0.00070337396197417185 0 -0.034328234959814588 -0.00055695770547839875 0 -0.034480109033488304 -0.00058735137597446094 0 -0.034453591507136609 -0.00051757311544468507 0 -0.034564962463554241 -0.00045685057299922247 0 -0.034480109033488304 -0.00058735137597446094 0 -0.034453591507136609 -0.00051757311544468507 0 -0.034564962463554241 -0.00045685057299922247 0 -0.034427921768443226 -0.00045943943113880431 0 -0.034453591507136609 -0.00051757311544468507 0 -0.03470719844065414 -0.00037759398995199886 0 -0.034564962463554241 -0.00045685057299922247 0 -0.03468029703902259 -0.00053750793510888887 0 -0.034564962463554241 -0.00045685057299922247 0 -0.034480109033488304 -0.00058735137597446094 0 -0.03468029703902259 -0.00053750793510888887 0 -0.034480109033488304 -0.00058735137597446094 0 -0.034574152872477261 -0.00069395262794707201 0 -0.03468029703902259 -0.00053750793510888887 0 -0.025762977819879584 -3.6170448267550305e-05 0 -0.025882609027083694 -0.001469220290276503 0 -0.025047546837494945 -0.00098280200640242315 0 -0.025762977819879584 -3.6170448267550305e-05 0 -0.025882609027083694 -0.001469220290276503 0 -0.026870874821819771 -0.00099997958755110761 0 -0.025882609027083694 -0.001469220290276503 0 -0.025047546837494945 -0.00098280200640242315 0 -0.024855651643608888 -0.0019548078666753016 0 -0.025047546837494945 -0.00098280200640242315 0 -0.024068070782706636 -0.0010205954914383232 0 -0.024855651643608888 -0.0019548078666753016 0 -0.018978427172935734 -0.0023263796013323129 0 -0.018887300931789055 -0.002235384481934612 0 -0.025047546837494945 -0.00098280200640242315 0 -0.023919655407971113 5.6870512290234819e-05 0 -0.024068070782706636 -0.0010205954914383232 0 -0.030277021256187611 -0.00020724782587707504 0 -0.028386168583733513 -0.001379319090124203 0 -0.025762977819879584 -3.6170448267550305e-05 0 -0.025047546837494945 -0.00098280200640242315 0 -0.023919655407971113 5.6870512290234819e-05 0 -0.013523930084313024 -0.003679201197127916 0 -0.014549689585843184 -0.0035630644372778254 0 -0.014289658358106623 -0.004485263301910499 0 -0.028386168583733513 -0.001379319090124203 0 -0.018978427172935734 -0.0023263796013323129 0 -0.025452987625500374 -0.0014952729385204469 0 -0.025409786841454972 -0.001698135041248735 0 -0.025313646359713095 -0.0015305468144945734 0 -0.018978427172935734 -0.0023263796013323129 0 -0.019600320062305689 -0.0029087203862966466 0 -0.013523930084313024 -0.003679201197127916 0 -0.014549689585843184 -0.0035630644372778254 0 -0.014084158674303349 -0.0027735485217599298 0 -0.014549689585843184 -0.0035630644372778254 0 -0.014084158674303349 -0.0027735485217599298 0 -0.015107405175539067 -0.0026685083433257962 0 -0.014549689585843184 -0.0035630644372778254 0 -0.014289658358106623 -0.004485263301910499 0 -0.015721360478890088 -0.0041915380903904797 0 -0.034956025388960907 -0.0005896292442452482 0 -0.034945257119986445 -0.00048475559501651253 0 -0.034847074501512705 -0.00052105795091991151 0 -0.034956025388960907 -0.0005896292442452482 0 -0.035016251715048151 -0.00051526053898258515 0 -0.034945257119986445 -0.00048475559501651253 0 -0.034956025388960907 -0.0005896292442452482 0 -0.035016251715048151 -0.00051526053898258515 0 -0.03501495973865338 -0.00064597298737859216 0 -0.029302011351886082 -0.0011538715524156604 0 -0.029036168160650588 -0.0017574894199575935 0 -0.028899750160468255 -0.001852991151876967 0 -0.03513155599779668 -0.00045175515652608634 0 -0.035016251715048151 -0.00051526053898258515 0 -0.03501495973865338 -0.00064597298737859216 0 -0.03513155599779668 -0.00045175515652608634 0 -0.035034281830746847 -0.00039984775032609639 0 -0.035016251715048151 -0.00051526053898258515 0 -0.035034281830746847 -0.00039984775032609639 0 -0.035016251715048151 -0.00051526053898258515 0 -0.034945257119986445 -0.00048475559501651253 0 -0.034959039430466313 -0.00039778713885742705 0 -0.035034281830746847 -0.00039984775032609639 0 -0.034945257119986445 -0.00048475559501651253 0 -0.034886318467177303 -0.00040208640308933948 0 -0.034959039430466313 -0.00039778713885742705 0 -0.034945257119986445 -0.00048475559501651253 0 -0.034886318467177303 -0.00040208640308933948 0 -0.034847074501512705 -0.00052105795091991151 0 -0.034793457646477358 -0.00043883500271861764 0 -0.034886318467177303 -0.00040208640308933948 0 -0.034945257119986445 -0.00048475559501651253 0 -0.034847074501512705 -0.00052105795091991151 0 -0.03470719844065414 -0.00037759398995199886 0 -0.03468029703902259 -0.00053750793510888887 0 -0.034793457646477358 -0.00043883500271861764 0 -0.034847074501512705 -0.00052105795091991151 0 -0.03468029703902259 -0.00053750793510888887 0 -0.034793457646477358 -0.00043883500271861764 0 -0.034847074501512705 -0.00052105795091991151 0 -0.03468029703902259 -0.00053750793510888887 0 -0.034797856017603435 -0.00066799163387836976 0 -0.034574152872477261 -0.00069395262794707201 0 -0.03468029703902259 -0.00053750793510888887 0 -0.034797856017603435 -0.00066799163387836976 0 -0.034956025388960907 -0.0005896292442452482 0 -0.034847074501512705 -0.00052105795091991151 0 -0.034797856017603435 -0.00066799163387836976 0 -0.027682573531477128 -0.00012605296345986523 0 -0.026870874821819771 -0.00099997958755110761 0 -0.028131642723245157 -0.0012922414968237852 0 -0.030277021256187611 -0.00020724782587707504 0 -0.031451400939182667 -0.0004644112893388539 0 -0.025762977819879584 -3.6170448267550305e-05 0 -0.027682573531477128 -0.00012605296345986523 0 -0.026870874821819771 -0.00099997958755110761 0 -0.025882609027083694 -0.001469220290276503 0 -0.026870874821819771 -0.00099997958755110761 0 -0.026888937078919338 -0.0021151406816350094 0 -0.024432692521001956 -0.00079279518306490926 0 -0.024070201846950221 -0.0013126389492019691 0 -0.026870874821819771 -0.00099997958755110761 0 -0.028131642723245157 -0.0012922414968237852 0 -0.026888937078919338 -0.0021151406816350094 0 -0.025429286018145501 -0.0012542598815682869 0 -0.027799642191817284 -0.00096762343332592812 0 -0.026921494036069485 -0.0028825853245954772 0 -0.025429286018145501 -0.0012542598815682869 0 -0.028069864954289595 0.00053574513659769454 0 -0.027799642191817284 -0.00096762343332592812 0 -0.028251854075792438 -0.0016207560401043509 0 -0.024018198076975923 -0.0019697219316042705 0 -0.024432692521001956 -0.00079279518306490926 0 -0.024018198076975923 -0.0019697219316042705 0 -0.031451400939182667 -0.0004644112893388539 0 -0.031274648111470738 -0.00018655984993588286 0 -0.024432692521001956 -0.00079279518306490926 0 -0.031274648111470738 -0.00018655984993588286 0 -0.034956025388960907 -0.0005896292442452482 0 -0.034797856017603435 -0.00066799163387836976 0 -0.03497959964245087 -0.00066612806542823107 0 -0.027682573531477128 -0.00012605296345986523 0 -0.028131642723245157 -0.0012922414968237852 0 -0.029687886525740725 -0.00024372060202421052 0 -0.029036168160650588 -0.0017574894199575935 0 -0.028893837529405848 -0.0018345348132951381 0 -0.028873738444522602 -0.0023869567713132459 0 -0.029081858066337375 -0.0017688137160808486 0 -0.029398721407329451 -0.0023907270170169049 0 -0.028681919412197554 0.00095027621395813171 0 -0.028069864954289595 0.00053574513659769454 0 -0.027799642191817284 -0.00096762343332592812 0 -0.029197976534114614 -0.001697411911806319 0 -0.029036168160650588 -0.0017574894199575935 0 -0.028873738444522602 -0.0023869567713132459 0 -0.028893837529405848 -0.0018345348132951381 0 -0.028599997248678947 -0.0023101864139542629 0 -0.028873738444522602 -0.0023869567713132459 0 -0.030409961116797241 -0.00069180112739043102 0 -0.028251854075792438 -0.0016207560401043509 0 -0.029531890373953391 -0.001326370337733092 0 -0.030409961116797241 -0.00069180112739043102 0 -0.034956025388960907 -0.0005896292442452482 0 -0.03501495973865338 -0.00064597298737859216 0 -0.03497959964245087 -0.00066612806542823107 0 -0.030409961116797241 -0.00069180112739043102 0 -0.031274648111470738 -0.00018655984993588286 0 -0.028599997248678947 -0.0023101864139542629 0 -0.028873738444522602 -0.0023869567713132459 0 -0.028327467143442146 -0.0028032147511340144 0 -0.028873738444522602 -0.0023869567713132459 0 -0.028589807985234944 -0.0031017610814156882 0 -0.028327467143442146 -0.0028032147511340144 0 -0.029398721407329451 -0.0023907270170169049 0 -0.025006229638824668 -0.0027061334890133089 0 -0.029044660028002631 -0.0024927843809329671 0 -0.028877094275863047 -0.0031380087445083112 0 -0.029195869970874148 -0.0027601193077031014 0 -0.028877094275863047 -0.0031380087445083112 0 -0.029195869970874148 -0.0027601193077031014 0 -0.029236226598715605 -0.0030805999856794199 0 -0.028877094275863047 -0.0031380087445083112 0 -0.029236226598715605 -0.0030805999856794199 0 -0.02931781893744459 -0.0035313844505013899 0 -0.025006229638824668 -0.0027061334890133089 0 -0.019813954181572634 -0.0033861472748821985 0 -0.025006229638824668 -0.0027061334890133089 0 -0.025666225189557586 -0.003126393839563557 0 -0.021306829114989261 -0.0019460554668275934 0 -0.020785288326108899 -0.0034928082965826794 0 -0.022157167294009659 -0.0028829516851352197 0 -0.021178232708256518 -0.0023801969232754641 0 -0.020310278617390737 -0.0029306525717519897 0 -0.020785288326108899 -0.0034928082965826794 0 -0.020816207505200794 -0.0023251332121856675 0 -0.024018198076975923 -0.0019697219316042705 0 -0.021178232708256518 -0.0023801969232754641 0 -0.020310278617390737 -0.0029306525717519897 0 -0.020791284423379009 -0.0019439972059114906 0 -0.021112363604206472 -0.0015774879519731197 0 -0.021530634806640653 -0.00075479150829118658 0 -0.020920783735388582 -0.000909911034976885 0 -0.021062645053449139 -0.00022888530949180394 0 -0.021530634806640653 -0.00075479150829118658 0 -0.020920783735388582 -0.000909911034976885 0 -0.025006229638824668 -0.0027061334890133089 0 -0.024018198076975923 -0.0019697219316042705 0 -0.021062645053449139 -0.00022888530949180394 0 -0.020920783735388582 -0.000909911034976885 0 -0.02036177537893202 -0.00070107418598697061 0 -0.020920783735388582 -0.000909911034976885 0 -0.02036177537893202 -0.00070107418598697061 0 -0.020491148049069298 -0.0012515689229183862 0 -0.02036177537893202 -0.00070107418598697061 0 -0.020491148049069298 -0.0012515689229183862 0 -0.019666564250551907 -0.0011704729305430409 0 -0.024070201846950221 -0.0013126389492019691 0 -0.019841961279116856 -0.0013683370342713731 0 -0.020491148049069298 -0.0012515689229183862 0 -0.020186213953717367 -0.0017769624384215727 0 -0.019666564250551907 -0.0011704729305430409 0 -0.021112363604206472 -0.0015774879519731197 0 -0.020491148049069298 -0.0012515689229183862 0 -0.020186213953717367 -0.0017769624384215727 0 -0.021112363604206472 -0.0015774879519731197 0 -0.020920783735388582 -0.000909911034976885 0 -0.020491148049069298 -0.0012515689229183862 0 -0.020816207505200794 -0.0023251332121856675 0 -0.016484987605982996 -0.0019558159925852068 0 -0.020310278617390737 -0.0029306525717519897 0 -0.019954015141593055 -0.0039385650167632364 0 -0.020236052924945114 -0.0039942799680079714 0 -0.021112363604206472 -0.0015774879519731197 0 -0.020186213953717367 -0.0017769624384215727 0 -0.020697302917581616 -0.0023838238533835793 0 -0.011734164930014106 -0.0009345524129041982 0 -0.011162040609431002 -0.0002515554418869638 0 -0.011991672893040931 -0.000312651943823779 0 -0.011734164930014106 -0.0009345524129041982 0 -0.012258918964517347 -0.0010882088722752466 0 -0.011991672893040931 -0.000312651943823779 0 -0.015350892948480277 -0.0010164238690258305 0 -0.016484987605982996 -0.0019558159925852068 0 -0.011991672893040931 -0.000312651943823779 0 -0.012376400787764724 0.00049386968675141959 0 -0.011480857103423427 0.00052796695518348704 0 -0.011162040609431002 -0.0002515554418869638 0 -0.011991672893040931 -0.000312651943823779 0 -0.011480857103423427 0.00052796695518348704 0 -0.016484987605982996 -0.0019558159925852068 0 -0.011888058550500841 -0.00050346605669157791 0 -0.012986501127057246 -0.0014371751828153123 0 -0.013003194984083982 -0.0014706473854267054 0 -0.012927534092475561 -0.0014758069335966183 0 -0.019954015141593055 -0.0039385650167632364 0 -0.02016525138296962 -0.00397464159971757 0 -0.020236052924945114 -0.0039942799680079714 0 -0.019954015141593055 -0.0039385650167632364 0 -0.02016525138296962 -0.00397464159971757 0 -0.020153030111849522 -0.0039384130978094923 0 -0.016484987605982996 -0.0019558159925852068 0 -0.016619058345276858 -0.0027707283889436439 0 -0.020241364746104107 -0.0040269333500124443 0 -0.020784107825643362 -0.0042012120634433185 0 -0.02016525138296962 -0.00397464159971757 0 -0.020236052924945114 -0.0039942799680079714 0 -0.020094615940860375 -0.0039901693620133681 0 -0.020236052924945114 -0.0039942799680079714 0 -0.020094615940860375 -0.0039901693620133681 0 -0.02000228435004232 -0.0040676739417655691 0 -0.020236052924945114 -0.0039942799680079714 0 -0.021415407520018939 -0.0043293546481590877 0 -0.020785288326108899 -0.0034928082965826794 0 -0.020094615940860375 -0.0039901693620133681 0 -0.02000228435004232 -0.0040676739417655691 0 -0.01997788605219596 -0.0039320202885622145 0 -0.021415407520018939 -0.0043293546481590877 0 -0.021626524831347988 -0.0036446630716632845 0 -0.022152574376815441 -0.0038659598974192621 0 -0.021415407520018939 -0.0043293546481590877 0 -0.021626524831347988 -0.0036446630716632845 0 -0.020785288326108899 -0.0034928082965826794 0 -0.021626524831347988 -0.0036446630716632845 0 -0.020785288326108899 -0.0034928082965826794 0 -0.022157167294009659 -0.0028829516851352197 0 -0.020310278617390737 -0.0029306525717519897 0 -0.020236052924945114 -0.0039942799680079714 0 -0.020785288326108899 -0.0034928082965826794 0 -0.014165877656329049 -0.0017151670103232881 0 -0.015107405175539067 -0.0026685083433257962 0 -0.015057446399661558 -0.0011132211858022498 0 -0.014165877656329049 -0.0017151670103232881 0 -0.014084158674303349 -0.0027735485217599298 0 -0.015107405175539067 -0.0026685083433257962 0 -0.014165877656329049 -0.0017151670103232881 0 -0.014084158674303349 -0.0027735485217599298 0 -0.013201106725950922 -0.0021848064505074539 0 -0.013523930084313024 -0.003679201197127916 0 -0.014084158674303349 -0.0027735485217599298 0 -0.013201106725950922 -0.0021848064505074539 0 -0.018978427172935734 -0.0023263796013323129 0 -0.012617314024347008 -0.002178457361082214 0 -0.014165877656329049 -0.0017151670103232881 0 -0.013201106725950922 -0.0021848064505074539 0 -0.01297669376752679 -0.00066692138635826776 0 -0.012800101201360894 -0.0012283767907759315 0 -0.013396724754338129 -0.001842236691832978 0 -0.01297669376752679 -0.00066692138635826776 0 -0.012617314024347008 -0.002178457361082214 0 -0.013173664312967039 -0.00069623969705306986 0 -0.012800101201360894 -0.0012283767907759315 0 -0.012699678291122759 -0.001530550773126361 0 -0.013396724754338129 -0.001842236691832978 0 -0.012699678291122759 -0.001530550773126361 0 -0.013396724754338129 -0.001842236691832978 0 -0.012755412691140179 -0.0018434460983943414 0 -0.013770956286674971 -0.0032488234010887591 0 -0.013396724754338129 -0.001842236691832978 0 -0.012995463814424483 -0.0024550427500669332 0 -0.013396724754338129 -0.001842236691832978 0 -0.012995463814424483 -0.0024550427500669332 0 -0.012755412691140179 -0.0018434460983943414 0 -0.012995463814424483 -0.0024550427500669332 0 -0.012755412691140179 -0.0018434460983943414 0 -0.012351290552646483 -0.001690149737152503 0 -0.018887300931789055 -0.002235384481934612 0 -0.019841961279116856 -0.0013683370342713731 0 -0.025882609027083694 -0.001469220290276503 0 -0.024855651643608888 -0.0019548078666753016 0 -0.025664773542009481 -0.0029137197318856892 0 -0.025882609027083694 -0.001469220290276503 0 -0.026888937078919338 -0.0021151406816350094 0 -0.025664773542009481 -0.0029137197318856892 0 -0.015350892948480277 -0.0010164238690258305 0 -0.019841961279116856 -0.0013683370342713731 0 -0.011734164930014106 -0.0009345524129041982 0 -0.012351290552646483 -0.001690149737152503 0 -0.012258918964517347 -0.0010882088722752466 0 -0.012699678291122759 -0.001530550773126361 0 -0.012351290552646483 -0.001690149737152503 0 -0.012258918964517347 -0.0010882088722752466 0 -0.012699678291122759 -0.001530550773126361 0 -0.012755412691140179 -0.0018434460983943414 0 -0.012351290552646483 -0.001690149737152503 0 -0.012800101201360894 -0.0012283767907759315 0 -0.012699678291122759 -0.001530550773126361 0 -0.012258918964517347 -0.0010882088722752466 0 -0.012258918964517347 -0.0010882088722752466 0 -0.011991672893040931 -0.000312651943823779 0 -0.01297669376752679 -0.00066692138635826776 0 -0.011991672893040931 -0.000312651943823779 0 -0.01297669376752679 -0.00066692138635826776 0 -0.012376400787764724 0.00049386968675141959 0 -0.01297669376752679 -0.00066692138635826776 0 -0.013369295050703237 0.00062097493683321685 0 -0.012376400787764724 0.00049386968675141959 0 -0.012800101201360894 -0.0012283767907759315 0 -0.012258918964517347 -0.0010882088722752466 0 -0.01297669376752679 -0.00066692138635826776 0 -0.014165877656329049 -0.0017151670103232881 0 -0.01297669376752679 -0.00066692138635826776 0 -0.013975991522788464 -0.00057309638406960082 0 -0.01297669376752679 -0.00066692138635826776 0 -0.013975991522788464 -0.00057309638406960082 0 -0.013369295050703237 0.00062097493683321685 0 -0.013975991522788464 -0.00057309638406960082 0 -0.013369295050703237 0.00062097493683321685 0 -0.014821933619180204 -8.0636818338702281e-05 0 -0.014165877656329049 -0.0017151670103232881 0 -0.013975991522788464 -0.00057309638406960082 0 -0.015057446399661558 -0.0011132211858022498 0 -0.013975991522788464 -0.00057309638406960082 0 -0.015057446399661558 -0.0011132211858022498 0 -0.014821933619180204 -8.0636818338702281e-05 0 -0.013942436151492162 0.0020507852381405015 0 -0.013369295050703237 0.00062097493683321685 0 -0.0151234942616721 0.00089508991300656766 0 -0.013369295050703237 0.00062097493683321685 0 -0.014821933619180204 -8.0636818338702281e-05 0 -0.0151234942616721 0.00089508991300656766 0 -0.013942436151492162 0.0020507852381405015 0 -0.013369295050703237 0.00062097493683321685 0 -0.011925412233544741 0.0019178911106852142 0 -0.013310747844330282 0.0005723759399746957 0 -0.012362775309062386 0.0018466560303258177 0 -0.013369295050703237 0.00062097493683321685 0 -0.012741544214701686 0.0012289936516470552 0 -0.012376400787764724 0.00049386968675141959 0 -0.012741544214701686 0.0012289936516470552 0 -0.012376400787764724 0.00049386968675141959 0 -0.011806421647633214 0.0012471569840771298 0 -0.012741544214701686 0.0012289936516470552 0 -0.01210631058696637 0.0019269689478680311 0 -0.011806421647633214 0.0012471569840771298 0 -0.012362775309062386 0.0018466560303258177 0 -0.010946691445971346 0.00089810789020180256 0 -0.010890947583516322 0.0031475915721069941 0 -0.011807934817378626 0.0035762676283260944 0 -0.011584766440023986 0.004296321025932596 0 -0.010946691445971346 0.00089810789020180256 0 -0.0096890638250984734 0.0022582680587450049 0 -0.0083388862509010484 0.00038936612959523644 0 -0.0082225901225450107 0.0001668245862380344 0 -0.0083470037902553598 0.00018392387420371881 0 -0.011807934817378626 0.0035762676283260944 0 -0.012736564039288396 0.0036728983035986288 0 -0.0118033673089673 0.0043938593249055052 0 -0.011925412233544741 0.0019178911106852142 0 -0.010890947583516322 0.0031475915721069941 0 -0.011807934817378626 0.0035762676283260944 0 -0.011925412233544741 0.0019178911106852142 0 -0.011807934817378626 0.0035762676283260944 0 -0.012833132462328605 0.0029851560983738534 0 -0.013942436151492162 0.0020507852381405015 0 -0.011925412233544741 0.0019178911106852142 0 -0.012833132462328605 0.0029851560983738534 0 -0.011807934817378626 0.0035762676283260944 0 -0.012833132462328605 0.0029851560983738534 0 -0.012736564039288396 0.0036728983035986288 0 -0.012833132462328605 0.0029851560983738534 0 -0.012736564039288396 0.0036728983035986288 0 -0.013883133502863498 0.003248213745776901 0 -0.01280950841168769 0.0040380802486914627 0 -0.01219008990485982 0.0044386424133294935 0 -0.013883133502863498 0.003248213745776901 0 -0.015181428475002293 0.0037336013385837236 0 -0.013690645080638936 0.0042379231151586962 0 -0.012736564039288396 0.0036728983035986288 0 -0.013883133502863498 0.003248213745776901 0 -0.013690645080638936 0.0042379231151586962 0 -0.013942436151492162 0.0020507852381405015 0 -0.012833132462328605 0.0029851560983738534 0 -0.013883133502863498 0.003248213745776901 0 -0.013942436151492162 0.0020507852381405015 0 -0.013883133502863498 0.003248213745776901 0 -0.014944113374502455 0.0026262449257729178 0 -0.011945664554619243 -0.0034965213228908445 0 -0.011941354044528838 -0.0032997986821088898 0 -0.012015205902025733 -0.0033284540347375095 0 -0.015750003735434882 -0.0030217996200815624 0 -0.012332792502608313 -0.0024706973127811057 0 -0.013030908352955568 -0.0015093305036110842 0 -0.0129555280278114 -0.001509808237066168 0 -0.012967019233976492 -0.001547914516417776 0 -0.015641076466793333 -0.003320594855271876 0 -0.015750003735434882 -0.0030217996200815624 0 -0.011793410700314876 -0.0033591425563151908 0 -0.011945664554619243 -0.0034965213228908445 0 -0.011941354044528838 -0.0032997986821088898 0 -0.019438506024221747 -0.0031750442495861778 0 -0.019526820994142408 -0.0035420826921872413 0 -0.019796352977867672 -0.00358420913365429 0 -0.019438506024221747 -0.0031750442495861778 0 -0.019526820994142408 -0.0035420826921872413 0 -0.019227967773654618 -0.0034006068864011114 0 -0.019526820994142408 -0.0035420826921872413 0 -0.01969806263031575 -0.003785142323384472 0 -0.019796352977867672 -0.00358420913365429 0 -0.019526820994142408 -0.0035420826921872413 0 -0.019466634996702082 -0.003765379151994611 0 -0.01969806263031575 -0.003785142323384472 0 -0.019526820994142408 -0.0035420826921872413 0 -0.019466634996702082 -0.003765379151994611 0 -0.019227967773654618 -0.0034006068864011114 0 -0.02000228435004232 -0.0040676739417655691 0 -0.01997788605219596 -0.0039320202885622145 0 -0.019783701412143622 -0.0039481690173536182 0 -0.013030908352955568 -0.0015093305036110842 0 -0.013003194984083982 -0.0014706473854267054 0 -0.0129555280278114 -0.001509808237066168 0 -0.02016525138296962 -0.00397464159971757 0 -0.01969806263031575 -0.003785142323384472 0 -0.020153030111849522 -0.0039384130978094923 0 -0.01969806263031575 -0.003785142323384472 0 -0.019812774562930031 -0.0035566231531424762 0 -0.020153030111849522 -0.0039384130978094923 0 -0.02016525138296962 -0.00397464159971757 0 -0.019466634996702082 -0.003765379151994611 0 -0.01969806263031575 -0.003785142323384472 0 -0.020140283017841105 -0.0039765131309483911 0 -0.019726260816951249 -0.0038392933710555909 0 -0.02016525138296962 -0.00397464159971757 0 -0.020094615940860375 -0.0039901693620133681 0 -0.01997788605219596 -0.0039320202885622145 0 -0.018191907792756715 -0.0027771614898740625 0 -0.015750003735434882 -0.0030217996200815624 0 -0.015750003735434882 -0.0030217996200815624 0 -0.016619058345276858 -0.0027707283889436439 0 -0.013003194984083982 -0.0014706473854267054 0 -0.012927534092475561 -0.0014758069335966183 0 -0.0129555280278114 -0.001509808237066168 0 -0.012376400787764724 0.00049386968675141959 0 -0.011480857103423427 0.00052796695518348704 0 -0.011806421647633214 0.0012471569840771298 0 -0.011888058550500841 -0.00050346605669157791 0 -0.012456693441260585 -0.0001633313938388748 0 -0.012927534092475561 -0.0014758069335966183 0 -0.012872918708505474 -0.0015152090574506124 0 -0.0129555280278114 -0.001509808237066168 0 -0.012872918708505474 -0.0015152090574506124 0 -0.0129555280278114 -0.001509808237066168 0 -0.012911773550533396 -0.001546642354381773 0 -0.0129555280278114 -0.001509808237066168 0 -0.012911773550533396 -0.001546642354381773 0 -0.012967019233976492 -0.001547914516417776 0 -0.012911773550533396 -0.001546642354381773 0 -0.012902325677246231 -0.0015792202036536557 0 -0.012967019233976492 -0.001547914516417776 0 -0.011502520273859227 -0.0024719059670452073 0 -0.012332792502608313 -0.0024706973127811057 0 -0.012118142769845332 -0.0031307833543265306 0 -0.011998822323020382 -0.0031827134872737563 0 -0.012015205902025733 -0.0033284540347375095 0 -0.012911773550533396 -0.001546642354381773 0 -0.012871320393538031 -0.0015539433184459735 0 -0.01289340460023731 -0.0015732239715953926 0 -0.012911773550533396 -0.001546642354381773 0 -0.012902325677246231 -0.0015792202036536557 0 -0.01289340460023731 -0.0015732239715953926 0 -0.012872918708505474 -0.0015152090574506124 0 -0.012911773550533396 -0.001546642354381773 0 -0.012871320393538031 -0.0015539433184459735 0 -0.010946691445971346 0.00089810789020180256 0 -0.012456693441260585 -0.0001633313938388748 0 -0.012832095347335658 -0.0015482850374596267 0 -0.012872918708505474 -0.0015152090574506124 0 -0.012871320393538031 -0.0015539433184459735 0 -0.012832095347335658 -0.0015482850374596267 0 -0.012871320393538031 -0.0015539433184459735 0 -0.012856675202548136 -0.0015977339155160185 0 -0.0083388862509010484 0.00038936612959523644 0 -0.008489493405473874 0.0001840354377217758 0 -0.0083470037902553598 0.00018392387420371881 0 -0.010946691445971346 0.00089810789020180256 0 -0.010173244206982514 -0.0010347502512134748 0 -0.012871320393538031 -0.0015539433184459735 0 -0.01289340460023731 -0.0015732239715953926 0 -0.012856675202548136 -0.0015977339155160185 0 -0.012895973181787746 -0.001576017205542408 0 -0.01289340460023731 -0.0015732239715953926 0 -0.012856675202548136 -0.0015977339155160185 0 -0.011502520273859227 -0.0024719059670452073 0 -0.010173244206982514 -0.0010347502512134748 0 -0.0092255916594123043 -0.0027434105446151888 0 -0.009053873095507689 -0.0020512876230784367 0 -0.0095480712786112868 -0.0021681998805524474 0 -0.0092255916594123043 -0.0027434105446151888 0 -0.008677073264090493 -0.0025324112312691111 0 -0.009053873095507689 -0.0020512876230784367 0 -0.011502520273859227 -0.0024719059670452073 0 -0.011845748302202273 -0.0024656957084774277 0 -0.012118142769845332 -0.0031307833543265306 0 -0.011931367832903425 -0.003058510266048471 0 -0.011998822323020382 -0.0031827134872737563 0 -0.011502520273859227 -0.0024719059670452073 0 -0.010057191653012861 -0.0029179937498725874 0 -0.011931367832903425 -0.003058510266048471 0 -0.011998822323020382 -0.0031827134872737563 0 -0.011941354044528838 -0.0032997986821088898 0 -0.011931718029655078 -0.0031038083772073569 0 -0.011941354044528838 -0.0032997986821088898 0 -0.011792341705244585 -0.0031901223267172918 0 -0.010057191653012861 -0.0029179937498725874 0 -0.012159741394130013 -0.0033117254579547355 0 -0.011998822323020382 -0.0031827134872737563 0 -0.011941354044528838 -0.0032997986821088898 0 -0.012015205902025733 -0.0033284540347375095 0 -0.011793410700314876 -0.0033591425563151908 0 -0.011792341705244585 -0.0031901223267172918 0 -0.01162520632196307 -0.0032118175814082419 0 -0.011793410700314876 -0.0033591425563151908 0 -0.011941354044528838 -0.0032997986821088898 0 -0.011792341705244585 -0.0031901223267172918 0 -0.011931718029655078 -0.0031038083772073569 0 -0.011792341705244585 -0.0031901223267172918 0 -0.011793003129006396 -0.0030491614245915636 0 -0.010057191653012861 -0.0029179937498725874 0 -0.010002747182270738 -0.0032109423797937581 0 -0.011793003129006396 -0.0030491614245915636 0 -0.011677756337398029 -0.0030995083618334828 0 -0.011634661064344697 -0.0029903354114096579 0 -0.011792341705244585 -0.0031901223267172918 0 -0.011793003129006396 -0.0030491614245915636 0 -0.011677756337398029 -0.0030995083618334828 0 -0.011792341705244585 -0.0031901223267172918 0 -0.011677756337398029 -0.0030995083618334828 0 -0.01162520632196307 -0.0032118175814082419 0 -0.011677756337398029 -0.0030995083618334828 0 -0.011537872598219227 -0.0030462813232059564 0 -0.011634661064344697 -0.0029903354114096579 0 -0.011677756337398029 -0.0030995083618334828 0 -0.01162520632196307 -0.0032118175814082419 0 -0.011537872598219227 -0.0030462813232059564 0 -0.011487774013871358 -0.0030531230829923448 0 -0.01162520632196307 -0.0032118175814082419 0 -0.011537872598219227 -0.0030462813232059564 0 -0.013938168743061068 -0.0025319765290988763 0 -0.015493861113188859 -0.0030657030687200265 0 -0.018693422466004927 -0.0023049317996835872 0 -0.018677270730016973 -0.0027085332146550918 0 -0.019091158705897088 -0.0027509938637107099 0 -0.018627345848308073 -0.0023520809679918736 0 -0.018693422466004927 -0.0023049317996835872 0 -0.018677270730016973 -0.0027085332146550918 0 -0.018627345848308073 -0.0023520809679918736 0 -0.018671125884080712 -0.0023126589637634965 0 -0.018458991949743243 -0.0022524127520044926 0 -0.018627345848308073 -0.0023520809679918736 0 -0.018445395091363979 -0.0024663101235131821 0 -0.018458991949743243 -0.0022524127520044926 0 -0.015034318841446861 -0.0020380394743469022 0 -0.013938168743061068 -0.0025319765290988763 0 -0.018627345848308073 -0.0023520809679918736 0 -0.018677270730016973 -0.0027085332146550918 0 -0.018445395091363979 -0.0024663101235131821 0 -0.018677270730016973 -0.0027085332146550918 0 -0.018920330454030992 -0.003068879355797912 0 -0.0187665556118949 -0.003369843129035903 0 -0.018677270730016973 -0.0027085332146550918 0 -0.0187665556118949 -0.003369843129035903 0 -0.018265282239737859 -0.0027021333384763006 0 -0.018677270730016973 -0.0027085332146550918 0 -0.018920330454030992 -0.003068879355797912 0 -0.019091158705897088 -0.0027509938637107099 0 -0.019438506024221747 -0.0031750442495861778 0 -0.019091158705897088 -0.0027509938637107099 0 -0.019126423656517625 -0.003158197766638178 0 -0.015641076466793333 -0.003320594855271876 0 -0.015493861113188859 -0.0030657030687200265 0 -0.018920330454030992 -0.003068879355797912 0 -0.019091158705897088 -0.0027509938637107099 0 -0.019126423656517625 -0.003158197766638178 0 -0.019438506024221747 -0.0031750442495861778 0 -0.019227967773654618 -0.0034006068864011114 0 -0.019126423656517625 -0.003158197766638178 0 -0.019466634996702082 -0.003765379151994611 0 -0.019227967773654618 -0.0034006068864011114 0 -0.018780200075542448 -0.0034139881553511783 0 -0.019227967773654618 -0.0034006068864011114 0 -0.01897258695562477 -0.0032950975052955995 0 -0.018780200075542448 -0.0034139881553511783 0 -0.018920330454030992 -0.003068879355797912 0 -0.01897258695562477 -0.0032950975052955995 0 -0.019126423656517625 -0.003158197766638178 0 -0.019227967773654618 -0.0034006068864011114 0 -0.01897258695562477 -0.0032950975052955995 0 -0.019126423656517625 -0.003158197766638178 0 -0.019248331158637347 -0.0037754736944044564 0 -0.019481298647983671 -0.003693836006425122 0 -0.018986522649691542 -0.0036567057472533049 0 -0.018920330454030992 -0.003068879355797912 0 -0.01897258695562477 -0.0032950975052955995 0 -0.0187665556118949 -0.003369843129035903 0 -0.019248331158637347 -0.0037754736944044564 0 -0.019481298647983671 -0.003693836006425122 0 -0.019398077360117179 -0.0038156939534024527 0 -0.01897258695562477 -0.0032950975052955995 0 -0.0187665556118949 -0.003369843129035903 0 -0.018780200075542448 -0.0034139881553511783 0 -0.019481298647983671 -0.003693836006425122 0 -0.019537345952281696 -0.003863454903393754 0 -0.019783701412143622 -0.0039481690173536182 0 -0.019398667507255076 -0.0040051408143234185 0 -0.019196833138366502 -0.0041349391889549461 0 -0.019682947561419011 -0.0041160538168865 0 -0.019481298647983671 -0.003693836006425122 0 -0.019537345952281696 -0.003863454903393754 0 -0.019398077360117179 -0.0038156939534024527 0 -0.019537345952281696 -0.003863454903393754 0 -0.019398077360117179 -0.0038156939534024527 0 -0.019430576723374938 -0.0039075304450826914 0 -0.019537345952281696 -0.003863454903393754 0 -0.019430576723374938 -0.0039075304450826914 0 -0.019561545297667439 -0.0039628530870387353 0 -0.019290818502315898 -0.0038858225338611178 0 -0.019398667507255076 -0.0040051408143234185 0 -0.019201070983623322 -0.003992356012894928 0 -0.019248331158637347 -0.0037754736944044564 0 -0.019398077360117179 -0.0038156939534024527 0 -0.019290818502315898 -0.0038858225338611178 0 -0.019398077360117179 -0.0038156939534024527 0 -0.019430576723374938 -0.0039075304450826914 0 -0.019290818502315898 -0.0038858225338611178 0 -0.019430576723374938 -0.0039075304450826914 0 -0.019290818502315898 -0.0038858225338611178 0 -0.019398667507255076 -0.0040051408143234185 0 -0.019398667507255076 -0.0040051408143234185 0 -0.019196833138366502 -0.0041349391889549461 0 -0.019201070983623322 -0.003992356012894928 0 -0.019398667507255076 -0.0040051408143234185 0 -0.019561545297667439 -0.0039628530870387353 0 -0.019682947561419011 -0.0041160538168865 0 -0.019430576723374938 -0.0039075304450826914 0 -0.019398667507255076 -0.0040051408143234185 0 -0.019561545297667439 -0.0039628530870387353 0 -0.01997788605219596 -0.0039320202885622145 0 -0.019481298647983671 -0.003693836006425122 0 -0.019783701412143622 -0.0039481690173536182 0 -0.019561545297667439 -0.0039628530870387353 0 -0.019783701412143622 -0.0039481690173536182 0 -0.019682947561419011 -0.0041160538168865 0 -0.019726260816951249 -0.0038392933710555909 0 -0.019126985039475394 -0.0035630646995873285 0 -0.019537345952281696 -0.003863454903393754 0 -0.019561545297667439 -0.0039628530870387353 0 -0.019783701412143622 -0.0039481690173536182 0 -0.018441218689792493 -0.004028182272661265 0 -0.018758668300884067 -0.0037886428279670981 0 -0.018461085507494569 -0.003641177951234894 0 -0.018441218689792493 -0.004028182272661265 0 -0.018758668300884067 -0.0037886428279670981 0 -0.019044576250258811 -0.0040283995872018013 0 -0.024762599388287083 -0.0038553773443611512 0 -0.023585379807791546 -0.004544095524106867 0 -0.018441218689792493 -0.004028182272661265 0 -0.019198893877618032 -0.0041912479961868478 0 -0.019044576250258811 -0.0040283995872018013 0 -0.030736135202713091 -0.0036985581773564223 0 -0.030076189881632062 -0.0040401265589647831 0 -0.030317653202104961 -0.0038534772454722932 0 -0.023585379807791546 -0.004544095524106867 0 -0.020808906101049143 -0.0031658639653480642 0 -0.019196833138366502 -0.0041349391889549461 0 -0.019044576250258811 -0.0040283995872018013 0 -0.019201070983623322 -0.003992356012894928 0 -0.019290818502315898 -0.0038858225338611178 0 -0.019201070983623322 -0.003992356012894928 0 -0.01909816991503582 -0.0038360683737891812 0 -0.019044576250258811 -0.0040283995872018013 0 -0.019201070983623322 -0.003992356012894928 0 -0.01909816991503582 -0.0038360683737891812 0 -0.019248331158637347 -0.0037754736944044564 0 -0.019290818502315898 -0.0038858225338611178 0 -0.01909816991503582 -0.0038360683737891812 0 -0.018758668300884067 -0.0037886428279670981 0 -0.019044576250258811 -0.0040283995872018013 0 -0.01909816991503582 -0.0038360683737891812 0 -0.018758668300884067 -0.0037886428279670981 0 -0.01909816991503582 -0.0038360683737891812 0 -0.018986522649691542 -0.0036567057472533049 0 -0.019126985039475394 -0.0035630646995873285 0 -0.018678047432148112 -0.0034079320585469306 0 -0.019481298647983671 -0.003693836006425122 0 -0.018986522649691542 -0.0036567057472533049 0 -0.018653551007448737 -0.0034092961287304586 0 -0.0187665556118949 -0.003369843129035903 0 -0.018780200075542448 -0.0034139881553511783 0 -0.018653551007448737 -0.0034092961287304586 0 -0.018758668300884067 -0.0037886428279670981 0 -0.018986522649691542 -0.0036567057472533049 0 -0.018653551007448737 -0.0034092961287304586 0 -0.019248331158637347 -0.0037754736944044564 0 -0.01909816991503582 -0.0038360683737891812 0 -0.018986522649691542 -0.0036567057472533049 0 -0.018441218689792493 -0.004028182272661265 0 -0.018461085507494569 -0.003641177951234894 0 -0.018142135183116918 -0.0036501162772432866 0 -0.018758668300884067 -0.0037886428279670981 0 -0.018653551007448737 -0.0034092961287304586 0 -0.018461085507494569 -0.003641177951234894 0 -0.018653551007448737 -0.0034092961287304586 0 -0.018461085507494569 -0.003641177951234894 0 -0.018325737615566089 -0.0034577327710459873 0 -0.018653551007448737 -0.0034092961287304586 0 -0.018395038119836355 -0.0032013655482928047 0 -0.018760883313290622 -0.0032219047433113225 0 -0.018653551007448737 -0.0034092961287304586 0 -0.018325737615566089 -0.0034577327710459873 0 -0.018395038119836355 -0.0032013655482928047 0 -0.018753277496187579 -0.0033430942402057494 0 -0.018521949678237358 -0.0029581549324387067 0 -0.0187665556118949 -0.003369843129035903 0 -0.018653551007448737 -0.0034092961287304586 0 -0.018760883313290622 -0.0032219047433113225 0 -0.018265282239737859 -0.0027021333384763006 0 -0.018276348987910421 -0.0022932988901511577 0 -0.018445395091363979 -0.0024663101235131821 0 -0.018265282239737859 -0.0027021333384763006 0 -0.018276348987910421 -0.0022932988901511577 0 -0.017995322972993739 -0.0021485009938760403 0 -0.018677270730016973 -0.0027085332146550918 0 -0.018265282239737859 -0.0027021333384763006 0 -0.018445395091363979 -0.0024663101235131821 0 -0.018276348987910421 -0.0022932988901511577 0 -0.018445395091363979 -0.0024663101235131821 0 -0.018458991949743243 -0.0022524127520044926 0 -0.018521949678237358 -0.0029581549324387067 0 -0.018231654280350857 -0.0023735919177272102 0 -0.018395038119836355 -0.0032013655482928047 0 -0.018760883313290622 -0.0032219047433113225 0 -0.01850921952689126 -0.0026108258881715534 0 -0.018395038119836355 -0.0032013655482928047 0 -0.018008575531529569 -0.0029902001760679533 0 -0.01850921952689126 -0.0026108258881715534 0 -0.018008575531529569 -0.0029902001760679533 0 -0.017552975711066121 -0.0032924697483812269 0 -0.017664679128508519 -0.0026509514198304364 0 -0.018008575531529569 -0.0029902001760679533 0 -0.017552975711066121 -0.0032924697483812269 0 -0.017981806516785201 -0.0034398694927509047 0 -0.017552975711066121 -0.0032924697483812269 0 -0.017178394266808002 -0.0025876253426758799 0 -0.017664679128508519 -0.0026509514198304364 0 -0.017552975711066121 -0.0032924697483812269 0 -0.017981806516785201 -0.0034398694927509047 0 -0.017756814862829574 -0.0036491705448255221 0 -0.018395038119836355 -0.0032013655482928047 0 -0.018008575531529569 -0.0029902001760679533 0 -0.017981806516785201 -0.0034398694927509047 0 -0.018325737615566089 -0.0034577327710459873 0 -0.018395038119836355 -0.0032013655482928047 0 -0.017981806516785201 -0.0034398694927509047 0 -0.014772710808395028 -0.0040761087204575861 0 -0.016378675369384414 -0.0031371284986712739 0 -0.017178866707144413 -0.0036922906890627383 0 -0.014123896578393245 -0.0037518850822586005 0 -0.014772710808395028 -0.0040761087204575861 0 -0.016378675369384414 -0.0031371284986712739 0 -0.016185136727353468 -0.0038274405039081748 0 -0.016945846240325461 -0.0037556229380996025 0 -0.017552975711066121 -0.0032924697483812269 0 -0.016378675369384414 -0.0031371284986712739 0 -0.017178394266808002 -0.0025876253426758799 0 -0.017552975711066121 -0.0032924697483812269 0 -0.016378675369384414 -0.0031371284986712739 0 -0.017178866707144413 -0.0036922906890627383 0 -0.017552975711066121 -0.0032924697483812269 0 -0.017178866707144413 -0.0036922906890627383 0 -0.017756814862829574 -0.0036491705448255221 0 -0.017178866707144413 -0.0036922906890627383 0 -0.017764785669088991 -0.0035150057493483406 0 -0.017756814862829574 -0.0036491705448255221 0 -0.017576719635471066 -0.003644757267936922 0 -0.017178866707144413 -0.0036922906890627383 0 -0.017511780752724415 -0.0035088529990582986 0 -0.017178866707144413 -0.0036922906890627383 0 -0.017511780752724415 -0.0035088529990582986 0 -0.017764785669088991 -0.0035150057493483406 0 -0.017467438951150757 -0.0033142794288870355 0 -0.017511780752724415 -0.0035088529990582986 0 -0.017764785669088991 -0.0035150057493483406 0 -0.017576719635471066 -0.003644757267936922 0 -0.017570920518842181 -0.003560180806756743 0 -0.017511780752724415 -0.0035088529990582986 0 -0.020134941030719479 -0.0024913439986460309 0 -0.025249516668808519 -0.0028201245740745199 0 -0.017467438951150757 -0.0033142794288870355 0 -0.017764785669088991 -0.0035150057493483406 0 -0.018354269797969246 -0.0036040964532475374 0 -0.017764785669088991 -0.0035150057493483406 0 -0.017756814862829574 -0.0036491705448255221 0 -0.017953260754647274 -0.0036445908722595368 0 -0.017953260754647274 -0.0036445908722595368 0 -0.018354269797969246 -0.0036040964532475374 0 -0.017914153426315624 -0.0037062914950633718 0 -0.017764785669088991 -0.0035150057493483406 0 -0.017953260754647274 -0.0036445908722595368 0 -0.018354269797969246 -0.0036040964532475374 0 -0.017756814862829574 -0.0036491705448255221 0 -0.017953260754647274 -0.0036445908722595368 0 -0.017914153426315624 -0.0037062914950633718 0 -0.018354269797969246 -0.0036040964532475374 0 -0.017938645939324545 -0.0049582945878317497 0 -0.024097295286795571 -0.0052629911692573424 0 -0.029968259931820958 -0.003742949063118734 0 -0.029834828177048803 -0.0038330159701565406 0 -0.029873832535784042 -0.0035817619775868966 0 -0.018354269797969246 -0.0036040964532475374 0 -0.017914153426315624 -0.0037062914950633718 0 -0.017857511196636627 -0.003741893852780705 0 -0.018354269797969246 -0.0036040964532475374 0 -0.026899355122654095 -0.0035377742182249698 0 -0.024097295286795571 -0.0052629911692573424 0 -0.025249516668808519 -0.0028201245740745199 0 -0.026662368413742706 -0.0044653083180979528 0 -0.018737012654785126 -0.0035336371604432239 0 -0.022292532002194634 -0.0036907601740249585 0 -0.017467438951150757 -0.0033142794288870355 0 -0.018354269797969246 -0.0036040964532475374 0 -0.017938645939324545 -0.0049582945878317497 0 -0.018325737615566089 -0.0034577327710459873 0 -0.017981806516785201 -0.0034398694927509047 0 -0.018142135183116918 -0.0036501162772432866 0 -0.017981806516785201 -0.0034398694927509047 0 -0.018142135183116918 -0.0036501162772432866 0 -0.017923477918105547 -0.0036603600216253223 0 -0.018461085507494569 -0.003641177951234894 0 -0.018325737615566089 -0.0034577327710459873 0 -0.018142135183116918 -0.0036501162772432866 0 -0.017981806516785201 -0.0034398694927509047 0 -0.017756814862829574 -0.0036491705448255221 0 -0.017923477918105547 -0.0036603600216253223 0 -0.017756814862829574 -0.0036491705448255221 0 -0.017914153426315624 -0.0037062914950633718 0 -0.017923477918105547 -0.0036603600216253223 0 -0.017914153426315624 -0.0037062914950633718 0 -0.017923477918105547 -0.0036603600216253223 0 -0.017857511196636627 -0.003741893852780705 0 -0.018142135183116918 -0.0036501162772432866 0 -0.017923477918105547 -0.0036603600216253223 0 -0.017857511196636627 -0.003741893852780705 0 -0.029834828177048803 -0.0038330159701565406 0 -0.028896487494057557 -0.0038641040187128543 0 -0.029835343910080657 -0.0036961438190752298 0 -0.026662368413742706 -0.0044653083180979528 0 -0.02869948973208122 -0.0040684590022924266 0 -0.026899355122654095 -0.0035377742182249698 0 -0.024097295286795571 -0.0052629911692573424 0 -0.028896487494057557 -0.0038641040187128543 0 -0.030736135202713091 -0.0036985581773564223 0 -0.028896487494057557 -0.0038641040187128543 0 -0.030117467644497943 -0.0039729319014452829 0 -0.024762599388287083 -0.0038553773443611512 0 -0.022292532002194634 -0.0036907601740249585 0 -0.018441218689792493 -0.004028182272661265 0 -0.018142135183116918 -0.0036501162772432866 0 -0.017857511196636627 -0.003741893852780705 0 -0.030736135202713091 -0.0036985581773564223 0 -0.026899355122654095 -0.0035377742182249698 0 -0.028896487494057557 -0.0038641040187128543 0 -0.030117467644497943 -0.0039729319014452829 0 -0.029835343910080657 -0.0036961438190752298 0 -0.030495271711066117 -0.0038983898163511646 0 -0.028896487494057557 -0.0038641040187128543 0 -0.030117467644497943 -0.0039729319014452829 0 -0.029835343910080657 -0.0036961438190752298 0 -0.029834828177048803 -0.0038330159701565406 0 -0.029880148734813584 -0.0036827059048024843 0 -0.029835343910080657 -0.0036961438190752298 0 -0.029880148734813584 -0.0036827059048024843 0 -0.029835343910080657 -0.0036961438190752298 0 -0.02995648688171194 -0.0037353796010270437 0 -0.030562165530201146 -0.0039125679695603465 0 -0.030828704992596233 -0.0038916476295075783 0 -0.029835343910080657 -0.0036961438190752298 0 -0.030495271711066117 -0.0038983898163511646 0 -0.02995648688171194 -0.0037353796010270437 0 -0.030117467644497943 -0.0039729319014452829 0 -0.030495271711066117 -0.0038983898163511646 0 -0.030486120131725448 -0.0036810738566756735 0 -0.030117467644497943 -0.0039729319014452829 0 -0.030486120131725448 -0.0036810738566756735 0 -0.030296463950195723 -0.0038234652646168214 0 -0.028970626722218371 -0.0034295185724666877 0 -0.02950002716229793 -0.0030045555980908129 0 -0.029470377740830757 -0.0035859119312038499 0 -0.029470377740830757 -0.0035859119312038499 0 -0.029873832535784042 -0.0035817619775868966 0 -0.029563902637773573 -0.0039285217825707304 0 -0.02950002716229793 -0.0030045555980908129 0 -0.029470377740830757 -0.0035859119312038499 0 -0.029873832535784042 -0.0035817619775868966 0 -0.028941094586518293 -0.0038400210555141084 0 -0.028970626722218371 -0.0034295185724666877 0 -0.029470377740830757 -0.0035859119312038499 0 -0.029873832535784042 -0.0035817619775868966 0 -0.02995648688171194 -0.0037353796010270437 0 -0.029563902637773573 -0.0039285217825707304 0 -0.025249516668808519 -0.0028201245740745199 0 -0.030319485107257505 -0.0044397726234888715 0 -0.029834828177048803 -0.0038330159701565406 0 -0.029880148734813584 -0.0036827059048024843 0 -0.029873832535784042 -0.0035817619775868966 0 -0.029880148734813584 -0.0036827059048024843 0 -0.029873832535784042 -0.0035817619775868966 0 -0.02995648688171194 -0.0037353796010270437 0 -0.02995648688171194 -0.0037353796010270437 0 -0.029563902637773573 -0.0039285217825707304 0 -0.029710497132464393 -0.0041863283837564351 0 -0.030495271711066117 -0.0038983898163511646 0 -0.02995648688171194 -0.0037353796010270437 0 -0.029710497132464393 -0.0041863283837564351 0 -0.028941094586518293 -0.0038400210555141084 0 -0.029563902637773573 -0.0039285217825707304 0 -0.029061676304348749 -0.0042267938601997842 0 -0.028941094586518293 -0.0038400210555141084 0 -0.029470377740830757 -0.0035859119312038499 0 -0.029563902637773573 -0.0039285217825707304 0 -0.029563902637773573 -0.0039285217825707304 0 -0.029459072030081735 -0.0040916250831581364 0 -0.029710497132464393 -0.0041863283837564351 0 -0.0295277915260302 -0.0039594579883058829 0 -0.029280565706308232 -0.0041438856437291524 0 -0.032770706129738342 -0.0031762237552462806 0 -0.032242624662222261 -0.0032442280258610711 0 -0.032479295466831995 -0.003063971765631193 0 -0.031201400802776561 -0.0036744377061561349 0 -0.030828704992596233 -0.0038916476295075783 0 -0.029458891354293179 -0.0041826157120870436 0 -0.029459072030081735 -0.0040916250831581364 0 -0.029710497132464393 -0.0041863283837564351 0 -0.032770706129738342 -0.0031762237552462806 0 -0.032242624662222261 -0.0032442280258610711 0 -0.031998540657452744 -0.0036506889005261736 0 -0.031998540657452744 -0.0036506889005261736 0 -0.031793785364511135 -0.0030951712087016552 0 -0.031057861805855548 -0.003484050592258185 0 -0.032242624662222261 -0.0032442280258610711 0 -0.031998540657452744 -0.0036506889005261736 0 -0.031793785364511135 -0.0030951712087016552 0 -0.031793785364511135 -0.0030951712087016552 0 -0.032147023862401036 -0.0026735714599061856 0 -0.031721406992590379 -0.0026957924799946606 0 -0.031793785364511135 -0.0030951712087016552 0 -0.032147023862401036 -0.0026735714599061856 0 -0.032293326002454388 -0.0029371065395310245 0 -0.032242624662222261 -0.0032442280258610711 0 -0.031793785364511135 -0.0030951712087016552 0 -0.032293326002454388 -0.0029371065395310245 0 -0.032242624662222261 -0.0032442280258610711 0 -0.032293326002454388 -0.0029371065395310245 0 -0.032479295466831995 -0.003063971765631193 0 -0.032481422855764032 -0.0026363095021961248 0 -0.032293326002454388 -0.0029371065395310245 0 -0.032638746107283671 -0.0028592266222082878 0 -0.032481422855764032 -0.0026363095021961248 0 -0.032147023862401036 -0.0026735714599061856 0 -0.032293326002454388 -0.0029371065395310245 0 -0.032769536086825764 -0.0025744629275908483 0 -0.032481422855764032 -0.0026363095021961248 0 -0.032638746107283671 -0.0028592266222082878 0 -0.032770706129738342 -0.0031762237552462806 0 -0.032638746107283671 -0.0028592266222082878 0 -0.032479295466831995 -0.003063971765631193 0 -0.032293326002454388 -0.0029371065395310245 0 -0.032638746107283671 -0.0028592266222082878 0 -0.032479295466831995 -0.003063971765631193 0 -0.030486120131725448 -0.0036810738566756735 0 -0.031122893164186403 -0.003166722117360324 0 -0.030747454222557619 -0.0031940745320584397 0 -0.030486120131725448 -0.0036810738566756735 0 -0.030747454222557619 -0.0031940745320584397 0 -0.030448017038636491 -0.0034295550155230021 0 -0.030495271711066117 -0.0038983898163511646 0 -0.031998540657452744 -0.0036506889005261736 0 -0.031057861805855548 -0.003484050592258185 0 -0.030495271711066117 -0.0038983898163511646 0 -0.030486120131725448 -0.0036810738566756735 0 -0.031057861805855548 -0.003484050592258185 0 -0.030486120131725448 -0.0036810738566756735 0 -0.031057861805855548 -0.003484050592258185 0 -0.031122893164186403 -0.003166722117360324 0 -0.031793785364511135 -0.0030951712087016552 0 -0.031057861805855548 -0.003484050592258185 0 -0.031122893164186403 -0.003166722117360324 0 -0.031793785364511135 -0.0030951712087016552 0 -0.031122893164186403 -0.003166722117360324 0 -0.031721406992590379 -0.0026957924799946606 0 -0.031122893164186403 -0.003166722117360324 0 -0.031721406992590379 -0.0026957924799946606 0 -0.031243980869886355 -0.0028337389110159408 0 -0.031243980869886355 -0.0028337389110159408 0 -0.030747454222557619 -0.0031940745320584397 0 -0.030797165632535664 -0.0028265693200123262 0 -0.031172491305879898 -0.0025937583935631008 0 -0.031243980869886355 -0.0028337389110159408 0 -0.030797165632535664 -0.0028265693200123262 0 -0.031122893164186403 -0.003166722117360324 0 -0.031243980869886355 -0.0028337389110159408 0 -0.030747454222557619 -0.0031940745320584397 0 -0.030747454222557619 -0.0031940745320584397 0 -0.030797165632535664 -0.0028265693200123262 0 -0.030372163461133941 -0.0031521535598037784 0 -0.030602421810716093 -0.0024561886161743292 0 -0.030797165632535664 -0.0028265693200123262 0 -0.030372163461133941 -0.0031521535598037784 0 -0.030747454222557619 -0.0031940745320584397 0 -0.030372163461133941 -0.0031521535598037784 0 -0.030448017038636491 -0.0034295550155230021 0 -0.030448017038636491 -0.0034295550155230021 0 -0.03014122651525844 -0.0033779717909445742 0 -0.030303572538714872 -0.00366699234556097 0 -0.030372163461133941 -0.0031521535598037784 0 -0.030448017038636491 -0.0034295550155230021 0 -0.03014122651525844 -0.0033779717909445742 0 -0.030486120131725448 -0.0036810738566756735 0 -0.030448017038636491 -0.0034295550155230021 0 -0.030303572538714872 -0.00366699234556097 0 -0.030372163461133941 -0.0031521535598037784 0 -0.03014122651525844 -0.0033779717909445742 0 -0.029931036904739097 -0.0031315511380583844 0 -0.03014122651525844 -0.0033779717909445742 0 -0.029903387055542886 -0.0035359490879905329 0 -0.030146618620973217 -0.0036533450332457496 0 -0.030082548734410134 -0.0027040299663187799 0 -0.030372163461133941 -0.0031521535598037784 0 -0.029931036904739097 -0.0031315511380583844 0 -0.030082548734410134 -0.0027040299663187799 0 -0.029713212425637861 -0.0028520404559030069 0 -0.029931036904739097 -0.0031315511380583844 0 -0.029713212425637861 -0.0028520404559030069 0 -0.029931036904739097 -0.0031315511380583844 0 -0.029574652194739662 -0.0031698558408672656 0 -0.029195869970874148 -0.0027601193077031014 0 -0.029415026859386486 -0.0028955595164389092 0 -0.029236226598715605 -0.0030805999856794199 0 -0.0294735202365435 -0.0026094227870736356 0 -0.029195869970874148 -0.0027601193077031014 0 -0.029415026859386486 -0.0028955595164389092 0 -0.0294735202365435 -0.0026094227870736356 0 -0.029713212425637861 -0.0028520404559030069 0 -0.029415026859386486 -0.0028955595164389092 0 -0.029713212425637861 -0.0028520404559030069 0 -0.029415026859386486 -0.0028955595164389092 0 -0.029574652194739662 -0.0031698558408672656 0 -0.029415026859386486 -0.0028955595164389092 0 -0.029236226598715605 -0.0030805999856794199 0 -0.029574652194739662 -0.0031698558408672656 0 -0.029236226598715605 -0.0030805999856794199 0 -0.029574652194739662 -0.0031698558408672656 0 -0.02931781893744459 -0.0035313844505013899 0 -0.029574652194739662 -0.0031698558408672656 0 -0.029903387055542886 -0.0035359490879905329 0 -0.02931781893744459 -0.0035313844505013899 0 -0.03014122651525844 -0.0033779717909445742 0 -0.029931036904739097 -0.0031315511380583844 0 -0.029903387055542886 -0.0035359490879905329 0 -0.029931036904739097 -0.0031315511380583844 0 -0.029574652194739662 -0.0031698558408672656 0 -0.029903387055542886 -0.0035359490879905329 0 -0.029903387055542886 -0.0035359490879905329 0 -0.029734084525037466 -0.003830177238900564 0 -0.030080846187821524 -0.0038067901056558079 0 -0.029903387055542886 -0.0035359490879905329 0 -0.02931781893744459 -0.0035313844505013899 0 -0.029734084525037466 -0.003830177238900564 0 -0.025666225189557586 -0.003126393839563557 0 -0.026828543475239424 -0.0040250824041057742 0 -0.022157167294009659 -0.0028829516851352197 0 -0.022152574376815441 -0.0038659598974192621 0 -0.023034218104768061 -0.0038246518104317153 0 -0.021626524831347988 -0.0036446630716632845 0 -0.022157167294009659 -0.0028829516851352197 0 -0.022152574376815441 -0.0038659598974192621 0 -0.020784107825643362 -0.0042012120634433185 0 -0.020765434424905291 -0.0042879272444872243 0 -0.021415407520018939 -0.0043293546481590877 0 -0.022152574376815441 -0.0038659598974192621 0 -0.022668385984505893 -0.004570196828003509 0 -0.02000228435004232 -0.0040676739417655691 0 -0.019783701412143622 -0.0039481690173536182 0 -0.019682947561419011 -0.0041160538168865 0 -0.022152574376815441 -0.0038659598974192621 0 -0.022668385984505893 -0.004570196828003509 0 -0.023034218104768061 -0.0038246518104317153 0 -0.023585379807791546 -0.004544095524106867 0 -0.020765434424905291 -0.0042879272444872243 0 -0.030076189881632062 -0.0040401265589647831 0 -0.029734084525037466 -0.003830177238900564 0 -0.030080846187821524 -0.0038067901056558079 0 -0.023916601785890938 -0.0047803983756433835 0 -0.022668385984505893 -0.004570196828003509 0 -0.023034218104768061 -0.0038246518104317153 0 -0.023585379807791546 -0.004544095524106867 0 -0.026828543475239424 -0.0040250824041057742 0 -0.030076189881632062 -0.0040401265589647831 0 -0.030080846187821524 -0.0038067901056558079 0 -0.030317653202104961 -0.0038534772454722932 0 -0.030080846187821524 -0.0038067901056558079 0 -0.030317653202104961 -0.0038534772454722932 0 -0.030346567199890154 -0.0038295476465192899 0 -0.030736135202713091 -0.0036985581773564223 0 -0.030317653202104961 -0.0038534772454722932 0 -0.030346567199890154 -0.0038295476465192899 0 -0.030736135202713091 -0.0036985581773564223 0 -0.030117467644497943 -0.0039729319014452829 0 -0.030346567199890154 -0.0038295476465192899 0 -0.030117467644497943 -0.0039729319014452829 0 -0.030346567199890154 -0.0038295476465192899 0 -0.030296463950195723 -0.0038234652646168214 0 -0.030486120131725448 -0.0036810738566756735 0 -0.030296463950195723 -0.0038234652646168214 0 -0.030303572538714872 -0.00366699234556097 0 -0.030346567199890154 -0.0038295476465192899 0 -0.030296463950195723 -0.0038234652646168214 0 -0.030303572538714872 -0.00366699234556097 0 -0.03014122651525844 -0.0033779717909445742 0 -0.030303572538714872 -0.00366699234556097 0 -0.030146618620973217 -0.0036533450332457496 0 -0.029903387055542886 -0.0035359490879905329 0 -0.030080846187821524 -0.0038067901056558079 0 -0.030146618620973217 -0.0036533450332457496 0 -0.030346567199890154 -0.0038295476465192899 0 -0.030303572538714872 -0.00366699234556097 0 -0.030146618620973217 -0.0036533450332457496 0 -0.030080846187821524 -0.0038067901056558079 0 -0.030346567199890154 -0.0038295476465192899 0 -0.030146618620973217 -0.0036533450332457496 0 -0.027091603915333121 -3.1492733890077105e-06 0 -0.030138565265575533 2.9549350231551683e-06 0 -0.031611270592776713 1.0834343194423591e-06 0 -0.027091603915333121 -3.1492733890077105e-06 0 -0.028999813950577807 -0.0014248778123736735 0 -0.030092713675691038 -0.00047950284578072668 0 -0.027091603915333121 -3.1492733890077105e-06 0 -0.030092713675691038 -0.00047950284578072668 0 -0.030138565265575533 2.9549350231551683e-06 0 -0.030092713675691038 -0.00047950284578072668 0 -0.030464501673480165 -2.8526767508735112e-05 0 -0.030138565265575533 2.9549350231551683e-06 0 -0.027083668276259732 -1.0735410960754077e-06 0 -0.025663970494541218 -5.1290451436968203e-05 0 -0.025733005252460171 1.0450411948262949e-06 0 -0.027085647864687572 -1.4680023274735635e-07 0 -0.027539403618144932 -0.00074306477129909099 0 -0.028999813950577807 -0.0014248778123736735 0 -0.030092713675691038 -0.00047950284578072668 0 -0.030319943847752839 -0.0019746423015941563 0 -0.030956751198915063 -0.00063651154610216228 0 -0.030092713675691038 -0.00047950284578072668 0 -0.030319943847752839 -0.0019746423015941563 0 -0.029657743852634633 -0.0014299816320508041 0 -0.026795546255588974 -0.00082706493442806592 0 -0.026104750060661517 -0.0016103270944327246 0 -0.026127197370459401 -0.0010672389020406573 0 -0.0265009374200329 -0.00085189385713243875 0 -0.025823671358528397 -0.0011754740428427729 0 -0.026104750060661517 -0.0016103270944327246 0 -0.026127197370459401 -0.0010672389020406573 0 -0.027596537218883194 -0.00079558721688575366 0 -0.027824254671491182 -0.0011510287119320462 0 -0.02745593357854912 -0.0010918520042941797 0 -0.026635259396147574 -0.00083632765821868658 0 -0.029657743852634633 -0.0014299816320508041 0 -0.03301618888094876 -0.0025681665471868429 0 -0.033409923196971919 -0.001910514380190551 0 -0.032425423183639335 -0.0016027595750603264 0 -0.027824254671491182 -0.0011510287119320462 0 -0.027631534663977456 -0.0015040925699664333 0 -0.02745593357854912 -0.0010918520042941797 0 -0.029657743852634633 -0.0014299816320508041 0 -0.030424977957892504 -0.0017644076938090072 0 -0.029657743852634633 -0.0014299816320508041 0 -0.031806902279975298 -0.0009400098542967681 0 -0.030956751198915063 -0.00063651154610216228 0 -0.030092713675691038 -0.00047950284578072668 0 -0.030464501673480165 -2.8526767508735112e-05 0 -0.032425423183639335 -0.0016027595750603264 0 -0.033119946983504699 -0.0011174200318096225 0 -0.0327211366944768 -0.00054523491522434923 0 -0.031806902279975298 -0.0009400098542967681 0 -0.031294204386049435 -0.00011296296335157547 0 -0.033409923196971919 -0.001910514380190551 0 -0.033119946983504699 -0.0011174200318096225 0 -0.033788535989586005 -0.001206382466622748 0 -0.033409923196971919 -0.001910514380190551 0 -0.032425423183639335 -0.0016027595750603264 0 -0.033119946983504699 -0.0011174200318096225 0 -0.033119946983504699 -0.0011174200318096225 0 -0.033260819117410391 -0.00042936294702947668 0 -0.033788535989586005 -0.001206382466622748 0 -0.033119946983504699 -0.0011174200318096225 0 -0.033260819117410391 -0.00042936294702947668 0 -0.0327211366944768 -0.00054523491522434923 0 -0.032425423183639335 -0.0016027595750603264 0 -0.0327211366944768 -0.00054523491522434923 0 -0.031474751985192145 -0.00018394928238165252 0 -0.031474751985192145 -0.00018394928238165252 0 -0.030138565265575533 2.9549350231551683e-06 0 -0.031611270592776713 1.0834343194423591e-06 0 -0.030464501673480165 -2.8526767508735112e-05 0 -0.031474751985192145 -0.00018394928238165252 0 -0.030138565265575533 2.9549350231551683e-06 0 -0.03499772735120709 3.2935430884715089e-08 0 -0.033788574371815629 0.00016393982721132211 0 -0.034998324944359255 4.390141161940037e-07 0 -0.031474751985192145 -0.00018394928238165252 0 -0.031611270592776713 1.0834343194423591e-06 0 -0.032611515040862994 2.7356789438813938e-05 0 -0.031611270592776713 1.0834343194423591e-06 0 -0.032611515040862994 2.7356789438813938e-05 0 -0.033788574371815629 0.00016393982721132211 0 -0.031611270592776713 1.0834343194423591e-06 0 -0.03499772735120709 3.2935430884715089e-08 0 -0.033788574371815629 0.00016393982721132211 0 -0.033788574371815629 0.00016393982721132211 0 -0.03397932794249231 0.00010312739615307634 0 -0.034998324944359255 4.390141161940037e-07 0 -0.03397932794249231 0.00010312739615307634 0 -0.034458381253418401 -4.5529187381443497e-06 0 -0.034998324944359255 4.390141161940037e-07 0 -0.03397932794249231 0.00010312739615307634 0 -0.034140754967375606 -5.296729056076792e-05 0 -0.03334444057814661 -8.4165886601144326e-05 0 -0.034140754967375606 -5.296729056076792e-05 0 -0.03334444057814661 -8.4165886601144326e-05 0 -0.034112146104740421 -0.00031214478502468635 0 -0.03397932794249231 0.00010312739615307634 0 -0.034140754967375606 -5.296729056076792e-05 0 -0.034458381253418401 -4.5529187381443497e-06 0 -0.032611515040862994 2.7356789438813938e-05 0 -0.033788574371815629 0.00016393982721132211 0 -0.03397932794249231 0.00010312739615307634 0 -0.032611515040862994 2.7356789438813938e-05 0 -0.03397932794249231 0.00010312739615307634 0 -0.03334444057814661 -8.4165886601144326e-05 0 -0.0327211366944768 -0.00054523491522434923 0 -0.031474751985192145 -0.00018394928238165252 0 -0.03334444057814661 -8.4165886601144326e-05 0 -0.031474751985192145 -0.00018394928238165252 0 -0.032611515040862994 2.7356789438813938e-05 0 -0.03334444057814661 -8.4165886601144326e-05 0 -0.03334444057814661 -8.4165886601144326e-05 0 -0.033873461770080923 -0.00053019079163550567 0 -0.034112146104740421 -0.00031214478502468635 0 -0.033260819117410391 -0.00042936294702947668 0 -0.0327211366944768 -0.00054523491522434923 0 -0.03334444057814661 -8.4165886601144326e-05 0 -0.033857501528420375 -0.00073810864618572051 0 -0.03334444057814661 -8.4165886601144326e-05 0 -0.033873461770080923 -0.00053019079163550567 0 -0.033967949710907053 -0.00094624851997505467 0 -0.033214127463798752 4.2178025463820161e-05 0 -0.033873461770080923 -0.00053019079163550567 0 -0.034105409697267941 -0.00051309835504556069 0 -0.034112146104740421 -0.00031214478502468635 0 -0.034105409697267941 -0.00051309835504556069 0 -0.034254970919222333 -0.00041771423521842413 0 -0.034112146104740421 -0.00031214478502468635 0 -0.034105409697267941 -0.00051309835504556069 0 -0.034268638096511393 -0.00050258468989078711 0 -0.034254970919222333 -0.00041771423521842413 0 -0.034268638096511393 -0.00050258468989078711 0 -0.034254970919222333 -0.00041771423521842413 0 -0.034356536703456973 -0.00046803820636437361 0 -0.034268638096511393 -0.00050258468989078711 0 -0.034356536703456973 -0.00046803820636437361 0 -0.034321390312734582 -0.00054879376667664448 0 -0.034254970919222333 -0.00041771423521842413 0 -0.034112146104740421 -0.00031214478502468635 0 -0.034437755734920965 -0.00024281654362168901 0 -0.034254970919222333 -0.00041771423521842413 0 -0.034356536703456973 -0.00046803820636437361 0 -0.034437755734920965 -0.00024281654362168901 0 -0.034449469196592857 -0.00043727630437751224 0 -0.034437755734920965 -0.00024281654362168901 0 -0.034646271380922175 -0.00026188951286564157 0 -0.034449469196592857 -0.00043727630437751224 0 -0.034356536703456973 -0.00046803820636437361 0 -0.034365162705588044 -0.00058217779107121994 0 -0.034449469196592857 -0.00043727630437751224 0 -0.034356536703456973 -0.00046803820636437361 0 -0.034437755734920965 -0.00024281654362168901 0 -0.034437755734920965 -0.00024281654362168901 0 -0.034691684643279486 -5.6374212277922575e-05 0 -0.034646271380922175 -0.00026188951286564157 0 -0.034437755734920965 -0.00024281654362168901 0 -0.034458381253418401 -4.5529187381443497e-06 0 -0.034691684643279486 -5.6374212277922575e-05 0 -0.034140754967375606 -5.296729056076792e-05 0 -0.034112146104740421 -0.00031214478502468635 0 -0.034437755734920965 -0.00024281654362168901 0 -0.034140754967375606 -5.296729056076792e-05 0 -0.034437755734920965 -0.00024281654362168901 0 -0.034458381253418401 -4.5529187381443497e-06 0 -0.034458381253418401 -4.5529187381443497e-06 0 -0.034691684643279486 -5.6374212277922575e-05 0 -0.034998324944359255 4.390141161940037e-07 0 -0.034691684643279486 -5.6374212277922575e-05 0 -0.034998324944359255 4.390141161940037e-07 0 -0.034999670726271651 -1.6974157291732747e-07 0 -0.034999670726271651 -1.6974157291732747e-07 0 -0.034646271380922175 -0.00026188951286564157 0 -0.034894080639807763 -0.0001700651496311934 0 -0.034691684643279486 -5.6374212277922575e-05 0 -0.034999670726271651 -1.6974157291732747e-07 0 -0.034646271380922175 -0.00026188951286564157 0 -0.034646271380922175 -0.00026188951286564157 0 -0.034669360729383279 -0.00039449419824290691 0 -0.034894080639807763 -0.0001700651496311934 0 -0.034449469196592857 -0.00043727630437751224 0 -0.034646271380922175 -0.00026188951286564157 0 -0.034428657941902793 -0.00056980622279518222 0 -0.034646271380922175 -0.00026188951286564157 0 -0.034471992363653392 -0.00059552152231534083 0 -0.034428657941902793 -0.00056980622279518222 0 -0.034646271380922175 -0.00026188951286564157 0 -0.034471992363653392 -0.00059552152231534083 0 -0.034669360729383279 -0.00039449419824290691 0 -0.034471992363653392 -0.00059552152231534083 0 -0.03431342074817121 -0.00084846063590181449 0 -0.034564750827406843 -0.00060498011888548866 0 -0.034471992363653392 -0.00059552152231534083 0 -0.034564750827406843 -0.00060498011888548866 0 -0.034669360729383279 -0.00039449419824290691 0 -0.034471992363653392 -0.00059552152231534083 0 -0.034270966963702645 -0.00083334503404692954 0 -0.03431342074817121 -0.00084846063590181449 0 -0.034270966963702645 -0.00083334503404692954 0 -0.033934647478248099 -0.0012366637189576181 0 -0.03431342074817121 -0.00084846063590181449 0 -0.032771569296813463 -0.00040820574961865873 0 -0.031027896867045029 0.00062521522832314352 0 -0.034270966963702645 -0.00083334503404692954 0 -0.034428657941902793 -0.00056980622279518222 0 -0.034350610717601315 -0.00066025472211037506 0 -0.03108719563865233 0.00020649400452514254 0 -0.028170344276996644 0.001557249549477182 0 -0.028619505557845211 -0.00043418102206433236 0 -0.034471992363653392 -0.00059552152231534083 0 -0.034270966963702645 -0.00083334503404692954 0 -0.034428657941902793 -0.00056980622279518222 0 -0.034449469196592857 -0.00043727630437751224 0 -0.034428657941902793 -0.00056980622279518222 0 -0.034365162705588044 -0.00058217779107121994 0 -0.025781251167142187 0.0027638150255435735 0 -0.028170344276996644 0.001557249549477182 0 -0.026386018398849347 0.0014501595358447864 0 -0.034365162705588044 -0.00058217779107121994 0 -0.034306631727702756 -0.00060760231223268399 0 -0.034350610717601315 -0.00066025472211037506 0 -0.031124921197077757 -0.000339616327128845 0 -0.031027896867045029 0.00062521522832314352 0 -0.034365162705588044 -0.00058217779107121994 0 -0.034321390312734582 -0.00054879376667664448 0 -0.034306631727702756 -0.00060760231223268399 0 -0.034356536703456973 -0.00046803820636437361 0 -0.034365162705588044 -0.00058217779107121994 0 -0.034321390312734582 -0.00054879376667664448 0 -0.034428657941902793 -0.00056980622279518222 0 -0.034365162705588044 -0.00058217779107121994 0 -0.034350610717601315 -0.00066025472211037506 0 -0.033857501528420375 -0.00073810864618572051 0 -0.033873461770080923 -0.00053019079163550567 0 -0.034211861270626691 -0.00083528637754279713 0 -0.033857501528420375 -0.00073810864618572051 0 -0.034211861270626691 -0.00083528637754279713 0 -0.034053870766498948 -0.0010765930979670937 0 -0.033873461770080923 -0.00053019079163550567 0 -0.034105409697267941 -0.00051309835504556069 0 -0.034306631727702756 -0.00060760231223268399 0 -0.034885718417495895 -0.00097622942909253983 0 -0.031124921197077757 -0.000339616327128845 0 -0.033967949710907053 -0.00094624851997505467 0 -0.030017864991466168 -0.00047202362495680242 0 -0.034105409697267941 -0.00051309835504556069 0 -0.034275048511499366 -0.00056503880790186186 0 -0.034306631727702756 -0.00060760231223268399 0 -0.034105409697267941 -0.00051309835504556069 0 -0.034268638096511393 -0.00050258468989078711 0 -0.034275048511499366 -0.00056503880790186186 0 -0.034268638096511393 -0.00050258468989078711 0 -0.034275048511499366 -0.00056503880790186186 0 -0.034321390312734582 -0.00054879376667664448 0 -0.034275048511499366 -0.00056503880790186186 0 -0.034321390312734582 -0.00054879376667664448 0 -0.034306631727702756 -0.00060760231223268399 0 -0.025781251167142187 0.0027638150255435735 0 -0.024936756271078716 0.00113863901771179 0 -0.026386018398849347 0.0014501595358447864 0 -0.031124921197077757 -0.000339616327128845 0 -0.030017864991466168 -0.00047202362495680242 0 -0.024936756271078716 0.00113863901771179 0 -0.026386018398849347 0.0014501595358447864 0 -0.026785959383139362 0.00037347950694894633 0 -0.030424977957892504 -0.0017644076938090072 0 -0.030017864991466168 -0.00047202362495680242 0 -0.024936756271078716 0.00113863901771179 0 -0.026785959383139362 0.00037347950694894633 0 -0.026472502323994198 -0.0020066919516151631 0 -0.028170344276996644 0.001557249549477182 0 -0.026386018398849347 0.0014501595358447864 0 -0.026785959383139362 0.00037347950694894633 0 -0.028170344276996644 0.001557249549477182 0 -0.026785959383139362 0.00037347950694894633 0 -0.028619505557845211 -0.00043418102206433236 0 -0.026785959383139362 0.00037347950694894633 0 -0.026472502323994198 -0.0020066919516151631 0 -0.028619505557845211 -0.00043418102206433236 0 -0.024936756271078716 0.00113863901771179 0 -0.026527963151238589 -0.0024302544721335828 0 -0.026472502323994198 -0.0020066919516151631 0 -0.026527963151238589 -0.0024302544721335828 0 -0.026472502323994198 -0.0020066919516151631 0 -0.025359129006228342 -0.0028744286828042147 0 -0.030017864991466168 -0.00047202362495680242 0 -0.026129032308486819 -0.0016286965844087564 0 -0.027631534663977456 -0.0015040925699664333 0 -0.026991792557483442 -0.0012391958369820052 0 -0.02745593357854912 -0.0010918520042941797 0 -0.027631534663977456 -0.0015040925699664333 0 -0.027444568890090296 -0.0018532805691443451 0 -0.026991792557483442 -0.0012391958369820052 0 -0.026991792557483442 -0.0012391958369820052 0 -0.02745593357854912 -0.0010918520042941797 0 -0.027276188498432455 -0.00081831636507683717 0 -0.027596537218883194 -0.00079558721688575366 0 -0.02745593357854912 -0.0010918520042941797 0 -0.027276188498432455 -0.00081831636507683717 0 -0.026129032308486819 -0.0016286965844087564 0 -0.025907874232381396 -0.0014201874893467706 0 -0.026991792557483442 -0.0012391958369820052 0 -0.027276188498432455 -0.00081831636507683717 0 -0.0269663120400877 -0.00052669897187750071 0 -0.026991792557483442 -0.0012391958369820052 0 -0.02655233307050198 -0.00061374920454847757 0 -0.0269663120400877 -0.00052669897187750071 0 -0.026527963151238589 -0.0024302544721335828 0 -0.025393453344333142 -0.0022586116479563897 0 -0.025359129006228342 -0.0028744286828042147 0 -0.026527963151238589 -0.0024302544721335828 0 -0.025393453344333142 -0.0022586116479563897 0 -0.025422019361368418 -0.0018788235507531401 0 -0.025393453344333142 -0.0022586116479563897 0 -0.024696120419828736 -0.0023542549251366362 0 -0.025359129006228342 -0.0028744286828042147 0 -0.024696120419828736 -0.0023542549251366362 0 -0.025359129006228342 -0.0028744286828042147 0 -0.023937901290490542 -0.0026931522622612174 0 -0.025393453344333142 -0.0022586116479563897 0 -0.024696120419828736 -0.0023542549251366362 0 -0.024950402391115099 -0.0020792830592136122 0 -0.027867536844000968 -0.0025918332825165882 0 -0.029268727192666329 -0.0026165824733374301 0 -0.024696120419828736 -0.0023542549251366362 0 -0.024100961039000748 -0.0022894040186241383 0 -0.024250966060794073 -0.0019838596524516393 0 -0.024696120419828736 -0.0023542549251366362 0 -0.023937901290490542 -0.0026931522622612174 0 -0.024100961039000748 -0.0022894040186241383 0 -0.030688366398464246 -0.0025667873908707109 0 -0.033934647478248099 -0.0012366637189576181 0 -0.034107011006397021 -0.002362405070607386 0 -0.032771569296813463 -0.00040820574961865873 0 -0.033857561700701581 -0.001141305095349199 0 -0.03108719563865233 0.00020649400452514254 0 -0.030688366398464246 -0.0025667873908707109 0 -0.033934647478248099 -0.0012366637189576181 0 -0.026472502323994198 -0.0020066919516151631 0 -0.028619505557845211 -0.00043418102206433236 0 -0.030688366398464246 -0.0025667873908707109 0 -0.03108719563865233 0.00020649400452514254 0 -0.028619505557845211 -0.00043418102206433236 0 -0.030688366398464246 -0.0025667873908707109 0 -0.026525536215872277 -0.0021183820099541163 0 -0.027867536844000968 -0.0025918332825165882 0 -0.03476908279499543 -0.0014637465560094251 0 -0.034514796891745518 -0.0016746650407724148 0 -0.034959979986011393 -0.0020256427623544624 0 -0.03476908279499543 -0.0014637465560094251 0 -0.034959979986011393 -0.0020256427623544624 0 -0.035182226562394038 -0.0012291299353923068 0 -0.03476908279499543 -0.0014637465560094251 0 -0.035182226562394038 -0.0012291299353923068 0 -0.034850395455521557 -0.0010603355560065732 0 -0.03476908279499543 -0.0014637465560094251 0 -0.034850395455521557 -0.0010603355560065732 0 -0.03444511301471747 -0.0010947697905401607 0 -0.03476908279499543 -0.0014637465560094251 0 -0.034514796891745518 -0.0016746650407724148 0 -0.03444511301471747 -0.0010947697905401607 0 -0.033934647478248099 -0.0012366637189576181 0 -0.034514796891745518 -0.0016746650407724148 0 -0.03444511301471747 -0.0010947697905401607 0 -0.033934647478248099 -0.0012366637189576181 0 -0.034514796891745518 -0.0016746650407724148 0 -0.034107011006397021 -0.002362405070607386 0 -0.023937901290490542 -0.0026931522622612174 0 -0.023347808788968798 -0.0022259900577308749 0 -0.023676298938359312 -0.002188022116643284 0 -0.034514796891745518 -0.0016746650407724148 0 -0.034107011006397021 -0.002362405070607386 0 -0.034959979986011393 -0.0020256427623544624 0 -0.023937901290490542 -0.0026931522622612174 0 -0.024100961039000748 -0.0022894040186241383 0 -0.023676298938359312 -0.002188022116643284 0 -0.029268727192666329 -0.0026165824733374301 0 -0.027716673808344292 -0.0016353343387651442 0 -0.023937901290490542 -0.0026931522622612174 0 -0.023267630170682136 -0.0023566544177070626 0 -0.023347808788968798 -0.0022259900577308749 0 -0.023386023201618623 -0.0021344405211820871 0 -0.023347808788968798 -0.0022259900577308749 0 -0.023458401923370811 -0.0021172884411497506 0 -0.027716673808344292 -0.0016353343387651442 0 -0.024497913002932345 -0.001404853939195194 0 -0.027716673808344292 -0.0016353343387651442 0 -0.026041378874770472 -0.002751150422267379 0 -0.023347808788968798 -0.0022259900577308749 0 -0.023458401923370811 -0.0021172884411497506 0 -0.023457829227148327 -0.0022955773124713448 0 -0.023458401923370811 -0.0021172884411497506 0 -0.024416464402951102 -0.001926564344000874 0 -0.023457829227148327 -0.0022955773124713448 0 -0.023260829857993173 -0.0020722491800483954 0 -0.023458401923370811 -0.0021172884411497506 0 -0.023819218811454903 -0.0013825563089313402 0 -0.019512151107678982 -0.0034173284062954997 0 -0.019337839810379485 -0.0027934527561661237 0 -0.019984539354999078 -0.0026772230512802854 0 -0.022130420243098848 -0.0026132099512814963 0 -0.022259546575078525 -0.0025633683763854427 0 -0.019512151107678982 -0.0034173284062954997 0 -0.019984539354999078 -0.0026772230512802854 0 -0.021029956464625313 -0.0029388434269783381 0 -0.024416464402951102 -0.001926564344000874 0 -0.023819218811454903 -0.0013825563089313402 0 -0.024619011272479573 -0.001278299029891042 0 -0.023458401923370811 -0.0021172884411497506 0 -0.024416464402951102 -0.001926564344000874 0 -0.023819218811454903 -0.0013825563089313402 0 -0.027716673808344292 -0.0016353343387651442 0 -0.029660939437733163 -0.0013351037494291444 0 -0.035182226562394038 -0.0012291299353923068 0 -0.03522981110794194 -0.00073712012838574102 0 -0.034975121062048267 -0.00076022363075124353 0 -0.035182226562394038 -0.0012291299353923068 0 -0.034975121062048267 -0.00076022363075124353 0 -0.034850395455521557 -0.0010603355560065732 0 -0.023819218811454903 -0.0013825563089313402 0 -0.024403284560328243 -0.00064649080302324837 0 -0.024619011272479573 -0.001278299029891042 0 -0.029660939437733163 -0.0013351037494291444 0 -0.029818645660979821 -0.00069948081116772613 0 -0.03522981110794194 -0.00073712012838574102 0 -0.035073090454951508 -0.00049134341763688036 0 -0.035251324406241104 -0.00046072027783684589 0 -0.034975121062048267 -0.00076022363075124353 0 -0.034774728544197761 -0.00046624248624229584 0 -0.035073090454951508 -0.00049134341763688036 0 -0.03522981110794194 -0.00073712012838574102 0 -0.034975121062048267 -0.00076022363075124353 0 -0.035073090454951508 -0.00049134341763688036 0 -0.034975121062048267 -0.00076022363075124353 0 -0.034635898412110566 -0.00078777139502040033 0 -0.034774728544197761 -0.00046624248624229584 0 -0.034975121062048267 -0.00076022363075124353 0 -0.034850395455521557 -0.0010603355560065732 0 -0.034635898412110566 -0.00078777139502040033 0 -0.034850395455521557 -0.0010603355560065732 0 -0.03444511301471747 -0.0010947697905401607 0 -0.034635898412110566 -0.00078777139502040033 0 -0.033934647478248099 -0.0012366637189576181 0 -0.03444511301471747 -0.0010947697905401607 0 -0.03431342074817121 -0.00084846063590181449 0 -0.03444511301471747 -0.0010947697905401607 0 -0.034635898412110566 -0.00078777139502040033 0 -0.03431342074817121 -0.00084846063590181449 0 -0.034635898412110566 -0.00078777139502040033 0 -0.03431342074817121 -0.00084846063590181449 0 -0.034564750827406843 -0.00060498011888548866 0 -0.034635898412110566 -0.00078777139502040033 0 -0.034564750827406843 -0.00060498011888548866 0 -0.034774728544197761 -0.00046624248624229584 0 -0.034999670726271651 -1.6974157291732747e-07 0 -0.034894080639807763 -0.0001700651496311934 0 -0.035000380824683028 -7.8433436154494473e-08 0 -0.034564750827406843 -0.00060498011888548866 0 -0.034669360729383279 -0.00039449419824290691 0 -0.034774728544197761 -0.00046624248624229584 0 -0.034774728544197761 -0.00046624248624229584 0 -0.034894080639807763 -0.0001700651496311934 0 -0.034992182566757082 -0.00028911080668196594 0 -0.034669360729383279 -0.00039449419824290691 0 -0.034774728544197761 -0.00046624248624229584 0 -0.034894080639807763 -0.0001700651496311934 0 -0.034894080639807763 -0.0001700651496311934 0 -0.035000380824683028 -7.8433436154494473e-08 0 -0.035028108164722419 -0.00017300552177812914 0 -0.035000380824683028 -7.8433436154494473e-08 0 -0.035028108164722419 -0.00017300552177812914 0 -0.03519296904912516 -0.00012567458091847231 0 -0.034999639190705992 3.4338274237455065e-07 0 -0.035505040717266741 -0.00025162351957602226 0 -0.035028108164722419 -0.00017300552177812914 0 -0.035150466245251422 -0.00029542469375523151 0 -0.03519296904912516 -0.00012567458091847231 0 -0.035028108164722419 -0.00017300552177812914 0 -0.035150466245251422 -0.00029542469375523151 0 -0.034992182566757082 -0.00028911080668196594 0 -0.034894080639807763 -0.0001700651496311934 0 -0.035028108164722419 -0.00017300552177812914 0 -0.034992182566757082 -0.00028911080668196594 0 -0.035150466245251422 -0.00029542469375523151 0 -0.034992182566757082 -0.00028911080668196594 0 -0.035073090454951508 -0.00049134341763688036 0 -0.034774728544197761 -0.00046624248624229584 0 -0.034992182566757082 -0.00028911080668196594 0 -0.035073090454951508 -0.00049134341763688036 0 -0.035150466245251422 -0.00029542469375523151 0 -0.035073090454951508 -0.00049134341763688036 0 -0.035251324406241104 -0.00046072027783684589 0 -0.024985289265877248 9.43621138822545e-05 0 -0.025979479368586411 0.00029722049123338736 0 -0.025638038721944648 -0.00033037796642060795 0 -0.024985289265877248 9.43621138822545e-05 0 -0.025552020806180201 0.0008246272695470678 0 -0.025979479368586411 0.00029722049123338736 0 -0.032064746790084961 -7.76081052628642e-05 0 -0.030364031458706042 0.00023135505561031066 0 -0.034787300223420865 -6.5505314178346998e-05 0 -0.034859135560120623 -6.4285513740590405e-05 0 -0.034818301782630838 -0.00012032738196362746 0 -0.029904857698296736 -0.00020725007487930826 0 -0.032064746790084961 -7.76081052628642e-05 0 -0.035150466245251422 -0.00029542469375523151 0 -0.035251324406241104 -0.00046072027783684589 0 -0.035317656203726927 -0.00026613038927389442 0 -0.035150466245251422 -0.00029542469375523151 0 -0.035317656203726927 -0.00026613038927389442 0 -0.03519296904912516 -0.00012567458091847231 0 -0.032064746790084961 -7.76081052628642e-05 0 -0.035505040717266741 -0.00025162351957602226 0 -0.034971856323571512 1.7817068260481512e-05 0 -0.034996718668956969 5.0340963700845262e-06 0 -0.0349792643483351 1.1280091119605912e-05 0 -0.034787300223420865 -6.5505314178346998e-05 0 -0.034862312085399388 -1.5817092351583105e-05 0 -0.034859135560120623 -6.4285513740590405e-05 0 -0.032064746790084961 -7.76081052628642e-05 0 -0.035030185685170585 0.00024175683285936579 0 -0.034996718668956969 5.0340963700845262e-06 0 -0.0349792643483351 1.1280091119605912e-05 0 -0.034999986573954076 -3.4594133329886436e-09 0 -0.0349792643483351 1.1280091119605912e-05 0 -0.034999986573954076 -3.4594133329886436e-09 0 -0.034977864774487173 4.312536309078354e-06 0 -0.035000009272223451 3.62585669581354e-09 0 -0.034996718668956969 5.0340963700845262e-06 0 -0.034999986573954076 -3.4594133329886436e-09 0 -0.035000006191806023 -5.5265486353771256e-09 0 -0.03498649352903356 -2.8886649671966722e-06 0 -0.034999894021047355 1.1025518530765462e-08 0 -0.034984497194104132 -1.8838762272186939e-05 0 -0.03498649352903356 -2.8886649671966722e-06 0 -0.034968116642643168 -1.2971960466328999e-05 0 -0.034973506799359996 -2.689799230604951e-06 0 -0.03498649352903356 -2.8886649671966722e-06 0 -0.034968116642643168 -1.2971960466328999e-05 0 -0.034973506799359996 -2.689799230604951e-06 0 -0.03498649352903356 -2.8886649671966722e-06 0 -0.034999894021047355 1.1025518530765462e-08 0 -0.034973506799359996 -2.689799230604951e-06 0 -0.034999894021047355 1.1025518530765462e-08 0 -0.034977864774487173 4.312536309078354e-06 0 -0.034999986573954076 -3.4594133329886436e-09 0 -0.034999894021047355 1.1025518530765462e-08 0 -0.034977864774487173 4.312536309078354e-06 0 -0.035030185685170585 0.00024175683285936579 0 -0.034909678728987974 -6.4934639296179592e-05 0 -0.034973506799359996 -2.689799230604951e-06 0 -0.034977864774487173 4.312536309078354e-06 0 -0.034932701215722478 -1.666021574082178e-05 0 -0.034862312085399388 -1.5817092351583105e-05 0 -0.034977864774487173 4.312536309078354e-06 0 -0.034932701215722478 -1.666021574082178e-05 0 -0.034862312085399388 -1.5817092351583105e-05 0 -0.034932701215722478 -1.666021574082178e-05 0 -0.034859135560120623 -6.4285513740590405e-05 0 -0.034932701215722478 -1.666021574082178e-05 0 -0.034922854842242071 -5.2439732313857508e-05 0 -0.034859135560120623 -6.4285513740590405e-05 0 -0.034973506799359996 -2.689799230604951e-06 0 -0.034932701215722478 -1.666021574082178e-05 0 -0.034968116642643168 -1.2971960466328999e-05 0 -0.034932701215722478 -1.666021574082178e-05 0 -0.034968116642643168 -1.2971960466328999e-05 0 -0.034922854842242071 -5.2439732313857508e-05 0 -0.034984497194104132 -1.8838762272186939e-05 0 -0.034968116642643168 -1.2971960466328999e-05 0 -0.034961110959960379 -3.8741998092805962e-05 0 -0.034968116642643168 -1.2971960466328999e-05 0 -0.034961110959960379 -3.8741998092805962e-05 0 -0.034922854842242071 -5.2439732313857508e-05 0 -0.034961110959960379 -3.8741998092805962e-05 0 -0.034942759130708337 -6.9458491815353212e-05 0 -0.034922854842242071 -5.2439732313857508e-05 0 -0.034975617566346089 -5.5095024850189005e-05 0 -0.034961110959960379 -3.8741998092805962e-05 0 -0.034942759130708337 -6.9458491815353212e-05 0 -0.034942759130708337 -6.9458491815353212e-05 0 -0.034922854842242071 -5.2439732313857508e-05 0 -0.034887604255943068 -9.8947039542021878e-05 0 -0.034954973432791837 -0.00010922810753478479 0 -0.034942759130708337 -6.9458491815353212e-05 0 -0.034887604255943068 -9.8947039542021878e-05 0 -0.034922854842242071 -5.2439732313857508e-05 0 -0.034887604255943068 -9.8947039542021878e-05 0 -0.034859135560120623 -6.4285513740590405e-05 0 -0.034887604255943068 -9.8947039542021878e-05 0 -0.034859135560120623 -6.4285513740590405e-05 0 -0.034818301782630838 -0.00012032738196362746 0 -0.034887604255943068 -9.8947039542021878e-05 0 -0.034818301782630838 -0.00012032738196362746 0 -0.034836070888715875 -0.00019515300152789833 0 -0.025979479368586411 0.00029722049123338736 0 -0.026431586688394251 -0.00024268282382926523 0 -0.025638038721944648 -0.00033037796642060795 0 -0.030364031458706042 0.00023135505561031066 0 -0.027964964531447995 -0.0013924790239532878 0 -0.034954973432791837 -0.00010922810753478479 0 -0.034887604255943068 -9.8947039542021878e-05 0 -0.034836070888715875 -0.00019515300152789833 0 -0.033523293854263406 -0.0010339618655166281 0 -0.033247697615417245 -0.0005109776056201967 0 -0.032274560428660941 -0.0014280408716766089 0 -0.03492101113123891 0.00010041225447305114 0 -0.027964964531447995 -0.0013924790239532878 0 -0.022649326888947347 -0.0032464696257828367 0 -0.027964964531447995 -0.0013924790239532878 0 -0.018285200008935788 -0.0036231498577103559 0 -0.018410359620932706 -0.0036917508680587735 0 -0.018334587975652437 -0.0036086677939563654 0 -0.033095102226613715 -0.0024280001302260123 0 -0.033624431242453838 -0.0017207916280209197 0 -0.032274560428660941 -0.0014280408716766089 0 -0.018285200008935788 -0.0036231498577103559 0 -0.018334587975652437 -0.0036086677939563654 0 -0.018205786547017527 -0.0034595581231623108 0 -0.022649326888947347 -0.0032464696257828367 0 -0.016066014449446123 -0.0043346753140232307 0 -0.018334587975652437 -0.0036086677939563654 0 -0.018205786547017527 -0.0034595581231623108 0 -0.018393245437971939 -0.0035464449935639743 0 -0.018334587975652437 -0.0036086677939563654 0 -0.018438852408341078 -0.0036452160814827855 0 -0.018393245437971939 -0.0035464449935639743 0 -0.026431586688394251 -0.00024268282382926523 0 -0.025883720816469138 -0.00082114623677040886 0 -0.025638038721944648 -0.00033037796642060795 0 -0.018410359620932706 -0.0036917508680587735 0 -0.018334587975652437 -0.0036086677939563654 0 -0.018438852408341078 -0.0036452160814827855 0 -0.027964964531447995 -0.0013924790239532878 0 -0.021562358234066045 -0.0026036371821459639 0 -0.025638038721944648 -0.00033037796642060795 0 -0.025106826825284027 -0.00056787183899948313 0 -0.025401280247057685 -0.00083815930031420492 0 -0.025883720816469138 -0.00082114623677040886 0 -0.025638038721944648 -0.00033037796642060795 0 -0.025401280247057685 -0.00083815930031420492 0 -0.029818645660979821 -0.00069948081116772613 0 -0.029904857698296736 -0.00020725007487930826 0 -0.024403284560328243 -0.00064649080302324837 0 -0.024985289265877248 9.43621138822545e-05 0 -0.025106826825284027 -0.00056787183899948313 0 -0.024985289265877248 9.43621138822545e-05 0 -0.025638038721944648 -0.00033037796642060795 0 -0.025106826825284027 -0.00056787183899948313 0 -0.024403284560328243 -0.00064649080302324837 0 -0.025106826825284027 -0.00056787183899948313 0 -0.025008501478681066 -0.0010109156812579208 0 -0.024619011272479573 -0.001278299029891042 0 -0.025008501478681066 -0.0010109156812579208 0 -0.025328895546056253 -0.0013949365395084286 0 -0.024403284560328243 -0.00064649080302324837 0 -0.024619011272479573 -0.001278299029891042 0 -0.025008501478681066 -0.0010109156812579208 0 -0.025106826825284027 -0.00056787183899948313 0 -0.025008501478681066 -0.0010109156812579208 0 -0.025401280247057685 -0.00083815930031420492 0 -0.018438852408341078 -0.0036452160814827855 0 -0.018600437656044119 -0.0035791848776534027 0 -0.018625463594115228 -0.0035741639418852074 0 -0.021562358234066045 -0.0026036371821459639 0 -0.021278214688588731 -0.0025989463936589045 0 -0.025883720816469138 -0.00082114623677040886 0 -0.025401280247057685 -0.00083815930031420492 0 -0.025328895546056253 -0.0013949365395084286 0 -0.025008501478681066 -0.0010109156812579208 0 -0.025401280247057685 -0.00083815930031420492 0 -0.025328895546056253 -0.0013949365395084286 0 -0.018438852408341078 -0.0036452160814827855 0 -0.018600437656044119 -0.0035791848776534027 0 -0.018393245437971939 -0.0035464449935639743 0 -0.018484591388131071 -0.0035101370437977519 0 -0.018600437656044119 -0.0035791848776534027 0 -0.018393245437971939 -0.0035464449935639743 0 -0.018744281604823575 -0.0035759381313825028 0 -0.018676355547492716 -0.0033529891999247866 0 -0.018829487216153816 -0.0031294827355282475 0 -0.018484591388131071 -0.0035101370437977519 0 -0.018573347588553533 -0.0035162285802168222 0 -0.018431823559001328 -0.003377812307801503 0 -0.018484591388131071 -0.0035101370437977519 0 -0.018573347588553533 -0.0035162285802168222 0 -0.018600437656044119 -0.0035791848776534027 0 -0.018573347588553533 -0.0035162285802168222 0 -0.018600437656044119 -0.0035791848776534027 0 -0.018655191184624095 -0.0035825409786708479 0 -0.02079822211447168 -0.0028835158228850927 0 -0.021278214688588731 -0.0025989463936589045 0 -0.021278214688588731 -0.0025989463936589045 0 -0.020335973976486166 -0.0033587071983420935 0 -0.018573347588553533 -0.0035162285802168222 0 -0.018655191184624095 -0.0035825409786708479 0 -0.018744281604823575 -0.0035759381313825028 0 -0.018573347588553533 -0.0035162285802168222 0 -0.018744281604823575 -0.0035759381313825028 0 -0.018676355547492716 -0.0033529891999247866 0 -0.018573347588553533 -0.0035162285802168222 0 -0.018676355547492716 -0.0033529891999247866 0 -0.018431823559001328 -0.003377812307801503 0 -0.022130420243098848 -0.0026132099512814963 0 -0.021278214688588731 -0.0025989463936589045 0 -0.019512151107678982 -0.0034173284062954997 0 -0.018633016469172287 -0.0036341208473698733 0 -0.018744281604823575 -0.0035759381313825028 0 -0.019512151107678982 -0.0034173284062954997 0 -0.018744281604823575 -0.0035759381313825028 0 -0.018829487216153816 -0.0031294827355282475 0 -0.024416464402951102 -0.001926564344000874 0 -0.024619011272479573 -0.001278299029891042 0 -0.025328895546056253 -0.0013949365395084286 0 -0.019512151107678982 -0.0034173284062954997 0 -0.018829487216153816 -0.0031294827355282475 0 -0.019337839810379485 -0.0027934527561661237 0 -0.018676355547492716 -0.0033529891999247866 0 -0.018431823559001328 -0.003377812307801503 0 -0.018829487216153816 -0.0031294827355282475 0 -0.018431823559001328 -0.003377812307801503 0 -0.018829487216153816 -0.0031294827355282475 0 -0.018170043160955811 -0.0029180676093204026 0 -0.017489770848196438 -0.0028572618658535562 0 -0.016066014449446123 -0.0043346753140232307 0 -0.018431823559001328 -0.003377812307801503 0 -0.018170043160955811 -0.0029180676093204026 0 -0.018205786547017527 -0.0034595581231623108 0 -0.016471120811223258 -0.0031088509903371875 0 -0.015721360478890088 -0.0041915380903904797 0 -0.015107405175539067 -0.0026685083433257962 0 -0.014549689585843184 -0.0035630644372778254 0 -0.015721360478890088 -0.0041915380903904797 0 -0.015107405175539067 -0.0026685083433257962 0 -0.018431823559001328 -0.003377812307801503 0 -0.018205786547017527 -0.0034595581231623108 0 -0.018393245437971939 -0.0035464449935639743 0 -0.018484591388131071 -0.0035101370437977519 0 -0.018431823559001328 -0.003377812307801503 0 -0.018393245437971939 -0.0035464449935639743 0 -0.016201150840306665 -0.0017330282710619331 0 -0.015107405175539067 -0.0026685083433257962 0 -0.015057446399661558 -0.0011132211858022498 0 -0.016471120811223258 -0.0031088509903371875 0 -0.016201150840306665 -0.0017330282710619331 0 -0.015107405175539067 -0.0026685083433257962 0 -0.016471120811223258 -0.0031088509903371875 0 -0.016201150840306665 -0.0017330282710619331 0 -0.01733968041791898 -0.0020196716441294384 0 -0.018829487216153816 -0.0031294827355282475 0 -0.018170043160955811 -0.0029180676093204026 0 -0.018367914153919838 -0.0019921006716165351 0 -0.017489770848196438 -0.0028572618658535562 0 -0.017851910270852343 -0.0019829339074103293 0 -0.018829487216153816 -0.0031294827355282475 0 -0.018979451600525995 -0.0023536341767144073 0 -0.018367914153919838 -0.0019921006716165351 0 -0.018829487216153816 -0.0031294827355282475 0 -0.019337839810379485 -0.0027934527561661237 0 -0.018979451600525995 -0.0023536341767144073 0 -0.019337839810379485 -0.0027934527561661237 0 -0.018979451600525995 -0.0023536341767144073 0 -0.019554602453534568 -0.0020799196961252967 0 -0.018979451600525995 -0.0023536341767144073 0 -0.018961802816175474 -0.0016490040179645 0 -0.018367914153919838 -0.0019921006716165351 0 -0.018961802816175474 -0.0016490040179645 0 -0.018561380579294361 -0.00064660678974264518 0 -0.019636312704414273 -0.0011059522488965519 0 -0.017851910270852343 -0.0019829339074103293 0 -0.018572366339804414 -0.00069586242146198673 0 -0.018961802816175474 -0.0016490040179645 0 -0.018367914153919838 -0.0019921006716165351 0 -0.018561380579294361 -0.00064660678974264518 0 -0.018979451600525995 -0.0023536341767144073 0 -0.018961802816175474 -0.0016490040179645 0 -0.019554602453534568 -0.0020799196961252967 0 -0.01733968041791898 -0.0020196716441294384 0 -0.017293425745230632 -0.00098591740768801703 0 -0.018561380579294361 -0.00064660678974264518 0 -0.016201150840306665 -0.0017330282710619331 0 -0.01733968041791898 -0.0020196716441294384 0 -0.017293425745230632 -0.00098591740768801703 0 -0.017293425745230632 -0.00098591740768801703 0 -0.01708583088956913 -0.00019934772014797259 0 -0.016077561561694619 -0.00031260166176688432 0 -0.017293425745230632 -0.00098591740768801703 0 -0.018014414927492232 -5.9167377188401441e-05 0 -0.01708583088956913 -0.00019934772014797259 0 -0.018561380579294361 -0.00064660678974264518 0 -0.019286035395172919 -0.00044893358292632965 0 -0.019636312704414273 -0.0011059522488965519 0 -0.017293425745230632 -0.00098591740768801703 0 -0.018561380579294361 -0.00064660678974264518 0 -0.018014414927492232 -5.9167377188401441e-05 0 -0.018561380579294361 -0.00064660678974264518 0 -0.01899428076126481 0.00015547269542906693 0 -0.019286035395172919 -0.00044893358292632965 0 -0.018561380579294361 -0.00064660678974264518 0 -0.01899428076126481 0.00015547269542906693 0 -0.018014414927492232 -5.9167377188401441e-05 0 -0.01899428076126481 0.00015547269542906693 0 -0.018014414927492232 -5.9167377188401441e-05 0 -0.018477879057815186 0.00090823901992088745 0 -0.018014414927492232 -5.9167377188401441e-05 0 -0.018477879057815186 0.00090823901992088745 0 -0.017172658791357195 0.0017206966274414244 0 -0.018014414927492232 -5.9167377188401441e-05 0 -0.01708583088956913 -0.00019934772014797259 0 -0.016945267218251677 0.0010740852533889116 0 -0.017978560131347833 -2.7044070345604142e-05 0 -0.017026770943929494 0.0013986141911980559 0 -0.016077561561694619 -0.00031260166176688432 0 -0.0151234942616721 0.00089508991300656766 0 -0.016945267218251677 0.0010740852533889116 0 -0.01708583088956913 -0.00019934772014797259 0 -0.016077561561694619 -0.00031260166176688432 0 -0.016945267218251677 0.0010740852533889116 0 -0.016201150840306665 -0.0017330282710619331 0 -0.017293425745230632 -0.00098591740768801703 0 -0.016077561561694619 -0.00031260166176688432 0 -0.016201150840306665 -0.0017330282710619331 0 -0.016077561561694619 -0.00031260166176688432 0 -0.015057446399661558 -0.0011132211858022498 0 -0.016077561561694619 -0.00031260166176688432 0 -0.015057446399661558 -0.0011132211858022498 0 -0.014821933619180204 -8.0636818338702281e-05 0 -0.016077561561694619 -0.00031260166176688432 0 -0.014821933619180204 -8.0636818338702281e-05 0 -0.0151234942616721 0.00089508991300656766 0 -0.0151234942616721 0.00089508991300656766 0 -0.015321534298915231 0.0017992992236023778 0 -0.016945267218251677 0.0010740852533889116 0 -0.015321534298915231 0.0017992992236023778 0 -0.01606339215416188 0.0023074206576507239 0 -0.016945267218251677 0.0010740852533889116 0 -0.016616793544640455 0.0025901186061856756 0 -0.017026770943929494 0.0013986141911980559 0 -0.013942436151492162 0.0020507852381405015 0 -0.015321534298915231 0.0017992992236023778 0 -0.014944113374502455 0.0026262449257729178 0 -0.015321534298915231 0.0017992992236023778 0 -0.014944113374502455 0.0026262449257729178 0 -0.01606339215416188 0.0023074206576507239 0 -0.013942436151492162 0.0020507852381405015 0 -0.0151234942616721 0.00089508991300656766 0 -0.015321534298915231 0.0017992992236023778 0 -0.014944113374502455 0.0026262449257729178 0 -0.01606339215416188 0.0023074206576507239 0 -0.015181428475002293 0.0037336013385837236 0 -0.013883133502863498 0.003248213745776901 0 -0.014944113374502455 0.0026262449257729178 0 -0.015181428475002293 0.0037336013385837236 0 -0.016434706383617138 0.0030545892455549231 0 -0.016781910931376792 0.0039196249861964301 0 -0.015573238857732938 0.00448274135874413 0 -0.016616793544640455 0.0025901186061856756 0 -0.01280950841168769 0.0040380802486914627 0 -0.016434706383617138 0.0030545892455549231 0 -0.016781910931376792 0.0039196249861964301 0 -0.017082972412752941 0.0033870458073078078 0 -0.015612179404377657 0.0032573111584045795 0 -0.015304413975482448 0.0031634700893880684 0 -0.010711829615637601 0.003061718749650839 0 -0.010263900001657691 0.0031703385868879605 0 -0.011000773431018624 0.0025296405538580732 0 -0.01280950841168769 0.0040380802486914627 0 -0.015304413975482448 0.0031634700893880684 0 -0.016781910931376792 0.0039196249861964301 0 -0.015573238857732938 0.00448274135874413 0 -0.016926448850232284 0.0039538786211418811 0 -0.010711829615637601 0.003061718749650839 0 -0.011010169735044222 0.0028110526844225374 0 -0.011000773431018624 0.0025296405538580732 0 -0.010952021791284794 0.003266067704960031 0 -0.010711829615637601 0.003061718749650839 0 -0.011047039805073515 0.0029827484901183057 0 -0.010952021791284794 0.003266067704960031 0 -0.010711829615637601 0.003061718749650839 0 -0.010689766338977341 0.0034997481167013157 0 -0.010711829615637601 0.003061718749650839 0 -0.011047039805073515 0.0029827484901183057 0 -0.011010169735044222 0.0028110526844225374 0 -0.010711829615637601 0.003061718749650839 0 -0.010263900001657691 0.0031703385868879605 0 -0.010440157167681064 0.0036497870095895495 0 -0.012326915973393216 0.0023541993821785999 0 -0.013405169902619354 0.0028021465030161046 0 -0.012587805972645727 0.0030765968664754114 0 -0.012326915973393216 0.0023541993821785999 0 -0.012006516717301685 0.0029659519103797964 0 -0.012587805972645727 0.0030765968664754114 0 -0.012326915973393216 0.0023541993821785999 0 -0.012006516717301685 0.0029659519103797964 0 -0.011602445541783241 0.0028353471701369772 0 -0.015472600883100021 0.0024350619108135067 0 -0.015304413975482448 0.0031634700893880684 0 -0.012006516717301685 0.0029659519103797964 0 -0.011570490821291515 0.0031598949745143667 0 -0.011602445541783241 0.0028353471701369772 0 -0.012326915973393216 0.0023541993821785999 0 -0.011357816759220058 0.0027360484179886116 0 -0.011000773431018624 0.0025296405538580732 0 -0.012326915973393216 0.0023541993821785999 0 -0.011602445541783241 0.0028353471701369772 0 -0.011357816759220058 0.0027360484179886116 0 -0.011570490821291515 0.0031598949745143667 0 -0.011602445541783241 0.0028353471701369772 0 -0.011276602618611378 0.0030949500545887944 0 -0.011602445541783241 0.0028353471701369772 0 -0.011315882534870038 0.0029120536006700523 0 -0.011357816759220058 0.0027360484179886116 0 -0.011602445541783241 0.0028353471701369772 0 -0.011276602618611378 0.0030949500545887944 0 -0.011315882534870038 0.0029120536006700523 0 -0.010952021791284794 0.003266067704960031 0 -0.011276602618611378 0.0030949500545887944 0 -0.011047039805073515 0.0029827484901183057 0 -0.011315882534870038 0.0029120536006700523 0 -0.011047039805073515 0.0029827484901183057 0 -0.011357816759220058 0.0027360484179886116 0 -0.011276602618611378 0.0030949500545887944 0 -0.011315882534870038 0.0029120536006700523 0 -0.011047039805073515 0.0029827484901183057 0 -0.011047039805073515 0.0029827484901183057 0 -0.011010169735044222 0.0028110526844225374 0 -0.011357816759220058 0.0027360484179886116 0 -0.011010169735044222 0.0028110526844225374 0 -0.011357816759220058 0.0027360484179886116 0 -0.011000773431018624 0.0025296405538580732 0 -0.015304413975482448 0.0031634700893880684 0 -0.018746406760384887 0.0029699920924044594 0 -0.016925448667655794 0.0039501725019960784 0 -0.017082972412752941 0.0033870458073078078 0 -0.017942728936940933 0.0034829213074160314 0 -0.018769685215907182 0.0026578007576993968 0 -0.018774066427809995 0.0027355947311910739 0 -0.018791542592213495 0.0027359149910834335 0 -0.016781910931376792 0.0039196249861964301 0 -0.016925448667655794 0.0039501725019960784 0 -0.017082972412752941 0.0033870458073078078 0 -0.016434706383617138 0.0030545892455549231 0 -0.017082972412752941 0.0033870458073078078 0 -0.017365254907589452 0.0028863654454039608 0 -0.017082972412752941 0.0033870458073078078 0 -0.017942728936940933 0.0034829213074160314 0 -0.017365254907589452 0.0028863654454039608 0 -0.018791542592213495 0.0027359149910834335 0 -0.018714963591073698 0.0027468824505899048 0 -0.018744847592623525 0.0029256460789309604 0 -0.018746406760384887 0.0029699920924044594 0 -0.018546394685976911 0.0030153245063100458 0 -0.017942728936940933 0.0034829213074160314 0 -0.01816874249154829 0.002725703579316023 0 -0.018744847592623525 0.0029256460789309604 0 -0.018769685215907182 0.0026578007576993968 0 -0.018791542592213495 0.0027359149910834335 0 -0.018714963591073698 0.0027468824505899048 0 -0.01816874249154829 0.002725703579316023 0 -0.018906528554047057 0.0028187562179572368 0 -0.018744847592623525 0.0029256460789309604 0 -0.01816874249154829 0.002725703579316023 0 -0.018628172608486208 0.0018494159548763541 0 -0.018906528554047057 0.0028187562179572368 0 -0.016434706383617138 0.0030545892455549231 0 -0.017365254907589452 0.0028863654454039608 0 -0.017172658791357195 0.0017206966274414244 0 -0.01816874249154829 0.002725703579316023 0 -0.017365254907589452 0.0028863654454039608 0 -0.017172658791357195 0.0017206966274414244 0 -0.017942728936940933 0.0034829213074160314 0 -0.01816874249154829 0.002725703579316023 0 -0.017365254907589452 0.0028863654454039608 0 -0.018477879057815186 0.00090823901992088745 0 -0.018628172608486208 0.0018494159548763541 0 -0.019710783922823841 0.00078648098436237763 0 -0.01816874249154829 0.002725703579316023 0 -0.017172658791357195 0.0017206966274414244 0 -0.018628172608486208 0.0018494159548763541 0 -0.018477879057815186 0.00090823901992088745 0 -0.017172658791357195 0.0017206966274414244 0 -0.018628172608486208 0.0018494159548763541 0 -0.019663732586595144 0.0018968174634570335 0 -0.021078025467011964 0.0021299576583344512 0 -0.018906528554047057 0.0028187562179572368 0 -0.018628172608486208 0.0018494159548763541 0 -0.019663732586595144 0.0018968174634570335 0 -0.019710783922823841 0.00078648098436237763 0 -0.019663732586595144 0.0018968174634570335 0 -0.021078025467011964 0.0021299576583344512 0 -0.019710783922823841 0.00078648098436237763 0 -0.018628172608486208 0.0018494159548763541 0 -0.019663732586595144 0.0018968174634570335 0 -0.018906528554047057 0.0028187562179572368 0 -0.018284076182267902 0.0029551642662645479 0 -0.018589854969247796 0.0027767549867016086 0 -0.018274336121890968 0.0027328555031177109 0 -0.019692204393666802 0.0025198694903137693 0 -0.018986417134994198 0.0028055536659313545 0 -0.018284076182267902 0.0029551642662645479 0 -0.018589854969247796 0.0027767549867016086 0 -0.018906528554047057 0.0028187562179572368 0 -0.018589854969247796 0.0027767549867016086 0 -0.018906528554047057 0.0028187562179572368 0 -0.018744847592623525 0.0029256460789309604 0 -0.018714963591073698 0.0027468824505899048 0 -0.018744847592623525 0.0029256460789309604 0 -0.018585895172838839 0.0027547428578540882 0 -0.018714963591073698 0.0027468824505899048 0 -0.018585895172838839 0.0027547428578540882 0 -0.018551526689608151 0.0026420954312381482 0 -0.018585895172838839 0.0027547428578540882 0 -0.018447918515418191 0.0027047857271053021 0 -0.018444819218331129 0.0026533975368833568 0 -0.018585895172838839 0.0027547428578540882 0 -0.018551526689608151 0.0026420954312381482 0 -0.018444819218331129 0.0026533975368833568 0 -0.018589854969247796 0.0027767549867016086 0 -0.018744847592623525 0.0029256460789309604 0 -0.018585895172838839 0.0027547428578540882 0 -0.018589854969247796 0.0027767549867016086 0 -0.018585895172838839 0.0027547428578540882 0 -0.018447918515418191 0.0027047857271053021 0 -0.018274336121890968 0.0027328555031177109 0 -0.018284595237475214 0.002686682094846125 0 -0.018447918515418191 0.0027047857271053021 0 -0.018589854969247796 0.0027767549867016086 0 -0.018274336121890968 0.0027328555031177109 0 -0.018447918515418191 0.0027047857271053021 0 -0.018274336121890968 0.0027328555031177109 0 -0.018284595237475214 0.002686682094846125 0 -0.018153591180699799 0.0026581902901803805 0 -0.018284595237475214 0.002686682094846125 0 -0.018297488972805552 0.0026428449787434722 0 -0.018153591180699799 0.0026581902901803805 0 -0.018284595237475214 0.002686682094846125 0 -0.018447918515418191 0.0027047857271053021 0 -0.018297488972805552 0.0026428449787434722 0 -0.018447918515418191 0.0027047857271053021 0 -0.018297488972805552 0.0026428449787434722 0 -0.018444819218331129 0.0026533975368833568 0 -0.014578634280372147 0.0027095314701349057 0 -0.014629920796058904 0.0023444165005608751 0 -0.017934049685817865 0.0028089341661026788 0 -0.016579504079321555 0.002475037394708285 0 -0.017869172435167419 0.0027723776297787703 0 -0.018182980831370054 0.0026184626539356936 0 -0.018370820508389108 0.0024795877320066585 0 -0.017934049685817865 0.0028089341661026788 0 -0.018297488972805552 0.0026428449787434722 0 -0.018388669412125705 0.0026025903109757101 0 -0.018444819218331129 0.0026533975368833568 0 -0.018297488972805552 0.0026428449787434722 0 -0.018279291684736916 0.0025898564348463462 0 -0.018388669412125705 0.0026025903109757101 0 -0.018279291684736916 0.0025898564348463462 0 -0.018388669412125705 0.0026025903109757101 0 -0.018370820508389108 0.0024795877320066585 0 -0.018297488972805552 0.0026428449787434722 0 -0.018176865413667861 0.002638424945036666 0 -0.018153591180699799 0.0026581902901803805 0 -0.018279291684736916 0.0025898564348463462 0 -0.018176865413667861 0.002638424945036666 0 -0.018182980831370054 0.0026184626539356936 0 -0.018297488972805552 0.0026428449787434722 0 -0.018279291684736916 0.0025898564348463462 0 -0.018176865413667861 0.002638424945036666 0 -0.018176865413667861 0.002638424945036666 0 -0.018182980831370054 0.0026184626539356936 0 -0.018109829066068013 0.0026589953222365269 0 -0.018279291684736916 0.0025898564348463462 0 -0.018182980831370054 0.0026184626539356936 0 -0.018370820508389108 0.0024795877320066585 0 -0.018769685215907182 0.0026578007576993968 0 -0.018370820508389108 0.0024795877320066585 0 -0.018551526689608151 0.0026420954312381482 0 -0.015472600883100021 0.0024350619108135067 0 -0.016579504079321555 0.002475037394708285 0 -0.014578634280372147 0.0027095314701349057 0 -0.014629920796058904 0.0023444165005608751 0 -0.013405169902619354 0.0028021465030161046 0 -0.012326915973393216 0.0023541993821785999 0 -0.014629920796058904 0.0023444165005608751 0 -0.013405169902619354 0.0028021465030161046 0 -0.018769685215907182 0.0026578007576993968 0 -0.018714963591073698 0.0027468824505899048 0 -0.018551526689608151 0.0026420954312381482 0 -0.018388669412125705 0.0026025903109757101 0 -0.018551526689608151 0.0026420954312381482 0 -0.018444819218331129 0.0026533975368833568 0 -0.018388669412125705 0.0026025903109757101 0 -0.018370820508389108 0.0024795877320066585 0 -0.018551526689608151 0.0026420954312381482 0 -0.015773746155626121 0.0019461980313895573 0 -0.013274815733975091 0.0022463608142836125 0 -0.012973097048721743 0.0020028303702180382 0 -0.012997685188639141 0.0013917736185077518 0 -0.012433920586547785 0.002150160870295177 0 -0.017983881893135559 0.0026917782929911844 0 -0.01801691452592467 0.0027264207157781288 0 -0.017934049685817865 0.0028089341661026788 0 -0.017983881893135559 0.0026917782929911844 0 -0.017934049685817865 0.0028089341661026788 0 -0.018033864643998053 0.0029886475947570649 0 -0.017983881893135559 0.0026917782929911844 0 -0.018027556756296106 0.0025508965035723145 0 -0.018033864643998053 0.0029886475947570649 0 -0.018182980831370054 0.0026184626539356936 0 -0.01801691452592467 0.0027264207157781288 0 -0.018109829066068013 0.0026589953222365269 0 -0.018182980831370054 0.0026184626539356936 0 -0.01801691452592467 0.0027264207157781288 0 -0.017934049685817865 0.0028089341661026788 0 -0.017983881893135559 0.0026917782929911844 0 -0.01801691452592467 0.0027264207157781288 0 -0.018074655843608553 0.0026630917575282825 0 -0.01801691452592467 0.0027264207157781288 0 -0.018109829066068013 0.0026589953222365269 0 -0.018074655843608553 0.0026630917575282825 0 -0.018176865413667861 0.002638424945036666 0 -0.018074655843608553 0.0026630917575282825 0 -0.018153591180699799 0.0026581902901803805 0 -0.018074655843608553 0.0026630917575282825 0 -0.018040781280101184 0.0026376411539481481 0 -0.018153591180699799 0.0026581902901803805 0 -0.018176865413667861 0.002638424945036666 0 -0.018109829066068013 0.0026589953222365269 0 -0.018074655843608553 0.0026630917575282825 0 -0.017983881893135559 0.0026917782929911844 0 -0.018074655843608553 0.0026630917575282825 0 -0.018040781280101184 0.0026376411539481481 0 -0.017983881893135559 0.0026917782929911844 0 -0.018040781280101184 0.0026376411539481481 0 -0.018027556756296106 0.0025508965035723145 0 -0.018040781280101184 0.0026376411539481481 0 -0.018153591180699799 0.0026581902901803805 0 -0.018061510244751517 0.0026439302305838039 0 -0.018040781280101184 0.0026376411539481481 0 -0.018061510244751517 0.0026439302305838039 0 -0.018027556756296106 0.0025508965035723145 0 -0.018274336121890968 0.0027328555031177109 0 -0.018153591180699799 0.0026581902901803805 0 -0.018061510244751517 0.0026439302305838039 0 -0.018061510244751517 0.0026439302305838039 0 -0.018027556756296106 0.0025508965035723145 0 -0.017948494409542257 0.0026393131423993414 0 -0.018027556756296106 0.0025508965035723145 0 -0.017948494409542257 0.0026393131423993414 0 -0.017786860864749402 0.0026573243656727893 0 -0.015773746155626121 0.0019461980313895573 0 -0.016130576734431332 0.0016490750461524047 0 -0.017948494409542257 0.0026393131423993414 0 -0.01787909624491563 0.0026856388463471371 0 -0.017786860864749402 0.0026573243656727893 0 -0.017948494409542257 0.0026393131423993414 0 -0.01787909624491563 0.0026856388463471371 0 -0.018030173023246665 0.0027423489321558385 0 -0.018061510244751517 0.0026439302305838039 0 -0.017948494409542257 0.0026393131423993414 0 -0.018030173023246665 0.0027423489321558385 0 -0.01787909624491563 0.0026856388463471371 0 -0.018030173023246665 0.0027423489321558385 0 -0.017876998320531499 0.0027516615200233597 0 -0.01787909624491563 0.0026856388463471371 0 -0.017876998320531499 0.0027516615200233597 0 -0.017769661374469278 0.0027012903289136149 0 -0.018284076182267902 0.0029551642662645479 0 -0.018274336121890968 0.0027328555031177109 0 -0.018030173023246665 0.0027423489321558385 0 -0.018274336121890968 0.0027328555031177109 0 -0.018061510244751517 0.0026439302305838039 0 -0.018030173023246665 0.0027423489321558385 0 -0.019692204393666802 0.0025198694903137693 0 -0.020423810175573768 0.0020784168628064934 0 -0.018284076182267902 0.0029551642662645479 0 -0.018030173023246665 0.0027423489321558385 0 -0.01797097326639141 0.0029026468318590019 0 -0.018030173023246665 0.0027423489321558385 0 -0.017876998320531499 0.0027516615200233597 0 -0.01797097326639141 0.0029026468318590019 0 -0.017876998320531499 0.0027516615200233597 0 -0.017730376371398428 0.0027755603636350767 0 -0.017769661374469278 0.0027012903289136149 0 -0.017876998320531499 0.0027516615200233597 0 -0.01797097326639141 0.0029026468318590019 0 -0.017730376371398428 0.0027755603636350767 0 -0.022924210888948093 0.0012846039699651527 0 -0.023575856561060149 -0.00029900673150096542 0 -0.024522531712952111 0.00039607784017375267 0 -0.01797097326639141 0.0029026468318590019 0 -0.017560312537119826 0.0028942059954877772 0 -0.017730376371398428 0.0027755603636350767 0 -0.020423810175573768 0.0020784168628064934 0 -0.021216366303927186 0.0017441951937811158 0 -0.023575856561060149 -0.00029900673150096542 0 -0.022215782867899148 -0.00048900011018187639 0 -0.023213466353119536 -0.0017180733466092355 0 -0.022924210888948093 0.0012846039699651527 0 -0.023575856561060149 -0.00029900673150096542 0 -0.022215782867899148 -0.00048900011018187639 0 -0.022215782867899148 -0.00048900011018187639 0 -0.020918589489680388 -0.00078126811287621424 0 -0.021637129265639699 -0.0014097477521482881 0 -0.021078025467011964 0.0021299576583344512 0 -0.022924210888948093 0.0012846039699651527 0 -0.021138143023505938 0.00044596884760748527 0 -0.022924210888948093 0.0012846039699651527 0 -0.022215782867899148 -0.00048900011018187639 0 -0.021138143023505938 0.00044596884760748527 0 -0.021078025467011964 0.0021299576583344512 0 -0.021138143023505938 0.00044596884760748527 0 -0.019710783922823841 0.00078648098436237763 0 -0.021138143023505938 0.00044596884760748527 0 -0.019710783922823841 0.00078648098436237763 0 -0.019940577210742987 -0.00017274310917931725 0 -0.01899428076126481 0.00015547269542906693 0 -0.018477879057815186 0.00090823901992088745 0 -0.019710783922823841 0.00078648098436237763 0 -0.01899428076126481 0.00015547269542906693 0 -0.019710783922823841 0.00078648098436237763 0 -0.019940577210742987 -0.00017274310917931725 0 -0.019940577210742987 -0.00017274310917931725 0 -0.020918589489680388 -0.00078126811287621424 0 -0.019636312704414273 -0.0011059522488965519 0 -0.01899428076126481 0.00015547269542906693 0 -0.019286035395172919 -0.00044893358292632965 0 -0.019940577210742987 -0.00017274310917931725 0 -0.019286035395172919 -0.00044893358292632965 0 -0.019940577210742987 -0.00017274310917931725 0 -0.019636312704414273 -0.0011059522488965519 0 -0.021138143023505938 0.00044596884760748527 0 -0.019940577210742987 -0.00017274310917931725 0 -0.020918589489680388 -0.00078126811287621424 0 -0.022215782867899148 -0.00048900011018187639 0 -0.021138143023505938 0.00044596884760748527 0 -0.020918589489680388 -0.00078126811287621424 0 -0.020918589489680388 -0.00078126811287621424 0 -0.020611235535062344 -0.0019275743076536762 0 -0.019636312704414273 -0.0011059522488965519 0 -0.020918589489680388 -0.00078126811287621424 0 -0.020611235535062344 -0.0019275743076536762 0 -0.021637129265639699 -0.0014097477521482881 0 -0.020611235535062344 -0.0019275743076536762 0 -0.021592414565345143 -0.0019926525792866956 0 -0.021637129265639699 -0.0014097477521482881 0 -0.018961802816175474 -0.0016490040179645 0 -0.019636312704414273 -0.0011059522488965519 0 -0.019554602453534568 -0.0020799196961252967 0 -0.020611235535062344 -0.0019275743076536762 0 -0.019636312704414273 -0.0011059522488965519 0 -0.019554602453534568 -0.0020799196961252967 0 -0.020611235535062344 -0.0019275743076536762 0 -0.019554602453534568 -0.0020799196961252967 0 -0.019984539354999078 -0.0026772230512802854 0 -0.019337839810379485 -0.0027934527561661237 0 -0.019554602453534568 -0.0020799196961252967 0 -0.019984539354999078 -0.0026772230512802854 0 -0.020611235535062344 -0.0019275743076536762 0 -0.019984539354999078 -0.0026772230512802854 0 -0.021029956464625313 -0.0029388434269783381 0 -0.020611235535062344 -0.0019275743076536762 0 -0.021029956464625313 -0.0029388434269783381 0 -0.021592414565345143 -0.0019926525792866956 0 -0.022259546575078525 -0.0025633683763854427 0 -0.023215934084338488 -0.0017637884932206354 0 -0.023347808788968798 -0.0022259900577308749 0 -0.023676298938359312 -0.002188022116643284 0 -0.023213466353119536 -0.0017180733466092355 0 -0.023347808788968798 -0.0022259900577308749 0 -0.023457829227148327 -0.0022955773124713448 0 -0.023213466353119536 -0.0017180733466092355 0 -0.021029956464625313 -0.0029388434269783381 0 -0.021592414565345143 -0.0019926525792866956 0 -0.023213466353119536 -0.0017180733466092355 0 -0.023676298938359312 -0.002188022116643284 0 -0.023213466353119536 -0.0017180733466092355 0 -0.024250966060794073 -0.0019838596524516393 0 -0.023213466353119536 -0.0017180733466092355 0 -0.024428633797818719 -0.0014491030916121952 0 -0.024250966060794073 -0.0019838596524516393 0 -0.024100961039000748 -0.0022894040186241383 0 -0.023676298938359312 -0.002188022116643284 0 -0.024250966060794073 -0.0019838596524516393 0 -0.023575856561060149 -0.00029900673150096542 0 -0.023213466353119536 -0.0017180733466092355 0 -0.024106277651266224 -0.00091823867262287617 0 -0.023213466353119536 -0.0017180733466092355 0 -0.024106277651266224 -0.00091823867262287617 0 -0.024428633797818719 -0.0014491030916121952 0 -0.022215782867899148 -0.00048900011018187639 0 -0.023213466353119536 -0.0017180733466092355 0 -0.021637129265639699 -0.0014097477521482881 0 -0.021592414565345143 -0.0019926525792866956 0 -0.023213466353119536 -0.0017180733466092355 0 -0.021637129265639699 -0.0014097477521482881 0 -0.02497877168239538 -0.0012630076268429383 0 -0.025374335276087401 -0.0014131629904459676 0 -0.025349846830512217 -0.0010254931470263108 0 -0.02497877168239538 -0.0012630076268429383 0 -0.024811686523371661 -0.0015600600268699733 0 -0.025140847576050233 -0.0016436344089352155 0 -0.02497877168239538 -0.0012630076268429383 0 -0.025374335276087401 -0.0014131629904459676 0 -0.025140847576050233 -0.0016436344089352155 0 -0.025374335276087401 -0.0014131629904459676 0 -0.025349846830512217 -0.0010254931470263108 0 -0.025702059676729165 -0.0011252650251562287 0 -0.025374335276087401 -0.0014131629904459676 0 -0.025702059676729165 -0.0011252650251562287 0 -0.02571233111178357 -0.0014655378581789273 0 -0.025349846830512217 -0.0010254931470263108 0 -0.025624033695156045 -0.00085137025746496737 0 -0.025702059676729165 -0.0011252650251562287 0 -0.025349846830512217 -0.0010254931470263108 0 -0.025624033695156045 -0.00085137025746496737 0 -0.025276371697289794 -0.00063964090156923541 0 -0.02497877168239538 -0.0012630076268429383 0 -0.025349846830512217 -0.0010254931470263108 0 -0.024790342495815985 -0.00080626046980777108 0 -0.025349846830512217 -0.0010254931470263108 0 -0.024790342495815985 -0.00080626046980777108 0 -0.025276371697289794 -0.00063964090156923541 0 -0.024790342495815985 -0.00080626046980777108 0 -0.024106277651266224 -0.00091823867262287617 0 -0.024428633797818719 -0.0014491030916121952 0 -0.02497877168239538 -0.0012630076268429383 0 -0.024790342495815985 -0.00080626046980777108 0 -0.024428633797818719 -0.0014491030916121952 0 -0.02497877168239538 -0.0012630076268429383 0 -0.024428633797818719 -0.0014491030916121952 0 -0.024811686523371661 -0.0015600600268699733 0 -0.024428633797818719 -0.0014491030916121952 0 -0.024811686523371661 -0.0015600600268699733 0 -0.02471525977391964 -0.0018141035992950284 0 -0.024811686523371661 -0.0015600600268699733 0 -0.02471525977391964 -0.0018141035992950284 0 -0.024999715755529655 -0.0017977098801378439 0 -0.024428633797818719 -0.0014491030916121952 0 -0.02471525977391964 -0.0018141035992950284 0 -0.024250966060794073 -0.0019838596524516393 0 -0.02471525977391964 -0.0018141035992950284 0 -0.024250966060794073 -0.0019838596524516393 0 -0.024950402391115099 -0.0020792830592136122 0 -0.024696120419828736 -0.0023542549251366362 0 -0.024250966060794073 -0.0019838596524516393 0 -0.024950402391115099 -0.0020792830592136122 0 -0.02471525977391964 -0.0018141035992950284 0 -0.024950402391115099 -0.0020792830592136122 0 -0.024999715755529655 -0.0017977098801378439 0 -0.025393453344333142 -0.0022586116479563897 0 -0.025240212925949801 -0.0019055664123696038 0 -0.025422019361368418 -0.0018788235507531401 0 -0.025393453344333142 -0.0022586116479563897 0 -0.024950402391115099 -0.0020792830592136122 0 -0.025240212925949801 -0.0019055664123696038 0 -0.025650239774646155 -0.001514567552366903 0 -0.025907874232381396 -0.0014201874893467706 0 -0.024950402391115099 -0.0020792830592136122 0 -0.025240212925949801 -0.0019055664123696038 0 -0.024999715755529655 -0.0017977098801378439 0 -0.025374335276087401 -0.0014131629904459676 0 -0.025140847576050233 -0.0016436344089352155 0 -0.025332805695670053 -0.0019324561722800255 0 -0.025240212925949801 -0.0019055664123696038 0 -0.024999715755529655 -0.0017977098801378439 0 -0.025140847576050233 -0.0016436344089352155 0 -0.025240212925949801 -0.0019055664123696038 0 -0.025140847576050233 -0.0016436344089352155 0 -0.025372959522803992 -0.0018778072417829574 0 -0.025591612574856468 -0.0015049941473629187 0 -0.025907874232381396 -0.0014201874893467706 0 -0.024811686523371661 -0.0015600600268699733 0 -0.024999715755529655 -0.0017977098801378439 0 -0.025140847576050233 -0.0016436344089352155 0 -0.025374335276087401 -0.0014131629904459676 0 -0.025332805695670053 -0.0019324561722800255 0 -0.02571233111178357 -0.0014655378581789273 0 -0.025332805695670053 -0.0019324561722800255 0 -0.026075307618071007 -0.0017795599187187133 0 -0.02571233111178357 -0.0014655378581789273 0 -0.025907874232381396 -0.0014201874893467706 0 -0.026420244538160102 -0.0010707101467467507 0 -0.027276188498432455 -0.00081831636507683717 0 -0.0269663120400877 -0.00052669897187750071 0 -0.027137745677483699 -0.00049147189282641973 0 -0.026075307618071007 -0.0017795599187187133 0 -0.026386909090913822 -0.001713912180081088 0 -0.026051285316955552 -0.0010722079595273449 0 -0.026420244538160102 -0.0010707101467467507 0 -0.025313139347033643 -0.0010855560658856193 0 -0.027596537218883194 -0.00079558721688575366 0 -0.027276188498432455 -0.00081831636507683717 0 -0.027368863707260521 -0.00044334943310951749 0 -0.026635259396147574 -0.00083632765821868658 0 -0.024698308195673955 -0.001235350842396628 0 -0.027276188498432455 -0.00081831636507683717 0 -0.027137745677483699 -0.00049147189282641973 0 -0.027368863707260521 -0.00044334943310951749 0 -0.025313139347033643 -0.0010855560658856193 0 -0.024698308195673955 -0.001235350842396628 0 -0.021705388405219669 -0.0020001357566224653 0 -0.021888231647019536 -0.0013137200734086622 0 -0.020997594708564288 -0.00084405648550099253 0 -0.021705388405219669 -0.0020001357566224653 0 -0.021888231647019536 -0.0013137200734086622 0 -0.022766978572654625 -0.0017839760092322708 0 -0.024698308195673955 -0.001235350842396628 0 -0.019598826678130624 -0.0015480824281301881 0 -0.02300803328340531 -0.0020696821800721193 0 -0.0237709747925299 -0.0019142502610421507 0 -0.022853531664957089 -0.00040110729097443979 0 -0.019831448141425605 -0.0016108855082100323 0 -0.019598826678130624 -0.0015480824281301881 0 -0.018146888984918196 -0.0022156398453164693 0 -0.017435070936249623 -0.0018705120165671623 0 -0.017891026389936587 -0.0016066554157609552 0 -0.02300803328340531 -0.0020696821800721193 0 -0.022376804057536299 -0.00093324125546820032 0 -0.022853531664957089 -0.00040110729097443979 0 -0.025702059676729165 -0.0011252650251562287 0 -0.02571233111178357 -0.0014655378581789273 0 -0.026051285316955552 -0.0010722079595273449 0 -0.026075307618071007 -0.0017795599187187133 0 -0.02571233111178357 -0.0014655378581789273 0 -0.026051285316955552 -0.0010722079595273449 0 -0.025313139347033643 -0.0010855560658856193 0 -0.02428261658539432 -0.0013010073638310331 0 -0.02428261658539432 -0.0013010073638310331 0 -0.02059280737203149 5.1037965782955114e-05 0 -0.025624033695156045 -0.00085137025746496737 0 -0.025702059676729165 -0.0011252650251562287 0 -0.026051285316955552 -0.0010722079595273449 0 -0.022376804057536299 -0.00093324125546820032 0 -0.022853531664957089 -0.00040110729097443979 0 -0.021746838786587591 0.00018976241776615422 0 -0.025624033695156045 -0.00085137025746496737 0 -0.026051285316955552 -0.0010722079595273449 0 -0.025720542114791602 -0.00038438695613065291 0 -0.019598826678130624 -0.0015480824281301881 0 -0.02059280737203149 5.1037965782955114e-05 0 -0.019598826678130624 -0.0015480824281301881 0 -0.016726364220951005 -0.0015031832419478872 0 -0.017577390643375691 -0.0030217547526510315 0 -0.016592011562696306 -0.0025200565073210941 0 -0.016823947530126539 -0.0018414020067363957 0 -0.017435070936249623 -0.0018705120165671623 0 -0.017479789912905105 -0.0013514627533600955 0 -0.016882033702739153 -0.0012387195103790477 0 -0.017860501917062982 -0.0011174100792912119 0 -0.018555480916206259 -0.00063626289582646137 0 -0.018507736796629919 -0.0014091567384283659 0 -0.018146888984918196 -0.0022156398453164693 0 -0.017891026389936587 -0.0016066554157609552 0 -0.018507736796629919 -0.0014091567384283659 0 -0.017435070936249623 -0.0018705120165671623 0 -0.017479789912905105 -0.0013514627533600955 0 -0.017891026389936587 -0.0016066554157609552 0 -0.017479789912905105 -0.0013514627533600955 0 -0.017891026389936587 -0.0016066554157609552 0 -0.017860501917062982 -0.0011174100792912119 0 -0.017891026389936587 -0.0016066554157609552 0 -0.017860501917062982 -0.0011174100792912119 0 -0.018507736796629919 -0.0014091567384283659 0 -0.017904156407093058 -0.00064153066732300856 0 -0.01820711858110333 -8.3025634109736032e-05 0 -0.018555480916206259 -0.00063626289582646137 0 -0.017860501917062982 -0.0011174100792912119 0 -0.017904156407093058 -0.00064153066732300856 0 -0.018555480916206259 -0.00063626289582646137 0 -0.017479789912905105 -0.0013514627533600955 0 -0.017860501917062982 -0.0011174100792912119 0 -0.017345513463260142 -0.00093132970749708051 0 -0.017860501917062982 -0.0011174100792912119 0 -0.017904156407093058 -0.00064153066732300856 0 -0.017345513463260142 -0.00093132970749708051 0 -0.017904156407093058 -0.00064153066732300856 0 -0.017345513463260142 -0.00093132970749708051 0 -0.017386231877383931 -0.00042635778026968137 0 -0.016882033702739153 -0.0012387195103790477 0 -0.016860684755161403 -0.00074286722172667633 0 -0.016050883338355394 -0.00065720241952995501 0 -0.016882033702739153 -0.0012387195103790477 0 -0.017345513463260142 -0.00093132970749708051 0 -0.016860684755161403 -0.00074286722172667633 0 -0.017479789912905105 -0.0013514627533600955 0 -0.016882033702739153 -0.0012387195103790477 0 -0.017345513463260142 -0.00093132970749708051 0 -0.017345513463260142 -0.00093132970749708051 0 -0.016860684755161403 -0.00074286722172667633 0 -0.017386231877383931 -0.00042635778026968137 0 -0.02059280737203149 5.1037965782955114e-05 0 -0.015978314509723278 0.0009832405826752284 0 -0.016592011562696306 -0.0025200565073210941 0 -0.016823947530126539 -0.0018414020067363957 0 -0.015609484446203491 -0.00094007106267978064 0 -0.017714379326405558 0.0027135830662016404 0 -0.017560312537119826 0.0028942059954877772 0 -0.017528226726961419 0.0028767924067045723 0 -0.017714379326405558 0.0027135830662016404 0 -0.01757137756119085 0.0029124814034022337 0 -0.017528226726961419 0.0028767924067045723 0 -0.016823947530126539 -0.0018414020067363957 0 -0.015609484446203491 -0.00094007106267978064 0 -0.016050883338355394 -0.00065720241952995501 0 -0.016726364220951005 -0.0015031832419478872 0 -0.016173566056759021 -0.00071537797903351973 0 -0.017295949176908441 0.0026558166124197187 0 -0.01757137756119085 0.0029124814034022337 0 -0.017528226726961419 0.0028767924067045723 0 -0.02059280737203149 5.1037965782955114e-05 0 -0.021216366303927186 0.0017441951937811158 0 -0.025720542114791602 -0.00038438695613065291 0 -0.024946099768057572 -0.0003639393863443573 0 -0.024522531712952111 0.00039607784017375267 0 -0.024790342495815985 -0.00080626046980777108 0 -0.024946099768057572 -0.0003639393863443573 0 -0.025276371697289794 -0.00063964090156923541 0 -0.025624033695156045 -0.00085137025746496737 0 -0.025720542114791602 -0.00038438695613065291 0 -0.025276371697289794 -0.00063964090156923541 0 -0.025720542114791602 -0.00038438695613065291 0 -0.024946099768057572 -0.0003639393863443573 0 -0.025276371697289794 -0.00063964090156923541 0 -0.024790342495815985 -0.00080626046980777108 0 -0.024106277651266224 -0.00091823867262287617 0 -0.024386664398516011 -0.00037613771429755212 0 -0.023575856561060149 -0.00029900673150096542 0 -0.024106277651266224 -0.00091823867262287617 0 -0.024386664398516011 -0.00037613771429755212 0 -0.024790342495815985 -0.00080626046980777108 0 -0.024946099768057572 -0.0003639393863443573 0 -0.024386664398516011 -0.00037613771429755212 0 -0.024946099768057572 -0.0003639393863443573 0 -0.024386664398516011 -0.00037613771429755212 0 -0.024522531712952111 0.00039607784017375267 0 -0.023575856561060149 -0.00029900673150096542 0 -0.024386664398516011 -0.00037613771429755212 0 -0.024522531712952111 0.00039607784017375267 0 -0.017560312537119826 0.0028942059954877772 0 -0.017564123472735903 0.0027809022939147029 0 -0.017730376371398428 0.0027755603636350767 0 -0.017560312537119826 0.0028942059954877772 0 -0.017528226726961419 0.0028767924067045723 0 -0.017564123472735903 0.0027809022939147029 0 -0.017295949176908441 0.0026558166124197187 0 -0.017528226726961419 0.0028767924067045723 0 -0.017564123472735903 0.0027809022939147029 0 -0.017564123472735903 0.0027809022939147029 0 -0.017730376371398428 0.0027755603636350767 0 -0.017633609253475537 0.0027045198455624476 0 -0.017295949176908441 0.0026558166124197187 0 -0.017633609253475537 0.0027045198455624476 0 -0.017786860864749402 0.0026573243656727893 0 -0.016909689921278493 0.002641366969822262 0 -0.016130576734431332 0.0016490750461524047 0 -0.015609484446203491 -0.00094007106267978064 0 -0.015299231786698233 -0.00018839201440230374 0 -0.01475930926766289 0.00043993067857840787 0 -0.017295949176908441 0.0026558166124197187 0 -0.014416309679756854 0.00014527750396776284 0 -0.01475930926766289 0.00043993067857840787 0 -0.017295949176908441 0.0026558166124197187 0 -0.01757137756119085 0.0029124814034022337 0 -0.01475930926766289 0.00043993067857840787 0 -0.015978314509723278 0.0009832405826752284 0 -0.015365710630496078 0.00032026158735579108 0 -0.017295949176908441 0.0026558166124197187 0 -0.017564123472735903 0.0027809022939147029 0 -0.017633609253475537 0.0027045198455624476 0 -0.015299231786698233 -0.00018839201440230374 0 -0.01475930926766289 0.00043993067857840787 0 -0.015131452630131072 0.00017687719920479603 0 -0.017633609253475537 0.0027045198455624476 0 -0.017769661374469278 0.0027012903289136149 0 -0.017786860864749402 0.0026573243656727893 0 -0.017730376371398428 0.0027755603636350767 0 -0.017633609253475537 0.0027045198455624476 0 -0.017769661374469278 0.0027012903289136149 0 -0.016050883338355394 -0.00065720241952995501 0 -0.01599055619648785 -5.8494202678291169e-07 0 -0.016753382453771837 -0.00031953669293347187 0 -0.015609484446203491 -0.00094007106267978064 0 -0.015668940852681858 -0.00048830592376430308 0 -0.015299231786698233 -0.00018839201440230374 0 -0.016050883338355394 -0.00065720241952995501 0 -0.015668940852681858 -0.00048830592376430308 0 -0.015696646880383778 -0.00023121547569392989 0 -0.015668940852681858 -0.00048830592376430308 0 -0.015299231786698233 -0.00018839201440230374 0 -0.015696646880383778 -0.00023121547569392989 0 -0.015609484446203491 -0.00094007106267978064 0 -0.016050883338355394 -0.00065720241952995501 0 -0.015668940852681858 -0.00048830592376430308 0 -0.015451333777217972 2.7761599784647079e-07 0 -0.015696646880383778 -0.00023121547569392989 0 -0.01599055619648785 -5.8494202678291169e-07 0 -0.015451333777217972 2.7761599784647079e-07 0 -0.01599055619648785 -5.8494202678291169e-07 0 -0.015284179077872643 0.00028583386885874871 0 -0.015299231786698233 -0.00018839201440230374 0 -0.015451333777217972 2.7761599784647079e-07 0 -0.015696646880383778 -0.00023121547569392989 0 -0.015299231786698233 -0.00018839201440230374 0 -0.015451333777217972 2.7761599784647079e-07 0 -0.015131452630131072 0.00017687719920479603 0 -0.016050883338355394 -0.00065720241952995501 0 -0.015696646880383778 -0.00023121547569392989 0 -0.01599055619648785 -5.8494202678291169e-07 0 -0.01599055619648785 -5.8494202678291169e-07 0 -0.015284179077872643 0.00028583386885874871 0 -0.015625179487592681 0.00063935836574279361 0 -0.015451333777217972 2.7761599784647079e-07 0 -0.015284179077872643 0.00028583386885874871 0 -0.015131452630131072 0.00017687719920479603 0 -0.015284179077872643 0.00028583386885874871 0 -0.015625179487592681 0.00063935836574279361 0 -0.014813040008566803 0.00059663774654211655 0 -0.01787909624491563 0.0026856388463471371 0 -0.017769661374469278 0.0027012903289136149 0 -0.017786860864749402 0.0026573243656727893 0 -0.014416309679756854 0.00014527750396776284 0 -0.01475930926766289 0.00043993067857840787 0 -0.014658936758988619 0.00034515068832972364 0 -0.015284179077872643 0.00028583386885874871 0 -0.014898136332083884 0.00034878487077722028 0 -0.014813040008566803 0.00059663774654211655 0 -0.015284179077872643 0.00028583386885874871 0 -0.015131452630131072 0.00017687719920479603 0 -0.014898136332083884 0.00034878487077722028 0 -0.01475930926766289 0.00043993067857840787 0 -0.015131452630131072 0.00017687719920479603 0 -0.014898136332083884 0.00034878487077722028 0 -0.01475930926766289 0.00043993067857840787 0 -0.014898136332083884 0.00034878487077722028 0 -0.014658936758988619 0.00034515068832972364 0 -0.014507102174045645 0.00047242330488218273 0 -0.014813040008566803 0.00059663774654211655 0 -0.014092433671970985 0.00078956800596678245 0 -0.014658936758988619 0.00034515068832972364 0 -0.014507102174045645 0.00047242330488218273 0 -0.014813040008566803 0.00059663774654211655 0 -0.014898136332083884 0.00034878487077722028 0 -0.014658936758988619 0.00034515068832972364 0 -0.014813040008566803 0.00059663774654211655 0 -0.014416309679756854 0.00014527750396776284 0 -0.014507102174045645 0.00047242330488218273 0 -0.014092433671970985 0.00078956800596678245 0 -0.014416309679756854 0.00014527750396776284 0 -0.014658936758988619 0.00034515068832972364 0 -0.014507102174045645 0.00047242330488218273 0 -0.012997685188639141 0.0013917736185077518 0 -0.014416309679756854 0.00014527750396776284 0 -0.014092433671970985 0.00078956800596678245 0 -0.012997685188639141 0.0013917736185077518 0 -0.014092433671970985 0.00078956800596678245 0 -0.014441763978593748 0.0012272495891684301 0 -0.014813040008566803 0.00059663774654211655 0 -0.014092433671970985 0.00078956800596678245 0 -0.014441763978593748 0.0012272495891684301 0 -0.015625179487592681 0.00063935836574279361 0 -0.014441763978593748 0.0012272495891684301 0 -0.015995557036339477 0.0014137834092785332 0 -0.015625179487592681 0.00063935836574279361 0 -0.014813040008566803 0.00059663774654211655 0 -0.014441763978593748 0.0012272495891684301 0 -0.016834185627208752 0.00089995985977967788 0 -0.016057258454698582 0.0014870424539125745 0 -0.014441763978593748 0.0012272495891684301 0 -0.015995557036339477 0.0014137834092785332 0 -0.01471316639882689 0.0023233426789143175 0 -0.012973097048721743 0.0020028303702180382 0 -0.012997685188639141 0.0013917736185077518 0 -0.014441763978593748 0.0012272495891684301 0 -0.012973097048721743 0.0020028303702180382 0 -0.014441763978593748 0.0012272495891684301 0 -0.01471316639882689 0.0023233426789143175 0 -0.018016989528017668 0.00057575525387575121 0 -0.018178713037379553 0.00062150231250459719 0 -0.017871129092097916 0.00065344330729330611 0 -0.017614952912435471 0.00050298380719600907 0 -0.018016989528017668 0.00057575525387575121 0 -0.017871129092097916 0.00065344330729330611 0 -0.017614952912435471 0.00050298380719600907 0 -0.017871129092097916 0.00065344330729330611 0 -0.017464071558325012 0.00063994866030605321 0 -0.017614952912435471 0.00050298380719600907 0 -0.018016989528017668 0.00057575525387575121 0 -0.017466827471542656 0.00030806475363950934 0 -0.018016989528017668 0.00057575525387575121 0 -0.017466827471542656 0.00030806475363950934 0 -0.018318259101548988 0.00036188961214033029 0 -0.017466827471542656 0.00030806475363950934 0 -0.01820711858110333 -8.3025634109736032e-05 0 -0.018318259101548988 0.00036188961214033029 0 -0.01599055619648785 -5.8494202678291169e-07 0 -0.015625179487592681 0.00063935836574279361 0 -0.017466827471542656 0.00030806475363950934 0 -0.016834185627208752 0.00089995985977967788 0 -0.01741782891646838 0.00029088533975609295 0 -0.015625179487592681 0.00063935836574279361 0 -0.015995557036339477 0.0014137834092785332 0 -0.017466827471542656 0.00030806475363950934 0 -0.01599055619648785 -5.8494202678291169e-07 0 -0.017466827471542656 0.00030806475363950934 0 -0.016753382453771837 -0.00031953669293347187 0 -0.017466827471542656 0.00030806475363950934 0 -0.017386231877383931 -0.00042635778026968137 0 -0.016753382453771837 -0.00031953669293347187 0 -0.016860684755161403 -0.00074286722172667633 0 -0.017386231877383931 -0.00042635778026968137 0 -0.016753382453771837 -0.00031953669293347187 0 -0.016860684755161403 -0.00074286722172667633 0 -0.016050883338355394 -0.00065720241952995501 0 -0.016753382453771837 -0.00031953669293347187 0 -0.017466827471542656 0.00030806475363950934 0 -0.017386231877383931 -0.00042635778026968137 0 -0.01820711858110333 -8.3025634109736032e-05 0 -0.017904156407093058 -0.00064153066732300856 0 -0.017386231877383931 -0.00042635778026968137 0 -0.01820711858110333 -8.3025634109736032e-05 0 -0.01820711858110333 -8.3025634109736032e-05 0 -0.019049571780987231 0.00017489016131100473 0 -0.018318259101548988 0.00036188961214033029 0 -0.01820711858110333 -8.3025634109736032e-05 0 -0.019049571780987231 0.00017489016131100473 0 -0.019233512417296032 -0.00025379585992306864 0 -0.019049571780987231 0.00017489016131100473 0 -0.01970388177533694 0.00025272240780875929 0 -0.020259300774343583 -0.00013700128009031583 0 -0.019049571780987231 0.00017489016131100473 0 -0.020259300774343583 -0.00013700128009031583 0 -0.019233512417296032 -0.00025379585992306864 0 -0.019049571780987231 0.00017489016131100473 0 -0.018632584893044795 0.00052387440221680806 0 -0.01970388177533694 0.00025272240780875929 0 -0.019049571780987231 0.00017489016131100473 0 -0.018318259101548988 0.00036188961214033029 0 -0.018632584893044795 0.00052387440221680806 0 -0.018016989528017668 0.00057575525387575121 0 -0.018318259101548988 0.00036188961214033029 0 -0.018632584893044795 0.00052387440221680806 0 -0.018016989528017668 0.00057575525387575121 0 -0.018632584893044795 0.00052387440221680806 0 -0.018178713037379553 0.00062150231250459719 0 -0.018632584893044795 0.00052387440221680806 0 -0.018178713037379553 0.00062150231250459719 0 -0.017992772392123203 0.00046355814215816267 0 -0.018480723467839858 5.6233027294899371e-07 0 -0.017992772392123203 0.00046355814215816267 0 -0.019038223477806957 0.00031666616596755177 0 -0.018480723467839858 5.6233027294899371e-07 0 -0.017992772392123203 0.00046355814215816267 0 -0.016514048733140614 1.4015815850955068e-06 0 -0.018632584893044795 0.00052387440221680806 0 -0.017992772392123203 0.00046355814215816267 0 -0.019038223477806957 0.00031666616596755177 0 -0.018480723467839858 5.6233027294899371e-07 0 -0.019038223477806957 0.00031666616596755177 0 -0.020446743299954401 3.0495302196165423e-07 0 -0.019038223477806957 0.00031666616596755177 0 -0.020446743299954401 3.0495302196165423e-07 0 -0.01970388177533694 0.00025272240780875929 0 -0.018632584893044795 0.00052387440221680806 0 -0.019038223477806957 0.00031666616596755177 0 -0.01970388177533694 0.00025272240780875929 0 -0.01970388177533694 0.00025272240780875929 0 -0.022413140018724489 9.945024319917265e-07 0 -0.020259300774343583 -0.00013700128009031583 0 -0.020446743299954401 3.0495302196165423e-07 0 -0.01970388177533694 0.00025272240780875929 0 -0.022413140018724489 9.945024319917265e-07 0 -0.022413140018724489 9.945024319917265e-07 0 -0.021698587148066193 -0.00048833665847896213 0 -0.020259300774343583 -0.00013700128009031583 0 -0.022413140018724489 9.945024319917265e-07 0 -0.021698587148066193 -0.00048833665847896213 0 -0.024376563645765223 -4.4698309313881762e-06 0 -0.021698587148066193 -0.00048833665847896213 0 -0.020084206688416369 -0.00079682863486948323 0 -0.020837230777131774 -0.0014930070760358217 0 -0.021698587148066193 -0.00048833665847896213 0 -0.020259300774343583 -0.00013700128009031583 0 -0.020084206688416369 -0.00079682863486948323 0 -0.019233512417296032 -0.00025379585992306864 0 -0.019136124159687247 -0.0008886844513106651 0 -0.020084206688416369 -0.00079682863486948323 0 -0.020259300774343583 -0.00013700128009031583 0 -0.019233512417296032 -0.00025379585992306864 0 -0.020084206688416369 -0.00079682863486948323 0 -0.01820711858110333 -8.3025634109736032e-05 0 -0.019233512417296032 -0.00025379585992306864 0 -0.018555480916206259 -0.00063626289582646137 0 -0.019233512417296032 -0.00025379585992306864 0 -0.018555480916206259 -0.00063626289582646137 0 -0.019136124159687247 -0.0008886844513106651 0 -0.018555480916206259 -0.00063626289582646137 0 -0.019136124159687247 -0.0008886844513106651 0 -0.018507736796629919 -0.0014091567384283659 0 -0.019136124159687247 -0.0008886844513106651 0 -0.019325110203718191 -0.0015360210069564834 0 -0.018507736796629919 -0.0014091567384283659 0 -0.019325110203718191 -0.0015360210069564834 0 -0.018507736796629919 -0.0014091567384283659 0 -0.018726004958546861 -0.0019462011468014849 0 -0.019136124159687247 -0.0008886844513106651 0 -0.019325110203718191 -0.0015360210069564834 0 -0.020084206688416369 -0.00079682863486948323 0 -0.019325110203718191 -0.0015360210069564834 0 -0.020084206688416369 -0.00079682863486948323 0 -0.019923041886926094 -0.0017602040795895941 0 -0.020084206688416369 -0.00079682863486948323 0 -0.019923041886926094 -0.0017602040795895941 0 -0.020837230777131774 -0.0014930070760358217 0 -0.019325110203718191 -0.0015360210069564834 0 -0.019923041886926094 -0.0017602040795895941 0 -0.018977319291050006 -0.0026651393915937301 0 -0.019923041886926094 -0.0017602040795895941 0 -0.020367268302251267 -0.0023783666452064623 0 -0.020837230777131774 -0.0014930070760358217 0 -0.022604353407851628 -0.0014505471880880624 0 -0.022580977714253412 -0.0015276548156992903 0 -0.019923041886926094 -0.0017602040795895941 0 -0.020367268302251267 -0.0023783666452064623 0 -0.018977319291050006 -0.0026651393915937301 0 -0.019325110203718191 -0.0015360210069564834 0 -0.018726004958546861 -0.0019462011468014849 0 -0.018977319291050006 -0.0026651393915937301 0 -0.018146888984918196 -0.0022156398453164693 0 -0.018507736796629919 -0.0014091567384283659 0 -0.018726004958546861 -0.0019462011468014849 0 -0.019831448141425605 -0.0016108855082100323 0 -0.022580977714253412 -0.0015276548156992903 0 -0.018146888984918196 -0.0022156398453164693 0 -0.018726004958546861 -0.0019462011468014849 0 -0.018977319291050006 -0.0026651393915937301 0 -0.025823671358528397 -0.0011754740428427729 0 -0.025546375958104425 -0.00073823829912906169 0 -0.026079000910409982 -0.00063082494338932867 0 -0.024698308195673955 -0.001235350842396628 0 -0.022580977714253412 -0.0015276548156992903 0 -0.025823671358528397 -0.0011754740428427729 0 -0.026079000910409982 -0.00063082494338932867 0 -0.026127197370459401 -0.0010672389020406573 0 -0.026079000910409982 -0.00063082494338932867 0 -0.026127197370459401 -0.0010672389020406573 0 -0.0265009374200329 -0.00085189385713243875 0 -0.024124885600847377 -0.001133098942274295 0 -0.02368519000269043 -0.0012182763358993473 0 -0.023992934575789444 -0.0013792841273127219 0 -0.025483663872742375 9.4163691614968556e-06 0 -0.02545264212952441 -1.7743772427644676e-05 0 -0.025521280211349442 8.9481234557917827e-06 0 -0.022604353407851628 -0.0014505471880880624 0 -0.026795546255588974 -0.00082706493442806592 0 -0.022580977714253412 -0.0015276548156992903 0 -0.026795546255588974 -0.00082706493442806592 0 -0.027539403618144932 -0.00074306477129909099 0 -0.026795546255588974 -0.00082706493442806592 0 -0.025663970494541218 -5.1290451436968203e-05 0 -0.02545264212952441 -1.7743772427644676e-05 0 -0.025521280211349442 8.9481234557917827e-06 0 -0.025663970494541218 -5.1290451436968203e-05 0 -0.025521280211349442 8.9481234557917827e-06 0 -0.025733005252460171 1.0450411948262949e-06 0 -0.025521280211349442 8.9481234557917827e-06 0 -0.025733005252460171 1.0450411948262949e-06 0 -0.025378776650365895 1.9631179151541752e-05 0 -0.021698587148066193 -0.00048833665847896213 0 -0.024376563645765223 -4.4698309313881762e-06 0 -0.021977863902086042 -0.0017077580221067821 0 -0.025733005252460171 1.0450411948262949e-06 0 -0.02438237957392924 -1.0659569972318893e-06 0 -0.025378776650365895 1.9631179151541752e-05 0 -0.02437966711780843 -5.0047418239682674e-07 0 -0.023668491460384449 -0.00075252786120494645 0 -0.021698587148066193 -0.00048833665847896213 0 -0.021977863902086042 -0.0017077580221067821 0 -0.020837230777131774 -0.0014930070760358217 0 -0.025483663872742375 9.4163691614968556e-06 0 -0.025521280211349442 8.9481234557917827e-06 0 -0.025378776650365895 1.9631179151541752e-05 0 -0.020406139591681485 -0.0022825896354390853 0 -0.021977863902086042 -0.0017077580221067821 0 -0.020837230777131774 -0.0014930070760358217 0 -0.022604353407851628 -0.0014505471880880624 0 -0.023668491460384449 -0.00075252786120494645 0 -0.022604353407851628 -0.0014505471880880624 0 -0.021087670620153483 -0.0021703639504009986 0 -0.009986722169381795 1.4407006340534661e-05 0 -0.0092559017273614042 0.00018969602878256175 0 -0.0088291826113759495 0.00014633770827349353 0 -0.0098837801102946553 1.1693781543669675e-05 0 -0.0094228290595548339 0.00020119872355658111 0 -0.009986722169381795 1.4407006340534661e-05 0 -0.010065465783436898 0.00011380573918384823 0 -0.010024507725304768 1.6020241952285578e-05 0 -0.009986722169381795 1.4407006340534661e-05 0 -0.0098630576629551558 9.750658891631022e-05 0 -0.0092559017273614042 0.00018969602878256175 0 -0.009986722169381795 1.4407006340534661e-05 0 -0.0098630576629551558 9.750658891631022e-05 0 -0.010943179408855202 -8.1467595571117178e-08 0 -0.0098630576629551558 9.750658891631022e-05 0 -0.0091416531573103102 4.1711279095891458e-07 0 -0.010943179408855202 -8.1467595571117178e-08 0 -0.0098630576629551558 9.750658891631022e-05 0 -0.0091416531573103102 4.1711279095891458e-07 0 -0.0092559017273614042 0.00018969602878256175 0 -0.0091416531573103102 4.1711279095891458e-07 0 -0.0092559017273614042 0.00018969602878256175 0 -0.0083844077799990011 0.00021628941222049799 0 -0.0092559017273614042 0.00018969602878256175 0 -0.0088291826113759495 0.00014633770827349353 0 -0.0087248790289532994 0.00030538602307227076 0 -0.010065465783436898 0.00011380573918384823 0 -0.0098180623445852828 0.00026713737549497347 0 -0.0099024085959734751 0.00012334216024867685 0 -0.0088291826113759495 0.00014633770827349353 0 -0.0085820840483917561 0.00028502220646447763 0 -0.0086927274907876249 0.00027608894064971683 0 -0.0094228290595548339 0.00020119872355658111 0 -0.0094353904251829619 0.00028574020859285646 0 -0.0088291826113759495 0.00014633770827349353 0 -0.0086927274907876249 0.00027608894064971683 0 -0.0087248790289532994 0.00030538602307227076 0 -0.010065465783436898 0.00011380573918384823 0 -0.0098180623445852828 0.00026713737549497347 0 -0.0098284590556405316 0.00048076410554959636 0 -0.0096154589833915352 0.00031602685101546091 0 -0.0097066963363452857 0.00039556404817003594 0 -0.0095621342281315812 0.00052300292856753239 0 -0.0096154589833915352 0.00031602685101546091 0 -0.0097066963363452857 0.00039556404817003594 0 -0.0098180623445852828 0.00026713737549497347 0 -0.0097066963363452857 0.00039556404817003594 0 -0.0098180623445852828 0.00026713737549497347 0 -0.0098284590556405316 0.00048076410554959636 0 -0.0098180623445852828 0.00026713737549497347 0 -0.0099024085959734751 0.00012334216024867685 0 -0.0097977063451869118 0.0001120859377314036 0 -0.0096154589833915352 0.00031602685101546091 0 -0.0098180623445852828 0.00026713737549497347 0 -0.0096752652425855824 0.00017072685909076031 0 -0.0098180623445852828 0.00026713737549497347 0 -0.0096752652425855824 0.00017072685909076031 0 -0.0097977063451869118 0.0001120859377314036 0 -0.0097069718280565105 7.7053306020356325e-06 0 -0.010038154700419771 -9.3532363120421059e-05 0 -0.0094627000155743206 -0.00014188553244270339 0 -0.010038154700419771 -9.3532363120421059e-05 0 -0.010498588579806144 -0.00011653305014509889 0 -0.010663432838240068 -0.00021965301922000083 0 -0.010070189763029265 -0.00011898756903988828 0 -0.0099811047730180326 -0.0001410206686023313 0 -0.0096752652425855824 0.00017072685909076031 0 -0.0097069718280565105 7.7053306020356325e-06 0 -0.0097977063451869118 0.0001120859377314036 0 -0.0096752652425855824 0.00017072685909076031 0 -0.0097069718280565105 7.7053306020356325e-06 0 -0.0094922492272198067 0.00012445694186799489 0 -0.0097069718280565105 7.7053306020356325e-06 0 -0.0097977063451869118 0.0001120859377314036 0 -0.0099122978105449424 1.9817576988819845e-05 0 -0.0099024085959734751 0.00012334216024867685 0 -0.0097977063451869118 0.0001120859377314036 0 -0.0099122978105449424 1.9817576988819845e-05 0 -0.0097069718280565105 7.7053306020356325e-06 0 -0.0099122978105449424 1.9817576988819845e-05 0 -0.010038154700419771 -9.3532363120421059e-05 0 -0.010065465783436898 0.00011380573918384823 0 -0.010038154700419771 -9.3532363120421059e-05 0 -0.010024507725304768 1.6020241952285578e-05 0 -0.010065465783436898 0.00011380573918384823 0 -0.0099122978105449424 1.9817576988819845e-05 0 -0.010038154700419771 -9.3532363120421059e-05 0 -0.010065465783436898 0.00011380573918384823 0 -0.0099024085959734751 0.00012334216024867685 0 -0.0099122978105449424 1.9817576988819845e-05 0 -0.010038154700419771 -9.3532363120421059e-05 0 -0.010024507725304768 1.6020241952285578e-05 0 -0.0099445315609796962 -7.0016739806279214e-05 0 -0.010038154700419771 -9.3532363120421059e-05 0 -0.0099445315609796962 -7.0016739806279214e-05 0 -0.010262268318808887 7.0537020879846509e-05 0 -0.010498588579806144 -0.00011653305014509889 0 -0.010262268318808887 7.0537020879846509e-05 0 -0.010717123721327436 0.00026294345586757293 0 -0.010038154700419771 -9.3532363120421059e-05 0 -0.010498588579806144 -0.00011653305014509889 0 -0.010262268318808887 7.0537020879846509e-05 0 -0.010262268318808887 7.0537020879846509e-05 0 -0.010289740171207196 0.00042598745381461074 0 -0.010717123721327436 0.00026294345586757293 0 -0.014200173835329231 -0.00056986679332444361 0 -0.012814964538374518 -0.00072233592152514607 0 -0.0099445315609796962 -7.0016739806279214e-05 0 -0.010289740171207196 0.00042598745381461074 0 -0.009791803687016291 0.00013421800915339421 0 -0.017907057731098758 -0.0015464003313604218 0 -0.01673736549947405 -0.0020293340038940841 0 -0.017098415534656186 -0.00097573818750375805 0 -0.0099445315609796962 -7.0016739806279214e-05 0 -0.010262268318808887 7.0537020879846509e-05 0 -0.010289740171207196 0.00042598745381461074 0 -0.012814964538374518 -0.00072233592152514607 0 -0.011242078648028318 -0.00020779068651361217 0 -0.012739201977170444 -9.0885248472930742e-05 0 -0.012409495967132261 -1.4998696394426577e-05 0 -0.012729091510767917 2.3881438321467752e-05 0 -0.012814964538374518 -0.00072233592152514607 0 -0.014604786494446206 -0.00072372172848544393 0 -0.01012230373549719 -0.00062512681329014881 0 -0.010533453715903128 -1.7746718451715976e-05 0 -0.011733614684161295 -0.00013919620943667727 0 -0.0099445315609796962 -7.0016739806279214e-05 0 -0.01012230373549719 -0.00062512681329014881 0 -0.010533453715903128 -1.7746718451715976e-05 0 -0.010174576198908984 0.00049167917361643706 0 -0.012814964538374518 -0.00072233592152514607 0 -0.009986722169381795 1.4407006340534661e-05 0 -0.010024507725304768 1.6020241952285578e-05 0 -0.010533453715903128 -1.7746718451715976e-05 0 -0.010024507725304768 1.6020241952285578e-05 0 -0.0099445315609796962 -7.0016739806279214e-05 0 -0.010533453715903128 -1.7746718451715976e-05 0 -0.010943179408855202 -8.1467595571117178e-08 0 -0.011733614684161295 -0.00013919620943667727 0 -0.012745390650060574 4.9444074876505994e-08 0 -0.009986722169381795 1.4407006340534661e-05 0 -0.010533453715903128 -1.7746718451715976e-05 0 -0.010943179408855202 -8.1467595571117178e-08 0 -0.010533453715903128 -1.7746718451715976e-05 0 -0.010943179408855202 -8.1467595571117178e-08 0 -0.011733614684161295 -0.00013919620943667727 0 -0.011733614684161295 -0.00013919620943667727 0 -0.012409495967132261 -1.4998696394426577e-05 0 -0.012745390650060574 4.9444074876505994e-08 0 -0.012739201977170444 -9.0885248472930742e-05 0 -0.011733614684161295 -0.00013919620943667727 0 -0.012409495967132261 -1.4998696394426577e-05 0 -0.012409495967132261 -1.4998696394426577e-05 0 -0.012745390650060574 4.9444074876505994e-08 0 -0.012729091510767917 2.3881438321467752e-05 0 -0.012745390650060574 4.9444074876505994e-08 0 -0.012729091510767917 2.3881438321467752e-05 0 -0.01454610443537561 -5.295839958392603e-07 0 -0.014604786494446206 -0.00072372172848544393 0 -0.014547148415729294 2.341037052671147e-07 0 -0.01673736549947405 -0.0020293340038940841 0 -0.015984325923658581 -0.0013331838013005326 0 -0.017098415534656186 -0.00097573818750375805 0 -0.015984325923658581 -0.0013331838013005326 0 -0.016322188208851198 -3.4432049387216151e-05 0 -0.017098415534656186 -0.00097573818750375805 0 -0.016322188208851198 -3.4432049387216151e-05 0 -0.017325080627491163 -6.8186150152115243e-05 0 -0.017098415534656186 -0.00097573818750375805 0 -0.015984325923658581 -0.0013331838013005326 0 -0.016322188208851198 -3.4432049387216151e-05 0 -0.014551627298579983 -2.4639404024738913e-06 0 -0.016322188208851198 -3.4432049387216151e-05 0 -0.017140672150636412 0.00020244220091930607 0 -0.016514048733140614 1.4015815850955068e-06 0 -0.016322188208851198 -3.4432049387216151e-05 0 -0.014551627298579983 -2.4639404024738913e-06 0 -0.016514048733140614 1.4015815850955068e-06 0 -0.016322188208851198 -3.4432049387216151e-05 0 -0.017140672150636412 0.00020244220091930607 0 -0.017325080627491163 -6.8186150152115243e-05 0 -0.017140672150636412 0.00020244220091930607 0 -0.017715225859873361 0.00038524962627505395 0 -0.017325080627491163 -6.8186150152115243e-05 0 -0.017992772392123203 0.00046355814215816267 0 -0.017140672150636412 0.00020244220091930607 0 -0.017715225859873361 0.00038524962627505395 0 -0.017992772392123203 0.00046355814215816267 0 -0.017140672150636412 0.00020244220091930607 0 -0.016514048733140614 1.4015815850955068e-06 0 -0.018178713037379553 0.00062150231250459719 0 -0.01808451955062635 0.00057906429102433257 0 -0.017715225859873361 0.00038524962627505395 0 -0.018178713037379553 0.00062150231250459719 0 -0.01808451955062635 0.00057906429102433257 0 -0.017871129092097916 0.00065344330729330611 0 -0.018178713037379553 0.00062150231250459719 0 -0.017992772392123203 0.00046355814215816267 0 -0.017715225859873361 0.00038524962627505395 0 -0.017715225859873361 0.00038524962627505395 0 -0.017891096433467948 0.0001211692093600062 0 -0.017325080627491163 -6.8186150152115243e-05 0 -0.01808451955062635 0.00057906429102433257 0 -0.017891096433467948 0.0001211692093600062 0 -0.018628442226952816 7.3501434058997322e-05 0 -0.01808451955062635 0.00057906429102433257 0 -0.017715225859873361 0.00038524962627505395 0 -0.017891096433467948 0.0001211692093600062 0 -0.017891096433467948 0.0001211692093600062 0 -0.017935920807439904 -0.00049713491064159348 0 -0.018628442226952816 7.3501434058997322e-05 0 -0.017891096433467948 0.0001211692093600062 0 -0.017935920807439904 -0.00049713491064159348 0 -0.017325080627491163 -6.8186150152115243e-05 0 -0.017935920807439904 -0.00049713491064159348 0 -0.017325080627491163 -6.8186150152115243e-05 0 -0.017098415534656186 -0.00097573818750375805 0 -0.017907057731098758 -0.0015464003313604218 0 -0.017935920807439904 -0.00049713491064159348 0 -0.017098415534656186 -0.00097573818750375805 0 -0.017907057731098758 -0.0015464003313604218 0 -0.017935920807439904 -0.00049713491064159348 0 -0.018563710281724519 -0.0005784331826893651 0 -0.017907057731098758 -0.0015464003313604218 0 -0.018803762707083983 -0.0011558977677861284 0 -0.018563710281724519 -0.0005784331826893651 0 -0.018803762707083983 -0.0011558977677861284 0 -0.019127046110821083 -0.00043889995660380499 0 -0.018563710281724519 -0.0005784331826893651 0 -0.01483689516657245 -0.00025187253156949799 0 -0.01604848189239249 0.00039643290287461389 0 -0.018803762707083983 -0.0011558977677861284 0 -0.019127046110821083 -0.00043889995660380499 0 -0.019587595895969256 -0.0008741883545326023 0 -0.018735437647597334 0.00020048889147789424 0 -0.01604848189239249 0.00039643290287461389 0 -0.017691829711492434 0.0011996548053332962 0 -0.017569501250677223 0.00089306022797047745 0 -0.017441196866326569 0.0011789297415120106 0 -0.017935920807439904 -0.00049713491064159348 0 -0.018563710281724519 -0.0005784331826893651 0 -0.018628442226952816 7.3501434058997322e-05 0 -0.019127046110821083 -0.00043889995660380499 0 -0.018563710281724519 -0.0005784331826893651 0 -0.018628442226952816 7.3501434058997322e-05 0 -0.018735437647597334 0.00020048889147789424 0 -0.018199047871643233 0.00054238867832756283 0 -0.018122099630304513 0.00056918895867013491 0 -0.018199047871643233 0.00054238867832756283 0 -0.017920838956886648 0.0009140492415483666 0 -0.017569501250677223 0.00089306022797047745 0 -0.017871129092097916 0.00065344330729330611 0 -0.017691829711492434 0.0011996548053332962 0 -0.017920838956886648 0.0009140492415483666 0 -0.017569501250677223 0.00089306022797047745 0 -0.017569501250677223 0.00089306022797047745 0 -0.017871129092097916 0.00065344330729330611 0 -0.017464071558325012 0.00063994866030605321 0 -0.01808451955062635 0.00057906429102433257 0 -0.017920838956886648 0.0009140492415483666 0 -0.017871129092097916 0.00065344330729330611 0 -0.012973097048721743 0.0020028303702180382 0 -0.012587535653637114 0.0027515666449448094 0 -0.01471316639882689 0.0023233426789143175 0 -0.012587535653637114 0.0027515666449448094 0 -0.01471316639882689 0.0023233426789143175 0 -0.01324931314985469 0.0037249063237845743 0 -0.016057258454698582 0.0014870424539125745 0 -0.015526626733486214 0.0022974922652685878 0 -0.017569501250677223 0.00089306022797047745 0 -0.017464071558325012 0.00063994866030605321 0 -0.01717992271781843 0.00091777123690322442 0 -0.017569501250677223 0.00089306022797047745 0 -0.017358217011384035 0.0010339183431535657 0 -0.017441196866326569 0.0011789297415120106 0 -0.017569501250677223 0.00089306022797047745 0 -0.017358217011384035 0.0010339183431535657 0 -0.01717992271781843 0.00091777123690322442 0 -0.01324931314985469 0.0037249063237845743 0 -0.012526956499001297 0.0034201126010934917 0 -0.012185917308832438 0.0054676263691301264 0 -0.012308194204529953 0.0038027573607908368 0 -0.011987407164335532 0.0041628349784741132 0 -0.017358217011384035 0.0010339183431535657 0 -0.01717992271781843 0.00091777123690322442 0 -0.017204629605475294 0.0010827468875916984 0 -0.012587535653637114 0.0027515666449448094 0 -0.01324931314985469 0.0037249063237845743 0 -0.012526956499001297 0.0034201126010934917 0 -0.017204629605475294 0.0010827468875916984 0 -0.017195437674573755 0.0012058351724337799 0 -0.016853261785735776 0.0013423949669418389 0 -0.01324931314985469 0.0037249063237845743 0 -0.012185917308832438 0.0054676263691301264 0 -0.012157200324566715 0.0056105065140231915 0 -0.015526626733486214 0.0022974922652685878 0 -0.012466947580161434 0.0031654380959651872 0 -0.017195437674573755 0.0012058351724337799 0 -0.017284905436527248 0.0013221347505504783 0 -0.016853261785735776 0.0013423949669418389 0 -0.01717992271781843 0.00091777123690322442 0 -0.017204629605475294 0.0010827468875916984 0 -0.016853261785735776 0.0013423949669418389 0 -0.017204629605475294 0.0010827468875916984 0 -0.017195437674573755 0.0012058351724337799 0 -0.017311379114847439 0.0011834203928283624 0 -0.017441196866326569 0.0011789297415120106 0 -0.017284905436527248 0.0013221347505504783 0 -0.01739353042803277 0.001485790899861855 0 -0.017691829711492434 0.0011996548053332962 0 -0.017441196866326569 0.0011789297415120106 0 -0.01739353042803277 0.001485790899861855 0 -0.017358217011384035 0.0010339183431535657 0 -0.017441196866326569 0.0011789297415120106 0 -0.017311379114847439 0.0011834203928283624 0 -0.017358217011384035 0.0010339183431535657 0 -0.017204629605475294 0.0010827468875916984 0 -0.017311379114847439 0.0011834203928283624 0 -0.017195437674573755 0.0012058351724337799 0 -0.017311379114847439 0.0011834203928283624 0 -0.017284905436527248 0.0013221347505504783 0 -0.017441196866326569 0.0011789297415120106 0 -0.017311379114847439 0.0011834203928283624 0 -0.017284905436527248 0.0013221347505504783 0 -0.012020047012636511 0.0010498762325247058 0 -0.012258722743182422 0.00084885977866931098 0 -0.011315717778216822 0.00021977913139393867 0 -0.017284905436527248 0.0013221347505504783 0 -0.01739353042803277 0.001485790899861855 0 -0.017322451572102372 0.0014724266474410289 0 -0.017284905436527248 0.0013221347505504783 0 -0.017322451572102372 0.0014724266474410289 0 -0.017262450852285723 0.0015899550597213575 0 -0.01604848189239249 0.00039643290287461389 0 -0.016567492520922825 0.00061983286034966885 0 -0.017382474140014918 0.0014875044240373117 0 -0.017322451572102372 0.0014724266474410289 0 -0.017262450852285723 0.0015899550597213575 0 -0.01604848189239249 0.00039643290287461389 0 -0.013309494989749246 0.00086874161052913584 0 -0.017284905436527248 0.0013221347505504783 0 -0.017262450852285723 0.0015899550597213575 0 -0.016853261785735776 0.0013423949669418389 0 -0.013309494989749246 0.00086874161052913584 0 -0.012466947580161434 0.0031654380959651872 0 -0.011202363575523339 0.00078416384071761168 0 -0.011599591317438108 0.00089020780789073723 0 -0.011759757008354951 0.0011698914544617666 0 -0.011202363575523339 0.00078416384071761168 0 -0.011599591317438108 0.00089020780789073723 0 -0.011573452978277327 0.00068271302498453836 0 -0.011599591317438108 0.00089020780789073723 0 -0.011573452978277327 0.00068271302498453836 0 -0.011831331519437969 0.00068919260282094728 0 -0.011660070305668201 0.00036798250190320459 0 -0.011462371906108266 0.00024849789367932849 0 -0.011345045861267427 0.00035385398217461112 0 -0.011202363575523339 0.00078416384071761168 0 -0.011573452978277327 0.00068271302498453836 0 -0.011660070305668201 0.00036798250190320459 0 -0.011348465868264591 0.00061424141808745774 0 -0.011660070305668201 0.00036798250190320459 0 -0.011345045861267427 0.00035385398217461112 0 -0.013309494989749246 0.00086874161052913584 0 -0.011042472982710114 0.00057749067860064242 0 -0.011462371906108266 0.00024849789367932849 0 -0.011529549314465736 6.065475443055128e-05 0 -0.011235690437982762 0.00012878370758547818 0 -0.011660070305668201 0.00036798250190320459 0 -0.011462371906108266 0.00024849789367932849 0 -0.011529549314465736 6.065475443055128e-05 0 -0.011235690437982762 0.00012878370758547818 0 -0.010902002105878099 -2.5423995345954435e-05 0 -0.011148153334743394 -0.00018584957059856512 0 -0.011529549314465736 6.065475443055128e-05 0 -0.011235690437982762 0.00012878370758547818 0 -0.011148153334743394 -0.00018584957059856512 0 -0.011462371906108266 0.00024849789367932849 0 -0.011235690437982762 0.00012878370758547818 0 -0.011345045861267427 0.00035385398217461112 0 -0.011348465868264591 0.00061424141808745774 0 -0.011345045861267427 0.00035385398217461112 0 -0.010927105926654071 0.00027726090089638363 0 -0.011235690437982762 0.00012878370758547818 0 -0.011345045861267427 0.00035385398217461112 0 -0.010927105926654071 0.00027726090089638363 0 -0.013309494989749246 0.00086874161052913584 0 -0.010812965422769308 0.0001569206828706422 0 -0.011022569813951224 0.00075721814083661812 0 -0.012020047012636511 0.0010498762325247058 0 -0.011315717778216822 0.00021977913139393867 0 -0.010289740171207196 0.00042598745381461074 0 -0.011022569813951224 0.00075721814083661812 0 -0.010717123721327436 0.00026294345586757293 0 -0.011022569813951224 0.00075721814083661812 0 -0.011315717778216822 0.00021977913139393867 0 -0.010717123721327436 0.00026294345586757293 0 -0.014200173835329231 -0.00056986679332444361 0 -0.01483689516657245 -0.00025187253156949799 0 -0.010498588579806144 -0.00011653305014509889 0 -0.010902002105878099 -2.5423995345954435e-05 0 -0.010663432838240068 -0.00021965301922000083 0 -0.010668593994182246 -4.1536175901050653e-05 0 -0.010812965422769308 0.0001569206828706422 0 -0.010498588579806144 -0.00011653305014509889 0 -0.010927105926654071 0.00027726090089638363 0 -0.010902002105878099 -2.5423995345954435e-05 0 -0.010498588579806144 -0.00011653305014509889 0 -0.011315717778216822 0.00021977913139393867 0 -0.010717123721327436 0.00026294345586757293 0 -0.011235690437982762 0.00012878370758547818 0 -0.010927105926654071 0.00027726090089638363 0 -0.010902002105878099 -2.5423995345954435e-05 0 -0.0099811047730180326 -0.0001410206686023313 0 -0.010318980632242531 -0.0003118362246863597 0 -0.0094627000155743206 -0.00014188553244270339 0 -0.0091889280627286494 0.00014646352075755394 0 -0.0088587071198312824 -8.2890787627147464e-05 0 -0.010902002105878099 -2.5423995345954435e-05 0 -0.010663432838240068 -0.00021965301922000083 0 -0.011148153334743394 -0.00018584957059856512 0 -0.0094627000155743206 -0.00014188553244270339 0 -0.0094922492272198067 0.00012445694186799489 0 -0.0091889280627286494 0.00014646352075755394 0 -0.0097069718280565105 7.7053306020356325e-06 0 -0.0094627000155743206 -0.00014188553244270339 0 -0.0094922492272198067 0.00012445694186799489 0 -0.0096154589833915352 0.00031602685101546091 0 -0.0096752652425855824 0.00017072685909076031 0 -0.0094922492272198067 0.00012445694186799489 0 -0.0096154589833915352 0.00031602685101546091 0 -0.0094922492272198067 0.00012445694186799489 0 -0.0093850385859721181 0.00035874958871452613 0 -0.0094922492272198067 0.00012445694186799489 0 -0.0093850385859721181 0.00035874958871452613 0 -0.0091889280627286494 0.00014646352075755394 0 -0.0096154589833915352 0.00031602685101546091 0 -0.0093850385859721181 0.00035874958871452613 0 -0.0095621342281315812 0.00052300292856753239 0 -0.0091889280627286494 0.00014646352075755394 0 -0.0088510664405577564 0.00040191047670269859 0 -0.0088587071198312824 -8.2890787627147464e-05 0 -0.0093850385859721181 0.00035874958871452613 0 -0.0091889280627286494 0.00014646352075755394 0 -0.0091206640198791822 0.00045676040884494315 0 -0.0091889280627286494 0.00014646352075755394 0 -0.0088510664405577564 0.00040191047670269859 0 -0.0091206640198791822 0.00045676040884494315 0 -0.0088510664405577564 0.00040191047670269859 0 -0.0084027219752131378 0.00036545952336129148 0 -0.0088587071198312824 -8.2890787627147464e-05 0 -0.0068737121840748878 0.0012742236545132022 0 -0.008582629915460719 0.0011608858744803197 0 -0.0053989204083849923 0.002202448627119442 0 -0.0056387619983459814 0.002929073348256408 0 -0.0057878145452045079 0.0024667701580009661 0 -0.008582629915460719 0.0011608858744803197 0 -0.010318980632242531 -0.0003118362246863597 0 -0.0084027219752131378 0.00036545952336129148 0 -0.0082611634139075456 -5.7285254017660342e-06 0 -0.0088587071198312824 -8.2890787627147464e-05 0 -0.011529549314465736 6.065475443055128e-05 0 -0.011625300989161728 -0.0002166430200248921 0 -0.011148153334743394 -0.00018584957059856512 0 -0.0067508032902799456 0.0027535386956584456 0 -0.0073882349676745217 0.003297241903372672 0 -0.0067511877215827134 0.0035460244269199547 0 -0.0067508032902799456 0.0027535386956584456 0 -0.0062248663067091979 0.0031778749787964291 0 -0.0067511877215827134 0.0035460244269199547 0 -0.0056377551306021076 0.0029370511991399346 0 -0.0057575271256013359 0.002925198356987924 0 -0.0061004291377080551 0.004024126733794155 0 -0.0057575271256013359 0.002925198356987924 0 -0.0061308488081810572 0.002711647627087266 0 -0.0057878145452045079 0.0024667701580009661 0 -0.0056387619983459814 0.002929073348256408 0 -0.0057575271256013359 0.002925198356987924 0 -0.0057878145452045079 0.0024667701580009661 0 -0.008582629915460719 0.0011608858744803197 0 -0.0078092919392578081 0.0013550296315684638 0 -0.0067508032902799456 0.0027535386956584456 0 -0.0062248663067091979 0.0031778749787964291 0 -0.0061308488081810572 0.002711647627087266 0 -0.0062248663067091979 0.0031778749787964291 0 -0.0057575271256013359 0.002925198356987924 0 -0.0061308488081810572 0.002711647627087266 0 -0.0061308488081810572 0.002711647627087266 0 -0.0057878145452045079 0.0024667701580009661 0 -0.0062700906650084891 0.0022941571047117226 0 -0.0053989204083849923 0.002202448627119442 0 -0.0057878145452045079 0.0024667701580009661 0 -0.0059381537536781397 0.0020533958184372212 0 -0.0057878145452045079 0.0024667701580009661 0 -0.0059381537536781397 0.0020533958184372212 0 -0.0062700906650084891 0.0022941571047117226 0 -0.0062700906650084891 0.0022941571047117226 0 -0.0067605851954871277 0.00214812278661255 0 -0.006350572684175518 0.0017256657225806565 0 -0.0067508032902799456 0.0027535386956584456 0 -0.0061308488081810572 0.002711647627087266 0 -0.0062700906650084891 0.0022941571047117226 0 -0.0067508032902799456 0.0027535386956584456 0 -0.0062700906650084891 0.0022941571047117226 0 -0.0067605851954871277 0.00214812278661255 0 -0.0067508032902799456 0.0027535386956584456 0 -0.0067605851954871277 0.00214812278661255 0 -0.0075200663673332174 0.0023382478890616484 0 -0.0075200663673332174 0.0023382478890616484 0 -0.0083867157626254744 0.0030239082236753361 0 -0.0082641789907186014 0.0021976032862626839 0 -0.0075200663673332174 0.0023382478890616484 0 -0.0083867157626254744 0.0030239082236753361 0 -0.0073882349676745217 0.003297241903372672 0 -0.0067508032902799456 0.0027535386956584456 0 -0.0075200663673332174 0.0023382478890616484 0 -0.0073882349676745217 0.003297241903372672 0 -0.0083867157626254744 0.0030239082236753361 0 -0.0073882349676745217 0.003297241903372672 0 -0.0079302551194830491 0.0038924062611804754 0 -0.0084557262976241287 0.0030995470498875748 0 -0.0085432441865060868 0.0038085259748141176 0 -0.0083867157626254744 0.0030239082236753361 0 -0.0079302551194830491 0.0038924062611804754 0 -0.0082995381003119796 0.0041804347361437087 0 -0.0083867157626254744 0.0030239082236753361 0 -0.0087957936484379124 0.0034684804763065193 0 -0.0088478544278697731 0.0033803533296028546 0 -0.0087957936484379124 0.0034684804763065193 0 -0.0089725466181265652 0.0036234127719893044 0 -0.0088478544278697731 0.0033803533296028546 0 -0.0089725466181265652 0.0036234127719893044 0 -0.0090305661562378025 0.0036332868059491441 0 -0.0088478544278697731 0.0033803533296028546 0 -0.0085432441865060868 0.0038085259748141176 0 -0.0090189095819299316 0.004241598368093462 0 -0.0082995381003119796 0.0041804347361437087 0 -0.0083892074972684704 0.0044283525002901999 0 -0.0086962670112468391 0.0046848311188366406 0 -0.0087957936484379124 0.0034684804763065193 0 -0.0092453140105717563 0.0038292047532308342 0 -0.0089725466181265652 0.0036234127719893044 0 -0.0079302551194830491 0.0038924062611804754 0 -0.0082995381003119796 0.0041804347361437087 0 -0.0083892074972684704 0.0044283525002901999 0 -0.0079302551194830491 0.0038924062611804754 0 -0.0083892074972684704 0.0044283525002901999 0 -0.0079746637060117264 0.0040982468730459218 0 -0.0083892074972684704 0.0044283525002901999 0 -0.0079746637060117264 0.0040982468730459218 0 -0.008502265514528165 0.0044940576971040933 0 -0.0073434419596027072 0.004162181081640624 0 -0.0085853208221918983 0.0045160743381463036 0 -0.0073882349676745217 0.003297241903372672 0 -0.006814510456442568 0.0041609032770128307 0 -0.0067511877215827134 0.0035460244269199547 0 -0.0075181663878918113 0.0033283875549107362 0 -0.0073434419596027072 0.004162181081640624 0 -0.0073882349676745217 0.003297241903372672 0 -0.0079302551194830491 0.0038924062611804754 0 -0.0079746637060117264 0.0040982468730459218 0 -0.006814510456442568 0.0041609032770128307 0 -0.0067511877215827134 0.0035460244269199547 0 -0.0060586323394534207 0.0043075407721026087 0 -0.0058953638540264874 0.0038694121330401458 0 -0.0084571433243623307 0.0028200942199676218 0 -0.0062248663067091979 0.0031778749787964291 0 -0.0067511877215827134 0.0035460244269199547 0 -0.0060586323394534207 0.0043075407721026087 0 -0.0062248663067091979 0.0031778749787964291 0 -0.0057575271256013359 0.002925198356987924 0 -0.0061004291377080551 0.004024126733794155 0 -0.011529549314465736 6.065475443055128e-05 0 -0.011625300989161728 -0.0002166430200248921 0 -0.011852927590130005 0.00026065510494339533 0 -0.011660070305668201 0.00036798250190320459 0 -0.011529549314465736 6.065475443055128e-05 0 -0.011852927590130005 0.00026065510494339533 0 -0.008582629915460719 0.0011608858744803197 0 -0.0084571433243623307 0.0028200942199676218 0 -0.0084571433243623307 0.0028200942199676218 0 -0.011132818524738896 0.0014292434506748906 0 -0.010200261389863515 0.0033556891081535558 0 -0.010096030624849782 0.003056190313954296 0 -0.010301531137324576 0.0029685525128853056 0 -0.011660070305668201 0.00036798250190320459 0 -0.011852927590130005 0.00026065510494339533 0 -0.011831331519437969 0.00068919260282094728 0 -0.006814510456442568 0.0041609032770128307 0 -0.0060586323394534207 0.0043075407721026087 0 -0.0063531107534847827 0.005003206064235247 0 -0.0084571433243623307 0.0028200942199676218 0 -0.0085853208221918983 0.0045160743381463036 0 -0.011573452978277327 0.00068271302498453836 0 -0.011660070305668201 0.00036798250190320459 0 -0.011831331519437969 0.00068919260282094728 0 -0.0099523358559110223 0.0060565578941027638 0 -0.010142717926884072 0.0047105552304446251 0 -0.010910917393913321 0.0045168942654416457 0 -0.010096030624849782 0.003056190313954296 0 -0.010301531137324576 0.0029685525128853056 0 -0.010406439542291833 0.0025811449855061251 0 -0.0099523358559110223 0.0060565578941027638 0 -0.010142717926884072 0.0047105552304446251 0 -0.0093302366606002225 0.0047842481020086425 0 -0.0085853208221918983 0.0045160743381463036 0 -0.012466947580161434 0.0031654380959651872 0 -0.011599591317438108 0.00089020780789073723 0 -0.011831331519437969 0.00068919260282094728 0 -0.011759757008354951 0.0011698914544617666 0 -0.011132818524738896 0.0014292434506748906 0 -0.012466947580161434 0.0031654380959651872 0 -0.0093302366606002225 0.0047842481020086425 0 -0.009906351658163521 0.0043903000478109381 0 -0.0086962670112468391 0.0046848311188366406 0 -0.0083892074972684704 0.0044283525002901999 0 -0.008502265514528165 0.0044940576971040933 0 -0.0093302366606002225 0.0047842481020086425 0 -0.0083892074972684704 0.0044283525002901999 0 -0.0093302366606002225 0.0047842481020086425 0 -0.0086962670112468391 0.0046848311188366406 0 -0.0085853208221918983 0.0045160743381463036 0 -0.0093003517332349416 0.0050694000744568452 0 -0.010142717926884072 0.0047105552304446251 0 -0.0093302366606002225 0.0047842481020086425 0 -0.009906351658163521 0.0043903000478109381 0 -0.009906351658163521 0.0043903000478109381 0 -0.010106099433995746 0.0038161153752897105 0 -0.0086962670112468391 0.0046848311188366406 0 -0.0099496941326935422 0.0038031789477800189 0 -0.0090189095819299316 0.004241598368093462 0 -0.010106099433995746 0.0038161153752897105 0 -0.0096867483508261097 0.0037261745750203135 0 -0.0092453140105717563 0.0038292047532308342 0 -0.009906351658163521 0.0043903000478109381 0 -0.010561691001447847 0.0040582167829446561 0 -0.010106099433995746 0.0038161153752897105 0 -0.011097036224079728 0.0046893117128712228 0 -0.011095845237915245 0.004073378298709367 0 -0.011926091035226726 0.003686895098491955 0 -0.010142717926884072 0.0047105552304446251 0 -0.010910917393913321 0.0045168942654416457 0 -0.010733858029285474 0.0043489350266920244 0 -0.011987407164335532 0.0041628349784741132 0 -0.011189180658061928 0.004053199397772809 0 -0.010919074940490946 0.0044694116692670623 0 -0.010910917393913321 0.0045168942654416457 0 -0.010733858029285474 0.0043489350266920244 0 -0.011987407164335532 0.0041628349784741132 0 -0.012466947580161434 0.0031654380959651872 0 -0.010142717926884072 0.0047105552304446251 0 -0.009906351658163521 0.0043903000478109381 0 -0.010733858029285474 0.0043489350266920244 0 -0.009906351658163521 0.0043903000478109381 0 -0.010733858029285474 0.0043489350266920244 0 -0.010561691001447847 0.0040582167829446561 0 -0.010733858029285474 0.0043489350266920244 0 -0.010561691001447847 0.0040582167829446561 0 -0.011095845237915245 0.004073378298709367 0 -0.011097036224079728 0.0046893117128712228 0 -0.010733858029285474 0.0043489350266920244 0 -0.011095845237915245 0.004073378298709367 0 -0.012526956499001297 0.0034201126010934917 0 -0.011097036224079728 0.0046893117128712228 0 -0.011926091035226726 0.003686895098491955 0 -0.011095845237915245 0.004073378298709367 0 -0.011926091035226726 0.003686895098491955 0 -0.010983073923241313 0.0036427211473334942 0 -0.012526956499001297 0.0034201126010934917 0 -0.011926091035226726 0.003686895098491955 0 -0.011739410511528454 0.003338083572872273 0 -0.011926091035226726 0.003686895098491955 0 -0.011739410511528454 0.003338083572872273 0 -0.010983073923241313 0.0036427211473334942 0 -0.011001365271304374 0.00320477984399819 0 -0.010983073923241313 0.0036427211473334942 0 -0.010206219141484597 0.0034182474443903133 0 -0.011739410511528454 0.003338083572872273 0 -0.011001365271304374 0.00320477984399819 0 -0.010983073923241313 0.0036427211473334942 0 -0.011739410511528454 0.003338083572872273 0 -0.011001365271304374 0.00320477984399819 0 -0.011489996984518526 0.0029858157292088276 0 -0.010561691001447847 0.0040582167829446561 0 -0.011095845237915245 0.004073378298709367 0 -0.010983073923241313 0.0036427211473334942 0 -0.010561691001447847 0.0040582167829446561 0 -0.010983073923241313 0.0036427211473334942 0 -0.010106099433995746 0.0038161153752897105 0 -0.010983073923241313 0.0036427211473334942 0 -0.010106099433995746 0.0038161153752897105 0 -0.010206219141484597 0.0034182474443903133 0 -0.0096867483508261097 0.0037261745750203135 0 -0.010206219141484597 0.0034182474443903133 0 -0.0095659969882284698 0.0034889580835229055 0 -0.010106099433995746 0.0038161153752897105 0 -0.0096867483508261097 0.0037261745750203135 0 -0.010206219141484597 0.0034182474443903133 0 -0.010206219141484597 0.0034182474443903133 0 -0.010405238242061852 0.0030673546684974527 0 -0.009854125485988215 0.0031590494229578976 0 -0.010206219141484597 0.0034182474443903133 0 -0.009854125485988215 0.0031590494229578976 0 -0.0095659969882284698 0.0034889580835229055 0 -0.011001365271304374 0.00320477984399819 0 -0.010206219141484597 0.0034182474443903133 0 -0.010405238242061852 0.0030673546684974527 0 -0.010160120641754835 0.0027437078433550418 0 -0.010276085811532287 0.0024877812711746588 0 -0.0091943184186631804 0.003246172784321101 0 -0.014578634280372147 0.0027095314701349057 0 -0.017934049685817865 0.0028089341661026788 0 -0.018033864643998053 0.0029886475947570649 0 -0.010405238242061852 0.0030673546684974527 0 -0.010160120641754835 0.0027437078433550418 0 -0.011249012588217538 0.0026709031926253901 0 -0.010405238242061852 0.0030673546684974527 0 -0.010160120641754835 0.0027437078433550418 0 -0.009854125485988215 0.0031590494229578976 0 -0.010160120641754835 0.0027437078433550418 0 -0.010444256193935429 0.0021326391737815304 0 -0.011249012588217538 0.0026709031926253901 0 -0.012046913476861527 0.0030255930740281755 0 -0.013274815733975091 0.0022463608142836125 0 -0.012973097048721743 0.0020028303702180382 0 -0.010444256193935429 0.0021326391737815304 0 -0.011249012588217538 0.0026709031926253901 0 -0.012140392185697652 0.0020936511696625169 0 -0.013274815733975091 0.0022463608142836125 0 -0.012973097048721743 0.0020028303702180382 0 -0.012587535653637114 0.0027515666449448094 0 -0.011249012588217538 0.0026709031926253901 0 -0.012587535653637114 0.0027515666449448094 0 -0.011739410511528454 0.003338083572872273 0 -0.011489996984518526 0.0029858157292088276 0 -0.012587535653637114 0.0027515666449448094 0 -0.011489996984518526 0.0029858157292088276 0 -0.011249012588217538 0.0026709031926253901 0 -0.012587535653637114 0.0027515666449448094 0 -0.012526956499001297 0.0034201126010934917 0 -0.011739410511528454 0.003338083572872273 0 -0.011001365271304374 0.00320477984399819 0 -0.011489996984518526 0.0029858157292088276 0 -0.011249012588217538 0.0026709031926253901 0 -0.011001365271304374 0.00320477984399819 0 -0.010405238242061852 0.0030673546684974527 0 -0.011249012588217538 0.0026709031926253901 0 -0.01177740337026823 0.0039120220766003739 0 -0.010548663994308283 0.0043898072815200528 0 -0.014260357591129624 0.0044333408467099981 0 -0.012584605411922672 0.0040684990063466885 0 -0.010603715403895321 0.0054212762344850642 0 -0.013405169902619354 0.0028021465030161046 0 -0.013043206468278687 0.0037469004005283887 0 -0.012587805972645727 0.0030765968664754114 0 -0.014578634280372147 0.0027095314701349057 0 -0.013405169902619354 0.0028021465030161046 0 -0.013043206468278687 0.0037469004005283887 0 -0.014578634280372147 0.0027095314701349057 0 -0.014260357591129624 0.0044333408467099981 0 -0.012584605411922672 0.0040684990063466885 0 -0.014366075782134552 0.0028490830518248067 0 -0.012913516941992874 0.0038356436350555504 0 -0.013274815733975091 0.0022463608142836125 0 -0.01177740337026823 0.0039120220766003739 0 -0.010160120641754835 0.0027437078433550418 0 -0.009854125485988215 0.0031590494229578976 0 -0.0091943184186631804 0.003246172784321101 0 -0.014578634280372147 0.0027095314701349057 0 -0.018033864643998053 0.0029886475947570649 0 -0.014260357591129624 0.0044333408467099981 0 -0.009854125485988215 0.0031590494229578976 0 -0.0091943184186631804 0.003246172784321101 0 -0.0095659969882284698 0.0034889580835229055 0 -0.0091943184186631804 0.003246172784321101 0 -0.0095659969882284698 0.0034889580835229055 0 -0.0092594043459746003 0.003546684488248597 0 -0.0096867483508261097 0.0037261745750203135 0 -0.0095659969882284698 0.0034889580835229055 0 -0.0093305148591995082 0.0037271152648254619 0 -0.0095659969882284698 0.0034889580835229055 0 -0.0092594043459746003 0.003546684488248597 0 -0.0093305148591995082 0.0037271152648254619 0 -0.0091943184186631804 0.003246172784321101 0 -0.0091407532818374489 0.0035918521580224714 0 -0.009103324954162894 0.0037499962176830346 0 -0.0092594043459746003 0.003546684488248597 0 -0.0091407532818374489 0.0035918521580224714 0 -0.0091454697087807527 0.0036828400092715334 0 -0.0091943184186631804 0.003246172784321101 0 -0.0092594043459746003 0.003546684488248597 0 -0.0091407532818374489 0.0035918521580224714 0 -0.0091407532818374489 0.0035918521580224714 0 -0.0091454697087807527 0.0036828400092715334 0 -0.0091101223901430967 0.0037156349635436019 0 -0.0091454697087807527 0.0036828400092715334 0 -0.0090850996782936445 0.0037035856085922609 0 -0.0091101223901430967 0.0037156349635436019 0 -0.0092594043459746003 0.003546684488248597 0 -0.0091454697087807527 0.0036828400092715334 0 -0.0093305148591995082 0.0037271152648254619 0 -0.0091454697087807527 0.0036828400092715334 0 -0.0093305148591995082 0.0037271152648254619 0 -0.0090976266737851641 0.0037168258616014993 0 -0.0091454697087807527 0.0036828400092715334 0 -0.0090976266737851641 0.0037168258616014993 0 -0.0090850996782936445 0.0037035856085922609 0 -0.0096867483508261097 0.0037261745750203135 0 -0.0093305148591995082 0.0037271152648254619 0 -0.0092453140105717563 0.0038292047532308342 0 -0.0093305148591995082 0.0037271152648254619 0 -0.0092453140105717563 0.0038292047532308342 0 -0.0090976266737851641 0.0037168258616014993 0 -0.0092453140105717563 0.0038292047532308342 0 -0.0090976266737851641 0.0037168258616014993 0 -0.0089725466181265652 0.0036234127719893044 0 -0.0090976266737851641 0.0037168258616014993 0 -0.0089725466181265652 0.0036234127719893044 0 -0.0090305661562378025 0.0036332868059491441 0 -0.0090976266737851641 0.0037168258616014993 0 -0.0090305661562378025 0.0036332868059491441 0 -0.0090850996782936445 0.0037035856085922609 0 -0.0091545510705504027 0.0036633078261465121 0 -0.0090305661562378025 0.0036332868059491441 0 -0.0091427879833312197 0.0034526125038962792 0 -0.0091545510705504027 0.0036633078261465121 0 -0.0090305661562378025 0.0036332868059491441 0 -0.0090850996782936445 0.0037035856085922609 0 -0.0091545510705504027 0.0036633078261465121 0 -0.0093976660388502692 0.0036305972902101859 0 -0.0091427879833312197 0.0034526125038962792 0 -0.0093976660388502692 0.0036305972902101859 0 -0.0095390684422396663 0.0033744185244620785 0 -0.0091427879833312197 0.0034526125038962792 0 -0.0093976660388502692 0.0036305972902101859 0 -0.0092896906219179284 0.0037697689866586994 0 -0.0095183628899436594 0.0038014192926800988 0 -0.0091545510705504027 0.0036633078261465121 0 -0.0092896906219179284 0.0037697689866586994 0 -0.0091480630686168775 0.0037369223669873365 0 -0.0091545510705504027 0.0036633078261465121 0 -0.0093976660388502692 0.0036305972902101859 0 -0.0092896906219179284 0.0037697689866586994 0 -0.0092896906219179284 0.0037697689866586994 0 -0.0091480630686168775 0.0037369223669873365 0 -0.0091870058547161796 0.0037943627132083092 0 -0.0092896906219179284 0.0037697689866586994 0 -0.0091870058547161796 0.0037943627132083092 0 -0.0093987691053865306 0.0039469344773646548 0 -0.0092896906219179284 0.0037697689866586994 0 -0.0093987691053865306 0.0039469344773646548 0 -0.0095183628899436594 0.0038014192926800988 0 -0.0091545510705504027 0.0036633078261465121 0 -0.0090850996782936445 0.0037035856085922609 0 -0.0091480630686168775 0.0037369223669873365 0 -0.0091480630686168775 0.0037369223669873365 0 -0.0091101223901430967 0.0037156349635436019 0 -0.0091870058547161796 0.0037943627132083092 0 -0.0090850996782936445 0.0037035856085922609 0 -0.0091480630686168775 0.0037369223669873365 0 -0.0091101223901430967 0.0037156349635436019 0 -0.0091407532818374489 0.0035918521580224714 0 -0.0091101223901430967 0.0037156349635436019 0 -0.009103324954162894 0.0037499962176830346 0 -0.0091101223901430967 0.0037156349635436019 0 -0.009103324954162894 0.0037499962176830346 0 -0.0091870058547161796 0.0037943627132083092 0 -0.010810411287867935 0.0041220528948152663 0 -0.010768164751272331 0.0041278358460475071 0 -0.010710555777454753 0.0041421596884377802 0 -0.009103324954162894 0.0037499962176830346 0 -0.0091870058547161796 0.0037943627132083092 0 -0.0093987691053865306 0.0039469344773646548 0 -0.011841313140168844 0.0042577439815184191 0 -0.010768164751272331 0.0041278358460475071 0 -0.010977365423482811 0.0039561909170157637 0 -0.010548663994308283 0.0043898072815200528 0 -0.011137696223304933 0.0040978443889747368 0 -0.010548663994308283 0.0043898072815200528 0 -0.01001697095847728 0.0039805660319758131 0 -0.011841313140168844 0.0042577439815184191 0 -0.010977365423482811 0.0039561909170157637 0 -0.011315660337368395 0.0038320655935667474 0 -0.011573255073170592 0.0035937859343451208 0 -0.011315660337368395 0.0038320655935667474 0 -0.011201780483186504 0.0034018489327760177 0 -0.011841313140168844 0.0042577439815184191 0 -0.011573255073170592 0.0035937859343451208 0 -0.011315660337368395 0.0038320655935667474 0 -0.011315660337368395 0.0038320655935667474 0 -0.011201780483186504 0.0034018489327760177 0 -0.01088260988022201 0.0035499162943201721 0 -0.010977365423482811 0.0039561909170157637 0 -0.011315660337368395 0.0038320655935667474 0 -0.010835499414603118 0.0038069424316537403 0 -0.011315660337368395 0.0038320655935667474 0 -0.01088260988022201 0.0035499162943201721 0 -0.010835499414603118 0.0038069424316537403 0 -0.010952021791284794 0.003266067704960031 0 -0.011201780483186504 0.0034018489327760177 0 -0.01088260988022201 0.0035499162943201721 0 -0.010952021791284794 0.003266067704960031 0 -0.011276602618611378 0.0030949500545887944 0 -0.011201780483186504 0.0034018489327760177 0 -0.011570490821291515 0.0031598949745143667 0 -0.011573255073170592 0.0035937859343451208 0 -0.012046926119545203 0.0034235152911405837 0 -0.011570490821291515 0.0031598949745143667 0 -0.011573255073170592 0.0035937859343451208 0 -0.011201780483186504 0.0034018489327760177 0 -0.011570490821291515 0.0031598949745143667 0 -0.011276602618611378 0.0030949500545887944 0 -0.011201780483186504 0.0034018489327760177 0 -0.012006516717301685 0.0029659519103797964 0 -0.012046926119545203 0.0034235152911405837 0 -0.012587805972645727 0.0030765968664754114 0 -0.012006516717301685 0.0029659519103797964 0 -0.011570490821291515 0.0031598949745143667 0 -0.012046926119545203 0.0034235152911405837 0 -0.013043206468278687 0.0037469004005283887 0 -0.012046926119545203 0.0034235152911405837 0 -0.012587805972645727 0.0030765968664754114 0 -0.012913516941992874 0.0038356436350555504 0 -0.010548663994308283 0.0043898072815200528 0 -0.013043206468278687 0.0037469004005283887 0 -0.011841313140168844 0.0042577439815184191 0 -0.012046926119545203 0.0034235152911405837 0 -0.011841313140168844 0.0042577439815184191 0 -0.011573255073170592 0.0035937859343451208 0 -0.012046926119545203 0.0034235152911405837 0 -0.01280950841168769 0.0040380802486914627 0 -0.0098206283882146458 0.0043400155537407824 0 -0.010263900001657691 0.0031703385868879605 0 -0.010440157167681064 0.0036497870095895495 0 -0.010346553644679023 0.0040959010235102787 0 -0.010440157167681064 0.0036497870095895495 0 -0.010369757929042621 0.0039664199459318915 0 -0.010346553644679023 0.0040959010235102787 0 -0.010440157167681064 0.0036497870095895495 0 -0.010518597534280999 0.0037926415521144698 0 -0.010369757929042621 0.0039664199459318915 0 -0.010440157167681064 0.0036497870095895495 0 -0.010689766338977341 0.0034997481167013157 0 -0.010518597534280999 0.0037926415521144698 0 -0.010711829615637601 0.003061718749650839 0 -0.010440157167681064 0.0036497870095895495 0 -0.010689766338977341 0.0034997481167013157 0 -0.010952021791284794 0.003266067704960031 0 -0.010689766338977341 0.0034997481167013157 0 -0.01088260988022201 0.0035499162943201721 0 -0.010689766338977341 0.0034997481167013157 0 -0.01088260988022201 0.0035499162943201721 0 -0.010684376020674256 0.0037166870857014219 0 -0.010684376020674256 0.0037166870857014219 0 -0.010835499414603118 0.0038069424316537403 0 -0.010562531861056096 0.0039450922290080858 0 -0.01088260988022201 0.0035499162943201721 0 -0.010684376020674256 0.0037166870857014219 0 -0.010835499414603118 0.0038069424316537403 0 -0.010518597534280999 0.0037926415521144698 0 -0.010562531861056096 0.0039450922290080858 0 -0.010369757929042621 0.0039664199459318915 0 -0.010684376020674256 0.0037166870857014219 0 -0.010518597534280999 0.0037926415521144698 0 -0.010562531861056096 0.0039450922290080858 0 -0.010689766338977341 0.0034997481167013157 0 -0.010684376020674256 0.0037166870857014219 0 -0.010518597534280999 0.0037926415521144698 0 -0.010562531861056096 0.0039450922290080858 0 -0.010355552866441516 0.0040027476674335954 0 -0.010369757929042621 0.0039664199459318915 0 -0.010977365423482811 0.0039561909170157637 0 -0.010835499414603118 0.0038069424316537403 0 -0.010562531861056096 0.0039450922290080858 0 -0.010768164751272331 0.0041278358460475071 0 -0.010977365423482811 0.0039561909170157637 0 -0.010562531861056096 0.0039450922290080858 0 -0.010768164751272331 0.0041278358460475071 0 -0.010710555777454753 0.0041421596884377802 0 -0.010355552866441516 0.0040027476674335954 0 -0.010768164751272331 0.0041278358460475071 0 -0.010562531861056096 0.0039450922290080858 0 -0.010355552866441516 0.0040027476674335954 0 -0.010355552866441516 0.0040027476674335954 0 -0.010369757929042621 0.0039664199459318915 0 -0.010390888103170556 0.003947460500271718 0 -0.010355552866441516 0.0040027476674335954 0 -0.010390888103170556 0.003947460500271718 0 -0.010338101772811758 0.0038330676891456363 0 -0.010369757929042621 0.0039664199459318915 0 -0.010390888103170556 0.003947460500271718 0 -0.010346553644679023 0.0040959010235102787 0 -0.010338101772811758 0.0038330676891456363 0 -0.010066994844488879 0.0038476970843522372 0 -0.010373082334412885 0.0035633278459063561 0 -0.010355552866441516 0.0040027476674335954 0 -0.010338101772811758 0.0038330676891456363 0 -0.010066994844488879 0.0038476970843522372 0 -0.010710555777454753 0.0041421596884377802 0 -0.010355552866441516 0.0040027476674335954 0 -0.010066994844488879 0.0038476970843522372 0 -0.01001697095847728 0.0039805660319758131 0 -0.01014892618378168 0.0038505553700794956 0 -0.0093987691053865306 0.0039469344773646548 0 -0.010066994844488879 0.0038476970843522372 0 -0.0095183628899436594 0.0038014192926800988 0 -0.0093976660388502692 0.0036305972902101859 0 -0.010066994844488879 0.0038476970843522372 0 -0.0095183628899436594 0.0038014192926800988 0 -0.010066994844488879 0.0038476970843522372 0 -0.010039449901959291 0.00335920654125963 0 -0.0095390684422396663 0.0033744185244620785 0 -0.0093976660388502692 0.0036305972902101859 0 -0.010066994844488879 0.0038476970843522372 0 -0.0095390684422396663 0.0033744185244620785 0 -0.010066994844488879 0.0038476970843522372 0 -0.010039449901959291 0.00335920654125963 0 -0.010373082334412885 0.0035633278459063561 0 -0.010039449901959291 0.00335920654125963 0 -0.010059601762725251 0.0029810306829553567 0 -0.0096605879008574147 0.0031012112290640776 0 -0.010039449901959291 0.00335920654125963 0 -0.010059601762725251 0.0029810306829553567 0 -0.01046173347429861 0.0032146906728084033 0 -0.010059601762725251 0.0029810306829553567 0 -0.0096605879008574147 0.0031012112290640776 0 -0.0095411077470591646 0.0025843524248983316 0 -0.0096605879008574147 0.0031012112290640776 0 -0.0091228162749257633 0.0030637663309082252 0 -0.0095411077470591646 0.0025843524248983316 0 -0.0096605879008574147 0.0031012112290640776 0 -0.0095390684422396663 0.0033744185244620785 0 -0.0091228162749257633 0.0030637663309082252 0 -0.010039449901959291 0.00335920654125963 0 -0.0096605879008574147 0.0031012112290640776 0 -0.0095390684422396663 0.0033744185244620785 0 -0.0095390684422396663 0.0033744185244620785 0 -0.0091427879833312197 0.0034526125038962792 0 -0.0091228162749257633 0.0030637663309082252 0 -0.0091427879833312197 0.0034526125038962792 0 -0.0088478544278697731 0.0033803533296028546 0 -0.0091228162749257633 0.0030637663309082252 0 -0.0090305661562378025 0.0036332868059491441 0 -0.0091427879833312197 0.0034526125038962792 0 -0.0088478544278697731 0.0033803533296028546 0 -0.0083867157626254744 0.0030239082236753361 0 -0.0088478544278697731 0.0033803533296028546 0 -0.0091228162749257633 0.0030637663309082252 0 -0.0083867157626254744 0.0030239082236753361 0 -0.0091228162749257633 0.0030637663309082252 0 -0.0089978976344505177 0.0024393311021830115 0 -0.0083867157626254744 0.0030239082236753361 0 -0.0082641789907186014 0.0021976032862626839 0 -0.0089978976344505177 0.0024393311021830115 0 -0.0082641789907186014 0.0021976032862626839 0 -0.0089978976344505177 0.0024393311021830115 0 -0.0085857160255729311 0.0016748253597300782 0 -0.0089978976344505177 0.0024393311021830115 0 -0.009196682135092879 0.0019789862924933579 0 -0.0085857160255729311 0.0016748253597300782 0 -0.0089978976344505177 0.0024393311021830115 0 -0.009196682135092879 0.0019789862924933579 0 -0.0095411077470591646 0.0025843524248983316 0 -0.0095411077470591646 0.0025843524248983316 0 -0.0096929111259936689 0.0017512754568889163 0 -0.010108080021811589 0.002442848871391512 0 -0.0053692267796045402 -0.0020990542554294054 0 -0.0055051438075525575 -0.0014468180925772472 0 -0.009196682135092879 0.0019789862924933579 0 -0.0095411077470591646 0.0025843524248983316 0 -0.0096929111259936689 0.0017512754568889163 0 -0.010059601762725251 0.0029810306829553567 0 -0.0095411077470591646 0.0025843524248983316 0 -0.010108080021811589 0.002442848871391512 0 -0.0091228162749257633 0.0030637663309082252 0 -0.0089978976344505177 0.0024393311021830115 0 -0.0095411077470591646 0.0025843524248983316 0 -0.0091033307605939539 0.00089683160024165397 0 -0.0085857160255729311 0.0016748253597300782 0 -0.0082751149984966101 0.00085997717973356055 0 -0.005447883591856547 -0.0023193294389819703 0 -0.0053692267796045402 -0.0020990542554294054 0 -0.0017814001751499287 -0.0056165801701924785 0 -0.0010272209900488596 -0.0060032059758026984 0 -0.0010452535598472091 -0.005702186996836011 0 -0.009196682135092879 0.0019789862924933579 0 -0.0091033307605939539 0.00089683160024165397 0 -0.0085857160255729311 0.0016748253597300782 0 -0.009196682135092879 0.0019789862924933579 0 -0.0091033307605939539 0.00089683160024165397 0 -0.0096929111259936689 0.0017512754568889163 0 -0.0082641789907186014 0.0021976032862626839 0 -0.0085857160255729311 0.0016748253597300782 0 -0.0077119865146594076 0.0014499140175389866 0 -0.0077119865146594076 0.0014499140175389866 0 -0.0082751149984966101 0.00085997717973356055 0 -0.0074308545564358078 0.00045912527690482069 0 -0.0085857160255729311 0.0016748253597300782 0 -0.0077119865146594076 0.0014499140175389866 0 -0.0082751149984966101 0.00085997717973356055 0 -0.0082751149984966101 0.00085997717973356055 0 -0.0074308545564358078 0.00045912527690482069 0 -0.0082628212145429633 -3.0257526947667276e-05 0 -0.0074308545564358078 0.00045912527690482069 0 -0.0070611352749042058 -0.00026983313974964234 0 -0.0065695062346943786 8.833583380795458e-05 0 -0.0074308545564358078 0.00045912527690482069 0 -0.0070611352749042058 -0.00026983313974964234 0 -0.0082628212145429633 -3.0257526947667276e-05 0 -0.0091033307605939539 0.00089683160024165397 0 -0.0082751149984966101 0.00085997717973356055 0 -0.0082628212145429633 -3.0257526947667276e-05 0 -0.005447883591856547 -0.0023193294389819703 0 -0.0054752833352366857 -0.0023678599602823848 0 -0.0017814001751499287 -0.0056165801701924785 0 -0.0026489533576679975 -0.0047920982240861488 0 -0.0010541047228087312 -0.0049417071992579574 0 -0.0017814001751499287 -0.0056165801701924785 0 -0.0010452535598472091 -0.005702186996836011 0 -0.0010541047228087312 -0.0049417071992579574 0 -0.001964940844445478 -0.0042143187596358767 0 -0.0010541047228087312 -0.0049417071992579574 0 -0.00094369567074152909 -0.0041592203913600407 0 -0.0026489533576679975 -0.0047920982240861488 0 -0.001964940844445478 -0.0042143187596358767 0 -0.0010541047228087312 -0.0049417071992579574 0 -0.001964940844445478 -0.0042143187596358767 0 -0.0016800994320852667 -0.0032109804536739604 0 -0.00094369567074152909 -0.0041592203913600407 0 -0.001964940844445478 -0.0042143187596358767 0 -0.0016800994320852667 -0.0032109804536739604 0 -0.0038288854375060758 -0.0036730666431014575 0 -0.0026489533576679975 -0.0047920982240861488 0 -0.001964940844445478 -0.0042143187596358767 0 -0.0038288854375060758 -0.0036730666431014575 0 -0.0016800994320852667 -0.0032109804536739604 0 -0.0028149644455652103 -0.0022625565184312031 0 -0.0038288854375060758 -0.0036730666431014575 0 -0.0016800994320852667 -0.0032109804536739604 0 -0.0016700171023382037 -0.0020438909094794458 0 -0.0028149644455652103 -0.0022625565184312031 0 -0.0016800994320852667 -0.0032109804536739604 0 -0.0016700171023382037 -0.0020438909094794458 0 -0.00066224359677758467 -0.0026067912435546103 0 -0.0016700171023382037 -0.0020438909094794458 0 -0.0028149644455652103 -0.0022625565184312031 0 -0.002808066393662208 -0.0012343961413176607 0 -0.0028149644455652103 -0.0022625565184312031 0 -0.002808066393662208 -0.0012343961413176607 0 -0.0039685016352564552 -0.0011805354382044928 0 -0.002808066393662208 -0.0012343961413176607 0 -0.0039685016352564552 -0.0011805354382044928 0 -0.0038819010202928417 -0.00056048185363879381 0 -0.0016700171023382037 -0.0020438909094794458 0 -0.002808066393662208 -0.0012343961413176607 0 -0.0016962735083601672 -0.001011604411890769 0 -0.0016700171023382037 -0.0020438909094794458 0 -0.0016962735083601672 -0.001011604411890769 0 -0.00067057385690513695 -0.0016952489875253522 0 -0.0053692354727095199 -0.0015637493237351766 0 -0.0054813021933958561 -0.00081312067995975112 0 -0.0047508892221982228 -0.00064658425948393777 0 -0.0039685016352564552 -0.0011805354382044928 0 -0.0053692354727095199 -0.0015637493237351766 0 -0.0047508892221982228 -0.00064658425948393777 0 -0.0039685016352564552 -0.0011805354382044928 0 -0.0038819010202928417 -0.00056048185363879381 0 -0.0047508892221982228 -0.00064658425948393777 0 -0.0028149644455652103 -0.0022625565184312031 0 -0.0039685016352564552 -0.0011805354382044928 0 -0.0053692354727095199 -0.0015637493237351766 0 -0.0028149644455652103 -0.0022625565184312031 0 -0.0053692354727095199 -0.0015637493237351766 0 -0.0038288854375060758 -0.0036730666431014575 0 -0.0053692354727095199 -0.0015637493237351766 0 -0.007127038240213047 -0.00086761334481860047 0 -0.0062636508669991191 -0.00078310988946651003 0 -0.0054599834226368837 -0.0015451246407398157 0 -0.0054810236409296598 -0.0021672525705660035 0 -0.0070611352749042058 -0.00026983313974964234 0 -0.0082628212145429633 -3.0257526947667276e-05 0 -0.007127038240213047 -0.00086761334481860047 0 -0.0054752833352366857 -0.0023678599602823848 0 -0.0054810236409296598 -0.0021672525705660035 0 -0.0070611352749042058 -0.00026983313974964234 0 -0.007127038240213047 -0.00086761334481860047 0 -0.0062636508669991191 -0.00078310988946651003 0 -0.0070611352749042058 -0.00026983313974964234 0 -0.0062636508669991191 -0.00078310988946651003 0 -0.0065695062346943786 8.833583380795458e-05 0 -0.0062636508669991191 -0.00078310988946651003 0 -0.0060869764274266609 -0.00044920813630728603 0 -0.0065695062346943786 8.833583380795458e-05 0 -0.0060869764274266609 -0.00044920813630728603 0 -0.0057847815142955915 -0.0010524990897295783 0 -0.0057247685797439515 -0.00070433729556706624 0 -0.0062636508669991191 -0.00078310988946651003 0 -0.0060869764274266609 -0.00044920813630728603 0 -0.0057847815142955915 -0.0010524990897295783 0 -0.0053692354727095199 -0.0015637493237351766 0 -0.0062636508669991191 -0.00078310988946651003 0 -0.0057847815142955915 -0.0010524990897295783 0 -0.0053692354727095199 -0.0015637493237351766 0 -0.0057847815142955915 -0.0010524990897295783 0 -0.0054813021933958561 -0.00081312067995975112 0 -0.0057847815142955915 -0.0010524990897295783 0 -0.0054813021933958561 -0.00081312067995975112 0 -0.0056215356137226981 -0.00095505470968265985 0 -0.0057847815142955915 -0.0010524990897295783 0 -0.0056215356137226981 -0.00095505470968265985 0 -0.0057247685797439515 -0.00070433729556706624 0 -0.0054813021933958561 -0.00081312067995975112 0 -0.0056215356137226981 -0.00095505470968265985 0 -0.0055041045024422164 -0.00063112445327974907 0 -0.0054822009924832991 -0.0009544608181136445 0 -0.0057034466350137534 -0.0011052846711637955 0 -0.0056215356137226981 -0.00095505470968265985 0 -0.0057531692113544659 -0.00075004679840952782 0 -0.005547785506561681 -0.00050521930654777707 0 -0.0056215356137226981 -0.00095505470968265985 0 -0.005547785506561681 -0.00050521930654777707 0 -0.0055041045024422164 -0.00063112445327974907 0 -0.0056215356137226981 -0.00095505470968265985 0 -0.0053850208881127612 -0.00071801267165073521 0 -0.0057247685797439515 -0.00070433729556706624 0 -0.0056215356137226981 -0.00095505470968265985 0 -0.0053850208881127612 -0.00071801267165073521 0 -0.0051144266535030555 -0.0012874792177810926 0 -0.0053850208881127612 -0.00071801267165073521 0 -0.0048827749827831295 -0.00076536319246315123 0 -0.0051144266535030555 -0.0012874792177810926 0 -0.0053850208881127612 -0.00071801267165073521 0 -0.0051410621495654217 -0.00026261122736002962 0 -0.0048827749827831295 -0.00076536319246315123 0 -0.0053850208881127612 -0.00071801267165073521 0 -0.0057247685797439515 -0.00070433729556706624 0 -0.0056208263153859662 -0.00017755787967473156 0 -0.0060869764274266609 -0.00044920813630728603 0 -0.0057247685797439515 -0.00070433729556706624 0 -0.0056208263153859662 -0.00017755787967473156 0 -0.0053850208881127612 -0.00071801267165073521 0 -0.0056208263153859662 -0.00017755787967473156 0 -0.0051410621495654217 -0.00026261122736002962 0 -0.0056208263153859662 -0.00017755787967473156 0 -0.0052214168819727479 0.0001634781954155233 0 -0.0051410621495654217 -0.00026261122736002962 0 -0.0056208263153859662 -0.00017755787967473156 0 -0.0052214168819727479 0.0001634781954155233 0 -0.0056501503684239559 0.00045654691806781394 0 -0.0056501503684239559 0.00045654691806781394 0 -0.0058444443878372613 0.001069582573242466 0 -0.0051907843670223981 0.00086866882121879746 0 -0.0052214168819727479 0.0001634781954155233 0 -0.0056501503684239559 0.00045654691806781394 0 -0.0051907843670223981 0.00086866882121879746 0 -0.0056501503684239559 0.00045654691806781394 0 -0.0061033839842932454 0.00023493364192076212 0 -0.0064944866644877711 0.00087835121774009969 0 -0.0056501503684239559 0.00045654691806781394 0 -0.0064944866644877711 0.00087835121774009969 0 -0.0058444443878372613 0.001069582573242466 0 -0.0056208263153859662 -0.00017755787967473156 0 -0.0056501503684239559 0.00045654691806781394 0 -0.0061033839842932454 0.00023493364192076212 0 -0.0060869764274266609 -0.00044920813630728603 0 -0.0056208263153859662 -0.00017755787967473156 0 -0.0061033839842932454 0.00023493364192076212 0 -0.0060869764274266609 -0.00044920813630728603 0 -0.0061033839842932454 0.00023493364192076212 0 -0.0065695062346943786 8.833583380795458e-05 0 -0.0074308545564358078 0.00045912527690482069 0 -0.0065695062346943786 8.833583380795458e-05 0 -0.007003311435976105 0.00073762774618719832 0 -0.0065695062346943786 8.833583380795458e-05 0 -0.007003311435976105 0.00073762774618719832 0 -0.0064944866644877711 0.00087835121774009969 0 -0.0061033839842932454 0.00023493364192076212 0 -0.0065695062346943786 8.833583380795458e-05 0 -0.0064944866644877711 0.00087835121774009969 0 -0.0064944866644877711 0.00087835121774009969 0 -0.0069584053393147126 0.0015514588462932975 0 -0.006350572684175518 0.0017256657225806565 0 -0.007003311435976105 0.00073762774618719832 0 -0.0064944866644877711 0.00087835121774009969 0 -0.0069584053393147126 0.0015514588462932975 0 -0.0077119865146594076 0.0014499140175389866 0 -0.0074308545564358078 0.00045912527690482069 0 -0.007003311435976105 0.00073762774618719832 0 -0.0077119865146594076 0.0014499140175389866 0 -0.007003311435976105 0.00073762774618719832 0 -0.0069584053393147126 0.0015514588462932975 0 -0.0075200663673332174 0.0023382478890616484 0 -0.0077119865146594076 0.0014499140175389866 0 -0.0069584053393147126 0.0015514588462932975 0 -0.0075200663673332174 0.0023382478890616484 0 -0.0082641789907186014 0.0021976032862626839 0 -0.0077119865146594076 0.0014499140175389866 0 -0.0067605851954871277 0.00214812278661255 0 -0.0075200663673332174 0.0023382478890616484 0 -0.0069584053393147126 0.0015514588462932975 0 -0.0067605851954871277 0.00214812278661255 0 -0.0069584053393147126 0.0015514588462932975 0 -0.006350572684175518 0.0017256657225806565 0 -0.0059381537536781397 0.0020533958184372212 0 -0.006350572684175518 0.0017256657225806565 0 -0.0058345794710961121 0.0016897659761266584 0 -0.0063553077019251857 0.0017297886830376255 0 -0.0054250009100749817 0.0016280532991326713 0 -0.006350572684175518 0.0017256657225806565 0 -0.0054174582412053144 0.001604271245703262 0 -0.0058444443878372613 0.001069582573242466 0 -0.0059381537536781397 0.0020533958184372212 0 -0.0062700906650084891 0.0022941571047117226 0 -0.006350572684175518 0.0017256657225806565 0 -0.0053989204083849923 0.002202448627119442 0 -0.0059381537536781397 0.0020533958184372212 0 -0.0058345794710961121 0.0016897659761266584 0 -0.0054174582412053144 0.001604271245703262 0 -0.0058444443878372613 0.001069582573242466 0 -0.0051907843670223981 0.00086866882121879746 0 -0.0064944866644877711 0.00087835121774009969 0 -0.006350572684175518 0.0017256657225806565 0 -0.0058444443878372613 0.001069582573242466 0 -0.0053119319224345964 0.00092563646367176697 0 -0.0061681318307411186 0.0012504835000161896 0 -0.0060919953465445754 0.00099439470920573169 0 -0.0060083890375571096 0.00077000269260832344 0 -0.0063022579078566513 0.00080125909192463578 0 -0.0045527735943894062 0.00089281173740226292 0 -0.0051907843670223981 0.00086866882121879746 0 -0.0047526592734935518 0.0014803630630942889 0 -0.0054174582412053144 0.001604271245703262 0 -0.0051907843670223981 0.00086866882121879746 0 -0.0047526592734935518 0.0014803630630942889 0 -0.0053989204083849923 0.002202448627119442 0 -0.0058345794710961121 0.0016897659761266584 0 -0.0051745619509138479 0.0015993174055707754 0 -0.0068737121840748878 0.0012742236545132022 0 -0.0061681318307411186 0.0012504835000161896 0 -0.0054250009100749817 0.0016280532991326713 0 -0.0061681318307411186 0.0012504835000161896 0 -0.0061681318307411186 0.0012504835000161896 0 -0.0080309619428954506 0.00081102469155414851 0 -0.0088510664405577564 0.00040191047670269859 0 -0.0084027219752131378 0.00036545952336129148 0 -0.0085412949236647658 0.00073677452252721588 0 -0.0088510664405577564 0.00040191047670269859 0 -0.0085412949236647658 0.00073677452252721588 0 -0.0090096077494125262 0.00078783645639839855 0 -0.0088510664405577564 0.00040191047670269859 0 -0.0091206640198791822 0.00045676040884494315 0 -0.0090096077494125262 0.00078783645639839855 0 -0.0091206640198791822 0.00045676040884494315 0 -0.0090096077494125262 0.00078783645639839855 0 -0.0093060515404923445 0.00059237732211605914 0 -0.0090096077494125262 0.00078783645639839855 0 -0.0093060515404923445 0.00059237732211605914 0 -0.0094698303696748812 0.0008385813100323246 0 -0.0093850385859721181 0.00035874958871452613 0 -0.0091206640198791822 0.00045676040884494315 0 -0.0093060515404923445 0.00059237732211605914 0 -0.0093850385859721181 0.00035874958871452613 0 -0.0095621342281315812 0.00052300292856753239 0 -0.0093060515404923445 0.00059237732211605914 0 -0.0095621342281315812 0.00052300292856753239 0 -0.0093060515404923445 0.00059237732211605914 0 -0.0094698303696748812 0.0008385813100323246 0 -0.0044737601726927952 -1.9530373090858884e-05 0 -0.0038837733076026917 0.00073307194688636214 0 -0.005131031341523689 0.0009492498750856399 0 -0.0071532508104582776 0.00058083591422676019 0 -0.0049658345635883736 0.00094111030325354651 0 -0.0044737601726927952 -1.9530373090858884e-05 0 -0.0038151043973182353 0.00070453698477772515 0 -0.0038837733076026917 0.00073307194688636214 0 -0.0080309619428954506 0.00081102469155414851 0 -0.0071532508104582776 0.00058083591422676019 0 -0.0060919953465445754 0.00099439470920573169 0 -0.0063022579078566513 0.00080125909192463578 0 -0.0063865657846150043 0.0010329023689719919 0 -0.0063022579078566513 0.00080125909192463578 0 -0.0066055132436637718 0.00083344684333127304 0 -0.0063865657846150043 0.0010329023689719919 0 -0.0049658345635883736 0.00094111030325354651 0 -0.0049063345567881486 0.00066897442827250678 0 -0.0038151043973182353 0.00070453698477772515 0 -0.0038837733076026917 0.00073307194688636214 0 -0.003933135128392256 0.0005565739125437633 0 -0.0038837733076026917 0.00073307194688636214 0 -0.003933135128392256 0.0005565739125437633 0 -0.0037939141429038504 0.00055543755676537392 0 -0.003933135128392256 0.0005565739125437633 0 -0.0037939141429038504 0.00055543755676537392 0 -0.0037362329685528932 0.00037910356431970668 0 -0.0038151043973182353 0.00070453698477772515 0 -0.003933135128392256 0.0005565739125437633 0 -0.0041661746174177011 0.00051140006745932487 0 -0.0035084290887033229 0.00079358131624791915 0 -0.0052157819360919237 0.00039396029286776552 0 -0.0038837733076026917 0.00073307194688636214 0 -0.0036081341770607908 0.00055213452683163325 0 -0.0032979505873951998 0.00067568488788366271 0 -0.0038837733076026917 0.00073307194688636214 0 -0.0037939141429038504 0.00055543755676537392 0 -0.0036081341770607908 0.00055213452683163325 0 -0.0037939141429038504 0.00055543755676537392 0 -0.0036081341770607908 0.00055213452683163325 0 -0.0037362329685528932 0.00037910356431970668 0 -0.0037362329685528932 0.00037910356431970668 0 -0.0036481938215131874 2.9686757831561275e-05 0 -0.0033878086905037956 0.00020661713589768894 0 -0.0036081341770607908 0.00055213452683163325 0 -0.0037362329685528932 0.00037910356431970668 0 -0.0033878086905037956 0.00020661713589768894 0 -0.003933135128392256 0.0005565739125437633 0 -0.0040682523343103889 0.00018086295400491476 0 -0.0041661746174177011 0.00051140006745932487 0 -0.003933135128392256 0.0005565739125437633 0 -0.0037362329685528932 0.00037910356431970668 0 -0.0040682523343103889 0.00018086295400491476 0 -0.0037362329685528932 0.00037910356431970668 0 -0.0040682523343103889 0.00018086295400491476 0 -0.0036481938215131874 2.9686757831561275e-05 0 -0.0040682523343103889 0.00018086295400491476 0 -0.0042765445337744276 0.00068375257874243075 0 -0.004719347665024882 0.00025171002569686888 0 -0.0043778515800869952 0.00037038418999237895 0 -0.0048340111893750192 0.00044324802605900829 0 -0.0048074461113162843 3.7510656880655239e-06 0 -0.0049063345567881486 0.00066897442827250678 0 -0.004709729485777291 0.00015638149121587855 0 -0.004058883976360647 0.00012663837157354121 0 -0.0049063345567881486 0.00066897442827250678 0 -0.0053119319224345964 0.00092563646367176697 0 -0.0049063345567881486 0.00066897442827250678 0 -0.0045527735943894062 0.00089281173740226292 0 -0.0043778515800869952 0.00037038418999237895 0 -0.0048340111893750192 0.00044324802605900829 0 -0.0060919953465445754 0.00099439470920573169 0 -0.0063865657846150043 0.0010329023689719919 0 -0.0061741865434420213 0.0012214595264147371 0 -0.0052214168819727479 0.0001634781954155233 0 -0.0051907843670223981 0.00086866882121879746 0 -0.0048340111893750192 0.00044324802605900829 0 -0.0045527735943894062 0.00089281173740226292 0 -0.0051907843670223981 0.00086866882121879746 0 -0.0048340111893750192 0.00044324802605900829 0 -0.0052214168819727479 0.0001634781954155233 0 -0.0048074461113162843 3.7510656880655239e-06 0 -0.0051410621495654217 -0.00026261122736002962 0 -0.0052214168819727479 0.0001634781954155233 0 -0.0048340111893750192 0.00044324802605900829 0 -0.0048074461113162843 3.7510656880655239e-06 0 -0.004709729485777291 0.00015638149121587855 0 -0.0051146589514066733 -0.00022682992652219795 0 -0.004719347665024882 0.00025171002569686888 0 -0.0051410621495654217 -0.00026261122736002962 0 -0.004628570369248501 -0.00023956424317585743 0 -0.0040682523343103889 0.00018086295400491476 0 -0.004628570369248501 -0.00023956424317585743 0 -0.0042498307643366985 -0.00048187211395132521 0 -0.0040682523343103889 0.00018086295400491476 0 -0.004719347665024882 0.00025171002569686888 0 -0.004628570369248501 -0.00023956424317585743 0 -0.004628570369248501 -0.00023956424317585743 0 -0.0042498307643366985 -0.00048187211395132521 0 -0.0048827749827831295 -0.00076536319246315123 0 -0.0051410621495654217 -0.00026261122736002962 0 -0.004628570369248501 -0.00023956424317585743 0 -0.0048827749827831295 -0.00076536319246315123 0 -0.0048827749827831295 -0.00076536319246315123 0 -0.004528895317462916 -0.0010746702922042042 0 -0.0051144266535030555 -0.0012874792177810926 0 -0.0042498307643366985 -0.00048187211395132521 0 -0.004528895317462916 -0.0010746702922042042 0 -0.003996915014021149 -0.00097100629723177268 0 -0.0042498307643366985 -0.00048187211395132521 0 -0.0048827749827831295 -0.00076536319246315123 0 -0.004528895317462916 -0.0010746702922042042 0 -0.004528895317462916 -0.0010746702922042042 0 -0.004377827699770776 -0.0015591236593562026 0 -0.003996915014021149 -0.00097100629723177268 0 -0.004528895317462916 -0.0010746702922042042 0 -0.004377827699770776 -0.0015591236593562026 0 -0.0051144266535030555 -0.0012874792177810926 0 -0.0060098787827383583 -0.00064847664501649404 0 -0.0057531692113544659 -0.00075004679840952782 0 -0.0057973394672416372 -0.0005505852515361615 0 -0.0038770390080896562 -0.00024347593760381983 0 -0.0057034466350137534 -0.0011052846711637955 0 -0.0027943700121369659 -0.00025217806053596652 0 -0.0009520646174023729 0.00029301603510243442 0 0.00018147415990750289 -8.3038412193953842e-05 0 -0.0028664884317152273 -0.00024333948561529629 0 0.0018115647152851398 0.00071257082208678096 0 -0.0028664884317152273 -0.00024333948561529629 0 -0.0031755937804811675 -0.00010020025151467216 0 -0.0034443554787281709 2.3297953897330005e-05 0 -0.00026465898631286854 -0.00061785732079064435 0 0.00018147415990750289 -8.3038412193953842e-05 0 -0.0028664884317152273 -0.00024333948561529629 0 -0.00026465898631286854 -0.00061785732079064435 0 -0.0028664884317152273 -0.00024333948561529629 0 -0.0014099612869839853 -0.0008844589000392729 0 -0.0034454745930869658 -0.00028429295271683712 0 -0.0030671780251340158 -0.00014186938702239545 0 -0.003123229406108507 -5.0102326032328267e-05 0 -0.0038770390080896562 -0.00024347593760381983 0 -0.003620067555158187 -0.00063967689904401886 0 -0.0034454745930869658 -0.00028429295271683712 0 -0.0028664884317152273 -0.00024333948561529629 0 -0.0028682622341449763 -0.00079585159019793261 0 -0.0034454745930869658 -0.00028429295271683712 0 -0.0028664884317152273 -0.00024333948561529629 0 -0.0030671780251340158 -0.00014186938702239545 0 -0.0028664884317152273 -0.00024333948561529629 0 -0.0030671780251340158 -0.00014186938702239545 0 -0.0031755937804811675 -0.00010020025151467216 0 -0.0030671780251340158 -0.00014186938702239545 0 -0.003123229406108507 -5.0102326032328267e-05 0 -0.0031755937804811675 -0.00010020025151467216 0 -0.003123229406108507 -5.0102326032328267e-05 0 -0.0032939599482533165 -0.00010501257398939988 0 -0.0033968304544763888 -0.00015376265503399999 0 -0.003123229406108507 -5.0102326032328267e-05 0 -0.0031755937804811675 -0.00010020025151467216 0 -0.0032939599482533165 -0.00010501257398939988 0 -0.0031755937804811675 -0.00010020025151467216 0 -0.0032939599482533165 -0.00010501257398939988 0 -0.0033598221880904813 -8.2523683638569009e-05 0 -0.0032939599482533165 -0.00010501257398939988 0 -0.0033968304544763888 -0.00015376265503399999 0 -0.0034155336666145076 -0.00012440358818208592 0 -0.0032939599482533165 -0.00010501257398939988 0 -0.0034155336666145076 -0.00012440358818208592 0 -0.0033598221880904813 -8.2523683638569009e-05 0 -0.003123229406108507 -5.0102326032328267e-05 0 -0.0033968304544763888 -0.00015376265503399999 0 -0.0035358458389972446 -0.00021646134232776074 0 -0.0033968304544763888 -0.00015376265503399999 0 -0.0034364568969446371 -0.00014033105804716836 0 -0.0034155336666145076 -0.00012440358818208592 0 -0.0033968304544763888 -0.00015376265503399999 0 -0.0035358458389972446 -0.00021646134232776074 0 -0.0034438614765533687 -0.00017175532841430196 0 -0.0033968304544763888 -0.00015376265503399999 0 -0.0034364568969446371 -0.00014033105804716836 0 -0.0034438614765533687 -0.00017175532841430196 0 -0.0042498307643366985 -0.00048187211395132521 0 -0.003996915014021149 -0.00097100629723177268 0 -0.0035358458389972446 -0.00021646134232776074 0 -0.0042498307643366985 -0.00048187211395132521 0 -0.0035358458389972446 -0.00021646134232776074 0 -0.0039219408623757876 -0.000153621465688268 0 -0.003620067555158187 -0.00063967689904401886 0 -0.0034861032470569113 -0.00016514769594656043 0 -0.0040682523343103889 0.00018086295400491476 0 -0.0042498307643366985 -0.00048187211395132521 0 -0.0039219408623757876 -0.000153621465688268 0 -0.0035358458389972446 -0.00021646134232776074 0 -0.0039219408623757876 -0.000153621465688268 0 -0.0036481938215131874 2.9686757831561275e-05 0 -0.0040682523343103889 0.00018086295400491476 0 -0.0039219408623757876 -0.000153621465688268 0 -0.0036481938215131874 2.9686757831561275e-05 0 -0.0034438614765533687 -0.00017175532841430196 0 -0.0036481938215131874 2.9686757831561275e-05 0 -0.0033878086905037956 0.00020661713589768894 0 -0.0034656869085889536 -0.00016078805309763803 0 -0.0032884996953927038 5.1283696140178453e-06 0 -0.0035358458389972446 -0.00021646134232776074 0 -0.0034438614765533687 -0.00017175532841430196 0 -0.0036481938215131874 2.9686757831561275e-05 0 -0.0035310564306697432 -0.00011937522018506316 0 -0.0036570649089203333 -9.6008531558100779e-05 0 -0.0034581346328366232 -0.00017136111316214554 0 -0.0034438614765533687 -0.00017175532841430196 0 -0.0035310564306697432 -0.00011937522018506316 0 -0.0034581346328366232 -0.00017136111316214554 0 -0.003632430435484761 -5.2581048743462998e-05 0 -0.0037194215076631078 0.00012923947208966834 0 -0.0036570649089203333 -9.6008531558100779e-05 0 -0.0035310564306697432 -0.00011937522018506316 0 -0.003632430435484761 -5.2581048743462998e-05 0 -0.0036570649089203333 -9.6008531558100779e-05 0 -0.003632430435484761 -5.2581048743462998e-05 0 -0.0035220267743272149 -0.000102854925260345 0 -0.003685904049535318 -0.00017533536754015165 0 -0.0034438614765533687 -0.00017175532841430196 0 -0.0035310564306697432 -0.00011937522018506316 0 -0.003496955965142367 -0.00012099231420553478 0 -0.0034364568969446371 -0.00014033105804716836 0 -0.0034438614765533687 -0.00017175532841430196 0 -0.003496955965142367 -0.00012099231420553478 0 -0.0035310564306697432 -0.00011937522018506316 0 -0.003632430435484761 -5.2581048743462998e-05 0 -0.003496955965142367 -0.00012099231420553478 0 -0.003632430435484761 -5.2581048743462998e-05 0 -0.003496955965142367 -0.00012099231420553478 0 -0.0035220267743272149 -0.000102854925260345 0 -0.0034364568969446371 -0.00014033105804716836 0 -0.003496955965142367 -0.00012099231420553478 0 -0.0034155336666145076 -0.00012440358818208592 0 -0.003496955965142367 -0.00012099231420553478 0 -0.0034155336666145076 -0.00012440358818208592 0 -0.0035220267743272149 -0.000102854925260345 0 -0.0034155336666145076 -0.00012440358818208592 0 -0.0033598221880904813 -8.2523683638569009e-05 0 -0.0035220267743272149 -0.000102854925260345 0 -0.0031755937804811675 -0.00010020025151467216 0 -0.0033598221880904813 -8.2523683638569009e-05 0 -0.0034443554787281709 2.3297953897330005e-05 0 -0.0033598221880904813 -8.2523683638569009e-05 0 -0.0035220267743272149 -0.000102854925260345 0 -0.0034443554787281709 2.3297953897330005e-05 0 0.0014597649781659503 0.00021028030965107466 0 0.0018115647152851398 0.00071257082208678096 0 0.00080596305806731434 -0.00044438271183061431 0 -0.0009520646174023729 0.00029301603510243442 0 -0.0014060495054234489 -0.00019981513246135471 0 -0.0035220267743272149 -0.000102854925260345 0 -0.0034443554787281709 2.3297953897330005e-05 0 -0.003685904049535318 -0.00017533536754015165 0 0.0014597649781659503 0.00021028030965107466 0 0.0017923095634993951 0.00033878920432350634 0 0.0018115647152851398 0.00071257082208678096 0 0.0014597649781659503 0.00021028030965107466 0 0.0018043705030759782 0.00038431828582363443 0 0.0016341341220086057 0.0004959746270388547 0 0.0014597649781659503 0.00021028030965107466 0 0.0012137335040134311 0.00048493607813645439 0 0.0016341341220086057 0.0004959746270388547 0 0.0014597649781659503 0.00021028030965107466 0 0.0018043705030759782 0.00038431828582363443 0 0.0017923095634993951 0.00033878920432350634 0 0.0018043705030759782 0.00038431828582363443 0 0.0018753760036563216 7.1975283711064991e-05 0 0.0017923095634993951 0.00033878920432350634 0 0.0018043705030759782 0.00038431828582363443 0 0.0018753760036563216 7.1975283711064991e-05 0 0.0020636843431951703 0.00058698418995547694 0 -0.00026465898631286854 -0.00061785732079064435 0 0.00018147415990750289 -8.3038412193953842e-05 0 0.0018753760036563216 7.1975283711064991e-05 0 0.00018147415990750289 -8.3038412193953842e-05 0 0.0018753760036563216 7.1975283711064991e-05 0 0.0018115647152851398 0.00071257082208678096 0 0.0018753760036563216 7.1975283711064991e-05 0 0.0017923095634993951 0.00033878920432350634 0 0.0018115647152851398 0.00071257082208678096 0 -0.00064356664426710325 1.5000143368121364e-06 0 0.00026228877450805096 0.00028356969049643169 0 -0.00059575782625171628 -6.9846526173475445e-05 0 -0.00064356664426710325 1.5000143368121364e-06 0 0.00026228877450805096 0.00028356969049643169 0 0.00049088153501838504 0.00017485413639535015 0 0.0014597649781659503 0.00021028030965107466 0 0.0012137335040134311 0.00048493607813645439 0 0.00080596305806731434 -0.00044438271183061431 0 0.00026228877450805096 0.00028356969049643169 0 0.0012137335040134311 0.00048493607813645439 0 0.00080596305806731434 -0.00044438271183061431 0 0.00026228877450805096 0.00028356969049643169 0 0.00080596305806731434 -0.00044438271183061431 0 -0.00059575782625171628 -6.9846526173475445e-05 0 -0.00064356664426710325 1.5000143368121364e-06 0 -0.00059575782625171628 -6.9846526173475445e-05 0 -0.0027024891595271148 -2.8393284906474151e-06 0 0.00080596305806731434 -0.00044438271183061431 0 -0.00059575782625171628 -6.9846526173475445e-05 0 -0.0027024891595271148 -2.8393284906474151e-06 0 -0.0014060495054234489 -0.00019981513246135471 0 -0.0027053223799661267 -7.3487611362688518e-08 0 -0.003685904049535318 -0.00017533536754015165 0 -0.0027089889032059348 -7.936692581074872e-07 0 -0.0037194215076631078 0.00012923947208966834 0 -0.003632430435484761 -5.2581048743462998e-05 0 -0.003685904049535318 -0.00017533536754015165 0 -0.0037194215076631078 0.00012923947208966834 0 -0.0037194215076631078 0.00012923947208966834 0 -0.0041651201081006626 5.0950328281212169e-05 0 -0.0036570649089203333 -9.6008531558100779e-05 0 -0.0027089889032059348 -7.936692581074872e-07 0 -0.0037194215076631078 0.00012923947208966834 0 -0.0041213590513529876 1.0272806901928844e-06 0 -0.0037194215076631078 0.00012923947208966834 0 -0.0041213590513529876 1.0272806901928844e-06 0 -0.0041651201081006626 5.0950328281212169e-05 0 -0.0041213590513529876 1.0272806901928844e-06 0 -0.0055347216144059777 -1.5136452680075169e-06 0 -0.0041651201081006626 5.0950328281212169e-05 0 -0.0055347216144059777 -1.5136452680075169e-06 0 -0.0038597947722157334 -0.00048637905458482245 0 -0.0041651201081006626 5.0950328281212169e-05 0 -0.0055372822804744546 -2.0078610377066301e-07 0 -0.0062771318293646213 -0.00057967047696984666 0 -0.0055406619114352082 -2.0967677993299458e-06 0 -0.0081999728240751864 -0.00060906433785440958 0 -0.0073308741366263355 4.3003931821668574e-05 0 -0.0055406619114352082 -2.0967677993299458e-06 0 -0.0073308741366263355 4.3003931821668574e-05 0 -0.0073392172226808315 9.6948185693317263e-07 0 -0.0081999728240751864 -0.00060906433785440958 0 -0.0073308741366263355 4.3003931821668574e-05 0 -0.0082898848441781397 0.00017075592988694799 0 -0.0038597947722157334 -0.00048637905458482245 0 -0.0041651201081006626 5.0950328281212169e-05 0 -0.0036570649089203333 -9.6008531558100779e-05 0 -0.0032884996953927038 5.1283696140178453e-06 0 -0.0052157819360919237 0.00039396029286776552 0 -0.0036570649089203333 -9.6008531558100779e-05 0 -0.0034581346328366232 -0.00017136111316214554 0 -0.0034718561057080323 -0.00045380582161834052 0 -0.0036081341770607908 0.00055213452683163325 0 -0.0033878086905037956 0.00020661713589768894 0 -0.0032979505873951998 0.00067568488788366271 0 -0.0081999728240751864 -0.00060906433785440958 0 -0.009226912160667183 -0.00036546592443546664 0 -0.0087067681532837938 -0.00013353674134221807 0 -0.0038597947722157334 -0.00048637905458482245 0 -0.0036570649089203333 -9.6008531558100779e-05 0 -0.0034718561057080323 -0.00045380582161834052 0 -0.0062771318293646213 -0.00057967047696984666 0 -0.0052157819360919237 0.00039396029286776552 0 -0.0081999728240751864 -0.00060906433785440958 0 -0.0087067681532837938 -0.00013353674134221807 0 -0.0082898848441781397 0.00017075592988694799 0 -0.007899354055774058 -1.4129594388582776e-05 0 -0.0087458554342487293 0.0002317218255485689 0 -0.0087067681532837938 -0.00013353674134221807 0 -0.0090790947362149547 0.00022515276859936682 0 -0.0082898848441781397 0.00017075592988694799 0 -0.0087505706870808306 0.00016525427979589475 0 -0.0086101061611919844 0.00029065340711754387 0 -0.0082898848441781397 0.00017075592988694799 0 -0.0044737601726927952 -1.9530373090858884e-05 0 -0.005131031341523689 0.0009492498750856399 0 -0.0053447437478753067 7.7761482156219928e-05 0 -0.009226912160667183 -0.00036546592443546664 0 -0.0087067681532837938 -0.00013353674134221807 0 -0.0090790947362149547 0.00022515276859936682 0 -0.0052157819360919237 0.00039396029286776552 0 -0.007899354055774058 -1.4129594388582776e-05 0 -0.0071532508104582776 0.00058083591422676019 0 -0.007899354055774058 -1.4129594388582776e-05 0 -0.0095621342281315812 0.00052300292856753239 0 -0.0094698303696748812 0.0008385813100323246 0 -0.0098284590556405316 0.00048076410554959636 0 -0.0071532508104582776 0.00058083591422676019 0 -0.0094353904251829619 0.00028574020859285646 0 -0.0085786477310422493 0.00056631054004146542 0 -0.0086418778284659999 0.00030966346091470983 0 -0.0085820840483917561 0.00028502220646447763 0 -0.0082948949950737844 0.00053336663943903088 0 -0.0085786477310422493 0.00056631054004146542 0 -0.0085820840483917561 0.00028502220646447763 0 -0.007899354055774058 -1.4129594388582776e-05 0 -0.0085955203190520683 0.00036069171003950246 0 -0.0086418778284659999 0.00030966346091470983 0 -0.0085820840483917561 0.00028502220646447763 0 -0.0086927274907876249 0.00027608894064971683 0 -0.0097066963363452857 0.00039556404817003594 0 -0.0095621342281315812 0.00052300292856753239 0 -0.0098284590556405316 0.00048076410554959636 0 -0.0086101061611919844 0.00029065340711754387 0 -0.0087248790289532994 0.00030538602307227076 0 -0.0082898848441781397 0.00017075592988694799 0 -0.0087505706870808306 0.00016525427979589475 0 -0.0086418778284659999 0.00030966346091470983 0 -0.0086101061611919844 0.00029065340711754387 0 -0.0086418778284659999 0.00030966346091470983 0 -0.0086101061611919844 0.00029065340711754387 0 -0.0086927274907876249 0.00027608894064971683 0 -0.0086101061611919844 0.00029065340711754387 0 -0.0086927274907876249 0.00027608894064971683 0 -0.0087248790289532994 0.00030538602307227076 0 -0.0092559017273614042 0.00018969602878256175 0 -0.0087248790289532994 0.00030538602307227076 0 -0.0083844077799990011 0.00021628941222049799 0 -0.0087248790289532994 0.00030538602307227076 0 -0.0083844077799990011 0.00021628941222049799 0 -0.0082898848441781397 0.00017075592988694799 0 -0.0091416531573103102 4.1711279095891458e-07 0 -0.0083844077799990011 0.00021628941222049799 0 -0.0073392172226808315 9.6948185693317263e-07 0 -0.0083844077799990011 0.00021628941222049799 0 -0.0073308741366263355 4.3003931821668574e-05 0 -0.0073392172226808315 9.6948185693317263e-07 0 -0.0083844077799990011 0.00021628941222049799 0 -0.0073308741366263355 4.3003931821668574e-05 0 -0.0082898848441781397 0.00017075592988694799 0 0.0029455819857560606 -0.0054112701965491321 0 0.0030535398154244646 -0.0053920142740383897 0 0.003072234258846568 -0.0053989928398946174 0 0.0029455819857560606 -0.0054112701965491321 0 0.0030812277677117247 -0.0053880438981540697 0 0.003072234258846568 -0.0053989928398946174 0 0.0029455819857560606 -0.0054112701965491321 0 0.0030812277677117247 -0.0053880438981540697 0 0.0030521540200868203 -0.0054300278382192453 0 0.0030812277677117247 -0.0053880438981540697 0 0.0030521540200868203 -0.0054300278382192453 0 0.0030976454430922569 -0.0053910647586294025 0 0.0030521540200868203 -0.0054300278382192453 0 0.0028743060954262681 -0.0054825954839466482 0 0.0029984446297018344 -0.0055730151155759175 0 0.0030521540200868203 -0.0054300278382192453 0 0.0030661512972478674 -0.0054702247817964567 0 0.0029984446297018344 -0.0055730151155759175 0 0.0029455819857560606 -0.0054112701965491321 0 0.0030521540200868203 -0.0054300278382192453 0 0.0028743060954262681 -0.0054825954839466482 0 0.0029455819857560606 -0.0054112701965491321 0 0.0028743060954262681 -0.0054825954839466482 0 0.0027646344614031251 -0.0054473074706316189 0 0.0028743060954262681 -0.0054825954839466482 0 0.0027646344614031251 -0.0054473074706316189 0 0.0025959678772492474 -0.0056194215199866504 0 0.0027646344614031251 -0.0054473074706316189 0 0.0026240975000536878 -0.0054432173808428115 0 0.0025959678772492474 -0.0056194215199866504 0 0.0027646344614031251 -0.0054473074706316189 0 0.0026240975000536878 -0.0054432173808428115 0 0.0028764900376408039 -0.0054086839012178391 0 0.0026240975000536878 -0.0054432173808428115 0 0.002617117450076342 -0.0051113090031072355 0 0.0023598261994075007 -0.0052314743775736215 0 0.0026608839379611239 -0.0054331517639241564 0 0.0027425468763987333 -0.0052907521666589706 0 0.0029455819857560606 -0.0054112701965491321 0 0.0028764900376408039 -0.0054086839012178391 0 0.0030535398154244646 -0.0053920142740383897 0 0.0029455819857560606 -0.0054112701965491321 0 0.0027646344614031251 -0.0054473074706316189 0 0.0028764900376408039 -0.0054086839012178391 0 0.0030535398154244646 -0.0053920142740383897 0 0.0031676902275205102 -0.0053572167728060454 0 0.0031914234547989438 -0.0054068954722577061 0 0.0030535398154244646 -0.0053920142740383897 0 0.0030589261096553634 -0.0053767605898148536 0 0.0031676902275205102 -0.0053572167728060454 0 0.0027425468763987333 -0.0052907521666589706 0 0.0028055570697665903 -0.0050392897796427798 0 0.0028764900376408039 -0.0054086839012178391 0 0.0030535398154244646 -0.0053920142740383897 0 0.0030589261096553634 -0.0053767605898148536 0 0.002617117450076342 -0.0051113090031072355 0 0.0025903894060250324 -0.0048179003503459866 0 0.0024363804097801167 -0.0049987705792754276 0 0.0028055570697665903 -0.0050392897796427798 0 0.0030471306590553636 -0.0052488024360914324 0 0.0030589261096553634 -0.0053767605898148536 0 0.0031676902275205102 -0.0053572167728060454 0 0.0031595111326607203 -0.005306835021485253 0 0.0031676902275205102 -0.0053572167728060454 0 0.0032919660666985147 -0.005293449497381965 0 0.0031595111326607203 -0.005306835021485253 0 0.0031676902275205102 -0.0053572167728060454 0 0.0032964416788596245 -0.0053174327219085264 0 0.0032919660666985147 -0.005293449497381965 0 0.0032964416788596245 -0.0053174327219085264 0 0.0031914234547989438 -0.0054068954722577061 0 0.003398863260158278 -0.0053174126426488669 0 0.0031676902275205102 -0.0053572167728060454 0 0.0032964416788596245 -0.0053174327219085264 0 0.0031914234547989438 -0.0054068954722577061 0 0.0030812277677117247 -0.0053880438981540697 0 0.003072234258846568 -0.0053989928398946174 0 0.0031914234547989438 -0.0054068954722577061 0 0.0030535398154244646 -0.0053920142740383897 0 0.003072234258846568 -0.0053989928398946174 0 0.0031914234547989438 -0.0054068954722577061 0 0.0033727820423991983 -0.0053790962522819591 0 0.0028707187184444189 -0.005499840055261147 0 0.0030812277677117247 -0.0053880438981540697 0 0.0031914234547989438 -0.0054068954722577061 0 0.0030951619240787141 -0.0054015472515251076 0 0.0031914234547989438 -0.0054068954722577061 0 0.0035176896300474518 -0.0054344053977971457 0 0.003398863260158278 -0.0053174126426488669 0 0.0035176896300474518 -0.0054344053977971457 0 0.003398863260158278 -0.0053174126426488669 0 0.0035567293217007626 -0.0053208368245696112 0 0.0035176896300474518 -0.0054344053977971457 0 0.0035567293217007626 -0.0053208368245696112 0 0.0037070279309116389 -0.0053922119153241932 0 0.0028707187184444189 -0.005499840055261147 0 0.0056432753368748246 -0.0050020399392980055 0 0.0067192753594981867 -0.0044618850187040813 0 0.010306388008860096 -0.003699846816049662 0 0.01118686356688809 -0.0038956052370061772 0 0.011191365201232631 -0.0038945913526733408 0 0.011235470190499803 -0.0038539252025934336 0 0.002888312884323931 -0.0033552723751916944 0 0.0028802531165572904 -0.0033820816211857672 0 0.0029452403023280597 -0.0033905255030954825 0 0.0057146426877132542 -0.0054136853335757526 0 0.0052033187906987384 -0.0055224206470004117 0 0.0052244749949740977 -0.0040496845979284277 0 0.0056432753368748246 -0.0050020399392980055 0 0.0067192753594981867 -0.0044618850187040813 0 0.0067192753594981867 -0.0044618850187040813 0 0.0046291472930784722 -0.0041567607134948706 0 0.0056432753368748246 -0.0050020399392980055 0 0.0046291472930784722 -0.0041567607134948706 0 0.0046291472930784722 -0.0041567607134948706 0 0.0031629373693389954 -0.0048078165333737483 0 0.0046291472930784722 -0.0041567607134948706 0 0.003316788325356603 -0.0031115633120133812 0 0.0031210074703666218 -0.005374266347954894 0 0.0031204432451446508 -0.0053764241888981474 0 0.0030976454430922569 -0.0053910647586294025 0 0.0028812563706717607 -0.0033838267981598294 0 0.0028771244089253875 -0.0034459195740528478 0 0.0028150260942223296 -0.0035365965315751727 0 0.0031204432451446508 -0.0053764241888981474 0 0.0030976454430922569 -0.0053910647586294025 0 0.003106682000936199 -0.0054077552598615812 0 0.0028802531165572904 -0.0033820816211857672 0 0.0028771244089253875 -0.0034459195740528478 0 0.0029452403023280597 -0.0033905255030954825 0 0.0028771244089253875 -0.0034459195740528478 0 0.0029452403023280597 -0.0033905255030954825 0 0.0029381253652928435 -0.003461287557540214 0 0.0028771244089253875 -0.0034459195740528478 0 0.0029381253652928435 -0.003461287557540214 0 0.0028150260942223296 -0.0035365965315751727 0 0.0030812277677117247 -0.0053880438981540697 0 0.0030951619240787141 -0.0054015472515251076 0 0.0030976454430922569 -0.0053910647586294025 0 0.0030951619240787141 -0.0054015472515251076 0 0.0031210074703666218 -0.005374266347954894 0 0.0030976454430922569 -0.0053910647586294025 0 0.0031865712216623092 -0.0032456988830148682 0 0.003055397909475701 -0.0033020834613964557 0 0.0030850008145389546 -0.0033903845167059044 0 0.003055397909475701 -0.0033020834613964557 0 0.0029943288719635752 -0.0034161164894135902 0 0.0030850008145389546 -0.0033903845167059044 0 0.0020002416202863473 -0.0018858322071076718 0 0.0083632354557242137 -0.0035719092930730496 0 0.003055397909475701 -0.0033020834613964557 0 0.0029452403023280597 -0.0033905255030954825 0 0.0029943288719635752 -0.0034161164894135902 0 0.011214707569977864 -0.0039098760692099629 0 0.011342562570147107 -0.003840907570724889 0 0.011319963363496666 -0.0038216412735051241 0 0.0067192753594981867 -0.0044618850187040813 0 0.0083632354557242137 -0.0035719092930730496 0 0.002888312884323931 -0.0033552723751916944 0 0.003055397909475701 -0.0033020834613964557 0 0.0029452403023280597 -0.0033905255030954825 0 0.0029943288719635752 -0.0034161164894135902 0 0.0030850008145389546 -0.0033903845167059044 0 0.0029490034084129267 -0.0035494803775164801 0 0.0029381253652928435 -0.003461287557540214 0 0.0029943288719635752 -0.0034161164894135902 0 0.0029490034084129267 -0.0035494803775164801 0 -0.0011980845229810977 -0.0022226713680232359 0 -0.0005815430092097429 -0.0018308618301221154 0 0.0029452403023280597 -0.0033905255030954825 0 0.0029381253652928435 -0.003461287557540214 0 0.0029943288719635752 -0.0034161164894135902 0 -0.0045632149707678892 -0.0006822329765712457 0 -0.0045131824804196721 -0.00069174070208984583 0 -0.0045564976325175354 -0.00058549692679109755 0 -0.0045131824804196721 -0.00069174070208984583 0 -0.0045564976325175354 -0.00058549692679109755 0 -0.004464874843902459 -0.00060627272681122875 0 -0.004464874843902459 -0.00060627272681122875 0 -0.0044387195411224383 -0.00051091600949884576 0 -0.0045342107380713691 -0.00044796088190707028 0 -0.0045564976325175354 -0.00058549692679109755 0 -0.004464874843902459 -0.00060627272681122875 0 -0.0045342107380713691 -0.00044796088190707028 0 -0.0046590247213503131 -0.00036305174494113745 0 -0.0045564976325175354 -0.00058549692679109755 0 -0.0045342107380713691 -0.00044796088190707028 0 0.0030521540200868203 -0.0054300278382192453 0 0.0030976454430922569 -0.0053910647586294025 0 0.003106682000936199 -0.0054077552598615812 0 0.0029490034084129267 -0.0035494803775164801 0 0.0028150260942223296 -0.0035365965315751727 0 0.0027586577560501698 -0.0037189244072007429 0 0.0029381253652928435 -0.003461287557540214 0 0.0029490034084129267 -0.0035494803775164801 0 0.0028150260942223296 -0.0035365965315751727 0 -0.0005815430092097429 -0.0018308618301221154 0 -0.0011209660181772812 -0.0031432449072824041 0 0.0031629373693389954 -0.0048078165333737483 0 -0.0011209660181772812 -0.0031432449072824041 0 0.0030521540200868203 -0.0054300278382192453 0 0.003106682000936199 -0.0054077552598615812 0 0.0030661512972478674 -0.0054702247817964567 0 0.003106682000936199 -0.0054077552598615812 0 0.0030843611240505085 -0.005472722287746562 0 0.0030661512972478674 -0.0054702247817964567 0 0.0030843611240505085 -0.005472722287746562 0 0.0030661512972478674 -0.0054702247817964567 0 0.0030547084410713584 -0.0055158930092584517 0 0.0030661512972478674 -0.0054702247817964567 0 0.0030547084410713584 -0.0055158930092584517 0 0.0029984446297018344 -0.0055730151155759175 0 -0.017286391741509751 -0.00087894442010708713 0 -0.017211323305141701 -0.00069974186586957464 0 -0.017445873322658165 -0.0012639336765874864 0 -0.017286391741509751 -0.00087894442010708713 0 -0.017211323305141701 -0.00069974186586957464 0 -0.01669473276212334 -0.0010040848685532373 0 -0.0038659210378049272 -0.0046098167552614516 0 -0.010125576979339622 -0.0016345863714574622 0 -0.0011209660181772812 -0.0031432449072824041 0 -0.0038659210378049272 -0.0046098167552614516 0 -0.0044387195411224383 -0.00051091600949884576 0 -0.0044607443397841557 -0.00048153055520498673 0 -0.0045342107380713691 -0.00044796088190707028 0 -0.0040307443402051351 -0.0031101258838127205 0 -0.0050445276359329201 -0.0042584021777993643 0 -0.0040626193164393625 -0.0042398967509092063 0 -0.0011209660181772812 -0.0031432449072824041 0 -0.010125576979339622 -0.0016345863714574622 0 -0.016664216455002229 -0.00029169133819278189 0 -0.01669473276212334 -0.0010040848685532373 0 -0.015789884468389137 -0.00085669748741245308 0 -0.010125576979339622 -0.0016345863714574622 0 -0.014208455989149191 -0.00080225987185028667 0 -0.017211323305141701 -0.00069974186586957464 0 -0.01676620424490043 -0.00063393296138357748 0 -0.01669473276212334 -0.0010040848685532373 0 -0.017296983500578716 -0.00090813005914871603 0 -0.016733732277842351 -0.0015255836224180974 0 -0.017286391741509751 -0.00087894442010708713 0 -0.01669473276212334 -0.0010040848685532373 0 -0.01618190768679461 -0.0016577108307277385 0 -0.017286391741509751 -0.00087894442010708713 0 -0.017287931606896029 -0.0014520885296193551 0 -0.017443121628421415 -0.0013460336597131025 0 -0.01669473276212334 -0.0010040848685532373 0 -0.01618190768679461 -0.0016577108307277385 0 -0.015789884468389137 -0.00085669748741245308 0 -0.017286391741509751 -0.00087894442010708713 0 -0.017443121628421415 -0.0013460336597131025 0 -0.017408275400946825 -0.0012054053014437605 0 -0.017443121628421415 -0.0013460336597131025 0 -0.017408275400946825 -0.0012054053014437605 0 -0.01742850927522533 -0.0011480592614418418 0 -0.0038659210378049272 -0.0046098167552614516 0 -0.0078989850263867407 -0.0032107172510101121 0 -0.017286391741509751 -0.00087894442010708713 0 -0.017408275400946825 -0.0012054053014437605 0 -0.017445873322658165 -0.0012639336765874864 0 -0.0090208814714093019 -9.0751154542587141e-05 0 -0.0099155981495356524 -0.00013293976515826124 0 -0.013441886083863456 0.00020447418784413064 0 -0.015134536169514351 -8.8205491822273595e-05 0 -0.014405928181199889 -0.00081989422042587584 0 -0.010125576979339622 -0.0016345863714574622 0 -0.0099155981495356524 -0.00013293976515826124 0 -0.015134536169514351 -8.8205491822273595e-05 0 -0.015789884468389137 -0.00085669748741245308 0 -0.014405928181199889 -0.00081989422042587584 0 -0.016664216455002229 -0.00029169133819278189 0 -0.015134536169514351 -8.8205491822273595e-05 0 -0.015789884468389137 -0.00085669748741245308 0 -0.015054993404963281 -0.0015896366780214592 0 -0.015789884468389137 -0.00085669748741245308 0 -0.014405928181199889 -0.00081989422042587584 0 -0.01618190768679461 -0.0016577108307277385 0 -0.015054993404963281 -0.0015896366780214592 0 -0.015789884468389137 -0.00085669748741245308 0 -0.015054993404963281 -0.0015896366780214592 0 -0.014405928181199889 -0.00081989422042587584 0 -0.014005993489494165 -0.0018737333554135573 0 -0.015054993404963281 -0.0015896366780214592 0 -0.014005993489494165 -0.0018737333554135573 0 -0.014901116248367532 -0.0028148528093883849 0 -0.013508302106389824 -0.0029521786544289942 0 -0.014005993489494165 -0.0018737333554135573 0 -0.014901116248367532 -0.0028148528093883849 0 -0.01618190768679461 -0.0016577108307277385 0 -0.015054993404963281 -0.0015896366780214592 0 -0.014901116248367532 -0.0028148528093883849 0 -0.016733732277842351 -0.0015255836224180974 0 -0.015659965070270822 -0.0024208460948942296 0 -0.017287931606896029 -0.0014520885296193551 0 -0.016505376877288098 -0.0019305810539578393 0 -0.017467466749221224 -0.0019953013712713215 0 -0.016378675369384414 -0.0031371284986712739 0 -0.017178394266808002 -0.0025876253426758799 0 -0.016505376877288098 -0.0019305810539578393 0 -0.017178394266808002 -0.0025876253426758799 0 -0.016505376877288098 -0.0019305810539578393 0 -0.017467466749221224 -0.0019953013712713215 0 -0.013508302106389824 -0.0029521786544289942 0 -0.014123896578393245 -0.0037518850822586005 0 -0.014901116248367532 -0.0028148528093883849 0 -0.014202242542444211 -0.0036850732322856387 0 -0.015659965070270822 -0.0024208460948942296 0 -0.014123896578393245 -0.0037518850822586005 0 -0.016378675369384414 -0.0031371284986712739 0 -0.016505376877288098 -0.0019305810539578393 0 -0.017052822795518438 -0.0011963831872226626 0 -0.018815884452447317 -0.0016823030654361359 0 -0.017716983134157691 -0.0016603472055834749 0 -0.017995322972993739 -0.0021485009938760403 0 -0.018008046383960002 -0.001685014506267657 0 -0.017716983134157691 -0.0016603472055834749 0 -0.017467466749221224 -0.0019953013712713215 0 -0.017882891167587719 -0.0023663607421048295 0 -0.017443121628421415 -0.0013460336597131025 0 -0.017716983134157691 -0.0016603472055834749 0 -0.018008046383960002 -0.001685014506267657 0 -0.017287931606896029 -0.0014520885296193551 0 -0.017443121628421415 -0.0013460336597131025 0 -0.017468847848419646 -0.0016074305193427053 0 -0.017443121628421415 -0.0013460336597131025 0 -0.017716983134157691 -0.0016603472055834749 0 -0.017468847848419646 -0.0016074305193427053 0 -0.017287931606896029 -0.0014520885296193551 0 -0.017468847848419646 -0.0016074305193427053 0 -0.017467466749221224 -0.0019953013712713215 0 -0.017716983134157691 -0.0016603472055834749 0 -0.017468847848419646 -0.0016074305193427053 0 -0.017467466749221224 -0.0019953013712713215 0 -0.017467466749221224 -0.0019953013712713215 0 -0.017664679128508519 -0.0026509514198304364 0 -0.017882891167587719 -0.0023663607421048295 0 -0.017178394266808002 -0.0025876253426758799 0 -0.017467466749221224 -0.0019953013712713215 0 -0.017664679128508519 -0.0026509514198304364 0 -0.017753761385602085 -0.0017069673579170083 0 -0.018231654280350857 -0.0023735919177272102 0 -0.018008575531529569 -0.0029902001760679533 0 -0.017882891167587719 -0.0023663607421048295 0 -0.01850921952689126 -0.0026108258881715534 0 -0.018008575531529569 -0.0029902001760679533 0 -0.017664679128508519 -0.0026509514198304364 0 -0.017882891167587719 -0.0023663607421048295 0 -0.017716983134157691 -0.0016603472055834749 0 -0.017882891167587719 -0.0023663607421048295 0 -0.01850921952689126 -0.0026108258881715534 0 -0.018671125884080712 -0.0023126589637634965 0 -0.018458991949743243 -0.0022524127520044926 0 -0.018274982243337453 -0.0018548813227157669 0 -0.018276348987910421 -0.0022932988901511577 0 -0.018458991949743243 -0.0022524127520044926 0 -0.018274982243337453 -0.0018548813227157669 0 -0.013938168743061068 -0.0025319765290988763 0 -0.0109857618032664 -0.0026880892332862704 0 -0.018276348987910421 -0.0022932988901511577 0 -0.017995322972993739 -0.0021485009938760403 0 -0.018274982243337453 -0.0018548813227157669 0 0.0020810185240313886 -0.0052003119966596975 0 0.002218143932612565 -0.0054378430454293586 0 0.0022871290840722246 -0.0053331305342435575 0 0.0020810185240313886 -0.0052003119966596975 0 0.0022871290840722246 -0.0053331305342435575 0 0.0022747459124755724 -0.005251764386307296 0 -0.0109857618032664 -0.0026880892332862704 0 -0.0019551250064969495 -0.0037233502250576893 0 -0.016975643901188206 -0.0010495888619372372 0 -0.01742850927522533 -0.0011480592614418418 0 -0.017445873322658165 -0.0012639336765874864 0 -0.017995322972993739 -0.0021485009938760403 0 -0.018274982243337453 -0.0018548813227157669 0 -0.018008046383960002 -0.001685014506267657 0 -0.0109857618032664 -0.0026880892332862704 0 -0.0078989850263867407 -0.0032107172510101121 0 -0.0109857618032664 -0.0026880892332862704 0 -0.018815884452447317 -0.0016823030654361359 0 0.0017028422869003828 -0.0053954473729358812 0 0.002218143932612565 -0.0054378430454293586 0 0.0019195914062560893 -0.005832573100078035 0 -0.017408275400946825 -0.0012054053014437605 0 -0.01742850927522533 -0.0011480592614418418 0 -0.017445873322658165 -0.0012639336765874864 0 0.0020810185240313886 -0.0052003119966596975 0 0.0017028422869003828 -0.0053954473729358812 0 0.002218143932612565 -0.0054378430454293586 0 0.0028743060954262681 -0.0054825954839466482 0 0.0029984446297018344 -0.0055730151155759175 0 0.0025959678772492474 -0.0056194215199866504 0 0.0037649467638860659 -0.0057808188852728742 0 0.0020396878845941641 -0.0056266403833125393 0 0.002218143932612565 -0.0054378430454293586 0 0.0019195914062560893 -0.005832573100078035 0 0.0025959678772492474 -0.0056194215199866504 0 -0.0038659210378049272 -0.0046098167552614516 0 0.0037649467638860659 -0.0057808188852728742 0 0.0011742203953803946 -0.0058626240414994838 0 0.0017028422869003828 -0.0053954473729358812 0 0.0019195914062560893 -0.005832573100078035 0 0.0026240975000536878 -0.0054432173808428115 0 0.0025280135429899095 -0.0055148794889491384 0 0.0025959678772492474 -0.0056194215199866504 0 0.0026240975000536878 -0.0054432173808428115 0 0.0025280135429899095 -0.0055148794889491384 0 0.002388799725000878 -0.0054349817621743585 0 0.002218143932612565 -0.0054378430454293586 0 0.0025959678772492474 -0.0056194215199866504 0 0.0024394688182923247 -0.0054494613668680152 0 0.0025280135429899095 -0.0055148794889491384 0 0.0025959678772492474 -0.0056194215199866504 0 0.0024394688182923247 -0.0054494613668680152 0 0.002218143932612565 -0.0054378430454293586 0 0.0024394688182923247 -0.0054494613668680152 0 0.0022871290840722246 -0.0053331305342435575 0 0.0025280135429899095 -0.0055148794889491384 0 0.0024394688182923247 -0.0054494613668680152 0 0.0024450990748361504 -0.0054670450320416135 0 0.0025280135429899095 -0.0055148794889491384 0 0.0024450990748361504 -0.0054670450320416135 0 0.0024235490699955637 -0.00548833780506952 0 0.0023893348158060029 -0.0053678687944485569 0 0.0023584788271222507 -0.0052790572096428848 0 0.0024222504182391399 -0.0054299358210171192 0 0.0024394688182923247 -0.0054494613668680152 0 0.0024450990748361504 -0.0054670450320416135 0 0.0023893348158060029 -0.0053678687944485569 0 0.0024450990748361504 -0.0054670450320416135 0 0.0023893348158060029 -0.0053678687944485569 0 0.0024222504182391399 -0.0054299358210171192 0 0.0024394688182923247 -0.0054494613668680152 0 0.0023893348158060029 -0.0053678687944485569 0 0.0022871290840722246 -0.0053331305342435575 0 0.0023893348158060029 -0.0053678687944485569 0 0.0022871290840722246 -0.0053331305342435575 0 0.0022747459124755724 -0.005251764386307296 0 -0.0081621525296081913 -0.0020806398589125388 0 -0.0097552654566316066 -0.0038729286703836304 0 -0.0084080404921675362 -0.003355084232144802 0 0.0023893348158060029 -0.0053678687944485569 0 0.0022747459124755724 -0.005251764386307296 0 0.0023584788271222507 -0.0052790572096428848 0 -0.0019551250064969495 -0.0037233502250576893 0 -0.0047164272665899606 -0.0037063183077855862 0 -0.0081621525296081913 -0.0020806398589125388 0 -0.0084080404921675362 -0.003355084232144802 0 -0.0070577520205918421 -0.0028369084073636202 0 -0.013938168743061068 -0.0025319765290988763 0 -0.0047164272665899606 -0.0037063183077855862 0 -0.011487774013871358 -0.0030531230829923448 0 -0.011527352463594879 -0.0030339227915471179 0 -0.011537872598219227 -0.0030462813232059564 0 -0.0052673406759727939 -0.0032425165634040881 0 -0.0048443509664041476 -0.0030723191740079721 0 -0.0038712702842127935 -0.0041955556004794172 0 -0.0047164272665899606 -0.0037063183077855862 0 -6.619350156604035e-05 -0.0051624668780467639 0 -0.011566093056053684 -0.0025875812892690057 0 -0.0085037900540603454 -0.0034886411173195918 0 -0.011527352463594879 -0.0030339227915471179 0 -0.011537872598219227 -0.0030462813232059564 0 -0.011509154491519746 -0.0030370927306129004 0 -0.0047164272665899606 -0.0037063183077855862 0 -0.0085037900540603454 -0.0034886411173195918 0 -0.010002747182270738 -0.0032109423797937581 0 -0.0085037900540603454 -0.0034886411173195918 0 -0.0079526605469165037 -0.0032130086434363969 0 -0.0081605502091488952 -0.0032960179053452827 0 -0.0079289336017478781 -0.0034060777876878043 0 -0.0077506393597688676 -0.0031276296223052562 0 -0.0079526605469165037 -0.0032130086434363969 0 -0.0079289336017478781 -0.0034060777876878043 0 -0.0085037900540603454 -0.0034886411173195918 0 -0.0054339999057795045 -0.0037125758252849238 0 -0.0048443509664041476 -0.0030723191740079721 0 -0.0037033516788503511 -0.0036297000720558127 0 -0.0038712702842127935 -0.0041955556004794172 0 -0.0037033516788503511 -0.0036297000720558127 0 -0.0038712702842127935 -0.0041955556004794172 0 -0.0026042333579760135 -0.0041698710322504561 0 0.0024222504182391399 -0.0054299358210171192 0 0.0023981734756597585 -0.0054845386809805659 0 0.0023366753230736757 -0.0055156470350179844 0 0.0024450990748361504 -0.0054670450320416135 0 0.0024222504182391399 -0.0054299358210171192 0 0.0023981734756597585 -0.0054845386809805659 0 -6.619350156604035e-05 -0.0051624668780467639 0 -0.00067192723165259436 -0.0046846609912128065 0 -0.0038712702842127935 -0.0041955556004794172 0 -0.0026042333579760135 -0.0041698710322504561 0 -0.0025295057811936888 -0.005114075740942494 0 -0.0044057238604718165 -0.0022768118111521239 0 -0.0045951354257948206 -0.0020557600245278587 0 -0.0045589398520271473 -0.0025023952446429328 0 -0.0057622234577281118 -0.0027855046145195336 0 -0.00067192723165259436 -0.0046846609912128065 0 -0.0044057238604718165 -0.0022768118111521239 0 -0.0043290415278082672 -0.0021768349779609664 0 -0.0043494829897056794 -0.0024259344992147579 0 -0.0064605961084223309 -0.0012309284313776292 0 -0.0069165388892162439 -0.0013102081450180139 0 -0.0044057238604718165 -0.0022768118111521239 0 -0.0043494829897056794 -0.0024259344992147579 0 -0.0045589398520271473 -0.0025023952446429328 0 -0.0054339999057795045 -0.0037125758252849238 0 -0.0057622234577281118 -0.0027855046145195336 0 -0.0087085082920670496 -0.0016655558816282944 0 -0.009053873095507689 -0.0020512876230784367 0 -0.0089706553802192043 -0.0015330415737552043 0 -0.0057622234577281118 -0.0027855046145195336 0 -0.0069165388892162439 -0.0013102081450180139 0 -0.0044057238604718165 -0.0022768118111521239 0 -0.0045951354257948206 -0.0020557600245278587 0 -0.0043313653192757475 -0.0021849935590304809 0 -0.008677073264090493 -0.0025324112312691111 0 -0.0087085082920670496 -0.0016655558816282944 0 -0.009053873095507689 -0.0020512876230784367 0 -0.0077506393597688676 -0.0031276296223052562 0 -0.0079289336017478781 -0.0034060777876878043 0 -0.0076980757495895688 -0.0035127372095700477 0 -0.010057191653012861 -0.0029179937498725874 0 -0.0057622234577281118 -0.0027855046145195336 0 -0.009053873095507689 -0.0020512876230784367 0 -0.0095480712786112868 -0.0021681998805524474 0 -0.0089706553802192043 -0.0015330415737552043 0 -0.010173244206982514 -0.0010347502512134748 0 -0.0069165388892162439 -0.0013102081450180139 0 -0.0084180362816702117 8.8164686204583083e-05 0 -0.0083819804978417078 5.2465129395918845e-05 0 -0.0084716948238495668 5.7865183225083898e-06 0 -0.010173244206982514 -0.0010347502512134748 0 -0.0085469334703593795 2.5520285651038657e-05 0 -0.008489493405473874 0.0001840354377217758 0 -0.0083819804978417078 5.2465129395918845e-05 0 -0.0083470037902553598 0.00018392387420371881 0 -0.0083819804978417078 5.2465129395918845e-05 0 -0.0084716948238495668 5.7865183225083898e-06 0 -0.0083721246297135225 -5.3720322542153265e-05 0 -0.0083819804978417078 5.2465129395918845e-05 0 -0.0083721246297135225 -5.3720322542153265e-05 0 -0.0082621649435461828 -1.7869373438918817e-06 0 -0.0069165388892162439 -0.0013102081450180139 0 -0.0059753589785627751 -0.0012161739551653421 0 -0.0043290415278082672 -0.0021768349779609664 0 -0.0043494829897056794 -0.0024259344992147579 0 -0.0041412908863750781 -0.0026237150289010742 0 -0.0043290415278082672 -0.0021768349779609664 0 -0.0041412908863750781 -0.0026237150289010742 0 -0.0038549303881559183 -0.0026649681252228592 0 -0.0017051005379474285 -0.0042429950098505529 0 -0.00067192723165259436 -0.0046846609912128065 0 -0.0043290415278082672 -0.0021768349779609664 0 -0.0038549303881559183 -0.0026649681252228592 0 -0.0035079577356079165 -0.0025358948011446765 0 0.0020006505020165131 -0.0055041402689985797 0 0.0019549500336461683 -0.0055797863518299191 0 0.0020899841183945299 -0.0057589774182395413 0 0.0019549500336461683 -0.0055797863518299191 0 0.001845039150475273 -0.0055804521716571421 0 0.0020899841183945299 -0.0057589774182395413 0 -0.0041412908863750781 -0.0026237150289010742 0 -0.0038028227492251936 -0.0030416939870605759 0 -0.0045589398520271473 -0.0025023952446429328 0 -0.0041412908863750781 -0.0026237150289010742 0 -0.0038549303881559183 -0.0026649681252228592 0 -0.0038028227492251936 -0.0030416939870605759 0 -0.0038549303881559183 -0.0026649681252228592 0 -0.0037454827379269215 -0.0028454912413727021 0 -0.0038028227492251936 -0.0030416939870605759 0 -0.0038549303881559183 -0.0026649681252228592 0 -0.0035079577356079165 -0.0025358948011446765 0 -0.0035644759309524801 -0.0028444942750648601 0 -0.0037016552001836972 -0.0029609351223210891 0 -0.0034382977984085145 -0.0031095063866455183 0 -0.0038028227492251936 -0.0030416939870605759 0 -0.0037454827379269215 -0.0028454912413727021 0 -0.0037016552001836972 -0.0029609351223210891 0 -0.0035644759309524801 -0.0028444942750648601 0 -0.0038549303881559183 -0.0026649681252228592 0 -0.0037454827379269215 -0.0028454912413727021 0 -0.0035644759309524801 -0.0028444942750648601 0 -0.0037454827379269215 -0.0028454912413727021 0 -0.0037016552001836972 -0.0029609351223210891 0 -0.0038028227492251936 -0.0030416939870605759 0 -0.0037016552001836972 -0.0029609351223210891 0 -0.0035644759309524801 -0.0028444942750648601 0 -0.0034382977984085145 -0.0031095063866455183 0 -0.0035644759309524801 -0.0028444942750648601 0 -0.0031526506915529962 -0.0030534950384104387 0 -0.0034382977984085145 -0.0031095063866455183 0 -0.0035079577356079165 -0.0025358948011446765 0 -0.0035644759309524801 -0.0028444942750648601 0 -0.0031526506915529962 -0.0030534950384104387 0 -0.0027258675234659137 -0.0038888992641495381 0 -0.0024293049506226867 -0.0040824647510758075 0 -0.0025577268091010706 -0.0041734971898599333 0 -0.0017051005379474285 -0.0042429950098505529 0 -0.0030167551069493212 -0.0036753199050746153 0 -0.0017051005379474285 -0.0042429950098505529 0 -0.00025800885986370238 -0.0049334757215712538 0 0.0018686107109141573 -0.0054683590762598629 0 0.0019176730931933601 -0.0053586307754226077 0 0.0016525734437730965 -0.0053420429274518288 0 -0.0034382977984085145 -0.0031095063866455183 0 -0.0038028227492251936 -0.0030416939870605759 0 -0.0029677916558253216 -0.0036613403504403082 0 0.001845039150475273 -0.0055804521716571421 0 0.0018686107109141573 -0.0054683590762598629 0 0.0016525734437730965 -0.0053420429274518288 0 -0.0031526506915529962 -0.0030534950384104387 0 -0.0034382977984085145 -0.0031095063866455183 0 -0.0029677916558253216 -0.0036613403504403082 0 0.0020006505020165131 -0.0055041402689985797 0 0.0019549500336461683 -0.0055797863518299191 0 0.0018686107109141573 -0.0054683590762598629 0 0.0019549500336461683 -0.0055797863518299191 0 0.001845039150475273 -0.0055804521716571421 0 0.0018686107109141573 -0.0054683590762598629 0 0.0020006505020165131 -0.0055041402689985797 0 0.0018686107109141573 -0.0054683590762598629 0 0.0019176730931933601 -0.0053586307754226077 0 0.0020006505020165131 -0.0055041402689985797 0 0.0021575459491542837 -0.0053882489485567739 0 0.0019176730931933601 -0.0053586307754226077 0 0.003000509267083016 -0.0058303186891884842 0 -0.00067192723165259436 -0.0046846609912128065 0 0.0020006505020165131 -0.0055041402689985797 0 0.0021575459491542837 -0.0053882489485567739 0 0.0020899841183945299 -0.0057589774182395413 0 0.0021575459491542837 -0.0053882489485567739 0 0.002388799725000878 -0.0054349817621743585 0 0.0023494487456744251 -0.0054755250573273288 0 0.0025280135429899095 -0.0055148794889491384 0 0.002388799725000878 -0.0054349817621743585 0 0.0024235490699955637 -0.00548833780506952 0 0.002388799725000878 -0.0054349817621743585 0 0.0023494487456744251 -0.0054755250573273288 0 0.0024235490699955637 -0.00548833780506952 0 0.0023494487456744251 -0.0054755250573273288 0 0.0024235490699955637 -0.00548833780506952 0 0.0023981734756597585 -0.0054845386809805659 0 0.0024450990748361504 -0.0054670450320416135 0 0.0024235490699955637 -0.00548833780506952 0 0.0023981734756597585 -0.0054845386809805659 0 0.0023494487456744251 -0.0054755250573273288 0 0.0023981734756597585 -0.0054845386809805659 0 0.0023366753230736757 -0.0055156470350179844 0 0.0021575459491542837 -0.0053882489485567739 0 0.0023494487456744251 -0.0054755250573273288 0 0.0023366753230736757 -0.0055156470350179844 0 -0.0043494829897056794 -0.0024259344992147579 0 -0.0041412908863750781 -0.0026237150289010742 0 -0.0045589398520271473 -0.0025023952446429328 0 -0.010776585076061678 0.0040490201582162062 0 -0.011145761341674592 0.0039406871521372672 0 -0.010660097168838232 0.0038051993163339677 0 -0.010390888103170556 0.003947460500271718 0 -0.010776585076061678 0.0040490201582162062 0 -0.010660097168838232 0.0038051993163339677 0 -0.010390888103170556 0.003947460500271718 0 -0.010776585076061678 0.0040490201582162062 0 -0.010346553644679023 0.0040959010235102787 0 -0.010776585076061678 0.0040490201582162062 0 -0.010346553644679023 0.0040959010235102787 0 -0.010808669720691501 0.0046119274798134191 0 -0.0099198715897718774 0.0049306661503316718 0 -0.010346553644679023 0.0040959010235102787 0 -0.010808669720691501 0.0046119274798134191 0 -0.010776585076061678 0.0040490201582162062 0 -0.010808669720691501 0.0046119274798134191 0 -0.0118033673089673 0.0043938593249055052 0 -0.01219008990485982 0.0044386424133294935 0 -0.011921841806269351 0.0043963456812139831 0 -0.012736564039288396 0.0036728983035986288 0 -0.013690645080638936 0.0042379231151586962 0 -0.0118033673089673 0.0043938593249055052 0 -0.010776585076061678 0.0040490201582162062 0 -0.011145761341674592 0.0039406871521372672 0 -0.0118033673089673 0.0043938593249055052 0 -0.011145761341674592 0.0039406871521372672 0 -0.0118033673089673 0.0043938593249055052 0 -0.011573717850405256 0.003932650707534493 0 -0.0118033673089673 0.0043938593249055052 0 -0.011584766440023986 0.004296321025932596 0 -0.011573717850405256 0.003932650707534493 0 -0.0096890638250984734 0.0022582680587450049 0 -0.010173318622855672 0.0022456347516467004 0 -0.0082225901225450107 0.0001668245862380344 0 -0.0082621649435461828 -1.7869373438918817e-06 0 -0.0081197299898022428 -2.5132946119608805e-05 0 -0.011807934817378626 0.0035762676283260944 0 -0.0118033673089673 0.0043938593249055052 0 -0.011584766440023986 0.004296321025932596 0 -0.0083819804978417078 5.2465129395918845e-05 0 -0.0082225901225450107 0.0001668245862380344 0 -0.0083470037902553598 0.00018392387420371881 0 -0.0083819804978417078 5.2465129395918845e-05 0 -0.0082225901225450107 0.0001668245862380344 0 -0.0082621649435461828 -1.7869373438918817e-06 0 -0.0035079577356079165 -0.0025358948011446765 0 -0.0031526506915529962 -0.0030534950384104387 0 -0.0025495807500848832 -0.0029334690003425608 0 -0.0083721246297135225 -5.3720322542153265e-05 0 -0.0082621649435461828 -1.7869373438918817e-06 0 -0.0081963506490536145 -0.00014186731125500392 0 -0.0059753589785627751 -0.0012161739551653421 0 -0.0047668118945606549 -0.0019393633988987232 0 -0.0031526506915529962 -0.0030534950384104387 0 -0.0025495807500848832 -0.0029334690003425608 0 -0.0028097813323862109 -0.003266586498872751 0 -0.0031526506915529962 -0.0030534950384104387 0 -0.0029677916558253216 -0.0036613403504403082 0 -0.0028097813323862109 -0.003266586498872751 0 -0.0029677916558253216 -0.0036613403504403082 0 -0.0028097813323862109 -0.003266586498872751 0 -0.0022557872462359535 -0.0035861848054162485 0 -0.0025495807500848832 -0.0029334690003425608 0 -0.0028097813323862109 -0.003266586498872751 0 -0.0022557872462359535 -0.0035861848054162485 0 -0.0047668118945606549 -0.0019393633988987232 0 -0.0074658861479617459 0.00043597867956192545 0 -0.0025495807500848832 -0.0029334690003425608 0 -0.0022557872462359535 -0.0035861848054162485 0 -0.0015388103377105655 -0.0034159672736925914 0 -0.0081963506490536145 -0.00014186731125500392 0 -0.0081197299898022428 -2.5132946119608805e-05 0 -0.0080171695947971935 -0.00021948183394940467 0 -0.010173318622855672 0.0022456347516467004 0 -0.0074658861479617459 0.00043597867956192545 0 -0.0082621649435461828 -1.7869373438918817e-06 0 -0.0081963506490536145 -0.00014186731125500392 0 -0.0081197299898022428 -2.5132946119608805e-05 0 -0.011145761341674592 0.0039406871521372672 0 -0.011573717850405256 0.003932650707534493 0 -0.011002833376351356 0.0036905024205699617 0 -0.011573717850405256 0.003932650707534493 0 -0.011002833376351356 0.0036905024205699617 0 -0.011067823322344216 0.0032858175840833363 0 -0.011145761341674592 0.0039406871521372672 0 -0.011002833376351356 0.0036905024205699617 0 -0.010660097168838232 0.0038051993163339677 0 -0.011067823322344216 0.0032858175840833363 0 -0.010697787921391699 0.0034929290183840023 0 -0.01046173347429861 0.0032146906728084033 0 -0.0074658861479617459 0.00043597867956192545 0 -0.011822475251372686 0.0038660525073520575 0 -0.011002833376351356 0.0036905024205699617 0 -0.011067823322344216 0.0032858175840833363 0 -0.010697787921391699 0.0034929290183840023 0 -0.010039449901959291 0.00335920654125963 0 -0.010373082334412885 0.0035633278459063561 0 -0.01046173347429861 0.0032146906728084033 0 -0.010697787921391699 0.0034929290183840023 0 -0.010373082334412885 0.0035633278459063561 0 -0.01046173347429861 0.0032146906728084033 0 -0.010338101772811758 0.0038330676891456363 0 -0.010373082334412885 0.0035633278459063561 0 -0.010660097168838232 0.0038051993163339677 0 -0.011002833376351356 0.0036905024205699617 0 -0.010697787921391699 0.0034929290183840023 0 -0.010660097168838232 0.0038051993163339677 0 -0.010697787921391699 0.0034929290183840023 0 -0.010373082334412885 0.0035633278459063561 0 -0.010660097168838232 0.0038051993163339677 0 -0.010390888103170556 0.003947460500271718 0 -0.010338101772811758 0.0038330676891456363 0 -0.010660097168838232 0.0038051993163339677 0 -0.0055449480553287954 -0.00091356011928219079 0 -0.0055051438075525575 -0.0014468180925772472 0 -0.0010784856773121429 -0.0044924302433902363 0 -0.0013842286191070646 -0.0048906915658793546 0 -0.00078752328763259205 -0.0054461065326399227 0 -0.010059601762725251 0.0029810306829553567 0 -0.010445512058902795 0.0029803591371111737 0 -0.010108080021811589 0.002442848871391512 0 -0.010059601762725251 0.0029810306829553567 0 -0.010445512058902795 0.0029803591371111737 0 -0.01046173347429861 0.0032146906728084033 0 -0.0015388103377105655 -0.0034159672736925914 0 -0.0010784856773121429 -0.0044924302433902363 0 -0.0019544202045319635 -0.0043300623111227057 0 -0.0074658861479617459 0.00043597867956192545 0 -0.0055449480553287954 -0.00091356011928219079 0 -0.0105740003184801 0.0032581867234844518 0 -0.010445512058902795 0.0029803591371111737 0 -0.01046173347429861 0.0032146906728084033 0 -0.0010784856773121429 -0.0044924302433902363 0 -0.0013842286191070646 -0.0048906915658793546 0 -0.0019544202045319635 -0.0043300623111227057 0 -0.0018654038021511359 -0.00482371443189535 0 -0.0023441998030399656 -0.0046114841122667193 0 -0.0019384426955133646 -0.0053399408315610228 0 -0.0018654038021511359 -0.00482371443189535 0 -0.0019544202045319635 -0.0043300623111227057 0 -0.0023441998030399656 -0.0046114841122667193 0 -0.0013842286191070646 -0.0048906915658793546 0 -0.0018654038021511359 -0.00482371443189535 0 -0.0019544202045319635 -0.0043300623111227057 0 -0.0029677916558253216 -0.0036613403504403082 0 -0.0022557872462359535 -0.0035861848054162485 0 -0.0019544202045319635 -0.0043300623111227057 0 -0.0022557872462359535 -0.0035861848054162485 0 -0.0015388103377105655 -0.0034159672736925914 0 -0.0019544202045319635 -0.0043300623111227057 0 0.0014485697240179869 -0.0050866960633982258 0 0.0016525734437730965 -0.0053420429274518288 0 0.0016776577409984316 -0.005134437089686578 0 -0.0030167551069493212 -0.0036753199050746153 0 -0.0018678335662842874 -0.0043966104851890517 0 -0.0024293049506226867 -0.0040824647510758075 0 -0.0019544202045319635 -0.0043300623111227057 0 -0.0023441998030399656 -0.0046114841122667193 0 -0.00051599789747217581 -0.0047355660746269609 0 -0.00025800885986370238 -0.0049334757215712538 0 -0.0024293049506226867 -0.0040824647510758075 0 -0.0023441998030399656 -0.0046114841122667193 0 -0.0025577268091010706 -0.0041734971898599333 0 0.0014485697240179869 -0.0050866960633982258 0 0.0014553740448038633 -0.0048877124393321737 0 0.0016405004590168263 -0.0049535557636331351 0 0.0014485697240179869 -0.0050866960633982258 0 0.0016776577409984316 -0.005134437089686578 0 0.0016405004590168263 -0.0049535557636331351 0 0.0017427484415066662 -0.0059105376626425897 0 -0.00022389473872727955 -0.0055372580553921975 0 0.0014485697240179869 -0.0050866960633982258 0 0.0014553740448038633 -0.0048877124393321737 0 0.0012371102168038319 -0.0048124591881391551 0 0.0014553740448038633 -0.0048877124393321737 0 0.0015915607817013682 -0.004731913564310743 0 0.0012371102168038319 -0.0048124591881391551 0 0.0014553740448038633 -0.0048877124393321737 0 0.0015915607817013682 -0.004731913564310743 0 0.0016405004590168263 -0.0049535557636331351 0 0.001488416311353358 -0.0070600886230307051 0 0.00080072878447362702 -0.0066940882959956472 0 0.0018003393114558407 -0.0062893454267388292 0 0.001488416311353358 -0.0070600886230307051 0 0.00080072878447362702 -0.0066940882959956472 0 0.00057775419368774606 -0.0073565348578863397 0 -0.00022389473872727955 -0.0055372580553921975 0 -0.00063094080912794647 -0.0063417623941487058 0 0.00080072878447362702 -0.0066940882959956472 0 0.00057775419368774606 -0.0073565348578863397 0 3.2259577802651337e-05 -0.0067186597784705737 0 -0.00051599789747217581 -0.0047355660746269609 0 -0.00022389473872727955 -0.0055372580553921975 0 -0.0017692155972826604 -0.0053336601887218832 0 -0.0014831469542624801 -0.0052556487653132589 0 -0.0013018726287513619 -0.0058258702745573919 0 -0.00022389473872727955 -0.0055372580553921975 0 -0.0017732036753895931 -0.0054990488878689948 0 -0.0018654038021511359 -0.00482371443189535 0 -0.0019384426955133646 -0.0053399408315610228 0 -0.0014831469542624801 -0.0052556487653132589 0 -0.0013842286191070646 -0.0048906915658793546 0 -0.0011714234603469272 -0.005485492709609378 0 -0.00078752328763259205 -0.0054461065326399227 0 -0.0013842286191070646 -0.0048906915658793546 0 -0.0011714234603469272 -0.005485492709609378 0 -0.0014831469542624801 -0.0052556487653132589 0 -0.0013842286191070646 -0.0048906915658793546 0 -0.0018654038021511359 -0.00482371443189535 0 -0.0014831469542624801 -0.0052556487653132589 0 -0.0011714234603469272 -0.005485492709609378 0 -0.0014831469542624801 -0.0052556487653132589 0 -0.0013018726287513619 -0.0058258702745573919 0 -0.0011714234603469272 -0.005485492709609378 0 -0.0013018726287513619 -0.0058258702745573919 0 -0.0009211501439229451 -0.0058456840107255006 0 -0.0010272209900488596 -0.0060032059758026984 0 -0.0009211501439229451 -0.0058456840107255006 0 -0.00078752328763259205 -0.0054461065326399227 0 -0.0011714234603469272 -0.005485492709609378 0 -0.0009211501439229451 -0.0058456840107255006 0 -0.00078752328763259205 -0.0054461065326399227 0 0.0022531317357192891 -0.0050263901672587775 0 0.0023598261994075007 -0.0052314743775736215 0 0.0020538153460735553 -0.00516876797683531 0 0.0022531317357192891 -0.0050263901672587775 0 0.0020538153460735553 -0.00516876797683531 0 0.0020743063030401925 -0.0048781139222787663 0 0.002617117450076342 -0.0051113090031072355 0 0.0024363804097801167 -0.0049987705792754276 0 0.0023598261994075007 -0.0052314743775736215 0 0.0022531317357192891 -0.0050263901672587775 0 0.0024363804097801167 -0.0049987705792754276 0 0.0023598261994075007 -0.0052314743775736215 0 0.0026240975000536878 -0.0054432173808428115 0 0.002388799725000878 -0.0054349817621743585 0 0.0023598261994075007 -0.0052314743775736215 0 0.0021575459491542837 -0.0053882489485567739 0 0.0023598261994075007 -0.0052314743775736215 0 0.0020538153460735553 -0.00516876797683531 0 0.0021575459491542837 -0.0053882489485567739 0 0.002388799725000878 -0.0054349817621743585 0 0.0023598261994075007 -0.0052314743775736215 0 0.0021575459491542837 -0.0053882489485567739 0 0.0019176730931933601 -0.0053586307754226077 0 0.0020538153460735553 -0.00516876797683531 0 0.0019176730931933601 -0.0053586307754226077 0 0.001824393605301042 -0.0052128632727358919 0 0.0020538153460735553 -0.00516876797683531 0 0.0019176730931933601 -0.0053586307754226077 0 0.0016525734437730965 -0.0053420429274518288 0 0.001824393605301042 -0.0052128632727358919 0 0.0016525734437730965 -0.0053420429274518288 0 0.001824393605301042 -0.0052128632727358919 0 0.0016776577409984316 -0.005134437089686578 0 0.001824393605301042 -0.0052128632727358919 0 0.0016776577409984316 -0.005134437089686578 0 0.0018362850418969568 -0.0050401296939993623 0 0.0016776577409984316 -0.005134437089686578 0 0.0018362850418969568 -0.0050401296939993623 0 0.0016405004590168263 -0.0049535557636331351 0 0.0018362850418969568 -0.0050401296939993623 0 0.0020538153460735553 -0.00516876797683531 0 0.0020743063030401925 -0.0048781139222787663 0 0.001824393605301042 -0.0052128632727358919 0 0.0018362850418969568 -0.0050401296939993623 0 0.0020538153460735553 -0.00516876797683531 0 0.0018186946766470915 -0.0048490569882042485 0 0.0019285285748138975 -0.0046676714448625556 0 0.0020743063030401925 -0.0048781139222787663 0 0.0018362850418969568 -0.0050401296939993623 0 0.0018186946766470915 -0.0048490569882042485 0 0.0020743063030401925 -0.0048781139222787663 0 0.0015915607817013682 -0.004731913564310743 0 0.0018186946766470915 -0.0048490569882042485 0 0.0019285285748138975 -0.0046676714448625556 0 0.0018362850418969568 -0.0050401296939993623 0 0.0016405004590168263 -0.0049535557636331351 0 0.0018186946766470915 -0.0048490569882042485 0 0.0015915607817013682 -0.004731913564310743 0 0.0016405004590168263 -0.0049535557636331351 0 0.0018186946766470915 -0.0048490569882042485 0 0.001488416311353358 -0.0070600886230307051 0 0.0023111239377191948 -0.0066845858851084195 0 0.0018003393114558407 -0.0062893454267388292 0 0.0017427484415066662 -0.0059105376626425897 0 0.0020623762922242993 -0.0056817483963191645 0 0.0019285285748138975 -0.0046676714448625556 0 0.0022494834002480656 -0.0046044525091031374 0 0.0020743063030401925 -0.0048781139222787663 0 0.0020623762922242993 -0.0056817483963191645 0 0.0026192472560756276 -0.0054616320029216622 0 0.0023111239377191948 -0.0066845858851084195 0 0.0029844612806921812 -0.006304131636559439 0 0.0026983282762670234 -0.0059491143933507193 0 0.0022531317357192891 -0.0050263901672587775 0 0.0020743063030401925 -0.0048781139222787663 0 0.0023634953454601685 -0.0048057104932794255 0 0.0022494834002480656 -0.0046044525091031374 0 0.0020743063030401925 -0.0048781139222787663 0 0.0023634953454601685 -0.0048057104932794255 0 0.0022531317357192891 -0.0050263901672587775 0 0.0024363804097801167 -0.0049987705792754276 0 0.0023634953454601685 -0.0048057104932794255 0 0.0025903894060250324 -0.0048179003503459866 0 0.0024363804097801167 -0.0049987705792754276 0 0.0023634953454601685 -0.0048057104932794255 0 0.0026192472560756276 -0.0054616320029216622 0 0.0030471306590553636 -0.0052488024360914324 0 0.0022494834002480656 -0.0046044525091031374 0 0.0023634953454601685 -0.0048057104932794255 0 0.0025630985465167353 -0.0045360679652285728 0 0.0025903894060250324 -0.0048179003503459866 0 0.0023634953454601685 -0.0048057104932794255 0 0.0025630985465167353 -0.0045360679652285728 0 0.0031534323661285765 -0.0058348171356410513 0 0.0030334428977230104 -0.0054895496252041782 0 0.003474118697519605 -0.0054652367138627493 0 0.0029844612806921812 -0.006304131636559439 0 0.0031534323661285765 -0.0058348171356410513 0 0.0035917652894025863 -0.0060208052613096924 0 0.0031534323661285765 -0.0058348171356410513 0 0.0035917652894025863 -0.0060208052613096924 0 0.003474118697519605 -0.0054652367138627493 0 0.0030334428977230104 -0.0054895496252041782 0 0.0032764966080595362 -0.0051471231068459088 0 0.003474118697519605 -0.0054652367138627493 0 0.0030334428977230104 -0.0054895496252041782 0 0.0026983282762670234 -0.0059491143933507193 0 0.0026632777360266371 -0.0054001557498434046 0 0.0030334428977230104 -0.0054895496252041782 0 0.0026632777360266371 -0.0054001557498434046 0 0.0028692260144584482 -0.0049930615197807549 0 0.0031534323661285765 -0.0058348171356410513 0 0.0030334428977230104 -0.0054895496252041782 0 0.0026983282762670234 -0.0059491143933507193 0 0.0029844612806921812 -0.006304131636559439 0 0.0031534323661285765 -0.0058348171356410513 0 0.0026983282762670234 -0.0059491143933507193 0 0.0023111239377191948 -0.0066845858851084195 0 0.0026983282762670234 -0.0059491143933507193 0 0.0018003393114558407 -0.0062893454267388292 0 0.0026983282762670234 -0.0059491143933507193 0 0.0018003393114558407 -0.0062893454267388292 0 0.002247433442142498 -0.0056765624061921307 0 0.0018003393114558407 -0.0062893454267388292 0 0.0016985066055917577 -0.0056049200464086436 0 0.002247433442142498 -0.0056765624061921307 0 0.0016985066055917577 -0.0056049200464086436 0 0.002247433442142498 -0.0056765624061921307 0 0.0022973609962582725 -0.0050288437292383033 0 0.0026983282762670234 -0.0059491143933507193 0 0.002247433442142498 -0.0056765624061921307 0 0.0026632777360266371 -0.0054001557498434046 0 0.002247433442142498 -0.0056765624061921307 0 0.0026632777360266371 -0.0054001557498434046 0 0.0022973609962582725 -0.0050288437292383033 0 0.0026632777360266371 -0.0054001557498434046 0 0.0022973609962582725 -0.0050288437292383033 0 0.0028692260144584482 -0.0049930615197807549 0 0.0022973609962582725 -0.0050288437292383033 0 0.0024944785728866366 -0.0044741789203841574 0 0.0028692260144584482 -0.0049930615197807549 0 0.0022973609962582725 -0.0050288437292383033 0 0.001636118475589723 -0.0050915612688605619 0 0.0018623391778258655 -0.0043317482101023598 0 0.0016985066055917577 -0.0056049200464086436 0 0.0022973609962582725 -0.0050288437292383033 0 0.001636118475589723 -0.0050915612688605619 0 0.0022973609962582725 -0.0050288437292383033 0 0.0018623391778258655 -0.0043317482101023598 0 0.0024944785728866366 -0.0044741789203841574 0 0.0024944785728866366 -0.0044741789203841574 0 0.0029802601296197535 -0.0044495183258157342 0 0.0026986323763938678 -0.0039759872873045216 0 0.0024944785728866366 -0.0044741789203841574 0 0.0029802601296197535 -0.0044495183258157342 0 0.0028692260144584482 -0.0049930615197807549 0 0.0029802601296197535 -0.0044495183258157342 0 0.0031778189080973783 -0.0048101627201121233 0 0.0028692260144584482 -0.0049930615197807549 0 0.0029802601296197535 -0.0044495183258157342 0 0.0033323633571567704 -0.0045081652173699872 0 0.0032719752597190352 -0.0041800027856641487 0 0.0033323633571567704 -0.0045081652173699872 0 0.0031778189080973783 -0.0048101627201121233 0 0.0034867537988977778 -0.004906260319593834 0 0.0029802601296197535 -0.0044495183258157342 0 0.0033323633571567704 -0.0045081652173699872 0 0.0031778189080973783 -0.0048101627201121233 0 0.0033323633571567704 -0.0045081652173699872 0 0.0034736815794725027 -0.0042495116910526301 0 0.0035694717129761237 -0.0045246491411200327 0 0.0031778189080973783 -0.0048101627201121233 0 0.0032764966080595362 -0.0051471231068459088 0 0.0034867537988977778 -0.004906260319593834 0 0.0030334428977230104 -0.0054895496252041782 0 0.0032764966080595362 -0.0051471231068459088 0 0.0028692260144584482 -0.0049930615197807549 0 0.0031778189080973783 -0.0048101627201121233 0 0.0032764966080595362 -0.0051471231068459088 0 0.0028692260144584482 -0.0049930615197807549 0 -0.0010452535598472091 -0.005702186996836011 0 -0.00068983933384109662 -0.0059902224938031606 0 -0.00047247980460990305 -0.0054484712928136187 0 -0.0010272209900488596 -0.0060032059758026984 0 -0.0009211501439229451 -0.0058456840107255006 0 -0.00068983933384109662 -0.0059902224938031606 0 -0.0010272209900488596 -0.0060032059758026984 0 -0.0010452535598472091 -0.005702186996836011 0 -0.00068983933384109662 -0.0059902224938031606 0 3.2259577802651337e-05 -0.0067186597784705737 0 -0.00068983933384109662 -0.0059902224938031606 0 0.00046125266148507971 -0.0062147596899281583 0 -0.0013018726287513619 -0.0058258702745573919 0 -0.0009211501439229451 -0.0058456840107255006 0 -0.00068983933384109662 -0.0059902224938031606 0 -0.00063094080912794647 -0.0063417623941487058 0 -0.00073796985640560712 -0.0059610058452332802 0 -0.00068983933384109662 -0.0059902224938031606 0 0.00038726865151740103 -0.0055822621299022358 0 0.00046125266148507971 -0.0062147596899281583 0 -0.00068983933384109662 -0.0059902224938031606 0 0.00038726865151740103 -0.0055822621299022358 0 -0.00047247980460990305 -0.0054484712928136187 0 0.00038726865151740103 -0.0055822621299022358 0 0.0010549933466941842 -0.005995750312391932 0 0.0011468782911198973 -0.0054464053143060383 0 0.00038726865151740103 -0.0055822621299022358 0 0.00046125266148507971 -0.0062147596899281583 0 0.0010549933466941842 -0.005995750312391932 0 0.00080072878447362702 -0.0066940882959956472 0 3.2259577802651337e-05 -0.0067186597784705737 0 0.00046125266148507971 -0.0062147596899281583 0 0.00080072878447362702 -0.0066940882959956472 0 0.00046125266148507971 -0.0062147596899281583 0 0.0010549933466941842 -0.005995750312391932 0 0.00080072878447362702 -0.0066940882959956472 0 0.0018003393114558407 -0.0062893454267388292 0 0.0010549933466941842 -0.005995750312391932 0 0.0018003393114558407 -0.0062893454267388292 0 0.0016985066055917577 -0.0056049200464086436 0 0.0010549933466941842 -0.005995750312391932 0 0.0016985066055917577 -0.0056049200464086436 0 0.0010549933466941842 -0.005995750312391932 0 0.0011468782911198973 -0.0054464053143060383 0 0.0016985066055917577 -0.0056049200464086436 0 0.001636118475589723 -0.0050915612688605619 0 0.0011468782911198973 -0.0054464053143060383 0 0.001636118475589723 -0.0050915612688605619 0 0.0011468782911198973 -0.0054464053143060383 0 0.0009960788530965338 -0.0049027064830687609 0 0.0018623391778258655 -0.0043317482101023598 0 0.0009960788530965338 -0.0049027064830687609 0 0.00088582196307438127 -0.0042702923872175976 0 0.001636118475589723 -0.0050915612688605619 0 0.0018623391778258655 -0.0043317482101023598 0 0.0009960788530965338 -0.0049027064830687609 0 0.0009960788530965338 -0.0049027064830687609 0 0.00020704185125931132 -0.0049141552752243146 0 0.00088582196307438127 -0.0042702923872175976 0 0.00038726865151740103 -0.0055822621299022358 0 0.0011468782911198973 -0.0054464053143060383 0 0.0009960788530965338 -0.0049027064830687609 0 0.00038726865151740103 -0.0055822621299022358 0 0.0009960788530965338 -0.0049027064830687609 0 0.00020704185125931132 -0.0049141552752243146 0 -0.00047247980460990305 -0.0054484712928136187 0 0.00020704185125931132 -0.0049141552752243146 0 -0.0010541047228087312 -0.0049417071992579574 0 0.00038726865151740103 -0.0055822621299022358 0 -0.00047247980460990305 -0.0054484712928136187 0 0.00020704185125931132 -0.0049141552752243146 0 0.00020704185125931132 -0.0049141552752243146 0 -1.6939883230620563e-05 -0.0042126402308893113 0 0.00088582196307438127 -0.0042702923872175976 0 0.00020704185125931132 -0.0049141552752243146 0 -0.0010541047228087312 -0.0049417071992579574 0 -1.6939883230620563e-05 -0.0042126402308893113 0 -0.0010541047228087312 -0.0049417071992579574 0 -0.00094369567074152909 -0.0041592203913600407 0 -1.6939883230620563e-05 -0.0042126402308893113 0 -0.0010452535598472091 -0.005702186996836011 0 -0.00047247980460990305 -0.0054484712928136187 0 -0.0010541047228087312 -0.0049417071992579574 0 -0.00035273108612050022 -0.0034628646613544698 0 0.00013513814641330174 -0.0029223435512799358 0 -0.00066224359677758467 -0.0026067912435546103 0 -0.0016800994320852667 -0.0032109804536739604 0 -0.00035273108612050022 -0.0034628646613544698 0 -0.00094369567074152909 -0.0041592203913600407 0 -0.0016800994320852667 -0.0032109804536739604 0 -0.00035273108612050022 -0.0034628646613544698 0 -0.00066224359677758467 -0.0026067912435546103 0 -0.00035273108612050022 -0.0034628646613544698 0 -0.00094369567074152909 -0.0041592203913600407 0 -1.6939883230620563e-05 -0.0042126402308893113 0 -0.00035273108612050022 -0.0034628646613544698 0 -1.6939883230620563e-05 -0.0042126402308893113 0 0.0006866168649619839 -0.0035020816060944413 0 -0.00035273108612050022 -0.0034628646613544698 0 0.00013513814641330174 -0.0029223435512799358 0 0.0006866168649619839 -0.0035020816060944413 0 0.00013513814641330174 -0.0029223435512799358 0 0.0006866168649619839 -0.0035020816060944413 0 0.00080636565824963207 -0.0028143253331963563 0 0.0006866168649619839 -0.0035020816060944413 0 0.0014173518190834053 -0.0036935502015999857 0 0.0015998466891698722 -0.0030252705899346806 0 0.0006866168649619839 -0.0035020816060944413 0 0.0015998466891698722 -0.0030252705899346806 0 0.00080636565824963207 -0.0028143253331963563 0 0.0006866168649619839 -0.0035020816060944413 0 0.00088582196307438127 -0.0042702923872175976 0 0.0014173518190834053 -0.0036935502015999857 0 -1.6939883230620563e-05 -0.0042126402308893113 0 0.0006866168649619839 -0.0035020816060944413 0 0.00088582196307438127 -0.0042702923872175976 0 0.0018623391778258655 -0.0043317482101023598 0 0.00088582196307438127 -0.0042702923872175976 0 0.0014173518190834053 -0.0036935502015999857 0 0.0018623391778258655 -0.0043317482101023598 0 0.0014173518190834053 -0.0036935502015999857 0 0.0020516704179591038 -0.0037033261435624161 0 0.0015998466891698722 -0.0030252705899346806 0 0.0020516704179591038 -0.0037033261435624161 0 0.0024028603767028379 -0.0030373068650203783 0 0.0014173518190834053 -0.0036935502015999857 0 0.0015998466891698722 -0.0030252705899346806 0 0.0020516704179591038 -0.0037033261435624161 0 0.0015998466891698722 -0.0030252705899346806 0 0.0021997007052003978 -0.0026060963362180404 0 0.0018336783558532087 -0.002286810216876638 0 0.0015998466891698722 -0.0030252705899346806 0 0.0021997007052003978 -0.0026060963362180404 0 0.0024028603767028379 -0.0030373068650203783 0 0.0015998466891698722 -0.0030252705899346806 0 0.0018336783558532087 -0.002286810216876638 0 0.0011768175405800208 -0.002321877489524862 0 0.0021997007052003978 -0.0026060963362180404 0 0.0018336783558532087 -0.002286810216876638 0 0.0024729260581817965 -0.0020752409199395099 0 0.002005897295965087 -0.0018359402871397658 0 0.0018336783558532087 -0.002286810216876638 0 0.0024729260581817965 -0.0020752409199395099 0 0.002005897295965087 -0.0018359402871397658 0 0.0024729260581817965 -0.0020752409199395099 0 0.0023430232198359637 -0.0015658817440870618 0 0.002005897295965087 -0.0018359402871397658 0 0.0018336783558532087 -0.002286810216876638 0 0.0014552349300079362 -0.0018458070673826588 0 0.002005897295965087 -0.0018359402871397658 0 0.0014552349300079362 -0.0018458070673826588 0 0.0017243636128739959 -0.0013519236176382796 0 0.0018336783558532087 -0.002286810216876638 0 0.0014552349300079362 -0.0018458070673826588 0 0.0011768175405800208 -0.002321877489524862 0 0.0014552349300079362 -0.0018458070673826588 0 0.00079492926758508331 -0.0018510748781281154 0 0.0010915013515304581 -0.0014407075983511059 0 0.0014552349300079362 -0.0018458070673826588 0 0.0011768175405800208 -0.002321877489524862 0 0.00079492926758508331 -0.0018510748781281154 0 0.0015998466891698722 -0.0030252705899346806 0 0.0011768175405800208 -0.002321877489524862 0 0.00080636565824963207 -0.0028143253331963563 0 0.0011768175405800208 -0.002321877489524862 0 0.00080636565824963207 -0.0028143253331963563 0 0.00027438450304315826 -0.0022288062643871813 0 0.00013513814641330174 -0.0029223435512799358 0 0.00080636565824963207 -0.0028143253331963563 0 0.00027438450304315826 -0.0022288062643871813 0 0.00013513814641330174 -0.0029223435512799358 0 0.00027438450304315826 -0.0022288062643871813 0 -0.00066224359677758467 -0.0026067912435546103 0 0.00027438450304315826 -0.0022288062643871813 0 -0.00067057385690513695 -0.0016952489875253522 0 0.00030617940852417636 -0.0012951142394263125 0 0.00027438450304315826 -0.0022288062643871813 0 0.00079492926758508331 -0.0018510748781281154 0 0.00030617940852417636 -0.0012951142394263125 0 0.0011768175405800208 -0.002321877489524862 0 0.00027438450304315826 -0.0022288062643871813 0 0.00079492926758508331 -0.0018510748781281154 0 0.00079492926758508331 -0.0018510748781281154 0 0.00030617940852417636 -0.0012951142394263125 0 0.0010915013515304581 -0.0014407075983511059 0 -0.00067057385690513695 -0.0016952489875253522 0 -0.00074056410346508956 -0.00099944394623153045 0 0.00030617940852417636 -0.0012951142394263125 0 -0.0016962735083601672 -0.001011604411890769 0 -0.00067057385690513695 -0.0016952489875253522 0 -0.00074056410346508956 -0.00099944394623153045 0 0.00027438450304315826 -0.0022288062643871813 0 -0.00067057385690513695 -0.0016952489875253522 0 -0.00066224359677758467 -0.0026067912435546103 0 -0.0016700171023382037 -0.0020438909094794458 0 -0.00067057385690513695 -0.0016952489875253522 0 -0.00066224359677758467 -0.0026067912435546103 0 0.003949570002248908 -0.0035840172266127148 0 0.0031184745222409714 -0.0039199006911831927 0 0.0033260388545622486 -0.0031686743671108693 0 0.0031184745222409714 -0.0039199006911831927 0 0.0027434291278238343 -0.003440911488689542 0 0.0033260388545622486 -0.0031686743671108693 0 0.0048190477893130515 -0.0039195940289302672 0 0.0039847289878259242 -0.0033847890102960037 0 0.005043181692122773 -0.0031636919420519882 0 0.0041014872866901213 -0.0039035454664934871 0 0.003683995595129328 -0.0032632873438905338 0 0.0041014872866901213 -0.0039035454664934871 0 0.0030313184675455148 -0.0039397760819549644 0 0.0033819777029024801 -0.0039179559751985234 0 0.0032719752597190352 -0.0041800027856641487 0 0.0031184745222409714 -0.0039199006911831927 0 0.0033819777029024801 -0.0039179559751985234 0 0.0034736815794725027 -0.0042495116910526301 0 0.0032719752597190352 -0.0041800027856641487 0 0.0033323633571567704 -0.0045081652173699872 0 0.0034736815794725027 -0.0042495116910526301 0 0.0032719752597190352 -0.0041800027856641487 0 0.0029802601296197535 -0.0044495183258157342 0 0.0032719752597190352 -0.0041800027856641487 0 0.0031184745222409714 -0.0039199006911831927 0 0.0029802601296197535 -0.0044495183258157342 0 0.0031184745222409714 -0.0039199006911831927 0 0.0026986323763938678 -0.0039759872873045216 0 0.0018623391778258655 -0.0043317482101023598 0 0.0024944785728866366 -0.0044741789203841574 0 0.0026986323763938678 -0.0039759872873045216 0 0.0018623391778258655 -0.0043317482101023598 0 0.0026986323763938678 -0.0039759872873045216 0 0.0020516704179591038 -0.0037033261435624161 0 0.0020516704179591038 -0.0037033261435624161 0 0.0027434291278238343 -0.003440911488689542 0 0.0024028603767028379 -0.0030373068650203783 0 0.0026986323763938678 -0.0039759872873045216 0 0.0020516704179591038 -0.0037033261435624161 0 0.0027434291278238343 -0.003440911488689542 0 0.0031184745222409714 -0.0039199006911831927 0 0.0026986323763938678 -0.0039759872873045216 0 0.0027434291278238343 -0.003440911488689542 0 0.0027434291278238343 -0.003440911488689542 0 0.0030758766237370082 -0.0027685107323654717 0 0.0033260388545622486 -0.0031686743671108693 0 0.0027434291278238343 -0.003440911488689542 0 0.0030758766237370082 -0.0027685107323654717 0 0.0024028603767028379 -0.0030373068650203783 0 0.0030758766237370082 -0.0027685107323654717 0 0.0024028603767028379 -0.0030373068650203783 0 0.0027377115418220411 -0.0024457676324144673 0 0.0021997007052003978 -0.0026060963362180404 0 0.0024028603767028379 -0.0030373068650203783 0 0.0027377115418220411 -0.0024457676324144673 0 0.0021997007052003978 -0.0026060963362180404 0 0.0027377115418220411 -0.0024457676324144673 0 0.0024729260581817965 -0.0020752409199395099 0 0.0027377115418220411 -0.0024457676324144673 0 0.0028006950908965864 -0.0020478194641158562 0 0.0024729260581817965 -0.0020752409199395099 0 0.0027377115418220411 -0.0024457676324144673 0 0.0028006950908965864 -0.0020478194641158562 0 0.003157609385369191 -0.0019171037420010778 0 0.0028006950908965864 -0.0020478194641158562 0 0.0024729260581817965 -0.0020752409199395099 0 0.0028288079891386755 -0.0018438637411172629 0 0.0030758766237370082 -0.0027685107323654717 0 0.003157609385369191 -0.0019171037420010778 0 0.0038042802489000882 -0.0022704421269402011 0 0.0030758766237370082 -0.0027685107323654717 0 0.0027377115418220411 -0.0024457676324144673 0 0.003157609385369191 -0.0019171037420010778 0 0.003157609385369191 -0.0019171037420010778 0 0.0038042802489000882 -0.0022704421269402011 0 0.0036749163833120664 -0.001600441528816398 0 0.0038042802489000882 -0.0022704421269402011 0 0.0046827527426125028 -0.0024617010596598037 0 0.0043600093806365862 -0.0016999464608178996 0 0.0030972403824273578 -0.0028250451671087322 0 0.003683995595129328 -0.0032632873438905338 0 0.0030758766237370082 -0.0027685107323654717 0 0.0038042802489000882 -0.0022704421269402011 0 0.0039847289878259242 -0.0033847890102960037 0 0.0038042802489000882 -0.0022704421269402011 0 0.0039847289878259242 -0.0033847890102960037 0 0.0046827527426125028 -0.0024617010596598037 0 0.0039847289878259242 -0.0033847890102960037 0 0.005043181692122773 -0.0031636919420519882 0 0.0046827527426125028 -0.0024617010596598037 0 0.005043181692122773 -0.0031636919420519882 0 0.0046827527426125028 -0.0024617010596598037 0 0.0056765099868255281 -0.0022767452888917002 0 0.0046827527426125028 -0.0024617010596598037 0 0.0050280083327130833 -0.0017131149365776988 0 0.0043600093806365862 -0.0016999464608178996 0 0.0046827527426125028 -0.0024617010596598037 0 0.0056765099868255281 -0.0022767452888917002 0 0.0050280083327130833 -0.0017131149365776988 0 0.0096588928936799986 -0.0028122714084614186 0 0.010068084640638079 -0.0030296931483335967 0 0.010345410471294145 -0.0024721538162389223 0 0.0085005430853736363 -0.0032723451077608114 0 0.0059196452766205956 -0.004320799316748062 0 0.0096588928936799986 -0.0028122714084614186 0 0.010068084640638079 -0.0030296931483335967 0 0.009687614592353776 -0.0036201252563853948 0 0.010068084640638079 -0.0030296931483335967 0 0.010578220245870795 -0.0032212154137972546 0 0.009687614592353776 -0.0036201252563853948 0 0.0037248395510884645 -0.0047852651268879554 0 0.003648036326226024 -0.0048962422626476366 0 0.0035428898935740485 -0.0048682958198658218 0 0.0078543753830635915 -0.0023883310052246432 0 0.0059196452766205956 -0.004320799316748062 0 0.005043181692122773 -0.0031636919420519882 0 0.0056765099868255281 -0.0022767452888917002 0 0.0057886536413231512 -0.0034858569590727703 0 0.010968766242548908 -0.0028793676307859854 0 0.011182952808559882 -0.0025458776680467475 0 0.010831308675677519 -0.0024702169657378403 0 0.010968766242548908 -0.0028793676307859854 0 0.01057434131350625 -0.0030630099808746686 0 0.010831308675677519 -0.0024702169657378403 0 0.010068084640638079 -0.0030296931483335967 0 0.010578220245870795 -0.0032212154137972546 0 0.010345410471294145 -0.0024721538162389223 0 0.01057434131350625 -0.0030630099808746686 0 0.010345410471294145 -0.0024721538162389223 0 0.010831308675677519 -0.0024702169657378403 0 0.0085005430853736363 -0.0032723451077608114 0 0.010805678865420261 -0.0025998429273539252 0 0.0085005430853736363 -0.0032723451077608114 0 0.0071842150385196665 -0.0042384403310920232 0 0.011470523965902365 -0.0026054749897475998 0 0.0085005430853736363 -0.0032723451077608114 0 0.010968766242548908 -0.0028793676307859854 0 0.010715414316641528 -0.0030047786150338286 0 0.011119014670147764 -0.0031963505709829238 0 0.010715414316641528 -0.0030047786150338286 0 0.011119014670147764 -0.0031963505709829238 0 0.010904071637257488 -0.0033917565196716149 0 0.011119014670147764 -0.0031963505709829238 0 0.010904071637257488 -0.0033917565196716149 0 0.011245716702968298 -0.0034975664145711636 0 0.0037184238856325614 -0.0049451826197832996 0 0.003648036326226024 -0.0048962422626476366 0 0.0036038422980333661 -0.0049722488379989474 0 0.0037248395510884645 -0.0047852651268879554 0 0.0037184238856325614 -0.0049451826197832996 0 0.003648036326226024 -0.0048962422626476366 0 0.0037184238856325614 -0.0049451826197832996 0 0.0036038422980333661 -0.0049722488379989474 0 0.0035821532573474565 -0.005062764257458714 0 0.0037184238856325614 -0.0049451826197832996 0 0.0035821532573474565 -0.005062764257458714 0 0.0036792884863915722 -0.0050765782364884972 0 0.010904071637257488 -0.0033917565196716149 0 0.011070148906401497 -0.0036473502666875719 0 0.011245716702968298 -0.0034975664145711636 0 0.0071842150385196665 -0.0042384403310920232 0 0.007384869376877567 -0.0043431439826925799 0 0.0048190477893130515 -0.0039195940289302672 0 0.005043181692122773 -0.0031636919420519882 0 0.0057886536413231512 -0.0034858569590727703 0 0.0043777794596413467 -0.0042532806316294665 0 0.0046937579479114817 -0.0041149654620718122 0 0.0047204873693465522 -0.0044732258627142168 0 0.0041014872866901213 -0.0039035454664934871 0 0.0059196452766205956 -0.004320799316748062 0 0.0059196452766205956 -0.004320799316748062 0 0.0038392039796938428 -0.0046499394121703903 0 0.0035428898935740485 -0.0048682958198658218 0 0.0036038422980333661 -0.0049722488379989474 0 0.0035367211016697569 -0.0049996313188455177 0 0.003648036326226024 -0.0048962422626476366 0 0.0035428898935740485 -0.0048682958198658218 0 0.0036038422980333661 -0.0049722488379989474 0 0.0036038422980333661 -0.0049722488379989474 0 0.0035367211016697569 -0.0049996313188455177 0 0.0035821532573474565 -0.005062764257458714 0 0.0038392039796938428 -0.0046499394121703903 0 0.0035459419207115647 -0.0050517071142292414 0 0.0034736815794725027 -0.0042495116910526301 0 0.0037924004706521306 -0.004219541213390827 0 0.0035694717129761237 -0.0045246491411200327 0 0.0033819777029024801 -0.0039179559751985234 0 0.0034736815794725027 -0.0042495116910526301 0 0.0037924004706521306 -0.004219541213390827 0 0.0041014872866901213 -0.0039035454664934871 0 0.0038392039796938428 -0.0046499394121703903 0 0.0037924004706521306 -0.004219541213390827 0 0.0035694717129761237 -0.0045246491411200327 0 0.0037644547814435869 -0.0047447587876056525 0 0.0035694717129761237 -0.0045246491411200327 0 0.0034867537988977778 -0.004906260319593834 0 0.0037644547814435869 -0.0047447587876056525 0 0.0033323633571567704 -0.0045081652173699872 0 0.0035694717129761237 -0.0045246491411200327 0 0.0034867537988977778 -0.004906260319593834 0 0.0034867537988977778 -0.004906260319593834 0 0.0034727604285285309 -0.0052349803308254783 0 0.003537118327010343 -0.0052212590399708329 0 0.0034867537988977778 -0.004906260319593834 0 0.0037644547814435869 -0.0047447587876056525 0 0.003537118327010343 -0.0052212590399708329 0 0.0032764966080595362 -0.0051471231068459088 0 0.0034867537988977778 -0.004906260319593834 0 0.0034727604285285309 -0.0052349803308254783 0 0.0035055901177355278 -0.0051264430193107315 0 0.0035604768453788883 -0.005143447314167127 0 0.003537118327010343 -0.0052212590399708329 0 0.0036091710954527802 -0.004917173461897361 0 0.0035680355071386486 -0.0051799412785308602 0 0.0034954927347638177 -0.0050031213520136024 0 0.0035055901177355278 -0.0051264430193107315 0 0.0035821532573474565 -0.005062764257458714 0 0.0038392039796938428 -0.0046499394121703903 0 0.0036091710954527802 -0.004917173461897361 0 0.0035055901177355278 -0.0051264430193107315 0 0.0035821532573474565 -0.005062764257458714 0 0.0035604768453788883 -0.005143447314167127 0 0.0035821532573474565 -0.005062764257458714 0 0.0036792884863915722 -0.0050765782364884972 0 0.0035604768453788883 -0.005143447314167127 0 0.0036792884863915722 -0.0050765782364884972 0 0.0035486447462946625 -0.0051743122575418554 0 0.0035604768453788883 -0.005143447314167127 0 0.007384869376877567 -0.0043431439826925799 0 0.0073799467938161197 -0.0044591857893975509 0 0.0036792884863915722 -0.0050765782364884972 0 0.0035486447462946625 -0.0051743122575418554 0 0.0036248301704674825 -0.0051589711800345177 0 0.0035486447462946625 -0.0051743122575418554 0 0.0035354067013930171 -0.0052044079017321129 0 0.0036248301704674825 -0.0051589711800345177 0 0.0035486447462946625 -0.0051743122575418554 0 0.0035604768453788883 -0.005143447314167127 0 0.003537118327010343 -0.0052212590399708329 0 0.0035486447462946625 -0.0051743122575418554 0 0.003475618952243712 -0.0052237674683587353 0 0.0035354067013930171 -0.0052044079017321129 0 0.003475618952243712 -0.0052237674683587353 0 0.0035354067013930171 -0.0052044079017321129 0 0.0034270456623678794 -0.0052634689161486928 0 0.0035486447462946625 -0.0051743122575418554 0 0.003475618952243712 -0.0052237674683587353 0 0.003537118327010343 -0.0052212590399708329 0 0.0035354067013930171 -0.0052044079017321129 0 0.003505307704254894 -0.0052609215902303507 0 0.00362522921046457 -0.0052279064261458374 0 0.0035354067013930171 -0.0052044079017321129 0 0.003505307704254894 -0.0052609215902303507 0 0.0034270456623678794 -0.0052634689161486928 0 0.003398863260158278 -0.0053174126426488669 0 0.003505307704254894 -0.0052609215902303507 0 0.0034270456623678794 -0.0052634689161486928 0 0.003398863260158278 -0.0053174126426488669 0 0.0035567293217007626 -0.0053208368245696112 0 0.003505307704254894 -0.0052609215902303507 0 0.0032964416788596245 -0.0053174327219085264 0 0.003398863260158278 -0.0053174126426488669 0 0.0034270456623678794 -0.0052634689161486928 0 0.003475618952243712 -0.0052237674683587353 0 0.0034270456623678794 -0.0052634689161486928 0 0.0033917636201046229 -0.0052810240315924236 0 0.0032964416788596245 -0.0053174327219085264 0 0.0034270456623678794 -0.0052634689161486928 0 0.0033917636201046229 -0.0052810240315924236 0 0.0032964416788596245 -0.0053174327219085264 0 0.0033917636201046229 -0.0052810240315924236 0 0.0032919660666985147 -0.005293449497381965 0 0.0033917636201046229 -0.0052810240315924236 0 0.0032919660666985147 -0.005293449497381965 0 0.0034301969761833515 -0.0053263168298551258 0 0.003335838638939615 -0.0052556729365937967 0 0.0030471306590553636 -0.0052488024360914324 0 0.0032919660666985147 -0.005293449497381965 0 0.0034529358465588147 -0.0052556733433007539 0 0.003474118697519605 -0.0054652367138627493 0 0.0030471306590553636 -0.0052488024360914324 0 0.0034659415911696126 -0.0056257151061339973 0 0.0032919660666985147 -0.005293449497381965 0 0.003474118697519605 -0.0054652367138627493 0 0.0034301969761833515 -0.0053263168298551258 0 0.0032764966080595362 -0.0051471231068459088 0 0.003474118697519605 -0.0054652367138627493 0 0.0034727604285285309 -0.0052349803308254783 0 0.003474118697519605 -0.0054652367138627493 0 0.0034727604285285309 -0.0052349803308254783 0 0.0034301969761833515 -0.0053263168298551258 0 0.0034727604285285309 -0.0052349803308254783 0 0.003537118327010343 -0.0052212590399708329 0 0.0034301969761833515 -0.0053263168298551258 0 0.0033917636201046229 -0.0052810240315924236 0 0.003537118327010343 -0.0052212590399708329 0 0.0034301969761833515 -0.0053263168298551258 0 0.003475618952243712 -0.0052237674683587353 0 0.0033917636201046229 -0.0052810240315924236 0 0.003537118327010343 -0.0052212590399708329 0 0.011379024180545285 -0.0037791750135087107 0 0.011319963363496666 -0.0038216412735051241 0 0.011331564188317525 -0.0037885927601748006 0 0.011379024180545285 -0.0037791750135087107 0 0.011331564188317525 -0.0037885927601748006 0 0.011427204930768433 -0.0037476876332034454 0 0.011379024180545285 -0.0037791750135087107 0 0.011451250226328251 -0.003738957228478848 0 0.011427204930768433 -0.0037476876332034454 0 0.011417989831664159 -0.0037150963411397521 0 0.011451250226328251 -0.003738957228478848 0 0.011393397806979313 -0.0037703987486894649 0 0.011379024180545285 -0.0037791750135087107 0 0.011451250226328251 -0.003738957228478848 0 0.011393397806979313 -0.0037703987486894649 0 0.011362971378588337 -0.0037550618765929719 0 0.011342562570147107 -0.003840907570724889 0 0.011393397806979313 -0.0037703987486894649 0 0.011379024180545285 -0.0037791750135087107 0 0.011393397806979313 -0.0037703987486894649 0 0.011319963363496666 -0.0038216412735051241 0 0.011342562570147107 -0.003840907570724889 0 0.011393397806979313 -0.0037703987486894649 0 0.011319963363496666 -0.0038216412735051241 0 0.011319963363496666 -0.0038216412735051241 0 0.01126976244698014 -0.0038203815858663835 0 0.011331564188317525 -0.0037885927601748006 0 0.011214707569977864 -0.0039098760692099629 0 0.011319963363496666 -0.0038216412735051241 0 0.011235470190499803 -0.0038539252025934336 0 0.01118686356688809 -0.0038956052370061772 0 0.011235470190499803 -0.0038539252025934336 0 0.011224226816752276 -0.003831494021824432 0 0.011235470190499803 -0.0038539252025934336 0 0.01126976244698014 -0.0038203815858663835 0 0.011224226816752276 -0.003831494021824432 0 0.011319963363496666 -0.0038216412735051241 0 0.011235470190499803 -0.0038539252025934336 0 0.01126976244698014 -0.0038203815858663835 0 0.0056432753368748246 -0.0050020399392980055 0 0.0076172493064664715 -0.0045267225535483048 0 0.0035567293217007626 -0.0053208368245696112 0 0.0037070279309116389 -0.0053922119153241932 0 0.00362522921046457 -0.0052279064261458374 0 0.0035567293217007626 -0.0053208368245696112 0 0.003505307704254894 -0.0052609215902303507 0 0.00362522921046457 -0.0052279064261458374 0 0.011224226816752276 -0.003831494021824432 0 0.011255182828912851 -0.0037955061374836483 0 0.01118291895192226 -0.0037802701919960459 0 0.0076172493064664715 -0.0045267225535483048 0 0.0073799467938161197 -0.0044591857893975509 0 0.0035354067013930171 -0.0052044079017321129 0 0.00362522921046457 -0.0052279064261458374 0 0.0036248301704674825 -0.0051589711800345177 0 0.01126976244698014 -0.0038203815858663835 0 0.011224226816752276 -0.003831494021824432 0 0.011255182828912851 -0.0037955061374836483 0 0.01126976244698014 -0.0038203815858663835 0 0.011255182828912851 -0.0037955061374836483 0 0.011331564188317525 -0.0037885927601748006 0 0.011255182828912851 -0.0037955061374836483 0 0.011331564188317525 -0.0037885927601748006 0 0.011335297948270486 -0.0037510647645622071 0 0.011335297948270486 -0.0037510647645622071 0 0.01118291895192226 -0.0037802701919960459 0 0.011301970740898169 -0.0036796684236272319 0 0.011255182828912851 -0.0037955061374836483 0 0.011335297948270486 -0.0037510647645622071 0 0.01118291895192226 -0.0037802701919960459 0 0.011070148906401497 -0.0036473502666875719 0 0.011301970740898169 -0.0036796684236272319 0 0.011245716702968298 -0.0034975664145711636 0 0.011070148906401497 -0.0036473502666875719 0 0.01118291895192226 -0.0037802701919960459 0 0.011301970740898169 -0.0036796684236272319 0 0.011301970740898169 -0.0036796684236272319 0 0.011453015170768842 -0.0037035120605187397 0 0.011458724670111867 -0.0035826200297374268 0 0.011335297948270486 -0.0037510647645622071 0 0.011301970740898169 -0.0036796684236272319 0 0.011453015170768842 -0.0037035120605187397 0 0.011453015170768842 -0.0037035120605187397 0 0.011538568540919418 -0.0037152177873434021 0 0.011594999870311987 -0.0036552767771635465 0 0.011453015170768842 -0.0037035120605187397 0 0.011594999870311987 -0.0036552767771635465 0 0.011458724670111867 -0.0035826200297374268 0 0.011453015170768842 -0.0037035120605187397 0 0.011427204930768433 -0.0037476876332034454 0 0.011538568540919418 -0.0037152177873434021 0 0.011331564188317525 -0.0037885927601748006 0 0.011335297948270486 -0.0037510647645622071 0 0.011427204930768433 -0.0037476876332034454 0 0.011335297948270486 -0.0037510647645622071 0 0.011453015170768842 -0.0037035120605187397 0 0.011427204930768433 -0.0037476876332034454 0 0.011485771192181891 -0.0037107819068699505 0 0.011451250226328251 -0.003738957228478848 0 0.011538568540919418 -0.0037152177873434021 0 0.011451250226328251 -0.003738957228478848 0 0.011427204930768433 -0.0037476876332034454 0 0.011538568540919418 -0.0037152177873434021 0 0.011695062830637848 -0.0037227388028299186 0 0.011538568540919418 -0.0037152177873434021 0 0.011594999870311987 -0.0036552767771635465 0 0.011695062830637848 -0.0037227388028299186 0 0.011910225043678675 -0.0034744434225094682 0 0.011714991864070172 -0.0035911918181536547 0 0.011695062830637848 -0.0037227388028299186 0 0.011594999870311987 -0.0036552767771635465 0 0.011714991864070172 -0.0035911918181536547 0 0.011714991864070172 -0.0035911918181536547 0 0.011617517090959999 -0.0035181503602037785 0 0.011753941076326872 -0.0033831870787361901 0 0.011594999870311987 -0.0036552767771635465 0 0.011714991864070172 -0.0035911918181536547 0 0.011617517090959999 -0.0035181503602037785 0 0.011594999870311987 -0.0036552767771635465 0 0.011617517090959999 -0.0035181503602037785 0 0.011458724670111867 -0.0035826200297374268 0 0.011617517090959999 -0.0035181503602037785 0 0.011458724670111867 -0.0035826200297374268 0 0.011485241244961119 -0.0033525737468426699 0 0.011617517090959999 -0.0035181503602037785 0 0.011753941076326872 -0.0033831870787361901 0 0.011485241244961119 -0.0033525737468426699 0 0.011753941076326872 -0.0033831870787361901 0 0.011485241244961119 -0.0033525737468426699 0 0.011872940550123289 -0.0031150013930742321 0 0.011910225043678675 -0.0034744434225094682 0 0.011753941076326872 -0.0033831870787361901 0 0.011872940550123289 -0.0031150013930742321 0 0.011910225043678675 -0.0034744434225094682 0 0.011714991864070172 -0.0035911918181536547 0 0.011753941076326872 -0.0033831870787361901 0 0.011245716702968298 -0.0034975664145711636 0 0.011458724670111867 -0.0035826200297374268 0 0.011485241244961119 -0.0033525737468426699 0 0.011301970740898169 -0.0036796684236272319 0 0.011245716702968298 -0.0034975664145711636 0 0.011458724670111867 -0.0035826200297374268 0 0.011119014670147764 -0.0031963505709829238 0 0.011245716702968298 -0.0034975664145711636 0 0.011485241244961119 -0.0033525737468426699 0 0.011119014670147764 -0.0031963505709829238 0 0.011485241244961119 -0.0033525737468426699 0 0.011380488807538277 -0.0029004217480443901 0 0.010968766242548908 -0.0028793676307859854 0 0.011119014670147764 -0.0031963505709829238 0 0.011380488807538277 -0.0029004217480443901 0 0.011485241244961119 -0.0033525737468426699 0 0.011380488807538277 -0.0029004217480443901 0 0.011965232379996022 -0.002789217925149994 0 0.011512027957603529 -0.0033121599012711626 0 0.011747904685148851 -0.0027807746627897438 0 0.011380488807538277 -0.0029004217480443901 0 0.011965232379996022 -0.002789217925149994 0 0.011607363310785433 -0.0023896622952575587 0 0.010968766242548908 -0.0028793676307859854 0 0.011380488807538277 -0.0029004217480443901 0 0.011182952808559882 -0.0025458776680467475 0 0.011380488807538277 -0.0029004217480443901 0 0.011182952808559882 -0.0025458776680467475 0 0.011607363310785433 -0.0023896622952575587 0 0.012500552011363885 -0.0029200426583732616 0 0.011872940550123289 -0.0031150013930742321 0 0.012032172079247682 -0.0027990404586727613 0 0.011910225043678675 -0.0034744434225094682 0 0.012500552011363885 -0.0029200426583732616 0 0.011872940550123289 -0.0031150013930742321 0 0.011485241244961119 -0.0033525737468426699 0 0.011872940550123289 -0.0031150013930742321 0 0.01152644887414349 -0.0027974026718769634 0 0.011872940550123289 -0.0031150013930742321 0 0.01152644887414349 -0.0027974026718769634 0 0.012032172079247682 -0.0027990404586727613 0 0.01152644887414349 -0.0027974026718769634 0 0.012032172079247682 -0.0027990404586727613 0 0.012267940820778115 -0.002370931158086436 0 0.012500552011363885 -0.0029200426583732616 0 0.012032172079247682 -0.0027990404586727613 0 0.012267940820778115 -0.002370931158086436 0 0.012267940820778115 -0.002370931158086436 0 0.011800397206625316 -0.001933378398630867 0 0.012433888512623262 -0.0019733284199972721 0 0.01152644887414349 -0.0027974026718769634 0 0.012267940820778115 -0.002370931158086436 0 0.011800397206625316 -0.001933378398630867 0 0.011747904685148851 -0.0027807746627897438 0 0.012089609958040853 -0.0019918511388718006 0 0.011800397206625316 -0.001933378398630867 0 0.012433888512623262 -0.0019733284199972721 0 0.012685359067821268 -0.0014931745726636553 0 0.011182952808559882 -0.0025458776680467475 0 0.011607363310785433 -0.0023896622952575587 0 0.011115279568825045 -0.002031233456679298 0 0.011965232379996022 -0.002789217925149994 0 0.012372795146755246 -0.0020552160293913413 0 0.011607363310785433 -0.0023896622952575587 0 0.012372795146755246 -0.0020552160293913413 0 0.011719125087561464 -0.0018257120338364681 0 0.012167058422009958 -0.0015473795328789198 0 0.012372795146755246 -0.0020552160293913413 0 0.011607363310785433 -0.0023896622952575587 0 0.011719125087561464 -0.0018257120338364681 0 0.011719125087561464 -0.0018257120338364681 0 0.011375961857613477 -0.0015916832896992869 0 0.011115279568825045 -0.002031233456679298 0 0.011607363310785433 -0.0023896622952575587 0 0.011719125087561464 -0.0018257120338364681 0 0.011115279568825045 -0.002031233456679298 0 0.011719125087561464 -0.0018257120338364681 0 0.011375961857613477 -0.0015916832896992869 0 0.011713632842386728 -0.001331958921611321 0 0.011375961857613477 -0.0015916832896992869 0 0.011713632842386728 -0.001331958921611321 0 0.011319471164622693 -0.0012102753694792185 0 0.011713632842386728 -0.001331958921611321 0 0.012099621417374296 -0.0010225400517936435 0 0.012167058422009958 -0.0015473795328789198 0 0.011719125087561464 -0.0018257120338364681 0 0.011713632842386728 -0.001331958921611321 0 0.012167058422009958 -0.0015473795328789198 0 0.011713632842386728 -0.001331958921611321 0 0.012099621417374296 -0.0010225400517936435 0 0.011559435688981488 -0.00077368644026503406 0 0.011713632842386728 -0.001331958921611321 0 0.011319471164622693 -0.0012102753694792185 0 0.011559435688981488 -0.00077368644026503406 0 0.011800397206625316 -0.001933378398630867 0 0.012248525862645231 -0.0010355390591833009 0 0.012685359067821268 -0.0014931745726636553 0 0.012372795146755246 -0.0020552160293913413 0 0.012720079388641944 -0.0012323948843751241 0 0.012167058422009958 -0.0015473795328789198 0 0.012099621417374296 -0.0010225400517936435 0 0.012720079388641944 -0.0012323948843751241 0 0.012167058422009958 -0.0015473795328789198 0 0.012089609958040853 -0.0019918511388718006 0 0.012488060264593089 -0.0011426628624654717 0 0.012099621417374296 -0.0010225400517936435 0 0.012720079388641944 -0.0012323948843751241 0 0.012524311074368405 -0.00059993553528526848 0 0.012488060264593089 -0.0011426628624654717 0 0.012838900955742975 -0.0004431759658300993 0 0.012248525862645231 -0.0010355390591833009 0 0.012883358625143735 -0.0003901904799050371 0 0.012935627513614607 -0.00067568660403148964 0 0.012720079388641944 -0.0012323948843751241 0 0.012883358625143735 -0.0003901904799050371 0 0.012524311074368405 -0.00059993553528526848 0 0.012883358625143735 -0.0003901904799050371 0 0.013002807583228972 -0.00017228138643687007 0 0.012524311074368405 -0.00059993553528526848 0 0.012883358625143735 -0.0003901904799050371 0 0.013002807583228972 -0.00017228138643687007 0 0.012990269550713768 -2.2557722407473225e-05 0 0.013002807583228972 -0.00017228138643687007 0 0.012561270667718881 -6.4308786396121692e-05 0 0.012524311074368405 -0.00059993553528526848 0 0.012561270667718881 -6.4308786396121692e-05 0 0.012524311074368405 -0.00059993553528526848 0 0.012084713595966105 -0.00039532149369223224 0 0.012099621417374296 -0.0010225400517936435 0 0.012524311074368405 -0.00059993553528526848 0 0.012084713595966105 -0.00039532149369223224 0 0.012099621417374296 -0.0010225400517936435 0 0.011559435688981488 -0.00077368644026503406 0 0.012084713595966105 -0.00039532149369223224 0 0.011559435688981488 -0.00077368644026503406 0 0.011550692634726738 -0.00013084049497921502 0 0.011157379819294056 -0.00044090297045995422 0 0.011559435688981488 -0.00077368644026503406 0 0.011550692634726738 -0.00013084049497921502 0 0.012084713595966105 -0.00039532149369223224 0 0.011550692634726738 -0.00013084049497921502 0 0.012084713595966105 -0.00039532149369223224 0 0.012098002481643525 0.00021862981102572108 0 0.012561270667718881 -6.4308786396121692e-05 0 0.012084713595966105 -0.00039532149369223224 0 0.012098002481643525 0.00021862981102572108 0 0.011550692634726738 -0.00013084049497921502 0 0.012098002481643525 0.00021862981102572108 0 0.011541885502002318 0.00049218162465715224 0 0.012448431804492597 -0.00032185193598950623 0 0.014225364856790318 -0.001107293101818288 0 0.013696182439567328 -0.0012505017886356874 0 0.013707548487821488 -0.0013499736300450354 0 0.013553079274124297 -0.0013426252135471358 0 0.013696182439567328 -0.0012505017886356874 0 0.013707548487821488 -0.0013499736300450354 0 0.013771487130562272 -0.001280776215374527 0 0.012098002481643525 0.00021862981102572108 0 0.011541885502002318 0.00049218162465715224 0 0.012221077299602385 0.00093247658396821537 0 0.016908269673400384 -0.0016078245773235925 0 0.015245047265399488 -0.00044152442323066666 0 0.016828821666558792 -0.0019575461031288836 0 0.012098002481643525 0.00021862981102572108 0 0.012221077299602385 0.00093247658396821537 0 0.012725555023365183 0.00060443118541274614 0 0.015245047265399488 -0.00044152442323066666 0 0.013740778134195351 -0.0016548895182502763 0 0.016828821666558792 -0.0019575461031288836 0 0.014225364856790318 -0.001107293101818288 0 0.013945897539328839 2.7957009271132487e-05 0 0.015245047265399488 -0.00044152442323066666 0 0.013325006348653377 -0.00076076619344475724 0 0.013740778134195351 -0.0016548895182502763 0 0.015245047265399488 -0.00044152442323066666 0 0.013325006348653377 -0.00076076619344475724 0 0.013411921461687832 6.9986669241494176e-05 0 0.013002807583228972 -0.00017228138643687007 0 0.013411921461687832 6.9986669241494176e-05 0 0.012990269550713768 -2.2557722407473225e-05 0 0.013325006348653377 -0.00076076619344475724 0 0.013411921461687832 6.9986669241494176e-05 0 0.012943374559757534 -0.00045515391255374527 0 0.013002807583228972 -0.00017228138643687007 0 0.012561270667718881 -6.4308786396121692e-05 0 0.013411921461687832 6.9986669241494176e-05 0 0.012561270667718881 -6.4308786396121692e-05 0 0.012098002481643525 0.00021862981102572108 0 0.012725555023365183 0.00060443118541274614 0 0.012561270667718881 -6.4308786396121692e-05 0 0.012725555023365183 0.00060443118541274614 0 0.013411921461687832 6.9986669241494176e-05 0 0.013945897539328839 2.7957009271132487e-05 0 0.013563270994383991 0.00010319724507621878 0 0.014187659870961305 -0.0009408385360194512 0 0.014390297566634251 -0.00091960093379858448 0 0.0142037863353666 -0.0011468995980608268 0 0.014123817642663414 -0.00014555947436198003 0 0.014334644464211909 -0.0015281857263459691 0 0.014977029918759259 -6.8764734579020422e-05 0 0.013175532215625648 0.00044629962610813646 0 0.014123817642663414 -0.00014555947436198003 0 0.014334644464211909 -0.0015281857263459691 0 0.013175532215625648 0.00044629962610813646 0 0.014123817642663414 -0.00014555947436198003 0 0.01371288755400742 0.0010496685554020669 0 0.01377823396131489 -0.00012841722957399667 0 0.014819777367203558 -0.0023902509556279388 0 0.013175532215625648 0.00044629962610813646 0 0.014334644464211909 -0.0015281857263459691 0 0.01369115442495987 -0.0021980506568644626 0 0.014574300085529438 -0.001983259739018937 0 0.014819777367203558 -0.0023902509556279388 0 0.014413588918042395 -0.0013191382781445999 0 0.0142037863353666 -0.0011468995980608268 0 0.014220815174747752 -0.0013282360304180904 0 0.014390297566634251 -0.00091960093379858448 0 0.014413588918042395 -0.0013191382781445999 0 0.0142037863353666 -0.0011468995980608268 0 0.0142037863353666 -0.0011468995980608268 0 0.014060506567268755 -0.0013258261623554509 0 0.014220815174747752 -0.0013282360304180904 0 0.0142037863353666 -0.0011468995980608268 0 0.013985916123552501 -0.0010468592000287228 0 0.014060506567268755 -0.0013258261623554509 0 0.013985916123552501 -0.0010468592000287228 0 0.013809809792189879 -0.0014197895359374067 0 0.014060506567268755 -0.0013258261623554509 0 0.013771487130562272 -0.001280776215374527 0 0.013837792498005385 -0.0012350424235752272 0 0.013809809792189879 -0.0014197895359374067 0 0.013707548487821488 -0.0013499736300450354 0 0.013771487130562272 -0.001280776215374527 0 0.013809809792189879 -0.0014197895359374067 0 0.014129400916420695 -0.0011436812725323709 0 0.013741743401789061 -0.0014214723639191244 0 0.013696182439567328 -0.0012505017886356874 0 0.013771487130562272 -0.001280776215374527 0 0.013803283341428834 -0.0011817598030482599 0 0.013771487130562272 -0.001280776215374527 0 0.013803283341428834 -0.0011817598030482599 0 0.013837792498005385 -0.0012350424235752272 0 0.012448431804492597 -0.00032185193598950623 0 0.01229794932924342 -0.00057201112055953998 0 0.011550692634726738 -0.00013084049497921502 0 0.011541885502002318 0.00049218162465715224 0 0.010926061617594719 0.00010729063191153557 0 0.014129400916420695 -0.0011436812725323709 0 0.012609381777362219 -0.00061785171409632752 0 0.014187659870961305 -0.0009408385360194512 0 0.013985916123552501 -0.0010468592000287228 0 0.014172403472538023 -0.0006465966361131752 0 0.013803283341428834 -0.0011817598030482599 0 0.013837792498005385 -0.0012350424235752272 0 0.013855531110100884 -0.0011229101541293551 0 0.014187659870961305 -0.0009408385360194512 0 0.0142037863353666 -0.0011468995980608268 0 0.013985916123552501 -0.0010468592000287228 0 0.01229794932924342 -0.00057201112055953998 0 0.012609381777362219 -0.00061785171409632752 0 0.010926061617594719 0.00010729063191153557 0 0.010737572491207558 -0.00045993192979151885 0 0.010337217010461447 -0.00026680052416161188 0 0.011550692634726738 -0.00013084049497921502 0 0.010926061617594719 0.00010729063191153557 0 0.011157379819294056 -0.00044090297045995422 0 0.010926061617594719 0.00010729063191153557 0 0.011157379819294056 -0.00044090297045995422 0 0.010737572491207558 -0.00045993192979151885 0 0.011559435688981488 -0.00077368644026503406 0 0.011157379819294056 -0.00044090297045995422 0 0.010981905178144616 -0.00086321666904204213 0 0.011157379819294056 -0.00044090297045995422 0 0.010737572491207558 -0.00045993192979151885 0 0.010981905178144616 -0.00086321666904204213 0 0.010737572491207558 -0.00045993192979151885 0 0.010539604153135981 -0.00078916510633779619 0 0.010337217010461447 -0.00026680052416161188 0 0.010737572491207558 -0.00045993192979151885 0 0.010539604153135981 -0.00078916510633779619 0 0.010981905178144616 -0.00086321666904204213 0 0.010337217010461447 -0.00026680052416161188 0 0.0099810698684504422 -0.00084538063403812025 0 0.01022764609890856 -0.00085248739289211877 0 0.010539604153135981 -0.00078916510633779619 0 0.010337217010461447 -0.00026680052416161188 0 0.01022764609890856 -0.00085248739289211877 0 0.012277124095375362 3.9505439459261226e-05 0 0.012247793556104227 1.4868443846899142e-05 0 0.01227094381661481 7.3268763580844432e-05 0 0.012609381777362219 -0.00061785171409632752 0 0.011201598818215237 7.0658241610116679e-05 0 0.013216181210136579 0.0006407763109321082 0 0.011201598818215237 7.0658241610116679e-05 0 0.013216181210136579 0.0006407763109321082 0 0.012609381777362219 -0.00061785171409632752 0 0.014390297566634251 -0.00091960093379858448 0 0.014360259622993672 -0.00050747870047850171 0 0.014172403472538023 -0.0006465966361131752 0 0.014187659870961305 -0.0009408385360194512 0 0.014390297566634251 -0.00091960093379858448 0 0.014172403472538023 -0.0006465966361131752 0 0.01377823396131489 -0.00012841722957399667 0 0.013216181210136579 0.0006407763109321082 0 0.01317939082553001 0.0016209607535308092 0 0.01371288755400742 0.0010496685554020669 0 0.013411191684752756 0.0016168188958903388 0 0.013175532215625648 0.00044629962610813646 0 0.01317939082553001 0.0016209607535308092 0 0.01371288755400742 0.0010496685554020669 0 0.013216181210136579 0.0006407763109321082 0 0.013104884028785761 0.0019133445246891892 0 0.012617453214256003 0.0013070137985096032 0 0.012901333856789845 0.0015676423434270548 0 0.013161643704758258 0.0017014908059369983 0 0.01317939082553001 0.0016209607535308092 0 0.013161643704758258 0.0017014908059369983 0 0.013411191684752756 0.0016168188958903388 0 0.012617453214256003 0.0013070137985096032 0 0.012901333856789845 0.0015676423434270548 0 0.012609000508065415 0.0016121660376464651 0 0.012901333856789845 0.0015676423434270548 0 0.012772786969259762 0.0017316911389095404 0 0.012815442424269421 0.0019132528099599674 0 0.012901333856789845 0.0015676423434270548 0 0.012928055212784118 0.0018263317974872349 0 0.013023386482623378 0.0017628413066472952 0 0.012944531797911116 0.0017760205735565656 0 0.0097209192925556062 0.0010330588952851074 0 0.012772786969259762 0.0017316911389095404 0 0.01275654578037862 0.0018722925053152445 0 0.012609000508065415 0.0016121660376464651 0 0.0098851135730363571 -0.0011140996164682483 0 0.009730614348645231 -0.001204600163678414 0 0.0099653511021746324 -0.00079532268189990438 0 0.012772786969259762 0.0017316911389095404 0 0.01275654578037862 0.0018722925053152445 0 0.012815442424269421 0.0019132528099599674 0 0.010000477912000354 0.00052454112834030724 0 0.011201598818215237 7.0658241610116679e-05 0 0.0098851135730363571 -0.0011140996164682483 0 0.0099911090921729409 -0.0011650932829316604 0 0.0098734226428810381 -0.0012716635585077784 0 0.0098851135730363571 -0.0011140996164682483 0 0.0097297225536895245 -0.0011965733954708269 0 0.0098734226428810381 -0.0012716635585077784 0 0.009584327789446255 -0.00014772949838880262 0 0.010000477912000354 0.00052454112834030724 0 0.012901333856789845 0.0015676423434270548 0 0.012772786969259762 0.0017316911389095404 0 0.012609000508065415 0.0016121660376464651 0 0.011201598818215237 7.0658241610116679e-05 0 0.010656555796309317 -0.00091231419414580925 0 0.0099810698684504422 -0.00084538063403812025 0 0.01022764609890856 -0.00085248739289211877 0 0.0099724386435522481 -0.0010593509073484704 0 0.01022764609890856 -0.00085248739289211877 0 0.010381349679063142 -0.0010306599860759238 0 0.010154158606880176 -0.0011120175183409963 0 0.010539604153135981 -0.00078916510633779619 0 0.01022764609890856 -0.00085248739289211877 0 0.010381349679063142 -0.0010306599860759238 0 0.010381349679063142 -0.0010306599860759238 0 0.010154158606880176 -0.0011120175183409963 0 0.010309711303133417 -0.0012801098427530221 0 0.01022764609890856 -0.00085248739289211877 0 0.0099724386435522481 -0.0010593509073484704 0 0.010154158606880176 -0.0011120175183409963 0 0.0098851135730363571 -0.0011140996164682483 0 0.0099653511021746324 -0.00079532268189990438 0 0.0099724386435522481 -0.0010593509073484704 0 0.010154158606880176 -0.0011120175183409963 0 0.0099911090921729409 -0.0011650932829316604 0 0.010063778106077991 -0.001268935616741297 0 0.0099724386435522481 -0.0010593509073484704 0 0.010154158606880176 -0.0011120175183409963 0 0.0099911090921729409 -0.0011650932829316604 0 0.0098851135730363571 -0.0011140996164682483 0 0.0099724386435522481 -0.0010593509073484704 0 0.0099911090921729409 -0.0011650932829316604 0 0.0099911090921729409 -0.0011650932829316604 0 0.010063778106077991 -0.001268935616741297 0 0.0098734226428810381 -0.0012716635585077784 0 0.010063778106077991 -0.001268935616741297 0 0.010147233210649401 -0.0014170559824396981 0 0.009970298763210983 -0.0014457487395043056 0 0.010063778106077991 -0.001268935616741297 0 0.009970298763210983 -0.0014457487395043056 0 0.0098734226428810381 -0.0012716635585077784 0 0.010309711303133417 -0.0012801098427530221 0 0.010147233210649401 -0.0014170559824396981 0 0.010266186287407941 -0.0015841435247926157 0 0.010063778106077991 -0.001268935616741297 0 0.010309711303133417 -0.0012801098427530221 0 0.010147233210649401 -0.0014170559824396981 0 0.010154158606880176 -0.0011120175183409963 0 0.010063778106077991 -0.001268935616741297 0 0.010309711303133417 -0.0012801098427530221 0 0.010147233210649401 -0.0014170559824396981 0 0.010266186287407941 -0.0015841435247926157 0 0.010063295752718613 -0.0016311489040199245 0 0.010147233210649401 -0.0014170559824396981 0 0.009970298763210983 -0.0014457487395043056 0 0.010063295752718613 -0.0016311489040199245 0 0.009970298763210983 -0.0014457487395043056 0 0.010063295752718613 -0.0016311489040199245 0 0.0098624142292567159 -0.0016447907563395823 0 0.0098624142292567159 -0.0016447907563395823 0 0.0096327518476511751 -0.0013614913981343441 0 0.0098145609775352506 -0.0014148032958508487 0 0.009970298763210983 -0.0014457487395043056 0 0.0098624142292567159 -0.0016447907563395823 0 0.0098145609775352506 -0.0014148032958508487 0 0.0061207413455153497 -0.00077895396564596562 0 0.0083136281949568944 -0.00020592544295779881 0 0.0052738688773465671 -0.0003317774958271305 0 0.0055692073307490875 0.00016563822745895528 0 0.0055538534459950465 0.00035866063164186475 0 0.010000477912000354 0.00052454112834030724 0 0.0083136281949568944 -0.00020592544295779881 0 0.0094613305231439643 0.00081003853565573799 0 0.0091898292810971942 0.00032208463425638183 0 0.0091613599752890362 0.00062729492801031966 0 0.0083136281949568944 -0.00020592544295779881 0 0.0097209192925556062 0.0010330588952851074 0 0.010000477912000354 0.00052454112834030724 0 0.0097209192925556062 0.0010330588952851074 0 0.0097297225536895245 -0.0011965733954708269 0 0.0097623466347771751 -0.0013116627829712353 0 0.0098734226428810381 -0.0012716635585077784 0 0.0097297225536895245 -0.0011965733954708269 0 0.0096327518476511751 -0.0013614913981343441 0 0.0097623466347771751 -0.0013116627829712353 0 0.0097623466347771751 -0.0013116627829712353 0 0.0098734226428810381 -0.0012716635585077784 0 0.0098145609775352506 -0.0014148032958508487 0 0.009970298763210983 -0.0014457487395043056 0 0.0098734226428810381 -0.0012716635585077784 0 0.0098145609775352506 -0.0014148032958508487 0 0.0096327518476511751 -0.0013614913981343441 0 0.0097623466347771751 -0.0013116627829712353 0 0.0098145609775352506 -0.0014148032958508487 0 0.011319471164622693 -0.0012102753694792185 0 0.011559435688981488 -0.00077368644026503406 0 0.010981905178144616 -0.00086321666904204213 0 0.011319471164622693 -0.0012102753694792185 0 0.010981905178144616 -0.00086321666904204213 0 0.010933713756050288 -0.0012389555673660757 0 0.010981905178144616 -0.00086321666904204213 0 0.010933713756050288 -0.0012389555673660757 0 0.010602506485678988 -0.0011312451920741954 0 0.010539604153135981 -0.00078916510633779619 0 0.010981905178144616 -0.00086321666904204213 0 0.010602506485678988 -0.0011312451920741954 0 0.010539604153135981 -0.00078916510633779619 0 0.010381349679063142 -0.0010306599860759238 0 0.010602506485678988 -0.0011312451920741954 0 0.010381349679063142 -0.0010306599860759238 0 0.010309711303133417 -0.0012801098427530221 0 0.010602506485678988 -0.0011312451920741954 0 0.010309711303133417 -0.0012801098427530221 0 0.010602506485678988 -0.0011312451920741954 0 0.010602213536491356 -0.0014872038059548815 0 0.010266186287407941 -0.0015841435247926157 0 0.010602213536491356 -0.0014872038059548815 0 0.01042926724162989 -0.0018126593492075347 0 0.010309711303133417 -0.0012801098427530221 0 0.010266186287407941 -0.0015841435247926157 0 0.010602213536491356 -0.0014872038059548815 0 0.010602213536491356 -0.0014872038059548815 0 0.011011812077101002 -0.0015522648358789581 0 0.010762496712078056 -0.0018007401799255173 0 0.010933713756050288 -0.0012389555673660757 0 0.010602506485678988 -0.0011312451920741954 0 0.010602213536491356 -0.0014872038059548815 0 0.010933713756050288 -0.0012389555673660757 0 0.010602213536491356 -0.0014872038059548815 0 0.011011812077101002 -0.0015522648358789581 0 0.011319471164622693 -0.0012102753694792185 0 0.010933713756050288 -0.0012389555673660757 0 0.011011812077101002 -0.0015522648358789581 0 0.011375961857613477 -0.0015916832896992869 0 0.011319471164622693 -0.0012102753694792185 0 0.011011812077101002 -0.0015522648358789581 0 0.011115279568825045 -0.002031233456679298 0 0.010643401055630077 -0.0021136657830686904 0 0.010762496712078056 -0.0018007401799255173 0 0.011011812077101002 -0.0015522648358789581 0 0.011115279568825045 -0.002031233456679298 0 0.010762496712078056 -0.0018007401799255173 0 0.011375961857613477 -0.0015916832896992869 0 0.011011812077101002 -0.0015522648358789581 0 0.011115279568825045 -0.002031233456679298 0 0.010643401055630077 -0.0021136657830686904 0 0.010762496712078056 -0.0018007401799255173 0 0.01042926724162989 -0.0018126593492075347 0 0.010602213536491356 -0.0014872038059548815 0 0.010762496712078056 -0.0018007401799255173 0 0.01042926724162989 -0.0018126593492075347 0 0.010643401055630077 -0.0021136657830686904 0 0.01042926724162989 -0.0018126593492075347 0 0.010288283627422394 -0.0021247596883262774 0 0.010643401055630077 -0.0021136657830686904 0 0.010345410471294145 -0.0024721538162389223 0 0.010831308675677519 -0.0024702169657378403 0 0.010643401055630077 -0.0021136657830686904 0 0.010345410471294145 -0.0024721538162389223 0 0.010288283627422394 -0.0021247596883262774 0 0.011182952808559882 -0.0025458776680467475 0 0.011115279568825045 -0.002031233456679298 0 0.010831308675677519 -0.0024702169657378403 0 0.011115279568825045 -0.002031233456679298 0 0.010643401055630077 -0.0021136657830686904 0 0.010831308675677519 -0.0024702169657378403 0 0.0083136281949568944 -0.00020592544295779881 0 0.0075430067954461019 -0.001690014240723105 0 0.0052738688773465671 -0.0003317774958271305 0 0.0055529700677142317 0.00012539601765843985 0 0.0056016562993218954 -0.0011019979056670268 0 0.0098624142292567159 -0.0016447907563395823 0 0.0096327518476511751 -0.0013614913981343441 0 0.0096555683443335268 -0.0020633378596864749 0 0.0052738688773465671 -0.0003317774958271305 0 0.0056016562993218954 -0.0011019979056670268 0 0.0048214593176889439 -0.0010155705360132149 0 0.0098624142292567159 -0.0016447907563395823 0 0.0096555683443335268 -0.0020633378596864749 0 0.010070955232674601 -0.0018820651759937431 0 0.010063295752718613 -0.0016311489040199245 0 0.0098624142292567159 -0.0016447907563395823 0 0.010070955232674601 -0.0018820651759937431 0 0.010266186287407941 -0.0015841435247926157 0 0.010063295752718613 -0.0016311489040199245 0 0.010070955232674601 -0.0018820651759937431 0 0.010266186287407941 -0.0015841435247926157 0 0.01042926724162989 -0.0018126593492075347 0 0.010070955232674601 -0.0018820651759937431 0 0.010070955232674601 -0.0018820651759937431 0 0.010006435183526192 -0.0022647936531163277 0 0.010288283627422394 -0.0021247596883262774 0 0.01042926724162989 -0.0018126593492075347 0 0.010070955232674601 -0.0018820651759937431 0 0.010288283627422394 -0.0021247596883262774 0 0.0096555683443335268 -0.0020633378596864749 0 0.010070955232674601 -0.0018820651759937431 0 0.010006435183526192 -0.0022647936531163277 0 0.0096588928936799986 -0.0028122714084614186 0 0.010345410471294145 -0.0024721538162389223 0 0.010006435183526192 -0.0022647936531163277 0 0.010345410471294145 -0.0024721538162389223 0 0.010006435183526192 -0.0022647936531163277 0 0.010288283627422394 -0.0021247596883262774 0 0.0056765099868255281 -0.0022767452888917002 0 0.0056016562993218954 -0.0011019979056670268 0 0.0050280083327130833 -0.0017131149365776988 0 0.0096588928936799986 -0.0028122714084614186 0 0.0096555683443335268 -0.0020633378596864749 0 0.010006435183526192 -0.0022647936531163277 0 0.0078543753830635915 -0.0023883310052246432 0 0.0075430067954461019 -0.001690014240723105 0 0.0048214593176889439 -0.0010155705360132149 0 0.0040987696504440922 -0.0011781155630993839 0 0.0043600093806365862 -0.0016999464608178996 0 0.0050280083327130833 -0.0017131149365776988 0 0.0048214593176889439 -0.0010155705360132149 0 0.0043600093806365862 -0.0016999464608178996 0 0.0056016562993218954 -0.0011019979056670268 0 0.0050280083327130833 -0.0017131149365776988 0 0.0048214593176889439 -0.0010155705360132149 0 0.0052738688773465671 -0.0003317774958271305 0 0.0048214593176889439 -0.0010155705360132149 0 0.0043772068298153777 -0.00036867308198564074 0 0.0048214593176889439 -0.0010155705360132149 0 0.0040987696504440922 -0.0011781155630993839 0 0.0043772068298153777 -0.00036867308198564074 0 0.0058820481655051278 -0.00068440481958439829 0 0.0085850247954063885 0.00064109010995033549 0 0.011531683984198272 0.0016355764594451405 0 0.0083668751345226042 -0.00033548419225225669 0 0.013103077782882494 0.0016815078133114259 0 0.0040987696504440922 -0.0011781155630993839 0 0.0033158180601922955 -0.0011705277845503676 0 0.0043772068298153777 -0.00036867308198564074 0 0.0040987696504440922 -0.0011781155630993839 0 0.0036749163833120664 -0.001600441528816398 0 0.0033158180601922955 -0.0011705277845503676 0 0.0040987696504440922 -0.0011781155630993839 0 0.0043600093806365862 -0.0016999464608178996 0 0.0036749163833120664 -0.001600441528816398 0 0.0038042802489000882 -0.0022704421269402011 0 0.0043600093806365862 -0.0016999464608178996 0 0.0036749163833120664 -0.001600441528816398 0 0.003157609385369191 -0.0019171037420010778 0 0.0028288079891386755 -0.0018438637411172629 0 0.0033158180601922955 -0.0011705277845503676 0 0.003157609385369191 -0.0019171037420010778 0 0.0036749163833120664 -0.001600441528816398 0 0.0033158180601922955 -0.0011705277845503676 0 0.0028288079891386755 -0.0018438637411172629 0 0.0035375068542521735 -0.00097855919758255334 0 0.0083668751345226042 -0.00033548419225225669 0 0.0028006950908965864 -0.0020478194641158562 0 0.003157609385369191 -0.0019171037420010778 0 0.0028288079891386755 -0.0018438637411172629 0 0.0031289362118848188 -0.0018095952440593246 0 0.0058820481655051278 -0.00068440481958439829 0 0.0035375068542521735 -0.00097855919758255334 0 0.0030159117079420475 -0.00053337773109417871 0 0.0027015119648175212 -0.0011993360828447155 0 0.0028288079891386755 -0.0018438637411172629 0 0.0035375068542521735 -0.00097855919758255334 0 0.0027015119648175212 -0.0011993360828447155 0 0.0035375068542521735 -0.00097855919758255334 0 0.0083668751345226042 -0.00033548419225225669 0 0.0049949144462003757 0.002520809350260726 0 0.0035375068542521735 -0.00097855919758255334 0 0.0030159117079420475 -0.00053337773109417871 0 0.0035127716959948859 0.00031511042408991521 0 0.0036035876735190024 -0.00097085999663455529 0 0.00414071882345884 0.0017326857444290896 0 0.0030159117079420475 -0.00053337773109417871 0 0.0035127716959948859 0.00031511042408991521 0 0.0027321876579560643 -0.00019718980540607377 0 0.0083668751345226042 -0.00033548419225225669 0 0.008577653412215152 0.0019554260549321935 0 0.0049949144462003757 0.002520809350260726 0 0.011531683984198272 0.0016355764594451405 0 0.0083668751345226042 -0.00033548419225225669 0 0.008577653412215152 0.0019554260549321935 0 0.0086652296354632341 0.0044759720934659745 0 0.0049949144462003757 0.002520809350260726 0 0.0060552546120304918 0.0067478716503324996 0 0.011531683984198272 0.0016355764594451405 0 0.008577653412215152 0.0019554260549321935 0 0.0086652296354632341 0.0044759720934659745 0 0.008577653412215152 0.0019554260549321935 0 0.0086652296354632341 0.0044759720934659745 0 0.0049949144462003757 0.002520809350260726 0 0.01046262336408613 0.0030053065671754573 0 0.0076302556522615961 0.001582063467817372 0 0.00414071882345884 0.0017326857444290896 0 0.0076302556522615961 0.001582063467817372 0 0.0035127716959948859 0.00031511042408991521 0 0.0036905527233657052 0.0012357641328399607 0 0.0028841935537632975 0.0010932402191989336 0 0.0083354888294756638 -0.0022868457235515551 0 0.0057800078807473225 -0.0001193497508395882 0 0.0076835302180565598 0.00017055533524724912 0 0.0076302556522615961 0.001582063467817372 0 0.0042528573867831564 0.00073294201438551371 0 0.0036905527233657052 0.0012357641328399607 0 0.0028841935537632975 0.0010932402191989336 0 0.0029545932281086372 0.0018334373025214966 0 0.012525936946682522 0.0017946257211390231 0 0.012642355937743922 0.001711334835997476 0 0.012660281398793849 0.0017292249663338507 0 0.012525936946682522 0.0017946257211390231 0 0.012641426523093503 0.0016891673475979781 0 0.012642355937743922 0.001711334835997476 0 0.012641426523093503 0.0016891673475979781 0 0.012642355937743922 0.001711334835997476 0 0.012700399322630897 0.0017050105245240911 0 0.012642355937743922 0.001711334835997476 0 0.012700399322630897 0.0017050105245240911 0 0.012804804652038079 0.0016986478613547661 0 0.012804804652038079 0.0016986478613547661 0 0.012660281398793849 0.0017292249663338507 0 0.012915907009776743 0.0017387687079340412 0 0.012642355937743922 0.001711334835997476 0 0.012804804652038079 0.0016986478613547661 0 0.012660281398793849 0.0017292249663338507 0 0.012660281398793849 0.0017292249663338507 0 0.012915907009776743 0.0017387687079340412 0 0.01255917930122921 0.0018064149445037483 0 0.012915907009776743 0.0017387687079340412 0 0.012890219057308798 0.0017867553008069424 0 0.01255917930122921 0.0018064149445037483 0 0.012804804652038079 0.0016986478613547661 0 0.012915907009776743 0.0017387687079340412 0 0.013162401470358021 0.0016812430881011236 0 0.012915907009776743 0.0017387687079340412 0 0.013161643704758258 0.0017014908059369983 0 0.013162401470358021 0.0016812430881011236 0 0.012901333856789845 0.0015676423434270548 0 0.013161643704758258 0.0017014908059369983 0 0.013023386482623378 0.0017628413066472952 0 0.012928055212784118 0.0018263317974872349 0 0.013023386482623378 0.0017628413066472952 0 0.012996982185826492 0.0017780678420503697 0 0.013161643704758258 0.0017014908059369983 0 0.013023386482623378 0.0017628413066472952 0 0.013016535846703526 0.0017559873547005093 0 0.013023386482623378 0.0017628413066472952 0 0.013016535846703526 0.0017559873547005093 0 0.012996982185826492 0.0017780678420503697 0 0.012915907009776743 0.0017387687079340412 0 0.013161643704758258 0.0017014908059369983 0 0.013016535846703526 0.0017559873547005093 0 0.012915907009776743 0.0017387687079340412 0 0.013016535846703526 0.0017559873547005093 0 0.012890219057308798 0.0017867553008069424 0 0.013016535846703526 0.0017559873547005093 0 0.012890219057308798 0.0017867553008069424 0 0.012996982185826492 0.0017780678420503697 0 0.012890219057308798 0.0017867553008069424 0 0.012996982185826492 0.0017780678420503697 0 0.012824508342485648 0.0018224983212791032 0 0.012928055212784118 0.0018263317974872349 0 0.012996982185826492 0.0017780678420503697 0 0.013103077782882494 0.0016815078133114259 0 0.0052738688773465671 -0.0003317774958271305 0 0.0055538534459950465 0.00035866063164186475 0 0.0043772068298153777 -0.00036867308198564074 0 0.0097209192925556062 0.0010330588952851074 0 0.0085850247954063885 0.00064109010995033549 0 0.012996982185826492 0.0017780678420503697 0 0.013103077782882494 0.0016815078133114259 0 0.012824508342485648 0.0018224983212791032 0 0.011531683984198272 0.0016355764594451405 0 0.013103077782882494 0.0016815078133114259 0 0.012231434751388649 0.0018547149815384446 0 0.013103077782882494 0.0016815078133114259 0 0.012231434751388649 0.0018547149815384446 0 0.012824508342485648 0.0018224983212791032 0 0.011531683984198272 0.0016355764594451405 0 0.012525936946682522 0.0017946257211390231 0 0.012231434751388649 0.0018547149815384446 0 0.011529474233574944 0.0018737570274128283 0 0.01046262336408613 0.0030053065671754573 0 0.012525936946682522 0.0017946257211390231 0 0.012231434751388649 0.0018547149815384446 0 0.01255917930122921 0.0018064149445037483 0 0.012525936946682522 0.0017946257211390231 0 0.012660281398793849 0.0017292249663338507 0 0.01255917930122921 0.0018064149445037483 0 0.012890219057308798 0.0017867553008069424 0 0.01255917930122921 0.0018064149445037483 0 0.012824508342485648 0.0018224983212791032 0 0.012231434751388649 0.0018547149815384446 0 0.01255917930122921 0.0018064149445037483 0 0.012824508342485648 0.0018224983212791032 0 0.00010924632262167685 8.4321588756695653e-05 0 -0.00072779701181431707 0.00057865469267860616 0 -0.0011132387829931869 -0.00037370055968930817 0 0.00010924632262167685 8.4321588756695653e-05 0 -0.00017153539192951654 -0.00061577677438530453 0 -0.0011132387829931869 -0.00037370055968930817 0 8.357247789686701e-05 0.00021691204351257913 0 -0.00035529637084268556 0.00089907628063202137 0 -0.00074056410346508956 -0.00099944394623153045 0 -0.00017153539192951654 -0.00061577677438530453 0 -0.0011132387829931869 -0.00037370055968930817 0 -0.00074056410346508956 -0.00099944394623153045 0 -0.00017153539192951654 -0.00061577677438530453 0 0.00030617940852417636 -0.0012951142394263125 0 0.00030617940852417636 -0.0012951142394263125 0 0.00057481261961402942 -0.00036643330075954693 0 0.0011592523867709167 -0.00086919776069903506 0 -0.00017153539192951654 -0.00061577677438530453 0 0.00030617940852417636 -0.0012951142394263125 0 0.00057481261961402942 -0.00036643330075954693 0 0.00030617940852417636 -0.0012951142394263125 0 0.0011592523867709167 -0.00086919776069903506 0 0.0010915013515304581 -0.0014407075983511059 0 0.00057481261961402942 -0.00036643330075954693 0 0.0011206541206019176 -0.00031352478571205968 0 0.0011592523867709167 -0.00086919776069903506 0 0.00057481261961402942 -0.00036643330075954693 0 0.0010402613701956027 0.000108506365572612 0 0.0011206541206019176 -0.00031352478571205968 0 0.00010924632262167685 8.4321588756695653e-05 0 -0.00017153539192951654 -0.00061577677438530453 0 0.00057481261961402942 -0.00036643330075954693 0 0.00010924632262167685 8.4321588756695653e-05 0 0.00057481261961402942 -0.00036643330075954693 0 0.00059289012662075912 0.00029924377813418695 0 0.00057481261961402942 -0.00036643330075954693 0 0.0010402613701956027 0.000108506365572612 0 0.00059289012662075912 0.00029924377813418695 0 0.0010402613701956027 0.000108506365572612 0 0.001707487976328727 0.00010332505531436935 0 0.0011206541206019176 -0.00031352478571205968 0 0.001707487976328727 0.00010332505531436935 0 0.0015485084689665736 -0.00045444108731929528 0 0.002098377372869185 -0.00031332477198762489 0 0.0015485084689665736 -0.00045444108731929528 0 0.001786829475440764 -0.00082196676446634519 0 0.002098377372869185 -0.00031332477198762489 0 0.001707487976328727 0.00010332505531436935 0 0.0015485084689665736 -0.00045444108731929528 0 0.0011206541206019176 -0.00031352478571205968 0 0.0015485084689665736 -0.00045444108731929528 0 0.0011206541206019176 -0.00031352478571205968 0 0.0011592523867709167 -0.00086919776069903506 0 0.0011592523867709167 -0.00086919776069903506 0 0.0010915013515304581 -0.0014407075983511059 0 0.0017243636128739959 -0.0013519236176382796 0 0.0014552349300079362 -0.0018458070673826588 0 0.0010915013515304581 -0.0014407075983511059 0 0.0017243636128739959 -0.0013519236176382796 0 0.0011592523867709167 -0.00086919776069903506 0 0.0017243636128739959 -0.0013519236176382796 0 0.001786829475440764 -0.00082196676446634519 0 0.0015485084689665736 -0.00045444108731929528 0 0.0011592523867709167 -0.00086919776069903506 0 0.001786829475440764 -0.00082196676446634519 0 0.0017243636128739959 -0.0013519236176382796 0 0.0023307056413463586 -0.00089295708577985663 0 0.0023430232198359637 -0.0015658817440870618 0 0.0017243636128739959 -0.0013519236176382796 0 0.001786829475440764 -0.00082196676446634519 0 0.0023307056413463586 -0.00089295708577985663 0 0.002005897295965087 -0.0018359402871397658 0 0.0017243636128739959 -0.0013519236176382796 0 0.0023430232198359637 -0.0015658817440870618 0 0.0028288079891386755 -0.0018438637411172629 0 0.0023430232198359637 -0.0015658817440870618 0 0.0027015119648175212 -0.0011993360828447155 0 0.0024729260581817965 -0.0020752409199395099 0 0.0028288079891386755 -0.0018438637411172629 0 0.0023430232198359637 -0.0015658817440870618 0 0.0023307056413463586 -0.00089295708577985663 0 0.0023430232198359637 -0.0015658817440870618 0 0.0027015119648175212 -0.0011993360828447155 0 0.0030159117079420475 -0.00053337773109417871 0 0.0023307056413463586 -0.00089295708577985663 0 0.0027015119648175212 -0.0011993360828447155 0 0.0035127716959948859 0.00031511042408991521 0 0.0027321876579560643 -0.00019718980540607377 0 0.0025520378391491205 0.0003402048577551186 0 0.0030159117079420475 -0.00053337773109417871 0 0.0023307056413463586 -0.00089295708577985663 0 0.0027321876579560643 -0.00019718980540607377 0 0.001786829475440764 -0.00082196676446634519 0 0.0023307056413463586 -0.00089295708577985663 0 0.002098377372869185 -0.00031332477198762489 0 0.0023307056413463586 -0.00089295708577985663 0 0.002098377372869185 -0.00031332477198762489 0 0.0027321876579560643 -0.00019718980540607377 0 0.002098377372869185 -0.00031332477198762489 0 0.0027321876579560643 -0.00019718980540607377 0 0.0025520378391491205 0.0003402048577551186 0 0.001707487976328727 0.00010332505531436935 0 0.002098377372869185 -0.00031332477198762489 0 0.0025520378391491205 0.0003402048577551186 0 0.0035127716959948859 0.00031511042408991521 0 0.0025520378391491205 0.0003402048577551186 0 0.0028841935537632975 0.0010932402191989336 0 0.0025520378391491205 0.0003402048577551186 0 0.0028841935537632975 0.0010932402191989336 0 0.0020512939653471438 0.00082845555137328305 0 0.0028841935537632975 0.0010932402191989336 0 0.0024429888484618716 0.0015816770828247749 0 0.0020512939653471438 0.00082845555137328305 0 0.0028841935537632975 0.0010932402191989336 0 0.0024429888484618716 0.0015816770828247749 0 0.0029545932281086372 0.0018334373025214966 0 0.0024429888484618716 0.0015816770828247749 0 0.0017769217175653458 0.0012732594490997028 0 0.0020512939653471438 0.00082845555137328305 0 0.0024429888484618716 0.0015816770828247749 0 0.0017769217175653458 0.0012732594490997028 0 0.0019389311135992033 0.0017961123928567286 0 0.0017769217175653458 0.0012732594490997028 0 0.0013582834323774735 0.0014236806833409089 0 0.0019389311135992033 0.0017961123928567286 0 0.0017769217175653458 0.0012732594490997028 0 0.0015115204194752678 0.00084165947912403843 0 0.0020512939653471438 0.00082845555137328305 0 0.0017769217175653458 0.0012732594490997028 0 0.0015115204194752678 0.00084165947912403843 0 0.0011754242803890828 0.0010423541023849771 0 0.0015115204194752678 0.00084165947912403843 0 0.0014702310673523726 0.00049373485026686897 0 0.0010548266803008073 0.0005869507764565278 0 0.0015115204194752678 0.00084165947912403843 0 0.0020512939653471438 0.00082845555137328305 0 0.0014702310673523726 0.00049373485026686897 0 0.001707487976328727 0.00010332505531436935 0 0.0025520378391491205 0.0003402048577551186 0 0.0020512939653471438 0.00082845555137328305 0 0.001707487976328727 0.00010332505531436935 0 0.0020512939653471438 0.00082845555137328305 0 0.0014702310673523726 0.00049373485026686897 0 0.0010402613701956027 0.000108506365572612 0 0.001707487976328727 0.00010332505531436935 0 0.0014702310673523726 0.00049373485026686897 0 0.0010402613701956027 0.000108506365572612 0 0.0010548266803008073 0.0005869507764565278 0 0.00059289012662075912 0.00029924377813418695 0 0.0010402613701956027 0.000108506365572612 0 0.0014702310673523726 0.00049373485026686897 0 0.0010548266803008073 0.0005869507764565278 0 0.00059289012662075912 0.00029924377813418695 0 0.00065968518040187402 0.00080599468894315576 0 0.00025831574534155894 0.00051204639254057377 0 0.0010548266803008073 0.0005869507764565278 0 0.00059289012662075912 0.00029924377813418695 0 0.00065968518040187402 0.00080599468894315576 0 0.0015115204194752678 0.00084165947912403843 0 0.0010548266803008073 0.0005869507764565278 0 0.0011754242803890828 0.0010423541023849771 0 0.0010548266803008073 0.0005869507764565278 0 0.00065968518040187402 0.00080599468894315576 0 0.0011754242803890828 0.0010423541023849771 0 0.0011754242803890828 0.0010423541023849771 0 0.0013582834323774735 0.0014236806833409089 0 0.00088174553377295007 0.001355484493518587 0 0.0017769217175653458 0.0012732594490997028 0 0.0011754242803890828 0.0010423541023849771 0 0.0013582834323774735 0.0014236806833409089 0 0.0013582834323774735 0.0014236806833409089 0 0.00088174553377295007 0.001355484493518587 0 0.0013151818493275136 0.0018592637911543691 0 0.00088174553377295007 0.001355484493518587 0 0.00067749476509154443 0.0016676837618879886 0 0.0013151818493275136 0.0018592637911543691 0 0.00065968518040187402 0.00080599468894315576 0 0.0011754242803890828 0.0010423541023849771 0 0.00088174553377295007 0.001355484493518587 0 0.00065968518040187402 0.00080599468894315576 0 0.00088174553377295007 0.001355484493518587 0 0.00023579875979939602 0.0013688398642926777 0 0.00088174553377295007 0.001355484493518587 0 0.00023579875979939602 0.0013688398642926777 0 0.00067749476509154443 0.0016676837618879886 0 0.00043018871956518762 0.0014407774037096188 0 -0.00035529637084268556 0.00089907628063202137 0 0.00065968518040187402 0.00080599468894315576 0 0.00023579875979939602 0.0013688398642926777 0 0.00025831574534155894 0.00051204639254057377 0 0.00023579875979939602 0.0013688398642926777 0 0.00025831574534155894 0.00051204639254057377 0 -0.00018897475790757796 0.00030413607638475376 0 0.00010924632262167685 8.4321588756695653e-05 0 0.00059289012662075912 0.00029924377813418695 0 0.00025831574534155894 0.00051204639254057377 0 0.00010924632262167685 8.4321588756695653e-05 0 0.00025831574534155894 0.00051204639254057377 0 -0.00018897475790757796 0.00030413607638475376 0 0.00074250090185497524 0.0023209819439952832 0 0.00024469054568270648 0.0021550677636022345 0 0.00018149893907829862 0.0025486209705295024 0 0.00055876741068672481 0.0017007527149287889 0 0.00074250090185497524 0.0023209819439952832 0 0.00024469054568270648 0.0021550677636022345 0 0.00023579875979939602 0.0013688398642926777 0 0.001638108229329655 0.0028147979136955419 0 0.00067749476509154443 0.0016676837618879886 0 0.001638108229329655 0.0028147979136955419 0 0.00067749476509154443 0.0016676837618879886 0 0.0021268375533513109 0.0031549796144220888 0 0.00043018871956518762 0.0014407774037096188 0 0.0015420466294820158 0.0026541327386122543 0 0.00067749476509154443 0.0016676837618879886 0 0.0012359778405487399 0.0026204707404551145 0 0.00068540154250955278 0.0033264849871586497 0 0.00078418836244793029 0.0018039385388217517 0 0.0013792834567075676 0.00330924518399944 0 0.00067749476509154443 0.0016676837618879886 0 0.0013151818493275136 0.0018592637911543691 0 0.0012359778405487399 0.0026204707404551145 0 0.0013151818493275136 0.0018592637911543691 0 0.0018188696379849228 0.0023416874092754849 0 0.0019389311135992033 0.0017961123928567286 0 0.0013582834323774735 0.0014236806833409089 0 0.0013151818493275136 0.0018592637911543691 0 0.0019389311135992033 0.0017961123928567286 0 0.0013151818493275136 0.0018592637911543691 0 0.0012359778405487399 0.0026204707404551145 0 0.0018188696379849228 0.0023416874092754849 0 0.0012359778405487399 0.0026204707404551145 0 0.0019714565581800247 0.003283308793758715 0 0.0018188696379849228 0.0023416874092754849 0 0.0012359778405487399 0.0026204707404551145 0 0.0013985440707275061 0.0034106992507740653 0 0.0019714565581800247 0.003283308793758715 0 0.0012359778405487399 0.0026204707404551145 0 0.00068540154250955278 0.0033264849871586497 0 0.0013985440707275061 0.0034106992507740653 0 0.0015420466294820158 0.0026541327386122543 0 0.0020519706632210768 0.0033647287648225694 0 0.001638108229329655 0.0028147979136955419 0 0.0021268375533513109 0.0031549796144220888 0 0.0022511678543455844 0.0034139637490110046 0 0.0013985440707275061 0.0034106992507740653 0 0.0019714565581800247 0.003283308793758715 0 0.0017365883686219119 0.0047138966439622468 0 0.00068540154250955278 0.0033264849871586497 0 0.0013985440707275061 0.0034106992507740653 0 0.0017365883686219119 0.0047138966439622468 0 0.0019714565581800247 0.003283308793758715 0 0.0029424810180446047 0.0038155824598747252 0 0.0029047703344779641 0.002411393251543127 0 0.0019714565581800247 0.003283308793758715 0 0.0029424810180446047 0.0038155824598747252 0 0.0017365883686219119 0.0047138966439622468 0 0.0029424810180446047 0.0038155824598747252 0 0.0029047703344779641 0.002411393251543127 0 0.0051054854284558263 0.003209187406986092 0 0.0019714565581800247 0.003283308793758715 0 0.0029047703344779641 0.002411393251543127 0 0.0018188696379849228 0.0023416874092754849 0 0.0024429888484618716 0.0015816770828247749 0 0.0029047703344779641 0.002411393251543127 0 0.0019389311135992033 0.0017961123928567286 0 0.0029047703344779641 0.002411393251543127 0 0.0018188696379849228 0.0023416874092754849 0 0.0019389311135992033 0.0017961123928567286 0 0.0024429888484618716 0.0015816770828247749 0 0.0029047703344779641 0.002411393251543127 0 0.0029545932281086372 0.0018334373025214966 0 0.0029808142334944729 0.0023171183204874707 0 0.0042528573867831564 0.00073294201438551371 0 0.0057800078807473225 -0.0001193497508395882 0 0.0051054854284558263 0.003209187406986092 0 0.0075196026288934488 0.0016145680101738633 0 0.0029047703344779641 0.002411393251543127 0 0.0057800078807473225 -0.0001193497508395882 0 0.0051054854284558263 0.003209187406986092 0 0.0051054854284558263 0.003209187406986092 0 0.0035072024770292638 0.0055379071470463767 0 0.0063634653607685101 0.0049802261589857195 0 0.0053215339281253169 0.0066631447382259077 0 0.0035072024770292638 0.0055379071470463767 0 0.0063634653607685101 0.0049802261589857195 0 0.0053215339281253169 0.0066631447382259077 0 0.0063634653607685101 0.0049802261589857195 0 0.006788527623160393 0.0062901118303905334 0 0.0053215339281253169 0.0066631447382259077 0 0.006788527623160393 0.0062901118303905334 0 0.0062854047186276362 0.0077552717947335075 0 0.0053215339281253169 0.0066631447382259077 0 0.0062854047186276362 0.0077552717947335075 0 0.0049039873944528639 0.0081705049413673195 0 0.0053215339281253169 0.0066631447382259077 0 0.0040625846463038084 0.0071651081410036635 0 0.0049039873944528639 0.0081705049413673195 0 0.0040625846463038084 0.0071651081410036635 0 0.0036174869438167024 0.0082421301412368472 0 0.0049039873944528639 0.0081705049413673195 0 0.0053215339281253169 0.0066631447382259077 0 0.0040625846463038084 0.0071651081410036635 0 0.0035072024770292638 0.0055379071470463767 0 0.0029771435883764147 0.0071659235893357289 0 0.0011565350432369654 0.0065524260316278012 0 0.0026816006380666986 0.0085720983637254909 0 0.0040625846463038084 0.0071651081410036635 0 0.0029771435883764147 0.0071659235893357289 0 0.0035072024770292638 0.0055379071470463767 0 0.0029771435883764147 0.0071659235893357289 0 0.0035072024770292638 0.0055379071470463767 0 0.0011565350432369654 0.0065524260316278012 0 0.0040625846463038084 0.0071651081410036635 0 0.0029771435883764147 0.0071659235893357289 0 0.0036174869438167024 0.0082421301412368472 0 0.0029424810180446047 0.0038155824598747252 0 0.0051054854284558263 0.003209187406986092 0 0.0035072024770292638 0.0055379071470463767 0 0.0035072024770292638 0.0055379071470463767 0 0.0017365883686219119 0.0047138966439622468 0 0.0011565350432369654 0.0065524260316278012 0 0.0029424810180446047 0.0038155824598747252 0 0.0035072024770292638 0.0055379071470463767 0 0.0017365883686219119 0.0047138966439622468 0 0.00068540154250955278 0.0033264849871586497 0 0.0017365883686219119 0.0047138966439622468 0 0.0011565350432369654 0.0065524260316278012 0 0.0022511678543455844 0.0034139637490110046 0 0.0028105900463963338 0.0043225591551192223 0 0.0022574216567435813 0.0039902366864380699 0 0.0021268375533513109 0.0031549796144220888 0 0.0022511678543455844 0.0034139637490110046 0 0.0028105900463963338 0.0043225591551192223 0 0.0013792834567075676 0.00330924518399944 0 0.0020349951774184345 0.0053803822190828122 0 0.0028105900463963338 0.0043225591551192223 0 0.0022580839170424911 0.0047167825667401141 0 0.0022574216567435813 0.0039902366864380699 0 0.0022580839170424911 0.0047167825667401141 0 0.0022574216567435813 0.0039902366864380699 0 0.0017844049718611103 0.0039344971996098117 0 0.00074250090185497524 0.0023209819439952832 0 0.00039773385616020609 0.0029146141851311516 0 0.00018149893907829862 0.0025486209705295024 0 0.0022511678543455844 0.0034139637490110046 0 0.0022574216567435813 0.0039902366864380699 0 0.0017844049718611103 0.0039344971996098117 0 0.0015420466294820158 0.0026541327386122543 0 0.00092788516169852126 0.003450155465605466 0 0.002128628615297553 0.0030255965087989975 0 0.0022511678543455844 0.0034139637490110046 0 0.0017844049718611103 0.0039344971996098117 0 0.012847253982982141 0.0019835679678682884 0 0.013551754414276883 0.0016738964039767362 0 0.012887625278292701 0.0017308285751296024 0 0.012847253982982141 0.0019835679678682884 0 0.013551754414276883 0.0016738964039767362 0 0.013027842820879154 0.0022764219150753114 0 0.012847253982982141 0.0019835679678682884 0 0.012610699655295678 0.0023744583242785149 0 0.013027842820879154 0.0022764219150753114 0 0.01367059295263605 0.0015392016226333867 0 0.014103769692991961 0.0011515107181708079 0 0.01371288755400742 0.0010496685554020669 0 0.013551754414276883 0.0016738964039767362 0 0.013411191684752756 0.0016168188958903388 0 0.013551754414276883 0.0016738964039767362 0 0.013027842820879154 0.0022764219150753114 0 0.01334911841773348 0.0025600043669037949 0 0.01371288755400742 0.0010496685554020669 0 0.013551754414276883 0.0016738964039767362 0 0.014977029918759259 -6.8764734579020422e-05 0 0.013551754414276883 0.0016738964039767362 0 0.013411191684752756 0.0016168188958903388 0 0.013162401470358021 0.0016812430881011236 0 0.013161643704758258 0.0017014908059369983 0 0.013411191684752756 0.0016168188958903388 0 0.013162401470358021 0.0016812430881011236 0 0.013551754414276883 0.0016738964039767362 0 0.013162401470358021 0.0016812430881011236 0 0.012887625278292701 0.0017308285751296024 0 0.012700399322630897 0.0017050105245240911 0 0.012804804652038079 0.0016986478613547661 0 0.012887625278292701 0.0017308285751296024 0 0.012804804652038079 0.0016986478613547661 0 0.013162401470358021 0.0016812430881011236 0 0.012887625278292701 0.0017308285751296024 0 0.0076302556522615961 0.001582063467817372 0 0.011173172189998514 0.0012698942714685255 0 0.012700399322630897 0.0017050105245240911 0 0.012887625278292701 0.0017308285751296024 0 0.012612459413033144 0.0017862864257894655 0 0.012641426523093503 0.0016891673475979781 0 0.012700399322630897 0.0017050105245240911 0 0.012612459413033144 0.0017862864257894655 0 0.012847253982982141 0.0019835679678682884 0 0.012887625278292701 0.0017308285751296024 0 0.012612459413033144 0.0017862864257894655 0 0.0083354888294756638 -0.0022868457235515551 0 0.0091079921388662246 0.0013793579049539632 0 0.0076835302180565598 0.00017055533524724912 0 0.0091079921388662246 0.0013793579049539632 0 0.0076835302180565598 0.00017055533524724912 0 0.0075196026288934488 0.0016145680101738633 0 0.0057800078807473225 -0.0001193497508395882 0 0.0076835302180565598 0.00017055533524724912 0 0.0075196026288934488 0.0016145680101738633 0 0.0051054854284558263 0.003209187406986092 0 0.0075196026288934488 0.0016145680101738633 0 0.0072794203996411969 0.0033504368022435581 0 0.0091079921388662246 0.0013793579049539632 0 0.0075196026288934488 0.0016145680101738633 0 0.0094585301829175211 0.0023955531401529599 0 0.0075196026288934488 0.0016145680101738633 0 0.0072794203996411969 0.0033504368022435581 0 0.0094585301829175211 0.0023955531401529599 0 0.0072794203996411969 0.0033504368022435581 0 0.0094585301829175211 0.0023955531401529599 0 0.008272179371022639 0.0045392937474972878 0 0.0051054854284558263 0.003209187406986092 0 0.0072794203996411969 0.0033504368022435581 0 0.0063634653607685101 0.0049802261589857195 0 0.012847253982982141 0.0019835679678682884 0 0.012612459413033144 0.0017862864257894655 0 0.012610699655295678 0.0023744583242785149 0 0.011173172189998514 0.0012698942714685255 0 0.011672225502062428 0.002994945632826694 0 0.0091079921388662246 0.0013793579049539632 0 0.0094585301829175211 0.0023955531401529599 0 0.010755357005676501 0.0033896610816251623 0 0.0094585301829175211 0.0023955531401529599 0 0.008272179371022639 0.0045392937474972878 0 0.0089848240981927618 0.0065026484598525308 0 0.0094585301829175211 0.0023955531401529599 0 0.010755357005676501 0.0033896610816251623 0 0.011141201664814505 0.004009296394066636 0 0.0092727665582552649 0.0024467093878556769 0 0.011302668319303405 0.0051328841715938961 0 0.010755357005676501 0.0033896610816251623 0 0.011112241818498122 0.0036388551169863441 0 0.011141201664814505 0.004009296394066636 0 0.0072794203996411969 0.0033504368022435581 0 0.008272179371022639 0.0045392937474972878 0 0.0063634653607685101 0.0049802261589857195 0 0.008272179371022639 0.0045392937474972878 0 0.0076820026389238681 0.0058058140393696675 0 0.0089848240981927618 0.0065026484598525308 0 0.008272179371022639 0.0045392937474972878 0 0.0076820026389238681 0.0058058140393696675 0 0.0063634653607685101 0.0049802261589857195 0 0.0076820026389238681 0.0058058140393696675 0 0.0063634653607685101 0.0049802261589857195 0 0.006788527623160393 0.0062901118303905334 0 0.011302668319303405 0.0051328841715938961 0 0.009065158548005053 0.0075416348337332302 0 0.0071597016098705396 0.0071729098012561898 0 0.0089848240981927618 0.0065026484598525308 0 0.0060737501631838746 0.00949653684573812 0 0.006788527623160393 0.0062901118303905334 0 0.0062854047186276362 0.0077552717947335075 0 0.0071597016098705396 0.0071729098012561898 0 0.0076820026389238681 0.0058058140393696675 0 0.006788527623160393 0.0062901118303905334 0 0.0071597016098705396 0.0071729098012561898 0 0.0076820026389238681 0.0058058140393696675 0 0.0071597016098705396 0.0071729098012561898 0 0.0089848240981927618 0.0065026484598525308 0 0.011672225502062428 0.002994945632826694 0 0.012325557877023762 0.0034022970572776955 0 0.010755357005676501 0.0033896610816251623 0 0.011112241818498122 0.0036388551169863441 0 0.011977802674697282 0.003739888279332059 0 0.012610699655295678 0.0023744583242785149 0 0.01267414458429811 0.0030032706211819056 0 0.012909707362121863 0.0026456530751214962 0 0.011112241818498122 0.0036388551169863441 0 0.011461433455768765 0.0036882130428835991 0 0.011977802674697282 0.003739888279332059 0 0.011565884789266945 0.0043056554178057833 0 0.011302668319303405 0.0051328841715938961 0 0.01298998023908858 0.002926151480446686 0 0.012909707362121863 0.0026456530751214962 0 0.01334911841773348 0.0025600043669037949 0 0.01267414458429811 0.0030032706211819056 0 0.01298998023908858 0.002926151480446686 0 0.012892098780763946 0.0031904269828581886 0 0.01267414458429811 0.0030032706211819056 0 0.01298998023908858 0.002926151480446686 0 0.012909707362121863 0.0026456530751214962 0 0.012909707362121863 0.0026456530751214962 0 0.013027842820879154 0.0022764219150753114 0 0.01334911841773348 0.0025600043669037949 0 0.012610699655295678 0.0023744583242785149 0 0.012909707362121863 0.0026456530751214962 0 0.013027842820879154 0.0022764219150753114 0 0.014123817642663414 -0.00014555947436198003 0 0.01371288755400742 0.0010496685554020669 0 0.014977029918759259 -6.8764734579020422e-05 0 0.014334644464211909 -0.0015281857263459691 0 0.014977029918759259 -6.8764734579020422e-05 0 0.015570508652155582 -0.0025138586888311313 0 0.01298998023908858 0.002926151480446686 0 0.01334911841773348 0.0025600043669037949 0 0.013114825177036419 0.0031503608711403509 0 0.014103769692991961 0.0011515107181708079 0 0.014308264585413453 0.00030542803325768806 0 0.015570508652155582 -0.0025138586888311313 0 0.015766241423501012 -0.0030939732554268939 0 0.015309091931939231 -0.0027615901761765217 0 0.013114825177036419 0.0031503608711403509 0 0.012854580025630516 0.0033639476605089617 0 0.012892098780763946 0.0031904269828581886 0 0.01298998023908858 0.002926151480446686 0 0.013114825177036419 0.0031503608711403509 0 0.012892098780763946 0.0031904269828581886 0 0.013114825177036419 0.0031503608711403509 0 0.012854580025630516 0.0033639476605089617 0 0.012780163011608663 0.0033822490772445579 0 0.012854580025630516 0.0033639476605089617 0 0.012780163011608663 0.0033822490772445579 0 0.012827298937400344 0.0033428931307944183 0 0.014308264585413453 0.00030542803325768806 0 0.014296346335658121 0.00010149932247480192 0 0.012854580025630516 0.0033639476605089617 0 0.012699254909927576 0.003448787741150771 0 0.012827298937400344 0.0033428931307944183 0 0.012854580025630516 0.0033639476605089617 0 0.012699254909927576 0.003448787741150771 0 0.012892098780763946 0.0031904269828581886 0 0.01267414458429811 0.0030032706211819056 0 0.012699254909927576 0.003448787741150771 0 0.012892098780763946 0.0031904269828581886 0 0.012325557877023762 0.0034022970572776955 0 0.012640697167314837 0.0035025429118242498 0 0.011977802674697282 0.003739888279332059 0 0.012699254909927576 0.003448787741150771 0 0.012582321256393747 0.0035700739522324929 0 0.011461433455768765 0.0036882130428835991 0 0.011977802674697282 0.003739888279332059 0 0.012582321256393747 0.0035700739522324929 0 0.011302668319303405 0.0051328841715938961 0 0.012988943211682627 0.0039735786023573569 0 0.0062854047186276362 0.0077552717947335075 0 0.0071597016098705396 0.0071729098012561898 0 0.0060737501631838746 0.00949653684573812 0 0.013079872544864781 0.0059776992872032624 0 0.013123320615602292 0.0046321608210301724 0 0.013986443521980686 0.0049438251188450586 0 0.0067482861500046919 0.0085773604878127633 0 0.009065158548005053 0.0075416348337332302 0 0.013606083263005593 0.0042126522122959724 0 0.013123320615602292 0.0046321608210301724 0 0.013986443521980686 0.0049438251188450586 0 0.013606083263005593 0.0042126522122959724 0 0.013986443521980686 0.0049438251188450586 0 0.014097323001807998 0.0039904478730970359 0 0.013606083263005593 0.0042126522122959724 0 0.013123320615602292 0.0046321608210301724 0 0.01324317507359548 0.0033146544995011876 0 0.012699254909927576 0.003448787741150771 0 0.012582321256393747 0.0035700739522324929 0 0.012870372822840488 0.0034113011850968843 0 0.012582321256393747 0.0035700739522324929 0 0.012870372822840488 0.0034113011850968843 0 0.01324317507359548 0.0033146544995011876 0 0.012988943211682627 0.0039735786023573569 0 0.013147828115401064 0.003370176620315394 0 0.012870372822840488 0.0034113011850968843 0 0.01324317507359548 0.0033146544995011876 0 0.012977566163528759 0.0032115214512367773 0 0.013678084374546909 0.0030834422212932793 0 0.014097323001807998 0.0039904478730970359 0 0.014182942148472369 0.0031682002051108852 0 0.013606083263005593 0.0042126522122959724 0 0.01324317507359548 0.0033146544995011876 0 0.014097323001807998 0.0039904478730970359 0 0.01324317507359548 0.0033146544995011876 0 0.013678084374546909 0.0030834422212932793 0 0.014097323001807998 0.0039904478730970359 0 0.013678084374546909 0.0030834422212932793 0 0.014182942148472369 0.0031682002051108852 0 0.013959183642498339 0.0027684377323433118 0 0.01324317507359548 0.0033146544995011876 0 0.013678084374546909 0.0030834422212932793 0 0.01321249138128633 0.0029152477159643171 0 0.013678084374546909 0.0030834422212932793 0 0.01321249138128633 0.0029152477159643171 0 0.013633517571341356 0.002676885996748769 0 0.01324317507359548 0.0033146544995011876 0 0.01321249138128633 0.0029152477159643171 0 0.012977566163528759 0.0032115214512367773 0 0.012977566163528759 0.0032115214512367773 0 0.012821989931042659 0.0029547516680534761 0 0.012827298937400344 0.0033428931307944183 0 0.01321249138128633 0.0029152477159643171 0 0.012977566163528759 0.0032115214512367773 0 0.012821989931042659 0.0029547516680534761 0 0.012821989931042659 0.0029547516680534761 0 0.012589777100243903 0.0026978725292083738 0 0.012512269650205906 0.0030408043989781038 0 0.012821989931042659 0.0029547516680534761 0 0.012827298937400344 0.0033428931307944183 0 0.012512269650205906 0.0030408043989781038 0 0.012780163011608663 0.0033822490772445579 0 0.012827298937400344 0.0033428931307944183 0 0.012512269650205906 0.0030408043989781038 0 0.012699254909927576 0.003448787741150771 0 0.012870372822840488 0.0034113011850968843 0 0.012827298937400344 0.0033428931307944183 0 0.012870372822840488 0.0034113011850968843 0 0.012977566163528759 0.0032115214512367773 0 0.012827298937400344 0.0033428931307944183 0 0.0035776652254169788 0.0049704932933427809 0 0.0029450749617833346 0.0051856759500326062 0 0.0032215235957083854 0.0048350021399951879 0 0.0032013174433807544 0.0050349121865591569 0 0.0026845644337280174 0.0053537255449891703 0 0.0020365139885867647 0.0057872773892644336 0 0.0022323434980547597 0.0052363633207779528 0 0.0028199673843980161 0.0052060570900718372 0 0.0032013174433807544 0.0050349121865591569 0 0.0035261831929717137 0.0049356516053890801 0 0.0020365139885867647 0.0057872773892644336 0 0.0022323434980547597 0.0052363633207779528 0 0.001832891853191103 0.0052439771069185464 0 0.0022580839170424911 0.0047167825667401141 0 0.0022323434980547597 0.0052363633207779528 0 0.001832891853191103 0.0052439771069185464 0 0.0022580839170424911 0.0047167825667401141 0 0.0022323434980547597 0.0052363633207779528 0 0.0028199673843980161 0.0052060570900718372 0 0.0011565350432369654 0.0065524260316278012 0 0.0020550758725484349 0.009836992600952655 0 0.0026816006380666986 0.0085720983637254909 0 0.0028105900463963338 0.0043225591551192223 0 0.0028199673843980161 0.0052060570900718372 0 0.0030073084970769315 0.0052233162290397702 0 0.0020349951774184345 0.0053803822190828122 0 0.0020979304922153492 0.0078440101600625242 0 0.0028105900463963338 0.0043225591551192223 0 0.0022580839170424911 0.0047167825667401141 0 0.0028199673843980161 0.0052060570900718372 0 0.0028199673843980161 0.0052060570900718372 0 0.0030073084970769315 0.0052233162290397702 0 0.0029450749617833346 0.0051856759500326062 0 0.0030073084970769315 0.0052233162290397702 0 0.0029450749617833346 0.0051856759500326062 0 0.0030567820013307195 0.0052877242809344785 0 0.0035776652254169788 0.0049704932933427809 0 0.0028199673843980161 0.0052060570900718372 0 0.0029450749617833346 0.0051856759500326062 0 0.0032561824991818493 0.010790055427400289 0 0.0043283438994507406 0.011027559803235205 0 0.002848404274976088 0.012738705188411964 0 0.0020550758725484349 0.009836992600952655 0 0.0032561824991818493 0.010790055427400289 0 0.002848404274976088 0.012738705188411964 0 0.0020979304922153492 0.0078440101600625242 0 0.0067022233110728057 0.007080259152636193 0 0.0032561824991818493 0.010790055427400289 0 0.0038129002804432027 0.0095121288848120222 0 0.0043283438994507406 0.011027559803235205 0 0.0020550758725484349 0.009836992600952655 0 0.0032561824991818493 0.010790055427400289 0 0.0038129002804432027 0.0095121288848120222 0 0.0020550758725484349 0.009836992600952655 0 0.0026816006380666986 0.0085720983637254909 0 0.0038129002804432027 0.0095121288848120222 0 0.0026816006380666986 0.0085720983637254909 0 0.0036174869438167024 0.0082421301412368472 0 0.0038129002804432027 0.0095121288848120222 0 0.0029771435883764147 0.0071659235893357289 0 0.0026816006380666986 0.0085720983637254909 0 0.0036174869438167024 0.0082421301412368472 0 0.0038129002804432027 0.0095121288848120222 0 0.0049039873944528639 0.0081705049413673195 0 0.0059972450063782573 0.0092540609003841281 0 0.0036174869438167024 0.0082421301412368472 0 0.0038129002804432027 0.0095121288848120222 0 0.0049039873944528639 0.0081705049413673195 0 0.0062854047186276362 0.0077552717947335075 0 0.0049039873944528639 0.0081705049413673195 0 0.0059972450063782573 0.0092540609003841281 0 0.009065158548005053 0.0075416348337332302 0 0.0071516357474197432 0.0094011878417099067 0 0.009065158548005053 0.0075416348337332302 0 0.012152111120182727 0.0049638736632614724 0 0.0038129002804432027 0.0095121288848120222 0 0.0059972450063782573 0.0092540609003841281 0 0.0043283438994507406 0.011027559803235205 0 0.0097067494141854834 0.0078374770723043941 0 0.01055708432435346 0.0068341430031169945 0 0.0098580947171723211 0.0064706132116227767 0 0.0098580947171723211 0.0064706132116227767 0 0.010050015165749701 0.0056574427652662952 0 0.010031332291947293 0.0050955030184727662 0 0.012152111120182727 0.0049638736632614724 0 0.012417310941084985 0.004224981843140364 0 0.0098580947171723211 0.0064706132116227767 0 0.010530445684471755 0.006025360677376166 0 0.010050015165749701 0.0056574427652662952 0 0.01055708432435346 0.0068341430031169945 0 0.0098580947171723211 0.0064706132116227767 0 0.010530445684471755 0.006025360677376166 0 0.010530445684471755 0.006025360677376166 0 0.010050015165749701 0.0056574427652662952 0 0.01069935501764774 0.0053717366976640561 0 0.010027185243446713 0.005108517711502167 0 0.01069935501764774 0.0053717366976640561 0 0.011115249905894945 0.0043679865932099342 0 0.011270426271686746 0.0053947187729999173 0 0.012417310941084985 0.004224981843140364 0 0.010050015165749701 0.0056574427652662952 0 0.010027185243446713 0.005108517711502167 0 0.01069935501764774 0.0053717366976640561 0 0.01069935501764774 0.0053717366976640561 0 0.011398811695612408 0.0058277909193146663 0 0.011115249905894945 0.0043679865932099342 0 0.009638108033276107 0.0048569271595023259 0 0.011389381816189013 0.0033397075375125123 0 0.0099123180601878164 0.00497611434907536 0 0.0099404820481030828 0.0055952723451229121 0 0.0097506774573319719 0.0043230208442641554 0 0.0067022233110728057 0.007080259152636193 0 0.010676694389528462 0.0042187821803794474 0 0.010099179009022399 0.0049943981031078553 0 0.0098318781422703332 0.0040235137825107231 0 0.0097506774573319719 0.0043230208442641554 0 0.013064966533372984 0.0032497023767323317 0 0.01317981164254825 0.003028656975876739 0 0.01289370726245735 0.0027332012889193023 0 0.010099179009022399 0.0049943981031078553 0 0.0099123180601878164 0.00497611434907536 0 0.0097506774573319719 0.0043230208442641554 0 0.009638108033276107 0.0048569271595023259 0 0.0097608083449035078 0.0048790378391502095 0 0.010089636003560878 0.0049979364771693506 0 0.0099123180601878164 0.00497611434907536 0 0.010186426601318537 0.0053146552177475003 0 0.009638108033276107 0.0048569271595023259 0 0.0064038563341636181 0.0048418558224515486 0 0.0064038563341636181 0.0048418558224515486 0 0.0067022233110728057 0.007080259152636193 0 0.0099123180601878164 0.00497611434907536 0 0.010186426601318537 0.0053146552177475003 0 0.0099404820481030828 0.0055952723451229121 0 0.010530445684471755 0.006025360677376166 0 0.01069935501764774 0.0053717366976640561 0 0.011398811695612408 0.0058277909193146663 0 0.0071516357474197432 0.0094011878417099067 0 0.0067022233110728057 0.007080259152636193 0 0.01055708432435346 0.0068341430031169945 0 0.010530445684471755 0.006025360677376166 0 0.011398811695612408 0.0058277909193146663 0 0.0029450749617833346 0.0051856759500326062 0 0.0030403729221026472 0.0053159001942784086 0 0.0030567820013307195 0.0052877242809344785 0 0.0020915598096379676 0.0048410783189586099 0 0.0064038563341636181 0.0048418558224515486 0 0.0029450749617833346 0.0051856759500326062 0 0.0024789981467472472 0.0040143225596163228 0 0.0030540049382127648 0.0042739409187245152 0 0.0029450749617833346 0.0051856759500326062 0 0.0032215235957083854 0.0048350021399951879 0 0.0030540049382127648 0.0042739409187245152 0 0.0024789981467472472 0.0040143225596163228 0 0.0030540049382127648 0.0042739409187245152 0 0.0026965735550914384 0.0036936451043067579 0 0.0030540049382127648 0.0042739409187245152 0 0.0026965735550914384 0.0036936451043067579 0 0.0041463287904655657 0.0036737065569047087 0 0.0087248738820790497 0.0040137421562367239 0 0.0089006907355401316 0.0034998561725580954 0 0.013258863129604569 0.0032517209259591423 0 0.013376122576711159 0.0031207714955876023 0 0.013906003737697896 0.0032493616776112033 0 0.0078803364175157875 0.0042630517692878083 0 0.0079354069614650889 0.0044315247594914689 0 0.008066465792376052 0.0042787908125579838 0 0.0064038563341636181 0.0048418558224515486 0 0.0087248738820790497 0.0040137421562367239 0 0.013064966533372984 0.0032497023767323317 0 0.013253632135821669 0.003263687528480544 0 0.01317981164254825 0.003028656975876739 0 0.0087248738820790497 0.0040137421562367239 0 0.011008004762234078 0.0025797008343602019 0 0.009638108033276107 0.0048569271595023259 0 0.0087248738820790497 0.0040137421562367239 0 0.01317981164254825 0.003028656975876739 0 0.013376122576711159 0.0031207714955876023 0 0.013298923427384285 0.0027756816548481751 0 0.013253632135821669 0.003263687528480544 0 0.01317981164254825 0.003028656975876739 0 0.013376122576711159 0.0031207714955876023 0 0.013376122576711159 0.0031207714955876023 0 0.013906003737697896 0.0032493616776112033 0 0.013798427221333742 0.0028156396310257577 0 0.0041463287904655657 0.0036737065569047087 0 0.0038243549379311896 0.0044273416190182668 0 0.0045151521103918343 0.0043045096361141464 0 0.0030540049382127648 0.0042739409187245152 0 0.0041463287904655657 0.0036737065569047087 0 0.0038243549379311896 0.0044273416190182668 0 0.0043154084897250086 0.0051134042423580045 0 0.0032215235957083854 0.0048350021399951879 0 0.0038243549379311896 0.0044273416190182668 0 0.0032215235957083854 0.0048350021399951879 0 0.0030540049382127648 0.0042739409187245152 0 0.0038243549379311896 0.0044273416190182668 0 0.0043154084897250086 0.0051134042423580045 0 0.0038243549379311896 0.0044273416190182668 0 0.0045151521103918343 0.0043045096361141464 0 0.014100158333419884 0.0023521812868038984 0 0.013798427221333742 0.0028156396310257577 0 0.013593148000734514 0.002549806622967765 0 0.013376122576711159 0.0031207714955876023 0 0.013798427221333742 0.0028156396310257577 0 0.013298923427384285 0.0027756816548481751 0 0.013798427221333742 0.0028156396310257577 0 0.013593148000734514 0.002549806622967765 0 0.013298923427384285 0.0027756816548481751 0 0.013593148000734514 0.002549806622967765 0 0.013298923427384285 0.0027756816548481751 0 0.013204780135086166 0.0021445366405894008 0 0.014100158333419884 0.0023521812868038984 0 0.013204780135086166 0.0021445366405894008 0 0.013643514290633258 0.0017143087660816993 0 0.014100158333419884 0.0023521812868038984 0 0.013593148000734514 0.002549806622967765 0 0.013204780135086166 0.0021445366405894008 0 0.013204780135086166 0.0021445366405894008 0 0.012703549037162082 0.0021902918448743797 0 0.01289370726245735 0.0027332012889193023 0 0.013204780135086166 0.0021445366405894008 0 0.012703549037162082 0.0021902918448743797 0 0.013039080665466741 0.0017182979856753999 0 0.013298923427384285 0.0027756816548481751 0 0.013204780135086166 0.0021445366405894008 0 0.01289370726245735 0.0027332012889193023 0 0.011282716755042598 0.0026460498976109636 0 0.011389381816189013 0.0033397075375125123 0 0.0095859646763173326 0.0030526132290502241 0 0.0098318781422703332 0.0040235137825107231 0 0.0097506774573319719 0.0043230208442641554 0 0.011282716755042598 0.0026460498976109636 0 0.010676694389528462 0.0042187821803794474 0 0.01317981164254825 0.003028656975876739 0 0.013298923427384285 0.0027756816548481751 0 0.01289370726245735 0.0027332012889193023 0 0.010833355727720749 0.0029194380501068738 0 0.011115249905894945 0.0043679865932099342 0 0.010236434065667906 0.0034182750378147198 0 0.014182942148472369 0.0031682002051108852 0 0.014216078354416517 0.0023619153521726968 0 0.013959183642498339 0.0027684377323433118 0 0.012417310941084985 0.004224981843140364 0 0.014622155931372696 0.0022665069045996193 0 0.014494318188299568 0.0037978168645663403 0 0.014736981896668585 0.0025100009940662747 0 0.014543566969299249 0.0024758489850482649 0 0.010027185243446713 0.005108517711502167 0 0.011115249905894945 0.0043679865932099342 0 0.010236434065667906 0.0034182750378147198 0 0.012417310941084985 0.004224981843140364 0 0.012492827173305188 0.0030025626206223715 0 0.014216078354416517 0.0023619153521726968 0 0.01440390400961814 0.0015476382714445481 0 0.014134416912042728 0.0020526475526426143 0 0.014622155931372696 0.0022665069045996193 0 0.01448786694488453 0.0014565612222860861 0 0.012492827173305188 0.0030025626206223715 0 0.012452938236581432 0.0015993203920105527 0 0.010833355727720749 0.0029194380501068738 0 0.010236434065667906 0.0034182750378147198 0 0.010452620319311098 0.0017396154614549679 0 0.014736981896668585 0.0025100009940662747 0 0.014543566969299249 0.0024758489850482649 0 0.014921568466323757 0.0013852070623198837 0 0.011282716755042598 0.0026460498976109636 0 0.013485694703312869 0.0010992548606357185 0 0.012399218184026645 0.0023554405782791814 0 0.012191700755825246 0.0016545793909364054 0 0.012233905973888921 0.0013708651266132483 0 0.014543566969299249 0.0024758489850482649 0 0.014921568466323757 0.0013852070623198837 0 0.014605776854102885 0.001325769974928683 0 0.011282716755042598 0.0026460498976109636 0 0.012452938236581432 0.0015993203920105527 0 0.012452938236581432 0.0015993203920105527 0 0.013485694703312869 0.0010992548606357185 0 0.014795874681818959 0.0010068363407602242 0 0.014941278745492333 0.0011623738924494427 0 0.01488362097983446 0.00061237900913482064 0 0.01448786694488453 0.0014565612222860861 0 0.014688956749243445 0.00062004332392280939 0 0.013485694703312869 0.0010992548606357185 0 0.01504515393095889 0.0007648594493868964 0 0.014921568466323757 0.0013852070623198837 0 0.014605776854102885 0.001325769974928683 0 0.014795874681818959 0.0010068363407602242 0 0.014605776854102885 0.001325769974928683 0 0.014795874681818959 0.0010068363407602242 0 0.014729686042945502 0.00060000741003492653 0 0.014921568466323757 0.0013852070623198837 0 0.014795874681818959 0.0010068363407602242 0 0.014941278745492333 0.0011623738924494427 0 0.012537021176570311 0.0013281841868922895 0 0.013117755377731129 0.0012125325981930358 0 0.01266826068040462 0.0003733913947052735 0 0.012537021176570311 0.0013281841868922895 0 0.013117755377731129 0.0012125325981930358 0 0.013039080665466741 0.0017182979856753999 0 0.012703549037162082 0.0021902918448743797 0 0.012537021176570311 0.0013281841868922895 0 0.013039080665466741 0.0017182979856753999 0 0.013117755377731129 0.0012125325981930358 0 0.013039080665466741 0.0017182979856753999 0 0.013643514290633258 0.0017143087660816993 0 0.013204780135086166 0.0021445366405894008 0 0.013039080665466741 0.0017182979856753999 0 0.013643514290633258 0.0017143087660816993 0 0.013117755377731129 0.0012125325981930358 0 0.014173170996087132 0.0010721162215294481 0 0.01339480327096214 0.00073355834705328882 0 0.013117755377731129 0.0012125325981930358 0 0.013643514290633258 0.0017143087660816993 0 0.014173170996087132 0.0010721162215294481 0 0.014881616379274971 0.0012965331158089008 0 0.014402428896960051 0.0010835121950527457 0 0.013643514290633258 0.0017143087660816993 0 0.014173170996087132 0.0010721162215294481 0 0.014458146675488627 0.0017607967865937483 0 0.014100158333419884 0.0023521812868038984 0 0.013643514290633258 0.0017143087660816993 0 0.014458146675488627 0.0017607967865937483 0 0.012976889113488136 0.0021827304936231761 0 0.012465883926015721 0.0021912091884251288 0 0.013021125219505219 0.0015995617308601497 0 0.012976889113488136 0.0021827304936231761 0 0.013282573636864345 0.0023139523337795194 0 0.013485819949446256 0.0019519487718018356 0 0.012976889113488136 0.0021827304936231761 0 0.012685494974429208 0.0024161858813217946 0 0.013010929405093715 0.002591583808285944 0 0.012976889113488136 0.0021827304936231761 0 0.013010929405093715 0.002591583808285944 0 0.013282573636864345 0.0023139523337795194 0 0.012976889113488136 0.0021827304936231761 0 0.012465883926015721 0.0021912091884251288 0 0.012685494974429208 0.0024161858813217946 0 0.012557343496616247 0.0022668064182272732 0 0.012550222107827122 0.0024503297516424703 0 0.012358480282564839 0.0024382771707034553 0 0.012557343496616247 0.0022668064182272732 0 0.012550222107827122 0.0024503297516424703 0 0.012685494974429208 0.0024161858813217946 0 0.015537631458303775 0.00030975917217221518 0 0.013480830516610606 0.0013549241115820335 0 0.012685494974429208 0.0024161858813217946 0 0.012589777100243903 0.0026978725292083738 0 0.01277335335909119 0.0026684759684907438 0 0.012550222107827122 0.0024503297516424703 0 0.012589777100243903 0.0026978725292083738 0 0.012358480282564839 0.0024382771707034553 0 0.012550222107827122 0.0024503297516424703 0 0.012685494974429208 0.0024161858813217946 0 0.012589777100243903 0.0026978725292083738 0 0.012821989931042659 0.0029547516680534761 0 0.012589777100243903 0.0026978725292083738 0 0.01277335335909119 0.0026684759684907438 0 0.01321249138128633 0.0029152477159643171 0 0.012821989931042659 0.0029547516680534761 0 0.013010929405093715 0.002591583808285944 0 0.012821989931042659 0.0029547516680534761 0 0.01277335335909119 0.0026684759684907438 0 0.013010929405093715 0.002591583808285944 0 0.012685494974429208 0.0024161858813217946 0 0.01277335335909119 0.0026684759684907438 0 0.013010929405093715 0.002591583808285944 0 0.01321249138128633 0.0029152477159643171 0 0.013010929405093715 0.002591583808285944 0 0.01336301135991734 0.0025478204988166986 0 0.01321249138128633 0.0029152477159643171 0 0.01336301135991734 0.0025478204988166986 0 0.013633517571341356 0.002676885996748769 0 0.013587080642888941 0.0024677587701594484 0 0.01336301135991734 0.0025478204988166986 0 0.013561464856585678 0.0022605660926934821 0 0.013587080642888941 0.0024677587701594484 0 0.01336301135991734 0.0025478204988166986 0 0.013633517571341356 0.002676885996748769 0 0.013010929405093715 0.002591583808285944 0 0.01336301135991734 0.0025478204988166986 0 0.013282573636864345 0.0023139523337795194 0 0.013678084374546909 0.0030834422212932793 0 0.013959183642498339 0.0027684377323433118 0 0.013633517571341356 0.002676885996748769 0 0.013959183642498339 0.0027684377323433118 0 0.013633517571341356 0.002676885996748769 0 0.013923859304363285 0.0025080787579167714 0 0.013587080642888941 0.0024677587701594484 0 0.013633517571341356 0.002676885996748769 0 0.013800503260229184 0.0024065722301208773 0 0.013633517571341356 0.002676885996748769 0 0.013923859304363285 0.0025080787579167714 0 0.013800503260229184 0.0024065722301208773 0 0.014216078354416517 0.0023619153521726968 0 0.013959183642498339 0.0027684377323433118 0 0.013923859304363285 0.0025080787579167714 0 0.013923859304363285 0.0025080787579167714 0 0.013993869806469501 0.0023333033268029446 0 0.013800503260229184 0.0024065722301208773 0 0.014216078354416517 0.0023619153521726968 0 0.013923859304363285 0.0025080787579167714 0 0.013993869806469501 0.0023333033268029446 0 0.014216078354416517 0.0023619153521726968 0 0.013993869806469501 0.0023333033268029446 0 0.014134416912042728 0.0020526475526426143 0 0.013830265541238472 0.0022095532999809289 0 0.013800503260229184 0.0024065722301208773 0 0.013561464856585678 0.0022605660926934821 0 0.013993869806469501 0.0023333033268029446 0 0.013830265541238472 0.0022095532999809289 0 0.013993786643508045 0.0021321796059573244 0 0.013993869806469501 0.0023333033268029446 0 0.013830265541238472 0.0022095532999809289 0 0.013800503260229184 0.0024065722301208773 0 0.013830265541238472 0.0022095532999809289 0 0.013819006194351367 0.0020162033133677591 0 0.013561464856585678 0.0022605660926934821 0 0.013819006194351367 0.0020162033133677591 0 0.013993786643508045 0.0021321796059573244 0 0.014073359985917354 0.0018805679953527107 0 0.013830265541238472 0.0022095532999809289 0 0.013819006194351367 0.0020162033133677591 0 0.013993786643508045 0.0021321796059573244 0 0.013993869806469501 0.0023333033268029446 0 0.014134416912042728 0.0020526475526426143 0 0.013993786643508045 0.0021321796059573244 0 0.014134416912042728 0.0020526475526426143 0 0.013993786643508045 0.0021321796059573244 0 0.014073359985917354 0.0018805679953527107 0 0.01336301135991734 0.0025478204988166986 0 0.013282573636864345 0.0023139523337795194 0 0.013561464856585678 0.0022605660926934821 0 0.013587080642888941 0.0024677587701594484 0 0.013800503260229184 0.0024065722301208773 0 0.013561464856585678 0.0022605660926934821 0 0.013819006194351367 0.0020162033133677591 0 0.013561464856585678 0.0022605660926934821 0 0.013485819949446256 0.0019519487718018356 0 0.013282573636864345 0.0023139523337795194 0 0.013561464856585678 0.0022605660926934821 0 0.013485819949446256 0.0019519487718018356 0 0.013485819949446256 0.0019519487718018356 0 0.013864528707246528 0.0014595278801760147 0 0.013021125219505219 0.0015995617308601497 0 0.013485819949446256 0.0019519487718018356 0 0.013879592217042314 0.0017845115754061963 0 0.013864528707246528 0.0014595278801760147 0 0.013819006194351367 0.0020162033133677591 0 0.013485819949446256 0.0019519487718018356 0 0.013879592217042314 0.0017845115754061963 0 0.01440390400961814 0.0015476382714445481 0 0.014134416912042728 0.0020526475526426143 0 0.014073359985917354 0.0018805679953527107 0 0.014073359985917354 0.0018805679953527107 0 0.013879592217042314 0.0017845115754061963 0 0.014111236680685145 0.0016091787322210151 0 0.013819006194351367 0.0020162033133677591 0 0.014073359985917354 0.0018805679953527107 0 0.013879592217042314 0.0017845115754061963 0 0.013879592217042314 0.0017845115754061963 0 0.013864528707246528 0.0014595278801760147 0 0.014111236680685145 0.0016091787322210151 0 0.013864528707246528 0.0014595278801760147 0 0.014111236680685145 0.0016091787322210151 0 0.01423169380522485 0.0014048433564426482 0 0.01440390400961814 0.0015476382714445481 0 0.014111236680685145 0.0016091787322210151 0 0.01423169380522485 0.0014048433564426482 0 0.01440390400961814 0.0015476382714445481 0 0.014073359985917354 0.0018805679953527107 0 0.014111236680685145 0.0016091787322210151 0 0.01440390400961814 0.0015476382714445481 0 0.014404394911306628 0.0010817424260728163 0 0.014729686042945502 0.00060000741003492653 0 0.01440390400961814 0.0015476382714445481 0 0.01423169380522485 0.0014048433564426482 0 0.014404394911306628 0.0010817424260728163 0 0.013864528707246528 0.0014595278801760147 0 0.01423169380522485 0.0014048433564426482 0 0.014404394911306628 0.0010817424260728163 0 0.013864528707246528 0.0014595278801760147 0 0.014404394911306628 0.0010817424260728163 0 0.013773340832941522 0.00090126107964023244 0 0.015111707908316825 0.00013756125668904011 0 0.015330658630744853 -1.8214008926265592e-05 0 0.013864528707246528 0.0014595278801760147 0 0.013773340832941522 0.00090126107964023244 0 0.013021125219505219 0.0015995617308601497 0 0.016468617180596834 -0.00072362018126532134 0 0.017619340690002656 -0.0015055992311545287 0 0.017694638974621927 -0.00053665032872127552 0 0.017619340690002656 -0.0015055992311545287 0 0.018633746735644014 -0.00069072126654178988 0 0.017694638974621927 -0.00053665032872127552 0 0.012976889113488136 0.0021827304936231761 0 0.013485819949446256 0.0019519487718018356 0 0.013021125219505219 0.0015995617308601497 0 0.015537631458303775 0.00030975917217221518 0 0.015330658630744853 -1.8214008926265592e-05 0 0.018570162288136467 -0.0022799951255089252 0 0.017619340690002656 -0.0015055992311545287 0 0.018614438814098074 -0.0014751769960323596 0 0.017619340690002656 -0.0015055992311545287 0 0.018614438814098074 -0.0014751769960323596 0 0.018633746735644014 -0.00069072126654178988 0 0.018633746735644014 -0.00069072126654178988 0 0.019245718249035353 -0.00092991568753492549 0 0.019397360263347072 -0.00031979351223550192 0 0.018614438814098074 -0.0014751769960323596 0 0.018633746735644014 -0.00069072126654178988 0 0.019245718249035353 -0.00092991568753492549 0 0.019245718249035353 -0.00092991568753492549 0 0.02016224706939056 -0.00068998412104420801 0 0.019397360263347072 -0.00031979351223550192 0 0.019245718249035353 -0.00092991568753492549 0 0.019394867466221297 -0.0014962255187070412 0 0.02016224706939056 -0.00068998412104420801 0 0.018852404090812701 -0.0011039088753403367 0 0.019419640736214074 -0.00026864358939899787 0 0.018472855604260641 -0.00047564998179975952 0 0.017787258498743391 -0.00035164112542249257 0 0.018771712617675129 0.00017356437351022258 0 0.018472855604260641 -0.00047564998179975952 0 0.017787258498743391 -0.00035164112542249257 0 0.017874642115569772 -0.00072582268385578341 0 0.018472855604260641 -0.00047564998179975952 0 0.017874642115569772 -0.00072582268385578341 0 0.01821336193378905 -0.00087116937484262903 0 0.018570162288136467 -0.0022799951255089252 0 0.018614438814098074 -0.0014751769960323596 0 0.019394867466221297 -0.0014962255187070412 0 0.015537631458303775 0.00030975917217221518 0 0.018852404090812701 -0.0011039088753403367 0 0.018614438814098074 -0.0014751769960323596 0 0.019245718249035353 -0.00092991568753492549 0 0.019394867466221297 -0.0014962255187070412 0 0.017787258498743391 -0.00035164112542249257 0 0.017478736878159734 -0.0008388717064704024 0 0.017874642115569772 -0.00072582268385578341 0 0.017097884586484157 -0.00093367845540489735 0 0.017787258498743391 -0.00035164112542249257 0 0.017478736878159734 -0.0008388717064704024 0 0.015537631458303775 0.00030975917217221518 0 0.015972857227899658 0.00023359485440885234 0 0.0168796907830365 -0.0009906316032713869 0 0.015972857227899658 0.00023359485440885234 0 0.017097884586484157 -0.00093367845540489735 0 0.017478736878159734 -0.0008388717064704024 0 0.017409061618423888 -0.0012097698643758264 0 0.017478736878159734 -0.0008388717064704024 0 0.017427641538739245 -0.0011134635424607689 0 0.01773915370674271 -0.0010606244310756498 0 0.017478736878159734 -0.0008388717064704024 0 0.017874642115569772 -0.00072582268385578341 0 0.01773915370674271 -0.0010606244310756498 0 0.017874642115569772 -0.00072582268385578341 0 0.01821336193378905 -0.00087116937484262903 0 0.01773915370674271 -0.0010606244310756498 0 0.01821336193378905 -0.00087116937484262903 0 0.01773915370674271 -0.0010606244310756498 0 0.01820147387700324 -0.0012892707145030476 0 0.01773915370674271 -0.0010606244310756498 0 0.017477163146914415 -0.0014423315249033127 0 0.01820147387700324 -0.0012892707145030476 0 0.017477163146914415 -0.0014423315249033127 0 0.01820147387700324 -0.0012892707145030476 0 0.018236906658283463 -0.0020460738577658586 0 0.016506150741328881 -0.00053891429490979768 0 0.017477163146914415 -0.0014423315249033127 0 0.016192879506387637 -0.0020214502286313826 0 0.012589777100243903 0.0026978725292083738 0 0.012358480282564839 0.0024382771707034553 0 0.012512269650205906 0.0030408043989781038 0 0.015972857227899658 0.00023359485440885234 0 0.01418946341114005 0.00062315230456102958 0 0.017427641538739245 -0.0011134635424607689 0 0.01773915370674271 -0.0010606244310756498 0 0.017477163146914415 -0.0014423315249033127 0 0.015972857227899658 0.00023359485440885234 0 0.017844670510104056 -0.0017417058143916202 0 0.019215363798785901 -0.0014774337938406894 0 0.019000928698753458 -0.0011981664389929122 0 0.019596761735609151 -0.0012246723243173349 0 0.019215363798785901 -0.0014774337938406894 0 0.018720892983035212 -0.0015750875618746091 0 0.019000928698753458 -0.0011981664389929122 0 0.019215363798785901 -0.0014774337938406894 0 0.019596761735609151 -0.0012246723243173349 0 0.019624452164678667 -0.0015705240264996449 0 0.019215363798785901 -0.0014774337938406894 0 0.019624452164678667 -0.0015705240264996449 0 0.019128372349391128 -0.0018401337992023285 0 0.019624452164678667 -0.0015705240264996449 0 0.019662869747068185 -0.0018993405677691165 0 0.019128372349391128 -0.0018401337992023285 0 0.019215363798785901 -0.0014774337938406894 0 0.018720892983035212 -0.0015750875618746091 0 0.019128372349391128 -0.0018401337992023285 0 0.018720892983035212 -0.0015750875618746091 0 0.01820147387700324 -0.0012892707145030476 0 0.018236906658283463 -0.0020460738577658586 0 0.018720892983035212 -0.0015750875618746091 0 0.01820147387700324 -0.0012892707145030476 0 0.019000928698753458 -0.0011981664389929122 0 0.01820147387700324 -0.0012892707145030476 0 0.018834864315924259 -0.0008236072210599972 0 0.019000928698753458 -0.0011981664389929122 0 0.01821336193378905 -0.00087116937484262903 0 0.01820147387700324 -0.0012892707145030476 0 0.018834864315924259 -0.0008236072210599972 0 0.018472855604260641 -0.00047564998179975952 0 0.01821336193378905 -0.00087116937484262903 0 0.018834864315924259 -0.0008236072210599972 0 0.018834864315924259 -0.0008236072210599972 0 0.019000928698753458 -0.0011981664389929122 0 0.01957015230294264 -0.0008061189810274267 0 0.019596761735609151 -0.0012246723243173349 0 0.01957015230294264 -0.0008061189810274267 0 0.020031480461109356 -0.0010210110410917937 0 0.019000928698753458 -0.0011981664389929122 0 0.019596761735609151 -0.0012246723243173349 0 0.01957015230294264 -0.0008061189810274267 0 0.018834864315924259 -0.0008236072210599972 0 0.01957015230294264 -0.0008061189810274267 0 0.01924378841184959 -0.00038354138336148193 0 0.01957015230294264 -0.0008061189810274267 0 0.020011409202777893 -0.00036851044299647268 0 0.01924378841184959 -0.00038354138336148193 0 0.018472855604260641 -0.00047564998179975952 0 0.01924378841184959 -0.00038354138336148193 0 0.018771712617675129 0.00017356437351022258 0 0.018472855604260641 -0.00047564998179975952 0 0.018834864315924259 -0.0008236072210599972 0 0.01924378841184959 -0.00038354138336148193 0 0.01924378841184959 -0.00038354138336148193 0 0.018771712617675129 0.00017356437351022258 0 0.019692399353711355 1.7042219433611198e-05 0 0.020011409202777893 -0.00036851044299647268 0 0.01924378841184959 -0.00038354138336148193 0 0.019692399353711355 1.7042219433611198e-05 0 0.019692399353711355 1.7042219433611198e-05 0 0.020504965225521376 -7.5975228690361738e-06 0 0.020198239571496916 0.00019899226576761169 0 0.020011409202777893 -0.00036851044299647268 0 0.019692399353711355 1.7042219433611198e-05 0 0.020504965225521376 -7.5975228690361738e-06 0 0.020011409202777893 -0.00036851044299647268 0 0.020504965225521376 -7.5975228690361738e-06 0 0.020684600645999366 -0.00036885376670964568 0 0.020504965225521376 -7.5975228690361738e-06 0 0.020895574843491947 -6.1340096900944292e-05 0 0.020684600645999366 -0.00036885376670964568 0 0.020895574843491947 -6.1340096900944292e-05 0 0.020684600645999366 -0.00036885376670964568 0 0.021131173853710536 -0.00033988825645327132 0 0.020895574843491947 -6.1340096900944292e-05 0 0.021131173853710536 -0.00033988825645327132 0 0.021193125884449958 8.9549101381622721e-05 0 0.020684600645999366 -0.00036885376670964568 0 0.020868814309359929 -0.00059359542569016079 0 0.021131173853710536 -0.00033988825645327132 0 0.020868814309359929 -0.00059359542569016079 0 0.020589790797987423 -0.00064579505562404509 0 0.020700529303060263 -0.00080793800255784523 0 0.020684600645999366 -0.00036885376670964568 0 0.020868814309359929 -0.00059359542569016079 0 0.020589790797987423 -0.00064579505562404509 0 0.020684600645999366 -0.00036885376670964568 0 0.020589790797987423 -0.00064579505562404509 0 0.020226327228970643 -0.00067268313951892667 0 0.020011409202777893 -0.00036851044299647268 0 0.020684600645999366 -0.00036885376670964568 0 0.020226327228970643 -0.00067268313951892667 0 0.020589790797987423 -0.00064579505562404509 0 0.020226327228970643 -0.00067268313951892667 0 0.02042264163519307 -0.0008875478847038664 0 0.01957015230294264 -0.0008061189810274267 0 0.020011409202777893 -0.00036851044299647268 0 0.020226327228970643 -0.00067268313951892667 0 0.022876376567554278 -0.0006193849364617912 0 0.021761477034525158 -9.1072952516039552e-05 0 0.019914062998037458 -0.00065857085139535171 0 0.023388997867244066 -0.00044430147712411591 0 0.022876376567554278 -0.0006193849364617912 0 0.023739595924085363 -0.00034355434106108734 0 0.023388997867244066 -0.00044430147712411591 0 0.022876376567554278 -0.0006193849364617912 0 0.023053665829427542 -0.00056781836673294251 0 0.022876376567554278 -0.0006193849364617912 0 0.023115319946446226 -0.00042505086503124602 0 0.023053665829427542 -0.00056781836673294251 0 0.022173792517270221 -0.00041933005520119603 0 0.021960619142038302 -0.00017008318295179176 0 0.023115319946446226 -0.00042505086503124602 0 0.023053665829427542 -0.00056781836673294251 0 0.02274049240732328 -0.0006142301217483846 0 0.023115319946446226 -0.00042505086503124602 0 0.022840333662630403 0.0001392951195416868 0 0.023086869636532947 0.00086826817699069332 0 0.022173792517270221 -0.00041933005520119603 0 0.021554278306193442 0.00019994376267914272 0 0.020868814309359929 -0.00059359542569016079 0 0.021131173853710536 -0.00033988825645327132 0 0.021266561882783978 -0.00099412064402167846 0 0.022840333662630403 0.0001392951195416868 0 0.022227110914248286 0.00032245711940068656 0 0.023086869636532947 0.00086826817699069332 0 0.022876376567554278 -0.0006193849364617912 0 0.023115319946446226 -0.00042505086503124602 0 0.022720519081972219 -0.00014520897967246299 0 0.023115319946446226 -0.00042505086503124602 0 0.022840333662630403 0.0001392951195416868 0 0.022720519081972219 -0.00014520897967246299 0 0.022720519081972219 -0.00014520897967246299 0 0.022227110914248286 0.00032245711940068656 0 0.021761477034525158 -9.1072952516039552e-05 0 0.022876376567554278 -0.0006193849364617912 0 0.022720519081972219 -0.00014520897967246299 0 0.021761477034525158 -9.1072952516039552e-05 0 0.022840333662630403 0.0001392951195416868 0 0.022720519081972219 -0.00014520897967246299 0 0.022227110914248286 0.00032245711940068656 0 0.022227110914248286 0.00032245711940068656 0 0.021608152449435165 0.0003102955348293248 0 0.021492931409282334 0.00096476572515709032 0 0.021608152449435165 0.0003102955348293248 0 0.021761477034525158 -9.1072952516039552e-05 0 0.020893526363120359 6.0055623238983168e-05 0 0.022227110914248286 0.00032245711940068656 0 0.021608152449435165 0.0003102955348293248 0 0.021761477034525158 -9.1072952516039552e-05 0 0.018676978379077037 8.6685046821888798e-06 0 0.018092763315814459 -0.00019916213411995783 0 0.018493758255468919 -0.00037986940207301336 0 0.021492931409282334 0.00096476572515709032 0 0.023374811517921663 0.0018877012924735682 0 0.023457485683372584 0.0015608445165634895 0 0.022227110914248286 0.00032245711940068656 0 0.021492931409282334 0.00096476572515709032 0 0.023457485683372584 0.0015608445165634895 0 0.020232724049509754 0.00057048698492295335 0 0.020128205133806004 0.00010910958976253034 0 0.020128205133806004 0.00010910958976253034 0 0.021554278306193442 0.00019994376267914272 0 0.022850337999851103 0.00084447491938850359 0 0.021554278306193442 0.00019994376267914272 0 0.020868814309359929 -0.00059359542569016079 0 0.021266561882783978 -0.00099412064402167846 0 0.020891894574823461 -0.00092833670186007438 0 0.021266561882783978 -0.00099412064402167846 0 0.020891894574823461 -0.00092833670186007438 0 0.020953488360259977 -0.0013332305089950843 0 0.021064443035122008 -0.00029653134606403338 0 0.020964896494683503 0.00012585557637565878 0 0.019900386501735277 -0.0009150939508431494 0 0.020128205133806004 0.00010910958976253034 0 0.019762721364776335 -0.00096564033304670808 0 0.021554278306193442 0.00019994376267914272 0 0.019762721364776335 -0.00096564033304670808 0 0.020128205133806004 0.00010910958976253034 0 0.01763077201631711 -0.0005553406344532615 0 0.017848401381310181 0.00019515078580362803 0 0.017617621072329063 -0.00033911810061745313 0 0.018041990023790602 -0.00065158872307045956 0 0.017848401381310181 0.00019515078580362803 0 0.017617621072329063 -0.00033911810061745313 0 0.017473698814016263 -9.3592054756557515e-06 0 0.018092763315814459 -0.00019916213411995783 0 0.018493758255468919 -0.00037986940207301336 0 0.018041990023790602 -0.00065158872307045956 0 0.018493758255468919 -0.00037986940207301336 0 0.018464952146026357 -0.00064640838492793654 0 0.018041990023790602 -0.00065158872307045956 0 0.020031480461109356 -0.0010210110410917937 0 0.02042264163519307 -0.0008875478847038664 0 0.020362748735817643 -0.001216519932854552 0 0.020031480461109356 -0.0010210110410917937 0 0.020362748735817643 -0.001216519932854552 0 0.019943585703545222 -0.0013400458149032467 0 0.019596761735609151 -0.0012246723243173349 0 0.020031480461109356 -0.0010210110410917937 0 0.019943585703545222 -0.0013400458149032467 0 0.01957015230294264 -0.0008061189810274267 0 0.020226327228970643 -0.00067268313951892667 0 0.020031480461109356 -0.0010210110410917937 0 0.020226327228970643 -0.00067268313951892667 0 0.020031480461109356 -0.0010210110410917937 0 0.02042264163519307 -0.0008875478847038664 0 0.020589790797987423 -0.00064579505562404509 0 0.02042264163519307 -0.0008875478847038664 0 0.020700529303060263 -0.00080793800255784523 0 0.02042264163519307 -0.0008875478847038664 0 0.020700529303060263 -0.00080793800255784523 0 0.020668723291740063 -0.0010490973449084372 0 0.020868814309359929 -0.00059359542569016079 0 0.020700529303060263 -0.00080793800255784523 0 0.020891894574823461 -0.00092833670186007438 0 0.020700529303060263 -0.00080793800255784523 0 0.020891894574823461 -0.00092833670186007438 0 0.020668723291740063 -0.0010490973449084372 0 0.020891894574823461 -0.00092833670186007438 0 0.020668723291740063 -0.0010490973449084372 0 0.020953488360259977 -0.0013332305089950843 0 0.020362748735817643 -0.001216519932854552 0 0.020668723291740063 -0.0010490973449084372 0 0.020953488360259977 -0.0013332305089950843 0 0.02042264163519307 -0.0008875478847038664 0 0.020362748735817643 -0.001216519932854552 0 0.020668723291740063 -0.0010490973449084372 0 0.019762721364776335 -0.00096564033304670808 0 0.018421764502904822 -0.0012526086781893425 0 0.020667411988687504 -0.0013438736835615906 0 0.020073106011485136 -0.0016891736087007766 0 0.020150311641025792 -0.0019042744739053254 0 0.020362748735817643 -0.001216519932854552 0 0.020953488360259977 -0.0013332305089950843 0 0.020073106011485136 -0.0016891736087007766 0 0.019762721364776335 -0.00096564033304670808 0 0.020451944079339462 -0.0016291850079545301 0 0.017473698814016263 -9.3592054756557515e-06 0 0.017319250857022458 -0.00043625156089579608 0 0.016923383190917171 -0.00059602786859483154 0 0.017617621072329063 -0.00033911810061745313 0 0.017473698814016263 -9.3592054756557515e-06 0 0.017319250857022458 -0.00043625156089579608 0 0.020362748735817643 -0.001216519932854552 0 0.020073106011485136 -0.0016891736087007766 0 0.019943585703545222 -0.0013400458149032467 0 0.019596761735609151 -0.0012246723243173349 0 0.019943585703545222 -0.0013400458149032467 0 0.019624452164678667 -0.0015705240264996449 0 0.020073106011485136 -0.0016891736087007766 0 0.019624452164678667 -0.0015705240264996449 0 0.019662869747068185 -0.0018993405677691165 0 0.020073106011485136 -0.0016891736087007766 0 0.019943585703545222 -0.0013400458149032467 0 0.019624452164678667 -0.0015705240264996449 0 0.019662869747068185 -0.0018993405677691165 0 0.020150311641025792 -0.0019042744739053254 0 0.019258333011684749 -0.002549624330063836 0 0.018421764502904822 -0.0012526086781893425 0 0.018063424988867153 -0.0017621800183524889 0 0.016923383190917171 -0.00059602786859483154 0 0.016933620099782547 -0.0010089593983474492 0 0.01653398700983565 -0.001070514114410945 0 0.020073106011485136 -0.0016891736087007766 0 0.019662869747068185 -0.0018993405677691165 0 0.020150311641025792 -0.0019042744739053254 0 0.016923383190917171 -0.00059602786859483154 0 0.017197313443382149 -0.00064943827983966155 0 0.017121303483864331 -0.00081231942232060572 0 0.017319250857022458 -0.00043625156089579608 0 0.016923383190917171 -0.00059602786859483154 0 0.017197313443382149 -0.00064943827983966155 0 0.017197313443382149 -0.00064943827983966155 0 0.01743121471582262 -0.00075417431505371373 0 0.017121303483864331 -0.00081231942232060572 0 0.017617621072329063 -0.00033911810061745313 0 0.017319250857022458 -0.00043625156089579608 0 0.01743121471582262 -0.00075417431505371373 0 0.017319250857022458 -0.00043625156089579608 0 0.017197313443382149 -0.00064943827983966155 0 0.01743121471582262 -0.00075417431505371373 0 0.01743121471582262 -0.00075417431505371373 0 0.017121303483864331 -0.00081231942232060572 0 0.017200393956443842 -0.0010646033823963291 0 0.016923383190917171 -0.00059602786859483154 0 0.017121303483864331 -0.00081231942232060572 0 0.016933620099782547 -0.0010089593983474492 0 0.017121303483864331 -0.00081231942232060572 0 0.017200393956443842 -0.0010646033823963291 0 0.016933620099782547 -0.0010089593983474492 0 0.017200393956443842 -0.0010646033823963291 0 0.016933620099782547 -0.0010089593983474492 0 0.016913725695778866 -0.0014333918573396385 0 0.01743121471582262 -0.00075417431505371373 0 0.017200393956443842 -0.0010646033823963291 0 0.017592974241161449 -0.0010482700617613805 0 0.017200393956443842 -0.0010646033823963291 0 0.017278448633509625 -0.0012887674794891152 0 0.017592974241161449 -0.0010482700617613805 0 0.017200393956443842 -0.0010646033823963291 0 0.017278448633509625 -0.0012887674794891152 0 0.016913725695778866 -0.0014333918573396385 0 0.016913725695778866 -0.0014333918573396385 0 0.016591000321664617 -0.0014398597643614545 0 0.01653398700983565 -0.001070514114410945 0 0.016933620099782547 -0.0010089593983474492 0 0.016913725695778866 -0.0014333918573396385 0 0.01653398700983565 -0.001070514114410945 0 0.018369403599512332 -0.00089412831273293135 0 0.018041990023790602 -0.00065158872307045956 0 0.018002512316804817 -0.001136917949227208 0 0.018369403599512332 -0.00089412831273293135 0 0.018464952146026357 -0.00064640838492793654 0 0.018041990023790602 -0.00065158872307045956 0 0.017617621072329063 -0.00033911810061745313 0 0.01743121471582262 -0.00075417431505371373 0 0.018041990023790602 -0.00065158872307045956 0 0.01743121471582262 -0.00075417431505371373 0 0.018041990023790602 -0.00065158872307045956 0 0.017592974241161449 -0.0010482700617613805 0 0.018041990023790602 -0.00065158872307045956 0 0.017592974241161449 -0.0010482700617613805 0 0.018002512316804817 -0.001136917949227208 0 0.017278448633509625 -0.0012887674794891152 0 0.017592974241161449 -0.0010482700617613805 0 0.017624675269227532 -0.001339135262002338 0 0.017592974241161449 -0.0010482700617613805 0 0.018002512316804817 -0.001136917949227208 0 0.017624675269227532 -0.001339135262002338 0 0.018002512316804817 -0.001136917949227208 0 0.018092744701815204 -0.0014690633163465488 0 0.018569012432866041 -0.0012336452574009825 0 0.018369403599512332 -0.00089412831273293135 0 0.018002512316804817 -0.001136917949227208 0 0.018569012432866041 -0.0012336452574009825 0 0.018002512316804817 -0.001136917949227208 0 0.018092744701815204 -0.0014690633163465488 0 0.017624675269227532 -0.001339135262002338 0 0.018092744701815204 -0.0014690633163465488 0 0.017622821620925301 -0.001605843616886919 0 0.017624675269227532 -0.001339135262002338 0 0.017278448633509625 -0.0012887674794891152 0 0.017624675269227532 -0.001339135262002338 0 0.017279095915201128 -0.0014836692824046491 0 0.017622821620925301 -0.001605843616886919 0 0.017624675269227532 -0.001339135262002338 0 0.017279095915201128 -0.0014836692824046491 0 0.017622821620925301 -0.001605843616886919 0 0.017279095915201128 -0.0014836692824046491 0 0.017257336252877939 -0.0017548627292584525 0 0.017257336252877939 -0.0017548627292584525 0 0.018046133041755005 -0.002141633379723791 0 0.016828821666558792 -0.0019575461031288836 0 0.017622821620925301 -0.001605843616886919 0 0.017257336252877939 -0.0017548627292584525 0 0.018046133041755005 -0.002141633379723791 0 0.015921835748722541 -0.0018524990971481821 0 0.016790883157661609 -0.0019624830058822041 0 0.018092744701815204 -0.0014690633163465488 0 0.018046133041755005 -0.002141633379723791 0 0.018444185527352684 -0.0016361830623514166 0 0.018092744701815204 -0.0014690633163465488 0 0.017622821620925301 -0.001605843616886919 0 0.018046133041755005 -0.002141633379723791 0 0.016913725695778866 -0.0014333918573396385 0 0.017027136542273905 -0.0016654890610565383 0 0.016726559171306381 -0.0017883292512288654 0 0.016913725695778866 -0.0014333918573396385 0 0.016726559171306381 -0.0017883292512288654 0 0.016591000321664617 -0.0014398597643614545 0 0.017279095915201128 -0.0014836692824046491 0 0.016913725695778866 -0.0014333918573396385 0 0.017027136542273905 -0.0016654890610565383 0 0.017278448633509625 -0.0012887674794891152 0 0.017279095915201128 -0.0014836692824046491 0 0.016913725695778866 -0.0014333918573396385 0 0.017279095915201128 -0.0014836692824046491 0 0.017257336252877939 -0.0017548627292584525 0 0.017027136542273905 -0.0016654890610565383 0 0.016908269673400384 -0.0016078245773235925 0 0.016828821666558792 -0.0019575461031288836 0 0.016726559171306381 -0.0017883292512288654 0 0.017027136542273905 -0.0016654890610565383 0 0.016828821666558792 -0.0019575461031288836 0 0.016726559171306381 -0.0017883292512288654 0 0.017257336252877939 -0.0017548627292584525 0 0.017027136542273905 -0.0016654890610565383 0 0.016828821666558792 -0.0019575461031288836 0 0.014225364856790318 -0.001107293101818288 0 0.015206236894909384 -0.001597453790577666 0 0.013707548487821488 -0.0013499736300450354 0 0.013553079274124297 -0.0013426252135471358 0 0.013715013038202486 -0.001479934392756452 0 0.013707548487821488 -0.0013499736300450354 0 0.013715013038202486 -0.001479934392756452 0 0.013809809792189879 -0.0014197895359374067 0 0.013715013038202486 -0.001479934392756452 0 0.013809809792189879 -0.0014197895359374067 0 0.013953420240348006 -0.0014928311474159304 0 0.015206236894909384 -0.001597453790577666 0 0.016101797634300499 -0.0020921439937590324 0 0.016726559171306381 -0.0017883292512288654 0 0.016591000321664617 -0.0014398597643614545 0 0.016154630230528013 -0.0014621889827923717 0 0.013715013038202486 -0.001479934392756452 0 0.014013185692566054 -0.0017048319389851698 0 0.013953420240348006 -0.0014928311474159304 0 0.017486157051125391 -0.0030708192249163748 0 0.018000074787865448 -0.0031130616569826335 0 0.017174616824761863 -0.0038366055375237572 0 0.018000074787865448 -0.0031130616569826335 0 0.018159226050325675 -0.0032198440287201282 0 0.017174616824761863 -0.0038366055375237572 0 0.014013185692566054 -0.0017048319389851698 0 0.013953420240348006 -0.0014928311474159304 0 0.014207145622774964 -0.0015180234359375448 0 0.017486157051125391 -0.0030708192249163748 0 0.018000074787865448 -0.0031130616569826335 0 0.01781118018548903 -0.0028874722926920133 0 0.016813579180928202 -0.0025388169398706407 0 0.016101797634300499 -0.0020921439937590324 0 0.016101797634300499 -0.0020921439937590324 0 0.015651328337116986 -0.0027974336870154209 0 0.013953420240348006 -0.0014928311474159304 0 0.014060506567268755 -0.0013258261623554509 0 0.014207145622774964 -0.0015180234359375448 0 0.013809809792189879 -0.0014197895359374067 0 0.013953420240348006 -0.0014928311474159304 0 0.014060506567268755 -0.0013258261623554509 0 0.014060506567268755 -0.0013258261623554509 0 0.014220815174747752 -0.0013282360304180904 0 0.014207145622774964 -0.0015180234359375448 0 0.015838625681527354 -0.0050457093416865148 0 0.017174616824761863 -0.0038366055375237572 0 0.015783928813453561 -0.0032570108141832376 0 0.014819777367203558 -0.0023902509556279388 0 0.015651328337116986 -0.0027974336870154209 0 0.014413588918042395 -0.0013191382781445999 0 0.014220815174747752 -0.0013282360304180904 0 0.014207145622774964 -0.0015180234359375448 0 0.014819777367203558 -0.0023902509556279388 0 0.015612999175247671 -0.0036057543624164953 0 0.014425063410313058 -0.0021259256503520503 0 0.015309091931939231 -0.0027615901761765217 0 0.015783928813453561 -0.0032570108141832376 0 0.014334644464211909 -0.0015281857263459691 0 0.015570508652155582 -0.0025138586888311313 0 0.015309091931939231 -0.0027615901761765217 0 0.014334644464211909 -0.0015281857263459691 0 0.014425063410313058 -0.0021259256503520503 0 0.015309091931939231 -0.0027615901761765217 0 0.015766241423501012 -0.0030939732554268939 0 0.015309091931939231 -0.0027615901761765217 0 0.015783928813453561 -0.0032570108141832376 0 0.015766241423501012 -0.0030939732554268939 0 0.015783928813453561 -0.0032570108141832376 0 0.016217334178653373 -0.0029976153135459266 0 0.017174616824761863 -0.0038366055375237572 0 0.015783928813453561 -0.0032570108141832376 0 0.016828979869144247 -0.0030131382362382345 0 0.015783928813453561 -0.0032570108141832376 0 0.016217334178653373 -0.0029976153135459266 0 0.016828979869144247 -0.0030131382362382345 0 0.017486157051125391 -0.0030708192249163748 0 0.017174616824761863 -0.0038366055375237572 0 0.016828979869144247 -0.0030131382362382345 0 0.017486157051125391 -0.0030708192249163748 0 0.016828979869144247 -0.0030131382362382345 0 0.017574372463824588 -0.0026459491185406676 0 0.016217334178653373 -0.0029976153135459266 0 0.016828979869144247 -0.0030131382362382345 0 0.016692414788320648 -0.0026179773290493434 0 0.016828979869144247 -0.0030131382362382345 0 0.017574372463824588 -0.0026459491185406676 0 0.016692414788320648 -0.0026179773290493434 0 0.017574372463824588 -0.0026459491185406676 0 0.016692414788320648 -0.0026179773290493434 0 0.017448255885264045 -0.0022047069920348495 0 0.014296346335658121 0.00010149932247480192 0 0.01418946341114005 0.00062315230456102958 0 0.015766241423501012 -0.0030939732554268939 0 0.016217334178653373 -0.0029976153135459266 0 0.016692414788320648 -0.0026179773290493434 0 0.015766241423501012 -0.0030939732554268939 0 0.016692414788320648 -0.0026179773290493434 0 0.016192879506387637 -0.0020214502286313826 0 0.017477163146914415 -0.0014423315249033127 0 0.016192879506387637 -0.0020214502286313826 0 0.016907549640491525 -0.0020894987564019011 0 0.016692414788320648 -0.0026179773290493434 0 0.016192879506387637 -0.0020214502286313826 0 0.016907549640491525 -0.0020894987564019011 0 0.017477163146914415 -0.0014423315249033127 0 0.016907549640491525 -0.0020894987564019011 0 0.017448255885264045 -0.0022047069920348495 0 0.017477163146914415 -0.0014423315249033127 0 0.017448255885264045 -0.0022047069920348495 0 0.018236906658283463 -0.0020460738577658586 0 0.016692414788320648 -0.0026179773290493434 0 0.016907549640491525 -0.0020894987564019011 0 0.017448255885264045 -0.0022047069920348495 0 0.017574372463824588 -0.0026459491185406676 0 0.017448255885264045 -0.0022047069920348495 0 0.018236906658283463 -0.0020460738577658586 0 0.018720892983035212 -0.0015750875618746091 0 0.018236906658283463 -0.0020460738577658586 0 0.019128372349391128 -0.0018401337992023285 0 0.019662869747068185 -0.0018993405677691165 0 0.019128372349391128 -0.0018401337992023285 0 0.019258333011684749 -0.002549624330063836 0 0.018236906658283463 -0.0020460738577658586 0 0.019128372349391128 -0.0018401337992023285 0 0.019258333011684749 -0.002549624330063836 0 0.016591000321664617 -0.0014398597643614545 0 0.016154630230528013 -0.0014621889827923717 0 0.01653398700983565 -0.001070514114410945 0 0.016101797634300499 -0.0020921439937590324 0 0.018063424988867153 -0.0017621800183524889 0 0.018185716619271715 -0.0032314083188561583 0 0.019258333011684749 -0.002549624330063836 0 0.018192151303385858 -0.0027296044496552836 0 0.018000074787865448 -0.0031130616569826335 0 0.018185716619271715 -0.0032314083188561583 0 0.018192151303385858 -0.0027296044496552836 0 0.017574372463824588 -0.0026459491185406676 0 0.018236906658283463 -0.0020460738577658586 0 0.018192151303385858 -0.0027296044496552836 0 0.018236906658283463 -0.0020460738577658586 0 0.019258333011684749 -0.002549624330063836 0 0.018192151303385858 -0.0027296044496552836 0 0.017486157051125391 -0.0030708192249163748 0 0.017574372463824588 -0.0026459491185406676 0 0.01781118018548903 -0.0028874722926920133 0 0.018000074787865448 -0.0031130616569826335 0 0.018192151303385858 -0.0027296044496552836 0 0.01781118018548903 -0.0028874722926920133 0 0.017574372463824588 -0.0026459491185406676 0 0.018192151303385858 -0.0027296044496552836 0 0.01781118018548903 -0.0028874722926920133 0 0.0057874491617481549 -0.00014970965600723398 0 0.0045003896459164406 -0.00014430833720124411 0 0.0050403679937283483 9.8615449041274748e-05 0 0.0057874491617481549 -0.00014970965600723398 0 0.0050403679937283483 9.8615449041274748e-05 0 0.0060018855096179175 0.00010301312270234013 0 0.0076050775290040758 6.284530662622252e-07 0 0.0060018855096179175 0.00010301312270234013 0 0.0057618686433409273 -1.9425876423308159e-07 0 0.0057874491617481549 -0.00014970965600723398 0 0.0076050775290040758 6.284530662622252e-07 0 0.0060018855096179175 0.00010301312270234013 0 0.0076050775290040758 6.284530662622252e-07 0 0.0067401966814441177 -0.00067394042147148785 0 0.0096645163167811236 -2.751171762759021e-06 0 0.0057874491617481549 -0.00014970965600723398 0 0.0076050775290040758 6.284530662622252e-07 0 0.0067401966814441177 -0.00067394042147148785 0 0.0057874491617481549 -0.00014970965600723398 0 0.0047997857640902026 -0.00056006834123647304 0 0.0067401966814441177 -0.00067394042147148785 0 0.0083377299530209247 -0.00032540548667765739 0 0.0087636254317869505 -0.00035687477132634305 0 0.011298278822636034 -0.00011634492703727767 0 0.011328382206040247 7.9372573564406715e-06 0 0.011279688170703751 -1.1671403786500313e-05 0 0.0047997857640902026 -0.00056006834123647304 0 0.0041745815393335406 -0.00017337241230720835 0 0.0045003896459164406 -0.00014430833720124411 0 0.0041745815393335406 -0.00017337241230720835 0 0.0045003896459164406 -0.00014430833720124411 0 0.0041387765122047971 4.9186460049818024e-05 0 0.0083377299530209247 -0.00032540548667765739 0 0.0059759856260690617 -0.00073131100662422711 0 0.0059759856260690617 -0.00073131100662422711 0 0.0037810831183070445 -0.00033177572607877542 0 0.0057874491617481549 -0.00014970965600723398 0 0.0047997857640902026 -0.00056006834123647304 0 0.0045003896459164406 -0.00014430833720124411 0 0.0045003896459164406 -0.00014430833720124411 0 0.0041387765122047971 4.9186460049818024e-05 0 0.0050403679937283483 9.8615449041274748e-05 0 0.0041387765122047971 4.9186460049818024e-05 0 0.0038840728145999774 0.00068420257440846379 0 0.0045002265650261582 0.00036745543645796866 0 0.0041387765122047971 4.9186460049818024e-05 0 0.0045002265650261582 0.00036745543645796866 0 0.0050403679937283483 9.8615449041274748e-05 0 0.0027966286136489492 -0.0015804632817257287 0 0.0041387765122047971 4.9186460049818024e-05 0 0.0028072202542785678 -5.4416229554497429e-05 0 0.0041387765122047971 4.9186460049818024e-05 0 0.0028072202542785678 -5.4416229554497429e-05 0 0.0034407103276367134 0.00058625583792978496 0 0.0059759856260690617 -0.00073131100662422711 0 0.0033174693558185582 -0.00034359139753376944 0 0.0027966286136489492 -0.0015804632817257287 0 0.0028072202542785678 -5.4416229554497429e-05 0 0.002282659807861361 -0.00081322433618903232 0 0.0028072202542785678 -5.4416229554497429e-05 0 0.0027564677847093286 0.00078269602712414922 0 0.0020610439104312823 0.0002195767579056118 0 0.0028072202542785678 -5.4416229554497429e-05 0 0.0027564677847093286 0.00078269602712414922 0 0.0034407103276367134 0.00058625583792978496 0 0.0027564677847093286 0.00078269602712414922 0 0.0034407103276367134 0.00058625583792978496 0 0.0031436273436964146 0.0011349086958993108 0 0.0041387765122047971 4.9186460049818024e-05 0 0.0038840728145999774 0.00068420257440846379 0 0.0034407103276367134 0.00058625583792978496 0 0.0038840728145999774 0.00068420257440846379 0 0.0034407103276367134 0.00058625583792978496 0 0.0031436273436964146 0.0011349086958993108 0 0.0038840728145999774 0.00068420257440846379 0 0.0043248807874213735 0.00063936758353884491 0 0.0036000381222611915 0.0010519561828256103 0 0.0043248807874213735 0.00063936758353884491 0 0.0045636626100474201 0.00060961122945927724 0 0.0041661059758958327 0.00081257633998395686 0 0.0043248807874213735 0.00063936758353884491 0 0.0041661059758958327 0.00081257633998395686 0 0.0036000381222611915 0.0010519561828256103 0 0.0043248807874213735 0.00063936758353884491 0 0.0045002265650261582 0.00036745543645796866 0 0.0050882025153982796 0.00029650021922307339 0 0.0038840728145999774 0.00068420257440846379 0 0.0043248807874213735 0.00063936758353884491 0 0.0045002265650261582 0.00036745543645796866 0 0.0050403679937283483 9.8615449041274748e-05 0 0.0060018855096179175 0.00010301312270234013 0 0.0050882025153982796 0.00029650021922307339 0 0.0045002265650261582 0.00036745543645796866 0 0.0050403679937283483 9.8615449041274748e-05 0 0.0050882025153982796 0.00029650021922307339 0 0.0050882025153982796 0.00029650021922307339 0 0.0054626124619183564 0.00016426847173480676 0 0.0050190616331098189 0.00033336183989684376 0 0.0060018855096179175 0.00010301312270234013 0 0.0050882025153982796 0.00029650021922307339 0 0.0054626124619183564 0.00016426847173480676 0 0.0057618686433409273 -1.9425876423308159e-07 0 0.0054626124619183564 0.00016426847173480676 0 0.0050190616331098189 0.00033336183989684376 0 0.0055444115277877813 1.3263254315035314e-06 0 0.0057618686433409273 -1.9425876423308159e-07 0 0.0050190616331098189 0.00033336183989684376 0 0.0060018855096179175 0.00010301312270234013 0 0.0057618686433409273 -1.9425876423308159e-07 0 0.0054626124619183564 0.00016426847173480676 0 0.0055444115277877813 1.3263254315035314e-06 0 0.0050190616331098189 0.00033336183989684376 0 0.0042023120748795242 0.0010910583005181919 0 0.0052138378042970454 5.3374419228244263e-05 0 0.0040879519359608412 0.00053307093305700304 0 0.0050190616331098189 0.00033336183989684376 0 0.0045636626100474201 0.00060961122945927724 0 0.0042023120748795242 0.0010910583005181919 0 0.0050882025153982796 0.00029650021922307339 0 0.0050190616331098189 0.00033336183989684376 0 0.0045636626100474201 0.00060961122945927724 0 0.0043248807874213735 0.00063936758353884491 0 0.0050882025153982796 0.00029650021922307339 0 0.0045636626100474201 0.00060961122945927724 0 0.0045636626100474201 0.00060961122945927724 0 0.0041661059758958327 0.00081257633998395686 0 0.0040965101302789736 0.00093742248048501271 0 0.0042023120748795242 0.0010910583005181919 0 0.0040965101302789736 0.00093742248048501271 0 0.0037349962359467955 0.0011124075227423097 0 0.0045636626100474201 0.00060961122945927724 0 0.0042023120748795242 0.0010910583005181919 0 0.0040965101302789736 0.00093742248048501271 0 0.0055439648765953651 1.1286472409531362e-07 0 0.0034806425066484258 -2.1313882525158402e-07 0 0.0039600620784365544 1.5719808613108228e-06 0 0.0041661059758958327 0.00081257633998395686 0 0.0040965101302789736 0.00093742248048501271 0 0.0038000045550273314 0.0010278648396374386 0 0.0040965101302789736 0.00093742248048501271 0 0.0037349962359467955 0.0011124075227423097 0 0.0038000045550273314 0.0010278648396374386 0 0.0037349962359467955 0.0011124075227423097 0 0.0038000045550273314 0.0010278648396374386 0 0.0033591218327285372 0.0011941128392877365 0 0.0037349962359467955 0.0011124075227423097 0 0.0033591218327285372 0.0011941128392877365 0 0.0031852438192672516 0.0012379268536549975 0 0.0042023120748795242 0.0010910583005181919 0 0.0037349962359467955 0.0011124075227423097 0 0.0031852438192672516 0.0012379268536549975 0 0.0041661059758958327 0.00081257633998395686 0 0.0036000381222611915 0.0010519561828256103 0 0.0038000045550273314 0.0010278648396374386 0 0.0036000381222611915 0.0010519561828256103 0 0.0038000045550273314 0.0010278648396374386 0 0.0033591218327285372 0.0011941128392877365 0 0.0036000381222611915 0.0010519561828256103 0 0.0033591218327285372 0.0011941128392877365 0 0.0031203999909741333 0.0012418612329473909 0 0.0036000381222611915 0.0010519561828256103 0 0.0031203999909741333 0.0012418612329473909 0 0.0029792521946689593 0.0012924313657532002 0 0.0031203999909741333 0.0012418612329473909 0 0.0027532925781803587 0.0012791439038800441 0 0.0029792521946689593 0.0012924313657532002 0 0.0031203999909741333 0.0012418612329473909 0 0.0028934147967532714 0.0012689304152993914 0 0.0027532925781803587 0.0012791439038800441 0 0.0033591218327285372 0.0011941128392877365 0 0.0031203999909741333 0.0012418612329473909 0 0.0028934147967532714 0.0012689304152993914 0 0.0028934147967532714 0.0012689304152993914 0 0.0025402447294420971 0.0012697794999121347 0 0.0024427693413634102 0.0012217703102168902 0 0.0028934147967532714 0.0012689304152993914 0 0.0027532925781803587 0.0012791439038800441 0 0.0024427693413634102 0.0012217703102168902 0 0.0027532925781803587 0.0012791439038800441 0 0.0024427693413634102 0.0012217703102168902 0 0.0024029748356540009 0.0012019974149518264 0 0.0040879519359608412 0.00053307093305700304 0 0.0021912841317860785 0.00061932830613966011 0 0.0034806425066484258 -2.1313882525158402e-07 0 0.0014187759171428184 4.0742762984156209e-07 0 0.0021352325743683423 -1.9888248653100863e-05 0 0.0042023120748795242 0.0010910583005181919 0 0.0031852438192672516 0.0012379268536549975 0 0.0022991923223985907 0.0013142102120090641 0 0.0034806425066484258 -2.1313882525158402e-07 0 0.0039600620784365544 1.5719808613108228e-06 0 0.0021352325743683423 -1.9888248653100863e-05 0 0.0033591218327285372 0.0011941128392877365 0 0.0028934147967532714 0.0012689304152993914 0 0.0031852438192672516 0.0012379268536549975 0 0.0028934147967532714 0.0012689304152993914 0 0.0031852438192672516 0.0012379268536549975 0 0.0025402447294420971 0.0012697794999121347 0 0.0031852438192672516 0.0012379268536549975 0 0.0025402447294420971 0.0012697794999121347 0 0.0022991923223985907 0.0013142102120090641 0 0.0014187759171428184 4.0742762984156209e-07 0 0.0021352325743683423 -1.9888248653100863e-05 0 0.00049088153501838504 0.00017485413639535015 0 0.0022991923223985907 0.0013142102120090641 0 0.0019092954691951388 0.0010214961165921389 0 0.00049088153501838504 0.00017485413639535015 0 0.0021912841317860785 0.00061932830613966011 0 0.00082084483493477067 0.00020788441714387774 0 0.0025402447294420971 0.0012697794999121347 0 0.0019092954691951388 0.0010214961165921389 0 0.0024427693413634102 0.0012217703102168902 0 0.0025402447294420971 0.0012697794999121347 0 0.0022991923223985907 0.0013142102120090641 0 0.0019092954691951388 0.0010214961165921389 0 0.0019092954691951388 0.0010214961165921389 0 0.0024427693413634102 0.0012217703102168902 0 0.0020556285971766119 0.0010532691565211 0 0.0024427693413634102 0.0012217703102168902 0 0.0024029748356540009 0.0012019974149518264 0 0.0020556285971766119 0.0010532691565211 0 0.0024029748356540009 0.0012019974149518264 0 0.0020556285971766119 0.0010532691565211 0 0.0021538147756675389 0.0010564768053146322 0 0.0020556285971766119 0.0010532691565211 0 0.0017587462059550968 0.00082414715768289453 0 0.0021538147756675389 0.0010564768053146322 0 0.0019092954691951388 0.0010214961165921389 0 0.0020556285971766119 0.0010532691565211 0 0.0013041191393355694 0.00062686519122741205 0 0.0020556285971766119 0.0010532691565211 0 0.0013041191393355694 0.00062686519122741205 0 0.0017587462059550968 0.00082414715768289453 0 0.0012137335040134311 0.00048493607813645439 0 0.0016341341220086057 0.0004959746270388547 0 0.0017406922777672387 0.00072359888803445965 0 0.0012137335040134311 0.00048493607813645439 0 0.0017587462059550968 0.00082414715768289453 0 0.0017406922777672387 0.00072359888803445965 0 0.00026228877450805096 0.00028356969049643169 0 0.0012137335040134311 0.00048493607813645439 0 0.0013041191393355694 0.00062686519122741205 0 0.0012137335040134311 0.00048493607813645439 0 0.0013041191393355694 0.00062686519122741205 0 0.0017587462059550968 0.00082414715768289453 0 0.0019092954691951388 0.0010214961165921389 0 0.0013041191393355694 0.00062686519122741205 0 0.00049088153501838504 0.00017485413639535015 0 -0.00064356664426710325 1.5000143368121364e-06 0 0.0014187759171428184 4.0742762984156209e-07 0 0.00049088153501838504 0.00017485413639535015 0 0.00026228877450805096 0.00028356969049643169 0 0.0013041191393355694 0.00062686519122741205 0 0.00049088153501838504 0.00017485413639535015 0 0.0023049253879047224 0.0008549335588442107 0 0.0020636843431951703 0.00058698418995547694 0 0.002029063148579484 0.00076331807349402307 0 0.0023049253879047224 0.0008549335588442107 0 0.002029063148579484 0.00076331807349402307 0 0.0023273029312764746 0.0010101709862858509 0 0.0023049253879047224 0.0008549335588442107 0 0.0023273029312764746 0.0010101709862858509 0 0.0025061183735260841 0.0010030951360277035 0 0.0025164366761930524 0.00081659018891663457 0 0.0025061183735260841 0.0010030951360277035 0 0.002625379690619269 0.00083122169405063916 0 0.0023049253879047224 0.0008549335588442107 0 0.0025164366761930524 0.00081659018891663457 0 0.0025061183735260841 0.0010030951360277035 0 0.0023049253879047224 0.0008549335588442107 0 0.0025164366761930524 0.00081659018891663457 0 0.0020636843431951703 0.00058698418995547694 0 0.0018668399658996813 0.00030604088595156747 0 0.00092304308287441861 0.00035675498546262847 0 -0.00026465898631286854 -0.00061785732079064435 0 0.0018753760036563216 7.1975283711064991e-05 0 -0.0001396008120747322 -0.00201857276008514 0 0.0018753760036563216 7.1975283711064991e-05 0 0.0025164366761930524 0.00081659018891663457 0 0.0028450760534495432 0.00072269416853008601 0 0.001750065281011418 -0.00011369620515069427 0 0.00092304308287441861 0.00035675498546262847 0 0.0018753760036563216 7.1975283711064991e-05 0 0.0025164366761930524 0.00081659018891663457 0 0.0020636843431951703 0.00058698418995547694 0 0.0018043705030759782 0.00038431828582363443 0 0.0016341341220086057 0.0004959746270388547 0 0.002029063148579484 0.00076331807349402307 0 0.0018043705030759782 0.00038431828582363443 0 0.0020636843431951703 0.00058698418995547694 0 0.002029063148579484 0.00076331807349402307 0 0.0016341341220086057 0.0004959746270388547 0 0.0017406922777672387 0.00072359888803445965 0 0.002029063148579484 0.00076331807349402307 0 0.0017587462059550968 0.00082414715768289453 0 0.0017406922777672387 0.00072359888803445965 0 0.0020216447992859239 0.00090240335604113166 0 0.0017406922777672387 0.00072359888803445965 0 0.0020216447992859239 0.00090240335604113166 0 0.002029063148579484 0.00076331807349402307 0 0.0020216447992859239 0.00090240335604113166 0 0.002029063148579484 0.00076331807349402307 0 0.0022507268454880231 0.0010545250541201499 0 0.002029063148579484 0.00076331807349402307 0 0.0022507268454880231 0.0010545250541201499 0 0.0023273029312764746 0.0010101709862858509 0 0.0017587462059550968 0.00082414715768289453 0 0.0020216447992859239 0.00090240335604113166 0 0.0021538147756675389 0.0010564768053146322 0 0.0022507268454880231 0.0010545250541201499 0 0.0021538147756675389 0.0010564768053146322 0 0.0024001636225568302 0.0011855953223192956 0 0.0020216447992859239 0.00090240335604113166 0 0.0022507268454880231 0.0010545250541201499 0 0.0021538147756675389 0.0010564768053146322 0 0.0024029748356540009 0.0012019974149518264 0 0.0024001636225568302 0.0011855953223192956 0 0.0026237263253906249 0.0012988343564835152 0 0.0024029748356540009 0.0012019974149518264 0 0.0021538147756675389 0.0010564768053146322 0 0.0024001636225568302 0.0011855953223192956 0 0.0022507268454880231 0.0010545250541201499 0 0.0024001636225568302 0.0011855953223192956 0 0.0025294417236250322 0.001273698987012243 0 0.0024001636225568302 0.0011855953223192956 0 0.0025294417236250322 0.001273698987012243 0 0.0026237263253906249 0.0012988343564835152 0 0.0022507268454880231 0.0010545250541201499 0 0.0025294417236250322 0.001273698987012243 0 0.0023273029312764746 0.0010101709862858509 0 0.0025294417236250322 0.001273698987012243 0 0.0023273029312764746 0.0010101709862858509 0 0.0025061183735260841 0.0010030951360277035 0 0.0025294417236250322 0.001273698987012243 0 0.0025061183735260841 0.0010030951360277035 0 0.0026360351698196589 0.0011531800686308102 0 0.0025294417236250322 0.001273698987012243 0 0.0027658851026111228 0.0013750260892787223 0 0.0025679367110510334 0.0015422450378620102 0 0.0025294417236250322 0.001273698987012243 0 0.0025679367110510334 0.0015422450378620102 0 0.002686215671275412 0.0013419041025128813 0 0.0027532925781803587 0.0012791439038800441 0 0.0024029748356540009 0.0012019974149518264 0 0.0026237263253906249 0.0012988343564835152 0 0.0025294417236250322 0.001273698987012243 0 0.0026237263253906249 0.0012988343564835152 0 0.0027658851026111228 0.0013750260892787223 0 0.0026237263253906249 0.0012988343564835152 0 0.0027658851026111228 0.0013750260892787223 0 0.0029792521946689593 0.0012924313657532002 0 0.0027532925781803587 0.0012791439038800441 0 0.0026237263253906249 0.0012988343564835152 0 0.0029792521946689593 0.0012924313657532002 0 0.0038840728145999774 0.00068420257440846379 0 0.0036000381222611915 0.0010519561828256103 0 0.0031436273436964146 0.0011349086958993108 0 0.0036000381222611915 0.0010519561828256103 0 0.0029792521946689593 0.0012924313657532002 0 0.0031436273436964146 0.0011349086958993108 0 0.0027658851026111228 0.0013750260892787223 0 0.0029792521946689593 0.0012924313657532002 0 0.0031436273436964146 0.0011349086958993108 0 0.0027564677847093286 0.00078269602712414922 0 0.0031436273436964146 0.0011349086958993108 0 0.0025679367110510334 0.0015422450378620102 0 0.0027658851026111228 0.0013750260892787223 0 0.0031436273436964146 0.0011349086958993108 0 0.0025679367110510334 0.0015422450378620102 0 0.0023353892260899673 0.0016059526861620414 0 0.0023435331415952079 0.0018364663828155333 0 0.0025679367110510334 0.0015422450378620102 0 0.0019192695106698516 0.0010393288687027152 0 0.0011139587172906971 0.0021701920496016839 0 0.0027564677847093286 0.00078269602712414922 0 0.0025679367110510334 0.0015422450378620102 0 0.0019192695106698516 0.0010393288687027152 0 0.00030906788882301026 0.0013098491082067503 0 0.0011139587172906971 0.0021701920496016839 0 -0.00055827189637973492 0.0025134184302474786 0 0.00030906788882301026 0.0013098491082067503 0 0.0010802310061720102 0.0012917641470885581 0 0.0011139587172906971 0.0021701920496016839 0 0.0019192695106698516 0.0010393288687027152 0 0.0010802310061720102 0.0012917641470885581 0 0.0011139587172906971 0.0021701920496016839 0 0.0028094822629974683 0.0014350413131317841 0 0.0028435081231795679 0.0012291137764717007 0 0.0029261289963729378 0.001397829182219731 0 0.0028094822629974683 0.0014350413131317841 0 0.002686215671275412 0.0013419041025128813 0 0.0028435081231795679 0.0012291137764717007 0 0.0025679367110510334 0.0015422450378620102 0 0.0028094822629974683 0.0014350413131317841 0 0.002686215671275412 0.0013419041025128813 0 0.0010644313479378875 0.00074157468963415203 0 0.00092304308287441861 0.00035675498546262847 0 0.0025294417236250322 0.001273698987012243 0 0.002686215671275412 0.0013419041025128813 0 0.0026360351698196589 0.0011531800686308102 0 0.0026360351698196589 0.0011531800686308102 0 0.0028435081231795679 0.0012291137764717007 0 0.002625379690619269 0.00083122169405063916 0 0.002686215671275412 0.0013419041025128813 0 0.0026360351698196589 0.0011531800686308102 0 0.0028435081231795679 0.0012291137764717007 0 -0.0038770390080896562 -0.00024347593760381983 0 -0.0018626114716725213 0.00011830532578207561 0 -0.0018490733875529445 0.001310767695055594 0 -0.0016193152665217399 0.00067900410815660225 0 -0.0010882348092532291 0.0011177802218584891 0 -0.0012260940618022242 9.4989096682155386e-05 0 -0.0016193152665217399 0.00067900410815660225 0 -0.0010882348092532291 0.0011177802218584891 0 -0.0028664884317152273 -0.00024333948561529629 0 -0.0028682622341449763 -0.00079585159019793261 0 -0.0014099612869839853 -0.0008844589000392729 0 -0.0018626114716725213 0.00011830532578207561 0 0.00092304308287441861 0.00035675498546262847 0 -0.0028682622341449763 -0.00079585159019793261 0 -0.0014099612869839853 -0.0008844589000392729 0 -0.0001396008120747322 -0.00201857276008514 0 0.0025061183735260841 0.0010030951360277035 0 0.0026360351698196589 0.0011531800686308102 0 0.002625379690619269 0.00083122169405063916 0 -0.0012260940618022242 9.4989096682155386e-05 0 -0.0010882348092532291 0.0011177802218584891 0 -0.00032258263369720178 0.00091509771442996389 0 -0.00026465898631286854 -0.00061785732079064435 0 -0.0014099612869839853 -0.0008844589000392729 0 -0.0001396008120747322 -0.00201857276008514 0 -0.0018490733875529445 0.001310767695055594 0 -0.0016193152665217399 0.00067900410815660225 0 -0.0023636051105857224 0.00033426790046071653 0 -0.0038770390080896562 -0.00024347593760381983 0 -0.0040823894584009557 8.693065641152306e-05 0 -0.0060098787827383583 -0.00064847664501649404 0 -0.0057973394672416372 -0.0005505852515361615 0 -0.0059060061387821248 -0.00038426886534424537 0 -0.0012260940618022242 9.4989096682155386e-05 0 -0.0016193152665217399 0.00067900410815660225 0 -0.0023636051105857224 0.00033426790046071653 0 -0.0012260940618022242 9.4989096682155386e-05 0 -0.0023636051105857224 0.00033426790046071653 0 -0.0021195467208020859 -0.00071879341632307629 0 -0.0057973394672416372 -0.0005505852515361615 0 -0.0059060061387821248 -0.00038426886534424537 0 -0.0056544748270368492 -0.00033946825377595001 0 -0.0059060061387821248 -0.00038426886534424537 0 -0.0057270568181024689 3.0713132163836491e-05 0 -0.0056544748270368492 -0.00033946825377595001 0 -0.0023636051105857224 0.00033426790046071653 0 -0.0028878096789923245 -0.00063924130237105292 0 -0.0021195467208020859 -0.00071879341632307629 0 -0.00458402349056297 -0.00026109917222219358 0 -0.00085543960966469605 0.00073229548986456796 0 -0.0040823894584009557 8.693065641152306e-05 0 -0.00458402349056297 -0.00026109917222219358 0 -0.0043591751110177079 9.2451063999410561e-05 0 -0.0039656054935680984 4.1123939072840931e-05 0 -0.0043283846148761485 -9.7082700978274859e-05 0 0.0010644313479378875 0.00074157468963415203 0 -0.00085543960966469605 0.00073229548986456796 0 0.0023435331415952079 0.0018364663828155333 0 -0.00085543960966469605 0.00073229548986456796 0 0.00030906788882301026 0.0013098491082067503 0 -0.00055827189637973492 0.0025134184302474786 0 -0.00055430277197750699 0.001296060029994952 0 -0.00055827189637973492 0.0025134184302474786 0 -0.00055430277197750699 0.001296060029994952 0 -0.0013278511272807054 0.0011114784562779572 0 -0.00085543960966469605 0.00073229548986456796 0 -0.0035533982661993626 0.00048771201892077164 0 -0.0039656054935680984 4.1123939072840931e-05 0 -0.0043283846148761485 -9.7082700978274859e-05 0 -0.0044515253742701422 -0.00027577952403853785 0 -0.00055827189637973492 0.0025134184302474786 0 -0.0021959004819998872 0.0012859331528033487 0 -0.0013278511272807054 0.0011114784562779572 0 -0.0043591751110177079 9.2451063999410561e-05 0 -0.0043283846148761485 -9.7082700978274859e-05 0 -0.0044794376590761489 -0.00024235588677974011 0 -0.0043283846148761485 -9.7082700978274859e-05 0 -0.0044515253742701422 -0.00027577952403853785 0 -0.0044794376590761489 -0.00024235588677974011 0 -0.0019703985395184069 0.00085297969955745463 0 -0.0013278511272807054 0.0011114784562779572 0 -0.0018132870538841359 0.00044359261666417158 0 -0.0021959004819998872 0.0012859331528033487 0 -0.0019703985395184069 0.00085297969955745463 0 -0.0024643187445377861 0.00041971105204420653 0 -0.0021959004819998872 0.0012859331528033487 0 -0.0019703985395184069 0.00085297969955745463 0 -0.0013278511272807054 0.0011114784562779572 0 -0.0013278511272807054 0.0011114784562779572 0 -0.001277929382153619 0.00046249607355247228 0 -0.0018132870538841359 0.00044359261666417158 0 -0.0013278511272807054 0.0011114784562779572 0 -0.001277929382153619 0.00046249607355247228 0 -0.00087898959153647198 0.00064825352524091652 0 -0.001277929382153619 0.00046249607355247228 0 -0.00090303506235083614 0.000179763905731868 0 -0.00087898959153647198 0.00064825352524091652 0 -0.001277929382153619 0.00046249607355247228 0 -0.0013452172581789605 -2.8286822255865402e-06 0 -0.0018132870538841359 0.00044359261666417158 0 -0.001277929382153619 0.00046249607355247228 0 -0.0013452172581789605 -2.8286822255865402e-06 0 -0.00090303506235083614 0.000179763905731868 0 -0.0013452172581789605 -2.8286822255865402e-06 0 -0.0018132870538841359 0.00044359261666417158 0 -0.0020872659346794944 -8.416581343316065e-05 0 -0.0019703985395184069 0.00085297969955745463 0 -0.0018132870538841359 0.00044359261666417158 0 -0.0024643187445377861 0.00041971105204420653 0 -0.0018132870538841359 0.00044359261666417158 0 -0.0020872659346794944 -8.416581343316065e-05 0 -0.0024643187445377861 0.00041971105204420653 0 -0.0020872659346794944 -8.416581343316065e-05 0 -0.0016532890816526743 -0.00057153258370630402 0 -0.0024895005323776389 -0.00068108254730399147 0 -0.0013452172581789605 -2.8286822255865402e-06 0 -0.0020872659346794944 -8.416581343316065e-05 0 -0.0016532890816526743 -0.00057153258370630402 0 -0.0013452172581789605 -2.8286822255865402e-06 0 -0.0011945710752044897 -0.00040330311568013093 0 -0.0016532890816526743 -0.00057153258370630402 0 -0.0013452172581789605 -2.8286822255865402e-06 0 -0.0011945710752044897 -0.00040330311568013093 0 -0.00073105614382843582 -0.00025585252925230473 0 -0.0011945710752044897 -0.00040330311568013093 0 -0.0016532890816526743 -0.00057153258370630402 0 -0.0010552335344599741 -0.00078274056327534464 0 -0.0016532890816526743 -0.00057153258370630402 0 -0.0010552335344599741 -0.00078274056327534464 0 -0.0014978220412123441 -0.001085143587246249 0 -0.0010552335344599741 -0.00078274056327534464 0 -0.0014978220412123441 -0.001085143587246249 0 -0.00091715171035148201 -0.0011503319856858401 0 -0.002052616909120451 -0.0010806700269881005 0 -0.0024989106303647149 -0.0012687450974346918 0 -0.0024895005323776389 -0.00068108254730399147 0 -0.0016532890816526743 -0.00057153258370630402 0 -0.002052616909120451 -0.0010806700269881005 0 -0.0024895005323776389 -0.00068108254730399147 0 -0.0016532890816526743 -0.00057153258370630402 0 -0.0014978220412123441 -0.001085143587246249 0 -0.002052616909120451 -0.0010806700269881005 0 -0.00014014733545019041 -0.00089909270149380119 0 -0.0005936331268817604 -0.00075428805261564045 0 -0.00017956865004343454 -0.00050689054460266783 0 -0.00014014733545019041 -0.00089909270149380119 0 -0.00017956865004343454 -0.00050689054460266783 0 0.00029156452292710176 -0.00083940525976068463 0 -0.00014014733545019041 -0.00089909270149380119 0 0.00029156452292710176 -0.00083940525976068463 0 -2.9629640225707885e-05 -0.0013097416331337159 0 -0.00014014733545019041 -0.00089909270149380119 0 -0.00047651302520997692 -0.0011152117237048875 0 -0.0005936331268817604 -0.00075428805261564045 0 -0.00014014733545019041 -0.00089909270149380119 0 -0.00047651302520997692 -0.0011152117237048875 0 -2.9629640225707885e-05 -0.0013097416331337159 0 -0.00047651302520997692 -0.0011152117237048875 0 -0.00091715171035148201 -0.0011503319856858401 0 -0.0005936331268817604 -0.00075428805261564045 0 -0.0010552335344599741 -0.00078274056327534464 0 -0.00091715171035148201 -0.0011503319856858401 0 -0.0005936331268817604 -0.00075428805261564045 0 -0.0005936331268817604 -0.00075428805261564045 0 -0.00073105614382843582 -0.00025585252925230473 0 -0.00017956865004343454 -0.00050689054460266783 0 -0.0011945710752044897 -0.00040330311568013093 0 -0.0010552335344599741 -0.00078274056327534464 0 -0.00073105614382843582 -0.00025585252925230473 0 -0.0010552335344599741 -0.00078274056327534464 0 -0.0005936331268817604 -0.00075428805261564045 0 -0.00073105614382843582 -0.00025585252925230473 0 -0.0013452172581789605 -2.8286822255865402e-06 0 -0.00073105614382843582 -0.00025585252925230473 0 -0.00090303506235083614 0.000179763905731868 0 -0.00073105614382843582 -0.00025585252925230473 0 -0.00023926933905775704 -0.00013246467627910834 0 -0.00031723727142578804 0.00027893910698559543 0 -0.00017956865004343454 -0.00050689054460266783 0 0.0002235190304608561 -7.9863133506890429e-05 0 0.00054235272575732106 -0.00041215855296467847 0 -0.00073105614382843582 -0.00025585252925230473 0 -0.00023926933905775704 -0.00013246467627910834 0 -0.00017956865004343454 -0.00050689054460266783 0 -0.00023926933905775704 -0.00013246467627910834 0 -0.00017956865004343454 -0.00050689054460266783 0 0.0002235190304608561 -7.9863133506890429e-05 0 0.0002235190304608561 -7.9863133506890429e-05 0 -0.00031723727142578804 0.00027893910698559543 0 0.00027360456440986785 0.00051775282686442124 0 -0.00023926933905775704 -0.00013246467627910834 0 0.0002235190304608561 -7.9863133506890429e-05 0 -0.00031723727142578804 0.00027893910698559543 0 -0.00031723727142578804 0.00027893910698559543 0 -0.00022906480471457792 0.00081194920477381191 0 0.00027360456440986785 0.00051775282686442124 0 -0.00073105614382843582 -0.00025585252925230473 0 -0.00031723727142578804 0.00027893910698559543 0 -0.00090303506235083614 0.000179763905731868 0 -0.00031723727142578804 0.00027893910698559543 0 -0.00090303506235083614 0.000179763905731868 0 -0.00087898959153647198 0.00064825352524091652 0 -0.00055430277197750699 0.001296060029994952 0 -0.00087898959153647198 0.00064825352524091652 0 -0.00022906480471457792 0.00081194920477381191 0 -0.00055430277197750699 0.001296060029994952 0 -0.0013278511272807054 0.0011114784562779572 0 -0.00087898959153647198 0.00064825352524091652 0 -0.00031723727142578804 0.00027893910698559543 0 -0.00087898959153647198 0.00064825352524091652 0 -0.00022906480471457792 0.00081194920477381191 0 0.00030906788882301026 0.0013098491082067503 0 -0.00022906480471457792 0.00081194920477381191 0 0.00027360456440986785 0.00051775282686442124 0 0.00030906788882301026 0.0013098491082067503 0 -0.00055430277197750699 0.001296060029994952 0 -0.00022906480471457792 0.00081194920477381191 0 0.00030906788882301026 0.0013098491082067503 0 0.00097004240241707108 0.0006569210351129917 0 0.00027360456440986785 0.00051775282686442124 0 0.00030906788882301026 0.0013098491082067503 0 0.0010802310061720102 0.0012917641470885581 0 0.00097004240241707108 0.0006569210351129917 0 0.0019192695106698516 0.0010393288687027152 0 0.00097004240241707108 0.0006569210351129917 0 0.0013894942452478518 0.0002493200382604801 0 0.0019192695106698516 0.0010393288687027152 0 0.0010802310061720102 0.0012917641470885581 0 0.00097004240241707108 0.0006569210351129917 0 0.00097004240241707108 0.0006569210351129917 0 0.0013894942452478518 0.0002493200382604801 0 0.00073278830631949522 8.1751158780467029e-05 0 0.0002235190304608561 -7.9863133506890429e-05 0 0.00073278830631949522 8.1751158780467029e-05 0 0.00027360456440986785 0.00051775282686442124 0 0.00097004240241707108 0.0006569210351129917 0 0.00073278830631949522 8.1751158780467029e-05 0 0.00027360456440986785 0.00051775282686442124 0 0.0027564677847093286 0.00078269602712414922 0 0.0019192695106698516 0.0010393288687027152 0 0.0020610439104312823 0.0002195767579056118 0 0.0019192695106698516 0.0010393288687027152 0 0.0013894942452478518 0.0002493200382604801 0 0.0020610439104312823 0.0002195767579056118 0 0.0028072202542785678 -5.4416229554497429e-05 0 0.0020610439104312823 0.0002195767579056118 0 0.0020790222943644263 -0.00031150268986538873 0 0.0013894942452478518 0.0002493200382604801 0 0.0020610439104312823 0.0002195767579056118 0 0.0015630550547177354 -0.00027862020581447846 0 0.0020610439104312823 0.0002195767579056118 0 0.0020790222943644263 -0.00031150268986538873 0 0.0015630550547177354 -0.00027862020581447846 0 0.0020790222943644263 -0.00031150268986538873 0 0.0015630550547177354 -0.00027862020581447846 0 0.0017243685407494715 -0.00072448958280538244 0 0.0017243685407494715 -0.00072448958280538244 0 0.0012613689387405568 -0.0008697523714355865 0 0.0016671834777245568 -0.0015238160369148049 0 0.0015630550547177354 -0.00027862020581447846 0 0.0017243685407494715 -0.00072448958280538244 0 0.0012613689387405568 -0.0008697523714355865 0 0.0028072202542785678 -5.4416229554497429e-05 0 0.0020790222943644263 -0.00031150268986538873 0 0.002282659807861361 -0.00081322433618903232 0 0.0020790222943644263 -0.00031150268986538873 0 0.0017243685407494715 -0.00072448958280538244 0 0.002282659807861361 -0.00081322433618903232 0 0.0017243685407494715 -0.00072448958280538244 0 0.002282659807861361 -0.00081322433618903232 0 0.0020114831441147454 -0.0010965823176608345 0 0.0002235190304608561 -7.9863133506890429e-05 0 0.00073278830631949522 8.1751158780467029e-05 0 0.00054235272575732106 -0.00041215855296467847 0 0.00073278830631949522 8.1751158780467029e-05 0 0.00054235272575732106 -0.00041215855296467847 0 0.0010394393280327391 -0.0003509889003603408 0 0.0013894942452478518 0.0002493200382604801 0 0.0015630550547177354 -0.00027862020581447846 0 0.0010394393280327391 -0.0003509889003603408 0 0.0013894942452478518 0.0002493200382604801 0 0.00073278830631949522 8.1751158780467029e-05 0 0.0010394393280327391 -0.0003509889003603408 0 0.0010394393280327391 -0.0003509889003603408 0 0.0012613689387405568 -0.0008697523714355865 0 0.00076704610400048505 -0.00088010684877804239 0 0.0015630550547177354 -0.00027862020581447846 0 0.0010394393280327391 -0.0003509889003603408 0 0.0012613689387405568 -0.0008697523714355865 0 0.0012613689387405568 -0.0008697523714355865 0 0.00076704610400048505 -0.00088010684877804239 0 0.0010120627889747551 -0.0013556778694036723 0 -0.00017956865004343454 -0.00050689054460266783 0 0.00054235272575732106 -0.00041215855296467847 0 0.00029156452292710176 -0.00083940525976068463 0 0.00076704610400048505 -0.00088010684877804239 0 0.00029156452292710176 -0.00083940525976068463 0 0.00045749444260595061 -0.0014457966767801131 0 0.00054235272575732106 -0.00041215855296467847 0 0.00076704610400048505 -0.00088010684877804239 0 0.00029156452292710176 -0.00083940525976068463 0 0.00054235272575732106 -0.00041215855296467847 0 0.0010394393280327391 -0.0003509889003603408 0 0.00076704610400048505 -0.00088010684877804239 0 0.00045749444260595061 -0.0014457966767801131 0 0.0010120627889747551 -0.0013556778694036723 0 0.00073377435751808022 -0.0020857455712482258 0 0.00073377435751808022 -0.0020857455712482258 0 0.0016671834777245568 -0.0015238160369148049 0 0.0013152021349886068 -0.0030525525054688296 0 0.00029156452292710176 -0.00083940525976068463 0 0.00045749444260595061 -0.0014457966767801131 0 -2.9629640225707885e-05 -0.0013097416331337159 0 0.00076704610400048505 -0.00088010684877804239 0 0.00045749444260595061 -0.0014457966767801131 0 0.0010120627889747551 -0.0013556778694036723 0 0.0012613689387405568 -0.0008697523714355865 0 0.0010120627889747551 -0.0013556778694036723 0 0.0016671834777245568 -0.0015238160369148049 0 0.0010120627889747551 -0.0013556778694036723 0 0.00073377435751808022 -0.0020857455712482258 0 0.0016671834777245568 -0.0015238160369148049 0 0.00045749444260595061 -0.0014457966767801131 0 0.00073377435751808022 -0.0020857455712482258 0 6.8835671026856802e-05 -0.0018383059245021844 0 0.00073377435751808022 -0.0020857455712482258 0 6.8835671026856802e-05 -0.0018383059245021844 0 0.00012758988285841734 -0.0022451658739606733 0 0.0028340371195529866 -0.0016128960342836709 0 0.0016671834777245568 -0.0015238160369148049 0 0.0013152021349886068 -0.0030525525054688296 0 0.0027966286136489492 -0.0015804632817257287 0 0.002282659807861361 -0.00081322433618903232 0 0.002381391634045907 -0.001336505276915721 0 0.0028340371195529866 -0.0016128960342836709 0 0.002381391634045907 -0.001336505276915721 0 0.0016671834777245568 -0.0015238160369148049 0 0.002381391634045907 -0.001336505276915721 0 0.0020114831441147454 -0.0010965823176608345 0 0.0016671834777245568 -0.0015238160369148049 0 0.002282659807861361 -0.00081322433618903232 0 0.002381391634045907 -0.001336505276915721 0 0.0020114831441147454 -0.0010965823176608345 0 0.0017243685407494715 -0.00072448958280538244 0 0.0020114831441147454 -0.0010965823176608345 0 0.0016671834777245568 -0.0015238160369148049 0 0.011328382206040247 7.9372573564406715e-06 0 0.011279688170703751 -1.1671403786500313e-05 0 0.011244352323475992 7.2435275827728842e-05 0 0.0059759856260690617 -0.00073131100662422711 0 0.0064482569314224447 -0.0014646614109489464 0 0.0013152021349886068 -0.0030525525054688296 0 6.566287181552374e-05 -0.0027711241254428781 0 1.1671489144994058e-05 -0.0034694904911461619 0 0.00073377435751808022 -0.0020857455712482258 0 0.0013152021349886068 -0.0030525525054688296 0 6.566287181552374e-05 -0.0027711241254428781 0 0.00073377435751808022 -0.0020857455712482258 0 6.566287181552374e-05 -0.0027711241254428781 0 0.00012758988285841734 -0.0022451658739606733 0 6.566287181552374e-05 -0.0027711241254428781 0 -0.00044558028952945727 -0.0032583788272772065 0 1.1671489144994058e-05 -0.0034694904911461619 0 6.566287181552374e-05 -0.0027711241254428781 0 -0.00074906114623052333 -0.0028428393721717949 0 -0.00044558028952945727 -0.0032583788272772065 0 6.566287181552374e-05 -0.0027711241254428781 0 -0.00074906114623052333 -0.0028428393721717949 0 -0.00035726034173828825 -0.0022852448844043363 0 6.566287181552374e-05 -0.0027711241254428781 0 0.00012758988285841734 -0.0022451658739606733 0 -0.00035726034173828825 -0.0022852448844043363 0 -0.00074906114623052333 -0.0028428393721717949 0 -0.0012960589616083506 -0.0026866036230589713 0 -0.0009454512933934773 -0.0022214391363400547 0 -0.00074906114623052333 -0.0028428393721717949 0 -0.00035726034173828825 -0.0022852448844043363 0 -0.0009454512933934773 -0.0022214391363400547 0 -0.00074906114623052333 -0.0028428393721717949 0 -0.00088440745383975021 -0.0034018811332638039 0 -0.0012712082087040723 -0.0031921275295837331 0 -0.00074906114623052333 -0.0028428393721717949 0 -0.00044558028952945727 -0.0032583788272772065 0 -0.00088440745383975021 -0.0034018811332638039 0 -0.00088440745383975021 -0.0034018811332638039 0 -0.0012712082087040723 -0.0031921275295837331 0 -0.0011087901169846554 -0.0036934323140344755 0 -0.0012712082087040723 -0.0031921275295837331 0 -0.0016243500333006876 -0.0034881633494033429 0 -0.0011087901169846554 -0.0036934323140344755 0 -0.0016243500333006876 -0.0034881633494033429 0 -0.0018945752386560248 -0.0028596978890995752 0 -0.0024478549985291411 -0.0033689874536675041 0 -0.0012712082087040723 -0.0031921275295837331 0 -0.0016243500333006876 -0.0034881633494033429 0 -0.0018945752386560248 -0.0028596978890995752 0 -0.0018945752386560248 -0.0028596978890995752 0 -0.0016019014030458107 -0.0022588157654920937 0 -0.0022110292943732465 -0.0022392908676252474 0 -0.0012960589616083506 -0.0026866036230589713 0 -0.0016019014030458107 -0.0022588157654920937 0 -0.0009454512933934773 -0.0022214391363400547 0 -0.0018945752386560248 -0.0028596978890995752 0 -0.0012960589616083506 -0.0026866036230589713 0 -0.0016019014030458107 -0.0022588157654920937 0 -0.0012712082087040723 -0.0031921275295837331 0 -0.0018945752386560248 -0.0028596978890995752 0 -0.0012960589616083506 -0.0026866036230589713 0 -0.00074906114623052333 -0.0028428393721717949 0 -0.0012712082087040723 -0.0031921275295837331 0 -0.0012960589616083506 -0.0026866036230589713 0 -0.0012736112142736295 -0.001914766716891835 0 -0.0016019014030458107 -0.0022588157654920937 0 -0.0009454512933934773 -0.0022214391363400547 0 -0.0012736112142736295 -0.001914766716891835 0 -0.0016019014030458107 -0.0022588157654920937 0 -0.001941996745007418 -0.0016448965615159814 0 -0.0016019014030458107 -0.0022588157654920937 0 -0.0022110292943732465 -0.0022392908676252474 0 -0.001941996745007418 -0.0016448965615159814 0 -0.0014978220412123441 -0.001085143587246249 0 -0.002052616909120451 -0.0010806700269881005 0 -0.001941996745007418 -0.0016448965615159814 0 -0.002052616909120451 -0.0010806700269881005 0 -0.001941996745007418 -0.0016448965615159814 0 -0.0024989106303647149 -0.0012687450974346918 0 -0.0012736112142736295 -0.001914766716891835 0 -0.0012057075702305573 -0.0014835477037041629 0 -0.00064670060638437657 -0.0016457506930874298 0 -0.0014978220412123441 -0.001085143587246249 0 -0.001941996745007418 -0.0016448965615159814 0 -0.0012057075702305573 -0.0014835477037041629 0 -0.0012736112142736295 -0.001914766716891835 0 -0.001941996745007418 -0.0016448965615159814 0 -0.0012057075702305573 -0.0014835477037041629 0 -0.0014978220412123441 -0.001085143587246249 0 -0.00091715171035148201 -0.0011503319856858401 0 -0.0012057075702305573 -0.0014835477037041629 0 -0.00091715171035148201 -0.0011503319856858401 0 -0.0012057075702305573 -0.0014835477037041629 0 -0.00064670060638437657 -0.0016457506930874298 0 -0.00047651302520997692 -0.0011152117237048875 0 -0.00091715171035148201 -0.0011503319856858401 0 -0.00064670060638437657 -0.0016457506930874298 0 -0.00064670060638437657 -0.0016457506930874298 0 -2.9629640225707885e-05 -0.0013097416331337159 0 6.8835671026856802e-05 -0.0018383059245021844 0 -0.00047651302520997692 -0.0011152117237048875 0 -0.00064670060638437657 -0.0016457506930874298 0 -2.9629640225707885e-05 -0.0013097416331337159 0 0.00045749444260595061 -0.0014457966767801131 0 -2.9629640225707885e-05 -0.0013097416331337159 0 6.8835671026856802e-05 -0.0018383059245021844 0 -0.00064670060638437657 -0.0016457506930874298 0 6.8835671026856802e-05 -0.0018383059245021844 0 -0.00035726034173828825 -0.0022852448844043363 0 6.8835671026856802e-05 -0.0018383059245021844 0 0.00012758988285841734 -0.0022451658739606733 0 -0.00035726034173828825 -0.0022852448844043363 0 -0.00064670060638437657 -0.0016457506930874298 0 -0.00035726034173828825 -0.0022852448844043363 0 -0.0009454512933934773 -0.0022214391363400547 0 -0.0012736112142736295 -0.001914766716891835 0 -0.00064670060638437657 -0.0016457506930874298 0 -0.0009454512933934773 -0.0022214391363400547 0 -0.0038766857327884449 -0.0020944913215321438 0 -0.0038666970352904712 -0.0025593910244485177 0 -0.004002791231341154 -0.0014059666689627659 0 -0.0046806608461330479 -0.0018379779756259648 0 -0.0045272011133795087 -0.00084147391463980749 0 -0.004002791231341154 -0.0014059666689627659 0 -0.003439780220394211 -0.0021825614827023763 0 -0.0046806608461330479 -0.0018379779756259648 0 -0.004002791231341154 -0.0014059666689627659 0 -0.0034304344591596374 -0.0014517157604305158 0 -0.0037993184243861524 -0.00092105783590096767 0 -0.0034304344591596374 -0.0014517157604305158 0 -0.002833628004405475 -0.001744945231172195 0 -0.003439780220394211 -0.0021825614827023763 0 -0.0034304344591596374 -0.0014517157604305158 0 -0.002833628004405475 -0.001744945231172195 0 -0.003051267093326301 -0.0010362598098748739 0 -0.004002791231341154 -0.0014059666689627659 0 -0.0034304344591596374 -0.0014517157604305158 0 -0.003439780220394211 -0.0021825614827023763 0 -0.002833628004405475 -0.001744945231172195 0 -0.0024989106303647149 -0.0012687450974346918 0 -0.003051267093326301 -0.0010362598098748739 0 -0.001941996745007418 -0.0016448965615159814 0 -0.002833628004405475 -0.001744945231172195 0 -0.0024989106303647149 -0.0012687450974346918 0 -0.0022110292943732465 -0.0022392908676252474 0 -0.001941996745007418 -0.0016448965615159814 0 -0.002833628004405475 -0.001744945231172195 0 -0.0022110292943732465 -0.0022392908676252474 0 -0.002833628004405475 -0.001744945231172195 0 -0.0027650251875747673 -0.0026587692735126831 0 -0.002833628004405475 -0.001744945231172195 0 -0.003439780220394211 -0.0021825614827023763 0 -0.0027650251875747673 -0.0026587692735126831 0 -0.003439780220394211 -0.0021825614827023763 0 -0.0027650251875747673 -0.0026587692735126831 0 -0.0033397843956823403 -0.0032326435858950073 0 -0.0018945752386560248 -0.0028596978890995752 0 -0.0022110292943732465 -0.0022392908676252474 0 -0.0027650251875747673 -0.0026587692735126831 0 -0.0018945752386560248 -0.0028596978890995752 0 -0.0027650251875747673 -0.0026587692735126831 0 -0.0024478549985291411 -0.0033689874536675041 0 -0.0027650251875747673 -0.0026587692735126831 0 -0.0024478549985291411 -0.0033689874536675041 0 -0.0033397843956823403 -0.0032326435858950073 0 -0.0017560076987969443 -0.0039500124781368696 0 -0.0016313022252958304 -0.0039354639791443534 0 -0.001687228194482415 -0.0039142493810733064 0 -0.0023877804287494096 -0.0036846783115923641 0 -0.0038666970352904712 -0.0025593910244485177 0 -0.003439780220394211 -0.0021825614827023763 0 -0.0033397843956823403 -0.0032326435858950073 0 -0.0048180873243767576 -0.002031416085765458 0 -0.0017560076987969443 -0.0039500124781368696 0 -0.0016313022252958304 -0.0039354639791443534 0 -0.0016407118506611548 -0.0040000376992672202 0 -0.0016313022252958304 -0.0039354639791443534 0 -0.0015358697696613453 -0.0039512545565737883 0 -0.0015071616876844846 -0.0038561638555086549 0 -0.0016313022252958304 -0.0039354639791443534 0 -0.0015358697696613453 -0.0039512545565737883 0 -0.0016407118506611548 -0.0040000376992672202 0 0.0048356461333291635 0.0025688339532370756 0 0.0044068605114882852 0.0014374569873218542 0 0.0054746742170580362 0.0011963658793868908 0 -0.0015358697696613453 -0.0039512545565737883 0 -0.0014538228912322512 -0.0039837775557877465 0 -0.0015071616876844846 -0.0038561638555086549 0 0.0046679758942074255 0.0015371914883076775 0 0.0050466723265056388 -9.7343127140986127e-06 0 -0.0010662965881661486 -0.00084504258163170163 0 0.0050466723265056388 -9.7343127140986127e-06 0 -0.0052858128743439748 -0.0014378837720392099 0 -0.0047135011576390391 -0.0010884934908764086 0 -0.0051649383467596479 -0.0010298384536184411 0 -0.0052858128743439748 -0.0014378837720392099 0 -0.0041101552116958656 -0.0016002048320371382 0 -0.0047135011576390391 -0.0010884934908764086 0 -0.0010662965881661486 -0.00084504258163170163 0 -0.0038666970352904712 -0.0025593910244485177 0 -0.0046806608461330479 -0.0018379779756259648 0 -0.0052109432309913623 -0.0010785663098329635 0 -0.0045272011133795087 -0.00084147391463980749 0 -0.0015358697696613453 -0.0039512545565737883 0 -0.0014538228912322512 -0.0039837775557877465 0 -0.0016407118506611548 -0.0040000376992672202 0 -0.0038666970352904712 -0.0025593910244485177 0 -0.0050769439107224467 -0.00099055958132931434 0 -0.0052109432309913623 -0.0010785663098329635 0 -0.0051964028101759586 -0.00058633998660427545 0 -0.0048591129228514902 -0.00049276127467802488 0 -0.0052109432309913623 -0.0010785663098329635 0 -0.0048591129228514902 -0.00049276127467802488 0 -0.0045272011133795087 -0.00084147391463980749 0 -0.0052858128743439748 -0.0014378837720392099 0 -0.0051649383467596479 -0.0010298384536184411 0 -0.0055469974497087682 -0.00076176621622600226 0 -0.0051649383467596479 -0.0010298384536184411 0 -0.0053479210029640963 -0.00066096917894548047 0 -0.0055469974497087682 -0.00076176621622600226 0 -0.0050769439107224467 -0.00099055958132931434 0 -0.0052571212590047699 -0.00076810939347665176 0 -0.0047135011576390391 -0.0010884934908764086 0 -0.0051649383467596479 -0.0010298384536184411 0 -0.0053479210029640963 -0.00066096917894548047 0 -0.0052109432309913623 -0.0010785663098329635 0 -0.0053479210029640963 -0.00066096917894548047 0 -0.0051964028101759586 -0.00058633998660427545 0 -0.0053479210029640963 -0.00066096917894548047 0 -0.0053381245946095461 -0.00051830836870820924 0 -0.0051964028101759586 -0.00058633998660427545 0 -0.0053479210029640963 -0.00066096917894548047 0 -0.0053381245946095461 -0.00051830836870820924 0 -0.0054705648940573609 -0.00059124803322585691 0 -0.0053381245946095461 -0.00051830836870820924 0 -0.0052300028869172472 -0.00036614485907688368 0 -0.0053600104305829956 -0.0003951030392428697 0 -0.0053381245946095461 -0.00051830836870820924 0 -0.0053600104305829956 -0.0003951030392428697 0 -0.0054648569511424484 -0.000478043946248178 0 -0.0051964028101759586 -0.00058633998660427545 0 -0.0052300028869172472 -0.00036614485907688368 0 -0.0050885247150751186 -0.00041068449728599784 0 -0.0053381245946095461 -0.00051830836870820924 0 -0.0051964028101759586 -0.00058633998660427545 0 -0.0052300028869172472 -0.00036614485907688368 0 -0.0052300028869172472 -0.00036614485907688368 0 -0.0053600104305829956 -0.0003951030392428697 0 -0.0053427730130830913 -0.00027040332850798802 0 -0.0053600104305829956 -0.0003951030392428697 0 -0.0053427730130830913 -0.00027040332850798802 0 -0.0054196965711842491 -0.00035711734159822714 0 -0.0048591129228514902 -0.00049276127467802488 0 -0.0050885247150751186 -0.00041068449728599784 0 -0.0050325578153568246 -0.00027155705013677539 0 -0.0051964028101759586 -0.00058633998660427545 0 -0.0048591129228514902 -0.00049276127467802488 0 -0.0050885247150751186 -0.00041068449728599784 0 -0.0052300028869172472 -0.00036614485907688368 0 -0.0050885247150751186 -0.00041068449728599784 0 -0.0050325578153568246 -0.00027155705013677539 0 -0.0048591129228514902 -0.00049276127467802488 0 -0.0050325578153568246 -0.00027155705013677539 0 -0.0048464018104145664 -0.00025448460747707659 0 -0.0048591129228514902 -0.00049276127467802488 0 -0.0048464018104145664 -0.00025448460747707659 0 -0.0046028001295566993 -0.00033487035079090042 0 -0.0048464018104145664 -0.00025448460747707659 0 -0.0046028001295566993 -0.00033487035079090042 0 -0.0048386872441074378 -0.00019269687682279619 0 -0.0046028001295566993 -0.00033487035079090042 0 -0.0043161002009273648 -0.00035513776708182129 0 -0.004614062327036322 -0.00026239898709514575 0 -0.0046028001295566993 -0.00033487035079090042 0 -0.004614062327036322 -0.00026239898709514575 0 -0.0048386872441074378 -0.00019269687682279619 0 -0.0046028001295566993 -0.00033487035079090042 0 -0.0042049154184969463 -0.00040705205255536916 0 -0.0043161002009273648 -0.00035513776708182129 0 -0.0046028001295566993 -0.00033487035079090042 0 -0.0045490501566729478 -0.00048568815330784029 0 -0.0042049154184969463 -0.00040705205255536916 0 -0.0048591129228514902 -0.00049276127467802488 0 -0.0046028001295566993 -0.00033487035079090042 0 -0.0045490501566729478 -0.00048568815330784029 0 -0.0045490501566729478 -0.00048568815330784029 0 -0.0042049154184969463 -0.00040705205255536916 0 -0.0045272011133795087 -0.00084147391463980749 0 -0.0048591129228514902 -0.00049276127467802488 0 -0.0045490501566729478 -0.00048568815330784029 0 -0.0045272011133795087 -0.00084147391463980749 0 -0.0042049154184969463 -0.00040705205255536916 0 -0.0037993184243861524 -0.00092105783590096767 0 -0.0045272011133795087 -0.00084147391463980749 0 -0.004002791231341154 -0.0014059666689627659 0 -0.0037993184243861524 -0.00092105783590096767 0 -0.0045272011133795087 -0.00084147391463980749 0 -0.0024989106303647149 -0.0012687450974346918 0 -0.0024895005323776389 -0.00068108254730399147 0 -0.003051267093326301 -0.0010362598098748739 0 -0.0024895005323776389 -0.00068108254730399147 0 -0.003051267093326301 -0.0010362598098748739 0 -0.0032653290645295514 -0.00063726713485303885 0 -0.0034304344591596374 -0.0014517157604305158 0 -0.0037993184243861524 -0.00092105783590096767 0 -0.003051267093326301 -0.0010362598098748739 0 -0.0037993184243861524 -0.00092105783590096767 0 -0.003051267093326301 -0.0010362598098748739 0 -0.0032653290645295514 -0.00063726713485303885 0 -0.0042049154184969463 -0.00040705205255536916 0 -0.0032653290645295514 -0.00063726713485303885 0 -0.0028044621362021006 -7.8670865945132783e-05 0 -0.0042049154184969463 -0.00040705205255536916 0 -0.0037993184243861524 -0.00092105783590096767 0 -0.0032653290645295514 -0.00063726713485303885 0 -0.0024895005323776389 -0.00068108254730399147 0 -0.0032653290645295514 -0.00063726713485303885 0 -0.0028044621362021006 -7.8670865945132783e-05 0 -0.0020872659346794944 -8.416581343316065e-05 0 -0.0024895005323776389 -0.00068108254730399147 0 -0.0028044621362021006 -7.8670865945132783e-05 0 -0.0035533982661993626 0.00048771201892077164 0 -0.0041064665572325097 -0.0003462764566030174 0 -0.0021959004819998872 0.0012859331528033487 0 -0.0042049154184969463 -0.00040705205255536916 0 -0.0024643187445377861 0.00041971105204420653 0 -0.0020872659346794944 -8.416581343316065e-05 0 -0.0028044621362021006 -7.8670865945132783e-05 0 -0.0024643187445377861 0.00041971105204420653 0 -0.0044515253742701422 -0.00027577952403853785 0 -0.0042049154184969463 -0.00040705205255536916 0 -0.0043161002009273648 -0.00035513776708182129 0 -0.0042049154184969463 -0.00040705205255536916 0 -0.0028044621362021006 -7.8670865945132783e-05 0 -0.0024643187445377861 0.00041971105204420653 0 -0.0044110378898916166 -0.00035280847839180358 0 -0.0044790380456137049 -0.000196144825958807 0 -0.0043161002009273648 -0.00035513776708182129 0 -0.0046291290944690117 -0.00026022775295778876 0 -0.004614062327036322 -0.00026239898709514575 0 -0.0044515253742701422 -0.00027577952403853785 0 -0.0043161002009273648 -0.00035513776708182129 0 -0.0044794376590761489 -0.00024235588677974011 0 -0.0046291290944690117 -0.00026022775295778876 0 -0.004614062327036322 -0.00026239898709514575 0 -0.0047725115173721765 -0.00018957738541092758 0 -0.00458402349056297 -0.00026109917222219358 0 -0.0044790380456137049 -0.000196144825958807 0 -0.0044601200019731609 4.9847084301660779e-06 0 -0.0046291290944690117 -0.00026022775295778876 0 -0.0047725115173721765 -0.00018957738541092758 0 -0.0047725115173721765 -0.00018957738541092758 0 -0.0048386872441074378 -0.00019269687682279619 0 -0.0051284039691487822 -5.1187371509203002e-05 0 -0.0048386872441074378 -0.00019269687682279619 0 -0.0051284039691487822 -5.1187371509203002e-05 0 -0.0051007624412429909 -0.0001055456325411365 0 -0.0048464018104145664 -0.00025448460747707659 0 -0.0048386872441074378 -0.00019269687682279619 0 -0.0051007624412429909 -0.0001055456325411365 0 -0.004614062327036322 -0.00026239898709514575 0 -0.0047725115173721765 -0.00018957738541092758 0 -0.0048386872441074378 -0.00019269687682279619 0 -0.0057270568181024689 3.0713132163836491e-05 0 -0.0051284039691487822 -5.1187371509203002e-05 0 -0.0056544748270368492 -0.00033946825377595001 0 -0.00458402349056297 -0.00026109917222219358 0 -0.0053306034799473385 2.8092466254936052e-05 0 -0.0044601200019731609 4.9847084301660779e-06 0 -0.0047725115173721765 -0.00018957738541092758 0 -0.0051284039691487822 -5.1187371509203002e-05 0 -0.0051284039691487822 -5.1187371509203002e-05 0 -0.0056544748270368492 -0.00033946825377595001 0 -0.005547785506561681 -0.00050521930654777707 0 -0.0051284039691487822 -5.1187371509203002e-05 0 -0.005547785506561681 -0.00050521930654777707 0 -0.005321404339422014 -0.00015904683771636073 0 -0.0057531692113544659 -0.00075004679840952782 0 -0.0057973394672416372 -0.0005505852515361615 0 -0.005547785506561681 -0.00050521930654777707 0 -0.0057973394672416372 -0.0005505852515361615 0 -0.0056544748270368492 -0.00033946825377595001 0 -0.005547785506561681 -0.00050521930654777707 0 -0.0054813021933958561 -0.00081312067995975112 0 -0.005321404339422014 -0.00015904683771636073 0 -0.0049398283969968263 -3.648681793050008e-05 0 -0.0054813021933958561 -0.00081312067995975112 0 -0.0055041045024422164 -0.00063112445327974907 0 -0.005321404339422014 -0.00015904683771636073 0 -0.005547785506561681 -0.00050521930654777707 0 -0.0055041045024422164 -0.00063112445327974907 0 -0.005321404339422014 -0.00015904683771636073 0 -0.005321404339422014 -0.00015904683771636073 0 -0.0050776288275669297 0.00060228462229698382 0 -0.0049398283969968263 -3.648681793050008e-05 0 -0.0053017567334877926 -0.00010562507068454271 0 -0.0052211429213686643 0.00025558624104798087 0 -0.005321404339422014 -0.00015904683771636073 0 -0.0052591326133920001 -9.3087428085140265e-05 0 -0.0051007624412429909 -0.0001055456325411365 0 -0.0051284039691487822 -5.1187371509203002e-05 0 -0.005321404339422014 -0.00015904683771636073 0 -0.0051007624412429909 -0.0001055456325411365 0 -0.0050325578153568246 -0.00027155705013677539 0 -0.0051007624412429909 -0.0001055456325411365 0 -0.0052729196239945852 -0.00019981866240827525 0 -0.0050325578153568246 -0.00027155705013677539 0 -0.0048464018104145664 -0.00025448460747707659 0 -0.0051007624412429909 -0.0001055456325411365 0 -0.0052591326133920001 -9.3087428085140265e-05 0 -0.0051007624412429909 -0.0001055456325411365 0 -0.0052729196239945852 -0.00019981866240827525 0 -0.0052591326133920001 -9.3087428085140265e-05 0 -0.0052729196239945852 -0.00019981866240827525 0 -0.0054832975496436126 -0.0002650023845473946 0 -0.0052300028869172472 -0.00036614485907688368 0 -0.0050325578153568246 -0.00027155705013677539 0 -0.0052729196239945852 -0.00019981866240827525 0 -0.0052729196239945852 -0.00019981866240827525 0 -0.0053427730130830913 -0.00027040332850798802 0 -0.0054832975496436126 -0.0002650023845473946 0 -0.0052300028869172472 -0.00036614485907688368 0 -0.0052729196239945852 -0.00019981866240827525 0 -0.0053427730130830913 -0.00027040332850798802 0 -0.0046841653517958126 0.0012170025194650344 0 -0.0043846025964445296 0.0010512855120839791 0 -0.0046210937087109829 0.00075907075117027446 0 -0.0052211429213686643 0.00025558624104798087 0 -0.0045665338590948528 0.00023139309206752527 0 -0.0050776288275669297 0.00060228462229698382 0 -0.0046841653517958126 0.0012170025194650344 0 -0.0046210937087109829 0.00075907075117027446 0 -0.0053427730130830913 -0.00027040332850798802 0 -0.0054832975496436126 -0.0002650023845473946 0 -0.0054470518935073424 -0.00029668694555498121 0 -0.0031275147269841821 0.00060190598362738713 0 -0.0031529558050041287 0.00061863823291194821 0 -0.0031370191261985065 0.00058304368321935153 0 -0.0045665338590948528 0.00023139309206752527 0 -0.0029222770894019993 0.000863359109258522 0 -0.00097008550896943472 0.00085208311242109295 0 -0.00090303848837803549 0.00081773619603759307 0 -0.00081736613419210484 0.0010493286208131986 0 -0.0029222770894019993 0.000863359109258522 0 -0.0036532347507751035 0.0014135992678812139 0 -0.0043846025964445296 0.0010512855120839791 0 -0.0042619942238150696 0.00076228638296992317 0 -0.0046210937087109829 0.00075907075117027446 0 -0.0029700774240740942 0.00095989981916003522 0 -0.0032641271316640502 0.0011160277042838933 0 -0.0031864564531255669 0.001424512183757085 0 -0.0022334479085018735 0.0015033577507145254 0 -0.0036532347507751035 0.0014135992678812139 0 -0.0029222770894019993 0.000863359109258522 0 -0.0022334479085018735 0.0015033577507145254 0 -0.0036532347507751035 0.0014135992678812139 0 -0.0037493304182212839 0.00088647570580392319 0 -0.0042145009056744351 0.0025318916909058435 0 -0.0036550078533511259 0.0012292505111644518 0 -0.003518781936729077 0.0021338425489301361 0 -0.0041609387031842967 0.0010568243487545184 0 -0.0043252045559421274 0.00043007203805528937 0 -0.0038010357230866452 0.00040965824342240298 0 -0.0040871726617050224 0.0030206505054811163 0 -0.0042145009056744351 0.0025318916909058435 0 -0.003518781936729077 0.0021338425489301361 0 -0.0042619942238150696 0.00076228638296992317 0 -0.0044715354874501146 0.00059739967313931857 0 -0.0043252045559421274 0.00043007203805528937 0 -0.0036532347507751035 0.0014135992678812139 0 -0.0043249750748331674 0.00030680480958098356 0 -0.0050776288275669297 0.00060228462229698382 0 -0.0047170697047150423 0.00042173330901765932 0 -0.0049398283969968263 -3.648681793050008e-05 0 -0.0050776288275669297 0.00060228462229698382 0 -0.0046210937087109829 0.00075907075117027446 0 -0.0047170697047150423 0.00042173330901765932 0 -0.0044715354874501146 0.00059739967313931857 0 -0.0046210937087109829 0.00075907075117027446 0 -0.0047170697047150423 0.00042173330901765932 0 -0.0042619942238150696 0.00076228638296992317 0 -0.0044715354874501146 0.00059739967313931857 0 -0.0046210937087109829 0.00075907075117027446 0 -0.0044715354874501146 0.00059739967313931857 0 -0.0047170697047150423 0.00042173330901765932 0 -0.0043252045559421274 0.00043007203805528937 0 -0.0047170697047150423 0.00042173330901765932 0 -0.0049398283969968263 -3.648681793050008e-05 0 -0.0043252045559421274 0.00043007203805528937 0 -0.0049398283969968263 -3.648681793050008e-05 0 -0.0043252045559421274 0.00043007203805528937 0 -0.0042202003316483732 -4.6228651272637679e-05 0 -0.0038010357230866452 0.00040965824342240298 0 -0.0042202003316483732 -4.6228651272637679e-05 0 -0.0031093156670722482 -0.00016261354430829135 0 -0.0043252045559421274 0.00043007203805528937 0 -0.0038010357230866452 0.00040965824342240298 0 -0.0042202003316483732 -4.6228651272637679e-05 0 -0.0042202003316483732 -4.6228651272637679e-05 0 -0.0038819010202928417 -0.00056048185363879381 0 -0.0031093156670722482 -0.00016261354430829135 0 -0.0042202003316483732 -4.6228651272637679e-05 0 -0.0038819010202928417 -0.00056048185363879381 0 -0.0047508892221982228 -0.00064658425948393777 0 -0.0054813021933958561 -0.00081312067995975112 0 -0.0049398283969968263 -3.648681793050008e-05 0 -0.0047508892221982228 -0.00064658425948393777 0 -0.0049398283969968263 -3.648681793050008e-05 0 -0.0042202003316483732 -4.6228651272637679e-05 0 -0.0047508892221982228 -0.00064658425948393777 0 -0.0016962735083601672 -0.001011604411890769 0 -0.00074056410346508956 -0.00099944394623153045 0 -0.0011132387829931869 -0.00037370055968930817 0 -0.0016206269478474841 -0.00094122437065530349 0 -0.0012882063440718739 -8.6408372948931168e-05 0 -0.0016962735083601672 -0.001011604411890769 0 -0.0031093156670722482 -0.00016261354430829135 0 -0.0014164087488468986 0.00026695684524251069 0 -0.002808066393662208 -0.0012343961413176607 0 -0.0038819010202928417 -0.00056048185363879381 0 -0.0031093156670722482 -0.00016261354430829135 0 -0.002808066393662208 -0.0012343961413176607 0 -0.0016962735083601672 -0.001011604411890769 0 -0.0031093156670722482 -0.00016261354430829135 0 -0.0036550078533511259 0.0012292505111644518 0 -0.002422342735450219 0.0010920100193692627 0 -0.0030611614610923429 0.0016895515072689001 0 -0.0036550078533511259 0.0012292505111644518 0 -0.0031093156670722482 -0.00016261354430829135 0 -0.002422342735450219 0.0010920100193692627 0 -0.0037493304182212839 0.00088647570580392319 0 -0.003162810079172297 -0.00014836935339193014 0 -0.0010947865633261914 0.0015216947951030295 0 -0.002422342735450219 0.0010920100193692627 0 -0.0014164087488468986 0.00026695684524251069 0 -0.00035529637084268556 0.00089907628063202137 0 -0.0012882063440718739 -8.6408372948931168e-05 0 -0.0031093156670722482 -0.00016261354430829135 0 -0.002422342735450219 0.0010920100193692627 0 -0.0014164087488468986 0.00026695684524251069 0 0.00055876741068672481 0.0017007527149287889 0 0.00037252188519085584 0.0010826445977248564 0 -0.00010990412420342423 0.0013397863510126147 0 -0.00035529637084268556 0.00089907628063202137 0 -0.0014515642421232763 0.0019442246044487639 0 -0.0010947865633261914 0.0015216947951030295 0 -0.002422342735450219 0.0010920100193692627 0 -0.0026421268616294686 0.0022924750572371681 0 -0.002422342735450219 0.0010920100193692627 0 -0.0030611614610923429 0.0016895515072689001 0 -0.0026421268616294686 0.0022924750572371681 0 -0.0040871726617050224 0.0030206505054811163 0 -0.0026421268616294686 0.0022924750572371681 0 -0.003518781936729077 0.0021338425489301361 0 -0.0030611614610923429 0.0016895515072689001 0 -0.0026421268616294686 0.0022924750572371681 0 -0.003518781936729077 0.0021338425489301361 0 -0.0036550078533511259 0.0012292505111644518 0 -0.0030611614610923429 0.0016895515072689001 0 -0.003518781936729077 0.0021338425489301361 0 -0.00059645413455980162 0.0015925414161629089 0 -0.00010990412420342423 0.0013397863510126147 0 -9.2478528527614433e-05 0.0018451964238283545 0 -0.0022334479085018735 0.0015033577507145254 0 -0.0014515642421232763 0.0019442246044487639 0 0.00055876741068672481 0.0017007527149287889 0 -0.00010990412420342423 0.0013397863510126147 0 -9.2478528527614433e-05 0.0018451964238283545 0 0.00055876741068672481 0.0017007527149287889 0 0.00024469054568270648 0.0021550677636022345 0 -9.2478528527614433e-05 0.0018451964238283545 0 0.00024469054568270648 0.0021550677636022345 0 -0.00015253031827150505 0.0023405206657216722 0 -9.2478528527614433e-05 0.0018451964238283545 0 0.00024469054568270648 0.0021550677636022345 0 0.00018149893907829862 0.0025486209705295024 0 -0.00015253031827150505 0.0023405206657216722 0 -0.00060835797184701152 0.0014585241742287765 0 0.00055036674858399291 0.0024553482394627699 0 -0.00015253031827150505 0.0023405206657216722 0 -0.00043762545982274653 0.0021377905830401189 0 -0.00027300524935321033 0.0026838094958529747 0 0.00018149893907829862 0.0025486209705295024 0 -0.00015253031827150505 0.0023405206657216722 0 -0.00019059142259185275 0.0026747511413651383 0 -0.00015253031827150505 0.0023405206657216722 0 -0.00027300524935321033 0.0026838094958529747 0 -0.00019059142259185275 0.0026747511413651383 0 -0.00015253031827150505 0.0023405206657216722 0 -9.2478528527614433e-05 0.0018451964238283545 0 -0.00043762545982274653 0.0021377905830401189 0 -0.00059645413455980162 0.0015925414161629089 0 -9.2478528527614433e-05 0.0018451964238283545 0 -0.00043762545982274653 0.0021377905830401189 0 -0.0022334479085018735 0.0015033577507145254 0 -0.00060835797184701152 0.0014585241742287765 0 -0.0024812052021501258 0.00053331859374918043 0 -0.00052184471906323228 0.0014639722610826941 0 -0.00097008550896943472 0.00085208311242109295 0 -0.00081736613419210484 0.0010493286208131986 0 -0.0010260576150907591 0.00098226833053352731 0 -0.00081736613419210484 0.0010493286208131986 0 -0.0010260576150907591 0.00098226833053352731 0 -0.00087406608401882125 0.0011760010241765925 0 -0.0024812052021501258 0.00053331859374918043 0 -0.003480702010886425 0.00043510395829929425 0 -0.0056223809409277868 -0.00038796463648015854 0 -0.0054705648940573609 -0.00059124803322585691 0 -0.0055469974497087682 -0.00076176621622600226 0 -0.005502801932301642 -0.00037000733000738974 0 -0.0056223809409277868 -0.00038796463648015854 0 -0.0054648569511424484 -0.000478043946248178 0 -0.0053600104305829956 -0.0003951030392428697 0 -0.0054196965711842491 -0.00035711734159822714 0 -0.0054648569511424484 -0.000478043946248178 0 -0.0054196965711842491 -0.00035711734159822714 0 -0.005502801932301642 -0.00037000733000738974 0 -0.0054648569511424484 -0.000478043946248178 0 -0.0053427730130830913 -0.00027040332850798802 0 -0.0054196965711842491 -0.00035711734159822714 0 -0.0054470518935073424 -0.00029668694555498121 0 -0.0054196965711842491 -0.00035711734159822714 0 -0.0054470518935073424 -0.00029668694555498121 0 -0.005502801932301642 -0.00037000733000738974 0 -0.0055250956282804336 -0.00025651620429739859 0 -0.0054470518935073424 -0.00029668694555498121 0 -0.005502801932301642 -0.00037000733000738974 0 -0.0045665338590948528 0.00023139309206752527 0 -0.0048294549973383694 0.00023602679248647951 0 -0.0029222770894019993 0.000863359109258522 0 -0.0024812052021501258 0.00053331859374918043 0 -0.0055250956282804336 -0.00025651620429739859 0 -0.005502801932301642 -0.00037000733000738974 0 -0.0056223809409277868 -0.00038796463648015854 0 -0.0045665338590948528 0.00023139309206752527 0 -0.0024812052021501258 0.00053331859374918043 0 -0.0056223809409277868 -0.00038796463648015854 0 -0.0054648569511424484 -0.000478043946248178 0 -0.0054705648940573609 -0.00059124803322585691 0 -0.0053381245946095461 -0.00051830836870820924 0 -0.0054648569511424484 -0.000478043946248178 0 -0.0054705648940573609 -0.00059124803322585691 0 -0.0010987584934818108 0.0011448548696353007 0 -0.00087406608401882125 0.0011760010241765925 0 -0.00095231165867208298 0.0013088859078536938 0 -0.0010662965881661486 -0.00084504258163170163 0 -0.003480702010886425 0.00043510395829929425 0 -0.0010223171989878379 0.00095326726519212449 0 -0.0010987584934818108 0.0011448548696353007 0 -0.00087406608401882125 0.0011760010241765925 0 -0.0053479210029640963 -0.00066096917894548047 0 -0.0054705648940573609 -0.00059124803322585691 0 -0.0055469974497087682 -0.00076176621622600226 0 -0.00081736613419210484 0.0010493286208131986 0 -0.00087406608401882125 0.0011760010241765925 0 -0.00072850914190577176 0.0012974382607461369 0 0.0019507713955923358 0.0020685545331210141 0 0.00055036674858399291 0.0024553482394627699 0 -0.00087406608401882125 0.0011760010241765925 0 -0.00095231165867208298 0.0013088859078536938 0 -0.00072850914190577176 0.0012974382607461369 0 0.0037368157421775838 0.0027288279655021288 0 0.0033921390953842111 0.001769181254688487 0 0.0025958333743121322 0.0028673347588257488 0 0.0048356461333291635 0.0025688339532370756 0 0.0037368157421775838 0.0027288279655021288 0 0.0044068605114882852 0.0014374569873218542 0 -0.0010662965881661486 -0.00084504258163170163 0 0.0019507713955923358 0.0020685545331210141 0 -0.0011704526306241566 0.001311902259149381 0 -0.0010987584934818108 0.0011448548696353007 0 -0.00095231165867208298 0.0013088859078536938 0 0.0037368157421775838 0.0027288279655021288 0 0.0044068605114882852 0.0014374569873218542 0 0.0033921390953842111 0.001769181254688487 0 -0.00014322247092168509 0.0031033567742467399 0 6.4217114774262114e-05 0.0029486928540872143 0 7.5783773842591598e-05 0.0034952378762282922 0 0.0033921390953842111 0.001769181254688487 0 0.0023361317175217989 0.0018556418903595349 0 0.0028174171906004799 0.0012176597039424641 0 0.0023361317175217989 0.0018556418903595349 0 0.0028174171906004799 0.0012176597039424641 0 0.0020717887472574813 0.00083259293343763247 0 0.0033921390953842111 0.001769181254688487 0 0.0023361317175217989 0.0018556418903595349 0 0.0025958333743121322 0.0028673347588257488 0 0.0010520378644949199 0.0023716293710989793 0 0.002736406758466424 0.0028897311420894526 0 0.00092788516169852126 0.003450155465605466 0 0.0015670658982698603 0.0043112166285825598 0 0.0022580839170424911 0.0047167825667401141 0 0.0017844049718611103 0.0039344971996098117 0 0.0011826579131193394 0.0050083053550990892 0 0.00039773385616020609 0.0029146141851311516 0 6.4217114774262114e-05 0.0029486928540872143 0 7.5783773842591598e-05 0.0034952378762282922 0 0.00039773385616020609 0.0029146141851311516 0 0.00018149893907829862 0.0025486209705295024 0 6.4217114774262114e-05 0.0029486928540872143 0 0.00018149893907829862 0.0025486209705295024 0 6.4217114774262114e-05 0.0029486928540872143 0 -0.00019059142259185275 0.0026747511413651383 0 -0.00014322247092168509 0.0031033567742467399 0 -0.00026840315634850832 0.0026832186814733719 0 -0.00019059142259185275 0.0026747511413651383 0 0.0010520378644949199 0.0023716293710989793 0 0.00055036674858399291 0.0024553482394627699 0 -0.00014322247092168509 0.0031033567742467399 0 6.4217114774262114e-05 0.0029486928540872143 0 -0.00019059142259185275 0.0026747511413651383 0 0.00055036674858399291 0.0024553482394627699 0 0.00028067080082448014 0.0025000169240171049 0 0.0055350555736592352 0.002896970703987809 0 0.0051987195447517317 0.0021330320051563254 0 0.0045038551972565385 0.0032862308728288871 0 0.0053454674361768937 0.0037225210809481257 0 0.0048027436728257248 0.0036365675388135357 0 0.0049749968565485575 0.0043316792842945746 0 0.0073483156223943828 0.0032405124314145405 0 0.0032925270019261333 0.0040308440176692016 0 0.0073483156223943828 0.0032405124314145405 0 0.0048433497091025113 0.0043422602473442012 0 0.0091241151089218719 0.003604681239743948 0 0.0082015861052003071 0.0034572119526126645 0 0.0089264208597625606 0.0026544403002480644 0 0.0020365139885867647 0.0057872773892644336 0 0.001531139847770096 0.0056753921705425371 0 0.001832891853191103 0.0052439771069185464 0 0.0032013174433807544 0.0050349121865591569 0 0.0048433497091025113 0.0043422602473442012 0 0.001531139847770096 0.0056753921705425371 0 0.001832891853191103 0.0052439771069185464 0 0.0013985719573877476 0.0051488969559121585 0 0.0048433497091025113 0.0043422602473442012 0 0.0032925270019261333 0.0040308440176692016 0 0.0020832687050474767 0.0048964294140176039 0 0.0015670658982698603 0.0043112166285825598 0 0.0022580839170424911 0.0047167825667401141 0 0.001832891853191103 0.0052439771069185464 0 0.001500527045379456 0.0049749884315253828 0 0.001832891853191103 0.0052439771069185464 0 0.001500527045379456 0.0049749884315253828 0 0.0013985719573877476 0.0051488969559121585 0 0.0015670658982698603 0.0043112166285825598 0 0.0032925270019261333 0.0040308440176692016 0 0.0028174171906004799 0.0012176597039424641 0 0.0020717887472574813 0.00083259293343763247 0 0.0034797131589227371 0.00040696490553680966 0 0.002736406758466424 0.0028897311420894526 0 0.0050402996716177022 0.0016750177114260413 0 -0.00014322247092168509 0.0031033567742467399 0 7.5783773842591598e-05 0.0034952378762282922 0 -1.9099124246503251e-05 0.0035214813088998258 0 0.0055350555736592352 0.002896970703987809 0 0.0045936202652511375 0.0036430015274003394 0 0.0066882583358325327 0.0030532877146144288 0 0.0015670658982698603 0.0043112166285825598 0 0.002736406758466424 0.0028897311420894526 0 0.002736406758466424 0.0028897311420894526 0 0.0032925270019261333 0.0040308440176692016 0 0.002664284664449121 0.0037810325374951969 0 0.0029271131344442008 0.0037076092944655094 0 0.0028626398220761703 0.0034515308750793922 0 0.0055350555736592352 0.002896970703987809 0 0.0045936202652511375 0.0036430015274003394 0 0.0045038551972565385 0.0032862308728288871 0 0.0033921390953842111 0.001769181254688487 0 0.0028174171906004799 0.0012176597039424641 0 0.0034797131589227371 0.00040696490553680966 0 0.0044068605114882852 0.0014374569873218542 0 0.0033921390953842111 0.001769181254688487 0 0.0034797131589227371 0.00040696490553680966 0 0.0044068605114882852 0.0014374569873218542 0 0.0034797131589227371 0.00040696490553680966 0 0.0045648789652615544 5.9179786541040547e-05 0 0.0044068605114882852 0.0014374569873218542 0 0.0045648789652615544 5.9179786541040547e-05 0 0.0050208817510636362 -7.6971769829722937e-05 0 0.011271534580957159 0.0035594486882672602 0 0.010317634376576922 0.0034459691977200622 0 0.010566226140177437 0.0031337480438450738 0 0.0080698280793207126 0.0021679268682918925 0 0.0087589181603794988 0.0029581930323988631 0 0.0066882583358325327 0.0030532877146144288 0 0.0081723579683866295 0.0026281996429629627 0 0.0066873774094402495 0.0023718004216698205 0 0.0050402996716177022 0.0016750177114260413 0 0.0080698280793207126 0.0021679268682918925 0 0.011271534580957159 0.0035594486882672602 0 0.011433253028550003 0.003039884217903163 0 0.011625513225416001 0.0034385500448476112 0 0.0080698280793207126 0.0021679268682918925 0 0.0083012824732578479 0.00189066560625332 0 0.011271534580957159 0.0035594486882672602 0 0.010566226140177437 0.0031337480438450738 0 0.010944162302709151 0.0028780508329291584 0 0.011271534580957159 0.0035594486882672602 0 0.011433253028550003 0.003039884217903163 0 0.010944162302709151 0.0028780508329291584 0 0.0055350555736592352 0.002896970703987809 0 0.0051987195447517317 0.0021330320051563254 0 0.0066873774094402495 0.0023718004216698205 0 0.0093059727744381187 0.0033037846216716991 0 0.010317634376576922 0.0034459691977200622 0 0.010092405360636797 0.0031403137972775392 0 0.0073483156223943828 0.0032405124314145405 0 0.0087589181603794988 0.0029581930323988631 0 0.0055350555736592352 0.002896970703987809 0 0.0066882583358325327 0.0030532877146144288 0 0.0066873774094402495 0.0023718004216698205 0 0.010566226140177437 0.0031337480438450738 0 0.010092405360636797 0.0031403137972775392 0 0.010324571361067831 0.0028368840351972141 0 0.010566226140177437 0.0031337480438450738 0 0.010324571361067831 0.0028368840351972141 0 0.010944162302709151 0.0028780508329291584 0 0.010317634376576922 0.0034459691977200622 0 0.010566226140177437 0.0031337480438450738 0 0.010092405360636797 0.0031403137972775392 0 0.0093059727744381187 0.0033037846216716991 0 0.010092405360636797 0.0031403137972775392 0 0.0098807324796607657 0.0029490232147315514 0 0.010092405360636797 0.0031403137972775392 0 0.0098807324796607657 0.0029490232147315514 0 0.010324571361067831 0.0028368840351972141 0 0.010324571361067831 0.0028368840351972141 0 0.0097750406065949345 0.0024981313073175206 0 0.010776172888996039 0.0022142877809046627 0 0.0097750406065949345 0.0024981313073175206 0 0.009812065962516962 0.0020447364092845859 0 0.010776172888996039 0.0022142877809046627 0 0.0098807324796607657 0.0029490232147315514 0 0.010324571361067831 0.0028368840351972141 0 0.0097750406065949345 0.0024981313073175206 0 0.0097846141157372189 0.002096630977854804 0 0.010707666225167153 0.0021917941042243478 0 0.011433253028550003 0.003039884217903163 0 0.010944162302709151 0.0028780508329291584 0 0.011407672502229158 0.002446315968733286 0 0.010944162302709151 0.0028780508329291584 0 0.010776172888996039 0.0022142877809046627 0 0.011407672502229158 0.002446315968733286 0 0.010324571361067831 0.0028368840351972141 0 0.010944162302709151 0.0028780508329291584 0 0.010776172888996039 0.0022142877809046627 0 0.010776172888996039 0.0022142877809046627 0 0.011409471223266214 0.0014869538642994272 0 0.010469378842964701 0.0011667307465552869 0 0.010776172888996039 0.0022142877809046627 0 0.011407672502229158 0.002446315968733286 0 0.011409471223266214 0.0014869538642994272 0 0.010113052687498797 0.0021361571920969248 0 0.010776172888996039 0.0022142877809046627 0 0.010469378842964701 0.0011667307465552869 0 0.014468096206271127 0.0032641577238672346 0 0.014427788879981068 0.002681203208900901 0 0.015015015077060389 0.0027712715250508085 0 0.010200972948578448 0.002476575680286734 0 0.013120884085730661 0.0019171714987344228 0 0.010113052687498797 0.0021361571920969248 0 0.0094316280979854089 0.0020747341552717854 0 0.010469378842964701 0.0011667307465552869 0 0.0097750406065949345 0.0024981313073175206 0 0.009812065962516962 0.0020447364092845859 0 0.0089264208597625606 0.0026544403002480644 0 0.009812065962516962 0.0020447364092845859 0 0.0086475223389055784 0.0019078082738431437 0 0.0089264208597625606 0.0026544403002480644 0 0.0097846141157372189 0.002096630977854804 0 0.010200972948578448 0.002476575680286734 0 0.0086475223389055784 0.0019078082738431437 0 0.0089264208597625606 0.0026544403002480644 0 0.0079598014426275326 0.0024777122836352186 0 0.0073483156223943828 0.0032405124314145405 0 0.009760056479713182 0.0023727561466582625 0 0.0093059727744381187 0.0033037846216716991 0 0.0098807324796607657 0.0029490232147315514 0 0.0097750406065949345 0.0024981313073175206 0 0.0091241151089218719 0.003604681239743948 0 0.0097750406065949345 0.0024981313073175206 0 0.0089264208597625606 0.0026544403002480644 0 0.0041463287904655657 0.0036737065569047087 0 0.0059984007366063628 0.0037464542378739672 0 0.0052098439508166507 0.0041116920162855928 0 0.0039043552018369343 0.0045730494504218101 0 0.0050441481248555834 0.0047573883906243432 0 0.0048019248834446126 0.003807605855458794 0 0.0032013174433807544 0.0050349121865591569 0 0.0057131965705111533 0.0036736198720787425 0 0.0043154084897250086 0.0051134042423580045 0 0.0052659128360764392 0.0043679447643634513 0 0.0045151521103918343 0.0043045096361141464 0 0.0048433497091025113 0.0043422602473442012 0 0.0057131965705111533 0.0036736198720787425 0 0.0082015861052003071 0.0034572119526126645 0 0.0089264208597625606 0.0026544403002480644 0 0.0079598014426275326 0.0024777122836352186 0 0.010200972948578448 0.002476575680286734 0 0.0057131965705111533 0.0036736198720787425 0 0.0059984007366063628 0.0037464542378739672 0 0.005281362469935596 0.0043814180585794614 0 0.0052098439508166507 0.0041116920162855928 0 0.0057131965705111533 0.0036736198720787425 0 0.0056855263794606077 0.0038191506163201844 0 0.0041463287904655657 0.0036737065569047087 0 0.0052098439508166507 0.0041116920162855928 0 0.0045151521103918343 0.0043045096361141464 0 0.0052659128360764392 0.0043679447643634513 0 0.0052098439508166507 0.0041116920162855928 0 0.0045151521103918343 0.0043045096361141464 0 0.013906003737697896 0.0032493616776112033 0 0.013798427221333742 0.0028156396310257577 0 0.014427788879981068 0.002681203208900901 0 0.0089006907355401316 0.0034998561725580954 0 0.010200972948578448 0.002476575680286734 0 0.013906003737697896 0.0032493616776112033 0 0.014468096206271127 0.0032641577238672346 0 0.014427788879981068 0.002681203208900901 0 0.014100158333419884 0.0023521812868038984 0 0.013798427221333742 0.0028156396310257577 0 0.014427788879981068 0.002681203208900901 0 0.014427788879981068 0.002681203208900901 0 0.014580193158602043 0.0021108965052759028 0 0.015020890420131754 0.0022800845245512865 0 0.014100158333419884 0.0023521812868038984 0 0.014458146675488627 0.0017607967865937483 0 0.015156355852332111 0.0018584878203008533 0 0.014117553471811603 0.002345079123620422 0 0.014925849115606829 0.0019570580219088955 0 0.014100158333419884 0.0023521812868038984 0 0.014427788879981068 0.002681203208900901 0 0.014580193158602043 0.0021108965052759028 0 0.014458146675488627 0.0017607967865937483 0 0.015161673442450077 0.001532920395025595 0 0.015156355852332111 0.0018584878203008533 0 0.014173170996087132 0.0010721162215294481 0 0.014458146675488627 0.0017607967865937483 0 0.015161673442450077 0.001532920395025595 0 0.015161673442450077 0.001532920395025595 0 0.015156355852332111 0.0018584878203008533 0 0.015378867580225358 0.0015965391213510426 0 0.015161673442450077 0.001532920395025595 0 0.015285629674598429 0.0015341505272136644 0 0.015318420878553856 0.0015491899167575935 0 0.015482535296454521 0.0014570823396729661 0 0.015161673442450077 0.001532920395025595 0 0.015318420878553856 0.0015491899167575935 0 0.014881616379274971 0.0012965331158089008 0 0.015141462579156792 0.0015034731986194481 0 0.015378867580225358 0.0015965391213510426 0 0.015448305271387745 0.0015706686555849892 0 0.015340240988577921 0.0015353730547954332 0 0.014873371502290086 0.0018140385921508492 0 0.017416430420879633 0.0014100742250395132 0 0.015285629674598429 0.0015341505272136644 0 0.015378867580225358 0.0015965391213510426 0 0.015340240988577921 0.0015353730547954332 0 0.015161673442450077 0.001532920395025595 0 0.015285629674598429 0.0015341505272136644 0 0.015378867580225358 0.0015965391213510426 0 0.014925849115606829 0.0019570580219088955 0 0.014873371502290086 0.0018140385921508492 0 0.014580193158602043 0.0021108965052759028 0 0.015119295421317468 0.0018245058738625244 0 0.015020890420131754 0.0022800845245512865 0 0.015119295421317468 0.0018245058738625244 0 0.015462446322681863 0.0019594725586491606 0 0.015695228433553643 0.0015344181952365254 0 0.015119295421317468 0.0018245058738625244 0 0.015462446322681863 0.0019594725586491606 0 0.015020890420131754 0.0022800845245512865 0 0.015020890420131754 0.0022800845245512865 0 0.015015015077060389 0.0027712715250508085 0 0.01555300700362347 0.0023148606523904322 0 0.015462446322681863 0.0019594725586491606 0 0.015020890420131754 0.0022800845245512865 0 0.01555300700362347 0.0023148606523904322 0 0.014427788879981068 0.002681203208900901 0 0.015020890420131754 0.0022800845245512865 0 0.015015015077060389 0.0027712715250508085 0 0.013120884085730661 0.0019171714987344228 0 0.013282677021875555 0.0013121875789640148 0 0.011409471223266214 0.0014869538642994272 0 0.010469378842964701 0.0011667307465552869 0 0.011604807638083851 0.00021210728479581284 0 0.011409471223266214 0.0014869538642994272 0 0.011604807638083851 0.00021210728479581284 0 0.01225683206742635 0.0014201158198641371 0 0.01265470041119927 0.00075840999132490306 0 0.011604807638083851 0.00021210728479581284 0 0.01225683206742635 0.0014201158198641371 0 0.01265470041119927 0.00075840999132490306 0 0.013462621037909201 0.0017470333379419314 0 0.01225683206742635 0.0014201158198641371 0 0.01265470041119927 0.00075840999132490306 0 0.012732813948783979 4.5754246413189132e-05 0 0.011604807638083851 0.00021210728479581284 0 0.012732813948783979 4.5754246413189132e-05 0 0.011604807638083851 0.00021210728479581284 0 0.012768288212208994 -0.00073434964497446666 0 0.012732813948783979 4.5754246413189132e-05 0 0.013263667393137194 -0.00036650116879324894 0 0.013333752667858197 0.00041939160537941383 0 0.01265470041119927 0.00075840999132490306 0 0.012732813948783979 4.5754246413189132e-05 0 0.013333752667858197 0.00041939160537941383 0 0.015462446322681863 0.0019594725586491606 0 0.01555300700362347 0.0023148606523904322 0 0.015802792925663708 0.0017841113860067308 0 0.01555300700362347 0.0023148606523904322 0 0.015802792925663708 0.0017841113860067308 0 0.016115191226101753 0.0018393634739435761 0 0.015462446322681863 0.0019594725586491606 0 0.015802792925663708 0.0017841113860067308 0 0.015695228433553643 0.0015344181952365254 0 0.013282677021875555 0.0013121875789640148 0 0.015661634281462149 0.00068231940728008327 0 0.012732813948783979 4.5754246413189132e-05 0 0.012768288212208994 -0.00073434964497446666 0 0.013263667393137194 -0.00036650116879324894 0 0.015661634281462149 0.00068231940728008327 0 0.012750823226748162 -0.00091621538949846078 0 0.019584594908708512 0.00091341546796503662 0 0.018726398767717825 0.00086904334781580535 0 0.020059672883086264 0.00025051395218248694 0 0.019584594908708512 0.00091341546796503662 0 0.02067899141974763 0.00089416645902975394 0 0.020059672883086264 0.00025051395218248694 0 0.018672077829212146 0.00095103418875328244 0 0.020957865467100961 -6.3505472026593237e-05 0 0.015661634281462149 0.00068231940728008327 0 0.017856111581651169 0.0014372689452728286 0 0.019723217334420139 0.0017047964922023496 0 0.019584594908708512 0.00091341546796503662 0 0.018765961476294103 0.0010062857095904454 0 0.019723217334420139 0.0017047964922023496 0 0.019584594908708512 0.00091341546796503662 0 0.02067899141974763 0.00089416645902975394 0 0.015802792925663708 0.0017841113860067308 0 0.016115191226101753 0.0018393634739435761 0 0.015748258096848745 0.0015707665915107513 0 0.019584594908708512 0.00091341546796503662 0 0.018726398767717825 0.00086904334781580535 0 0.018765961476294103 0.0010062857095904454 0 0.018672077829212146 0.00095103418875328244 0 0.017856111581651169 0.0014372689452728286 0 0.019044402133100762 0.0020127155259064781 0 0.018037351796033187 0.0025059183397754883 0 0.017582128906103025 0.00094781839771384093 0 0.017416430420879633 0.0014100742250395132 0 0.017856111581651169 0.0014372689452728286 0 0.017416430420879633 0.0014100742250395132 0 0.018672077829212146 0.00095103418875328244 0 0.015802792925663708 0.0017841113860067308 0 0.015695228433553643 0.0015344181952365254 0 0.015744694465704694 0.0015704033374205196 0 0.016679864339648645 0.0014371325831610286 0 0.017856111581651169 0.0014372689452728286 0 0.01355495355147451 -0.0012714861475257549 0 0.013931438715229259 -0.00072836866988460706 0 0.01427625938207183 -0.0018574538729226498 0 0.013931438715229259 -0.00072836866988460706 0 0.014663115365563051 -0.00077314416195140478 0 0.01427625938207183 -0.0018574538729226498 0 0.015661634281462149 0.00068231940728008327 0 0.017199829969487001 -0.00024894582381634162 0 0.01355495355147451 -0.0012714861475257549 0 0.013263667393137194 -0.00036650116879324894 0 0.013931438715229259 -0.00072836866988460706 0 0.01285339759223909 -0.00068004165064199714 0 0.01355495355147451 -0.0012714861475257549 0 0.013263667393137194 -0.00036650116879324894 0 0.013263667393137194 -0.00036650116879324894 0 0.01385949073182241 -0.00020262635273313246 0 0.013931438715229259 -0.00072836866988460706 0 0.01385949073182241 -0.00020262635273313246 0 0.013931438715229259 -0.00072836866988460706 0 0.014663115365563051 -0.00077314416195140478 0 0.012269557215663945 -6.7311312736071313e-05 0 0.012448906084751955 -0.001183468634385249 0 0.01385949073182241 -0.00020262635273313246 0 0.014079887181228809 0.00045590096023725383 0 0.014663115365563051 -0.00077314416195140478 0 0.010430589081122932 -0.00056281851320200257 0 0.010752999678985315 -0.00059489971168529574 0 0.010823418261267662 -0.001345631468442292 0 0.013263667393137194 -0.00036650116879324894 0 0.01385949073182241 -0.00020262635273313246 0 0.013333752667858197 0.00041939160537941383 0 0.01385949073182241 -0.00020262635273313246 0 0.014079887181228809 0.00045590096023725383 0 0.013333752667858197 0.00041939160537941383 0 0.01265470041119927 0.00075840999132490306 0 0.013333752667858197 0.00041939160537941383 0 0.013462621037909201 0.0017470333379419314 0 0.014079887181228809 0.00045590096023725383 0 0.013333752667858197 0.00041939160537941383 0 0.013462621037909201 0.0017470333379419314 0 0.012269557215663945 -6.7311312736071313e-05 0 0.012006710673880138 0.00097610866492120073 0 0.010430589081122932 -0.00056281851320200257 0 0.010416390344139086 -0.0002578546771375206 0 0.010660876079525551 -0.00036098898383982761 0 0.010430589081122932 -0.00056281851320200257 0 0.010416390344139086 -0.0002578546771375206 0 0.010149667697027508 -0.0001343015346228068 0 0.010430589081122932 -0.00056281851320200257 0 0.010660876079525551 -0.00036098898383982761 0 0.010752999678985315 -0.00059489971168529574 0 0.010569495694467591 -0.00018821827181450234 0 0.010416390344139086 -0.0002578546771375206 0 0.010660876079525551 -0.00036098898383982761 0 0.010569495694467591 -0.00018821827181450234 0 0.010274582263803738 -4.8489317750969745e-05 0 0.010690021083898665 -6.187673152849578e-05 0 0.010569495694467591 -0.00018821827181450234 0 0.010416390344139086 -0.0002578546771375206 0 0.010274582263803738 -4.8489317750969745e-05 0 0.010416390344139086 -0.0002578546771375206 0 0.010274582263803738 -4.8489317750969745e-05 0 0.010149667697027508 -0.0001343015346228068 0 0.010274582263803738 -4.8489317750969745e-05 0 0.01015285704629881 1.6990196937420322e-05 0 0.01004928876151287 7.1148501507385537e-05 0 0.010274582263803738 -4.8489317750969745e-05 0 0.010791933144550519 0.00015139475651644805 0 0.010690021083898665 -6.187673152849578e-05 0 0.010027054819929682 -0.00023697346469135844 0 0.010995342846434367 0.00049977619998557395 0 0.010274582263803738 -4.8489317750969745e-05 0 0.01015285704629881 1.6990196937420322e-05 0 0.01017582530450457 -1.423503639656275e-05 0 0.01015285704629881 1.6990196937420322e-05 0 0.010112248691304336 1.4293463578116785e-05 0 0.010108805816732291 3.168307000420587e-05 0 0.01015285704629881 1.6990196937420322e-05 0 0.010112248691304336 1.4293463578116785e-05 0 0.01017582530450457 -1.423503639656275e-05 0 0.012006710673880138 0.00097610866492120073 0 0.0098266873216951555 0.00050664286414507144 0 0.010071028306534712 -9.6400971303245921e-06 0 0.01017582530450457 -1.423503639656275e-05 0 0.010149667697027508 -0.0001343015346228068 0 0.010071028306534712 -9.6400971303245921e-06 0 0.010149667697027508 -0.0001343015346228068 0 0.009939510400081366 3.1089055052922873e-05 0 0.010071028306534712 -9.6400971303245921e-06 0 0.010032968413925421 1.4600765040736672e-05 0 0.009939510400081366 3.1089055052922873e-05 0 0.010071028306534712 -9.6400971303245921e-06 0 0.010032968413925421 1.4600765040736672e-05 0 0.010063467100868809 1.925851923875004e-05 0 0.010071028306534712 -9.6400971303245921e-06 0 0.010063467100868809 1.925851923875004e-05 0 0.010112248691304336 1.4293463578116785e-05 0 0.010071028306534712 -9.6400971303245921e-06 0 0.010112248691304336 1.4293463578116785e-05 0 0.01017582530450457 -1.423503639656275e-05 0 0.010274582263803738 -4.8489317750969745e-05 0 0.01017582530450457 -1.423503639656275e-05 0 0.010149667697027508 -0.0001343015346228068 0 0.013462621037909201 0.0017470333379419314 0 0.01225683206742635 0.0014201158198641371 0 0.012041136348989998 0.00224135925253632 0 0.011407672502229158 0.002446315968733286 0 0.011409471223266214 0.0014869538642994272 0 0.012041136348989998 0.00224135925253632 0 0.011409471223266214 0.0014869538642994272 0 0.01225683206742635 0.0014201158198641371 0 0.012041136348989998 0.00224135925253632 0 0.012041136348989998 0.00224135925253632 0 0.011871233549624004 0.0028465380649641756 0 0.012832178353212835 0.0030643543753530286 0 0.011433253028550003 0.003039884217903163 0 0.011407672502229158 0.002446315968733286 0 0.011871233549624004 0.0028465380649641756 0 0.011407672502229158 0.002446315968733286 0 0.012041136348989998 0.00224135925253632 0 0.011871233549624004 0.0028465380649641756 0 0.013462621037909201 0.0017470333379419314 0 0.012041136348989998 0.00224135925253632 0 0.012832178353212835 0.0030643543753530286 0 0.009939510400081366 3.1089055052922873e-05 0 0.0097423665465702601 0.00022150805569281845 0 0.0099704906084760146 9.2771300804669879e-05 0 0.009939510400081366 3.1089055052922873e-05 0 0.0099855147547895338 4.6467593590894524e-05 0 0.0099704906084760146 9.2771300804669879e-05 0 0.009939510400081366 3.1089055052922873e-05 0 0.010006187517540462 2.8133573187177009e-05 0 0.0099855147547895338 4.6467593590894524e-05 0 0.006677630693762919 -0.000533149567338481 0 0.0050208817510636362 -7.6971769829722937e-05 0 0.0058171323728972608 0.001189138045594444 0 0.0098266873216951555 0.00050664286414507144 0 0.0083012824732578479 0.00189066560625332 0 0.011871233549624004 0.0028465380649641756 0 0.012832178353212835 0.0030643543753530286 0 0.011625513225416001 0.0034385500448476112 0 0.011433253028550003 0.003039884217903163 0 0.011871233549624004 0.0028465380649641756 0 0.011625513225416001 0.0034385500448476112 0 0.0044068605114882852 0.0014374569873218542 0 0.0050208817510636362 -7.6971769829722937e-05 0 0.0058171323728972608 0.001189138045594444 0 -0.0016313022252958304 -0.0039354639791443534 0 -0.0015071616876844846 -0.0038561638555086549 0 -0.001687228194482415 -0.0039142493810733064 0 0.0097423665465702601 0.00022150805569281845 0 0.0099873212116446692 0.00016043920974700436 0 0.0099704906084760146 9.2771300804669879e-05 0 0.0050466723265056388 -9.7343127140986127e-06 0 0.004056760201149188 -0.0020383889613156355 0 0.0098266873216951555 0.00050664286414507144 0 0.0050466723265056388 -9.7343127140986127e-06 0 0.0099873212116446692 0.00016043920974700436 0 0.0099704906084760146 9.2771300804669879e-05 0 0.010034012047558386 7.3404943656461583e-05 0 0.0099873212116446692 0.00016043920974700436 0 0.010051276420257481 7.1598351509099281e-05 0 0.010034012047558386 7.3404943656461583e-05 0 -0.0017560076987969443 -0.0039500124781368696 0 -0.001687228194482415 -0.0039142493810733064 0 -0.0017460830747139423 -0.00417565248717404 0 -0.0023877804287494096 -0.0036846783115923641 0 -0.0017165141244400973 -0.0040903396906218584 0 -0.0017560076987969443 -0.0039500124781368696 0 -0.0017460830747139423 -0.00417565248717404 0 -0.0015464334261823406 -0.0041697020566470932 0 -0.0024478549985291411 -0.0033689874536675041 0 -0.0033397843956823403 -0.0032326435858950073 0 -0.0015464334261823406 -0.0041697020566470932 0 0.0099873212116446692 0.00016043920974700436 0 0.010067259166098054 1.9627047952731657e-05 0 0.010051276420257481 7.1598351509099281e-05 0 0.004056760201149188 -0.0020383889613156355 0 0.0039344280578306875 -0.0021570255403821318 0 0.010067259166098054 1.9627047952731657e-05 0 0.010051276420257481 7.1598351509099281e-05 0 0.010079298476213144 4.2162811368950691e-05 0 0.010051276420257481 7.1598351509099281e-05 0 0.010077891109475589 4.981065381219936e-05 0 0.010079298476213144 4.2162811368950691e-05 0 0.01015285704629881 1.6990196937420322e-05 0 0.010103405344035513 3.61839683534529e-05 0 0.01004928876151287 7.1148501507385537e-05 0 0.010077891109475589 4.981065381219936e-05 0 0.010079298476213144 4.2162811368950691e-05 0 0.010103405344035513 3.61839683534529e-05 0 0.010067259166098054 1.9627047952731657e-05 0 0.010079298476213144 4.2162811368950691e-05 0 0.01006774015471151 3.481026501551258e-05 0 0.010079298476213144 4.2162811368950691e-05 0 0.01006774015471151 3.481026501551258e-05 0 0.010103405344035513 3.61839683534529e-05 0 0.01015285704629881 1.6990196937420322e-05 0 0.010103405344035513 3.61839683534529e-05 0 0.010108805816732291 3.168307000420587e-05 0 0.010077891109475589 4.981065381219936e-05 0 0.010103405344035513 3.61839683534529e-05 0 0.010108805816732291 3.168307000420587e-05 0 0.010112248691304336 1.4293463578116785e-05 0 0.010108805816732291 3.168307000420587e-05 0 0.010072556579868046 3.877241727763258e-05 0 0.010077891109475589 4.981065381219936e-05 0 0.010108805816732291 3.168307000420587e-05 0 0.010072556579868046 3.877241727763258e-05 0 0.010072556579868046 3.877241727763258e-05 0 0.010044698206277149 3.4582598458319395e-05 0 0.01002201916259181 5.408087715608849e-05 0 0.010063467100868809 1.925851923875004e-05 0 0.010072556579868046 3.877241727763258e-05 0 0.010044698206277149 3.4582598458319395e-05 0 0.010063467100868809 1.925851923875004e-05 0 0.010112248691304336 1.4293463578116785e-05 0 0.010072556579868046 3.877241727763258e-05 0 0.010032968413925421 1.4600765040736672e-05 0 0.009939510400081366 3.1089055052922873e-05 0 0.010006187517540462 2.8133573187177009e-05 0 0.010063467100868809 1.925851923875004e-05 0 0.010033276619975873 2.6902643450027815e-05 0 0.010044698206277149 3.4582598458319395e-05 0 0.010032968413925421 1.4600765040736672e-05 0 0.010063467100868809 1.925851923875004e-05 0 0.010033276619975873 2.6902643450027815e-05 0 0.010033276619975873 2.6902643450027815e-05 0 0.010044698206277149 3.4582598458319395e-05 0 0.01001736837058183 3.7843569028531492e-05 0 0.010032968413925421 1.4600765040736672e-05 0 0.010033276619975873 2.6902643450027815e-05 0 0.010006187517540462 2.8133573187177009e-05 0 0.010033276619975873 2.6902643450027815e-05 0 0.010006187517540462 2.8133573187177009e-05 0 0.01001736837058183 3.7843569028531492e-05 0 0.0099855147547895338 4.6467593590894524e-05 0 0.01002201916259181 5.408087715608849e-05 0 0.01001736837058183 3.7843569028531492e-05 0 0.010006187517540462 2.8133573187177009e-05 0 0.0099855147547895338 4.6467593590894524e-05 0 0.01001736837058183 3.7843569028531492e-05 0 0.010044698206277149 3.4582598458319395e-05 0 0.01002201916259181 5.408087715608849e-05 0 0.01001736837058183 3.7843569028531492e-05 0 0.01002201916259181 5.408087715608849e-05 0 0.0099704906084760146 9.2771300804669879e-05 0 0.010034012047558386 7.3404943656461583e-05 0 0.0099855147547895338 4.6467593590894524e-05 0 0.01002201916259181 5.408087715608849e-05 0 0.0099704906084760146 9.2771300804669879e-05 0 0.010072556579868046 3.877241727763258e-05 0 0.01002201916259181 5.408087715608849e-05 0 0.010034012047558386 7.3404943656461583e-05 0 0.010077891109475589 4.981065381219936e-05 0 0.010072556579868046 3.877241727763258e-05 0 0.010034012047558386 7.3404943656461583e-05 0 0.010051276420257481 7.1598351509099281e-05 0 0.010077891109475589 4.981065381219936e-05 0 0.010034012047558386 7.3404943656461583e-05 0 0.011023243875714172 8.3954299553522967e-05 0 0.011074911129185148 0.00013952543692918174 0 0.011187627055736346 9.1351111367998292e-05 0 0.011011725027897875 0.00014396064876557048 0 0.011023243875714172 8.3954299553522967e-05 0 0.010791933144550519 0.00015139475651644805 0 0.011011725027897875 0.00014396064876557048 0 0.011023243875714172 8.3954299553522967e-05 0 0.011074911129185148 0.00013952543692918174 0 0.010067259166098054 1.9627047952731657e-05 0 0.0099080539467353741 -1.1783012268348549e-05 0 0.01002516212763716 2.6768104649062363e-05 0 0.0061282105537096366 -0.0010443849875689743 0 0.010995342846434367 0.00049977619998557395 0 0.01006774015471151 3.481026501551258e-05 0 0.010103405344035513 3.61839683534529e-05 0 0.01004928876151287 7.1148501507385537e-05 0 0.01006774015471151 3.481026501551258e-05 0 0.01004928876151287 7.1148501507385537e-05 0 0.01002516212763716 2.6768104649062363e-05 0 0.010067259166098054 1.9627047952731657e-05 0 0.01006774015471151 3.481026501551258e-05 0 0.01002516212763716 2.6768104649062363e-05 0 0.0099080539467353741 -1.1783012268348549e-05 0 0.01004928876151287 7.1148501507385537e-05 0 0.01002516212763716 2.6768104649062363e-05 0 -0.0010344780116645562 -0.0040766101272114927 0 -0.0015464334261823406 -0.0041697020566470932 0 -0.0014060453003309104 -0.0038673039417472439 0 0.0039344280578306875 -0.0021570255403821318 0 0.0061282105537096366 -0.0010443849875689743 0 -0.0017460830747139423 -0.00417565248717404 0 -0.00067674558094642603 -0.0045590295027693436 0 -0.0015464334261823406 -0.0041697020566470932 0 -0.00067674558094642603 -0.0045590295027693436 0 -0.0010344780116645562 -0.0040766101272114927 0 -0.0015464334261823406 -0.0041697020566470932 0 -0.0024478549985291411 -0.0033689874536675041 0 -0.0015464334261823406 -0.0041697020566470932 0 -0.0017470409262556649 -0.00372713447261794 0 -0.0016243500333006876 -0.0034881633494033429 0 -0.0024478549985291411 -0.0033689874536675041 0 -0.0017470409262556649 -0.00372713447261794 0 -0.0015464334261823406 -0.0041697020566470932 0 -0.0017470409262556649 -0.00372713447261794 0 -0.0014060453003309104 -0.0038673039417472439 0 -0.0016243500333006876 -0.0034881633494033429 0 -0.0017470409262556649 -0.00372713447261794 0 -0.0014060453003309104 -0.0038673039417472439 0 -0.0010344780116645562 -0.0040766101272114927 0 -0.0014060453003309104 -0.0038673039417472439 0 -0.0011087901169846554 -0.0036934323140344755 0 -0.0016243500333006876 -0.0034881633494033429 0 -0.0014060453003309104 -0.0038673039417472439 0 -0.0011087901169846554 -0.0036934323140344755 0 -0.00088440745383975021 -0.0034018811332638039 0 -0.0011087901169846554 -0.0036934323140344755 0 -0.00065710056229957201 -0.0037880941081163341 0 -0.00044558028952945727 -0.0032583788272772065 0 -0.00088440745383975021 -0.0034018811332638039 0 -0.00065710056229957201 -0.0037880941081163341 0 -0.0010344780116645562 -0.0040766101272114927 0 -0.0011087901169846554 -0.0036934323140344755 0 -0.00065710056229957201 -0.0037880941081163341 0 -0.0010344780116645562 -0.0040766101272114927 0 -0.00065710056229957201 -0.0037880941081163341 0 -0.00066950840134476545 -0.004185388713339195 0 -0.00067674558094642603 -0.0045590295027693436 0 -0.0010344780116645562 -0.0040766101272114927 0 -0.00066950840134476545 -0.004185388713339195 0 -0.00065710056229957201 -0.0037880941081163341 0 -0.00066950840134476545 -0.004185388713339195 0 -0.00024563559648155449 -0.004322158897896583 0 -0.00067674558094642603 -0.0045590295027693436 0 -0.00066950840134476545 -0.004185388713339195 0 -0.00024563559648155449 -0.004322158897896583 0 0.0061282105537096366 -0.0010443849875689743 0 0.0053842720870950749 -0.0019886152308014153 0 -0.00044558028952945727 -0.0032583788272772065 0 -0.00065710056229957201 -0.0037880941081163341 0 1.1671489144994058e-05 -0.0034694904911461619 0 -0.00065710056229957201 -0.0037880941081163341 0 -0.00024563559648155449 -0.004322158897896583 0 1.1671489144994058e-05 -0.0034694904911461619 0 0.0013152021349886068 -0.0030525525054688296 0 -0.00024563559648155449 -0.004322158897896583 0 1.1671489144994058e-05 -0.0034694904911461619 0 0.0064482569314224447 -0.0014646614109489464 0 0.0053842720870950749 -0.0019886152308014153 0 0.011244352323475992 7.2435275827728842e-05 0 0.011074911129185148 0.00013952543692918174 0 0.011187627055736346 9.1351111367998292e-05 0 0.011244352323475992 7.2435275827728842e-05 0 0.011329339477503907 6.9443127006981909e-05 0 0.011187627055736346 9.1351111367998292e-05 0 0.011328382206040247 7.9372573564406715e-06 0 0.011244352323475992 7.2435275827728842e-05 0 0.011329339477503907 6.9443127006981909e-05 0 0.011329339477503907 6.9443127006981909e-05 0 0.01128416715813451 2.6472328531264195e-05 0 0.011451838625895772 7.4274542517109335e-05 0 0.011329339477503907 6.9443127006981909e-05 0 0.011187627055736346 9.1351111367998292e-05 0 0.01128416715813451 2.6472328531264195e-05 0 0.011023243875714172 8.3954299553522967e-05 0 0.011187627055736346 9.1351111367998292e-05 0 0.011115359339455975 5.2263043856054833e-06 0 0.011115359339455975 5.2263043856054833e-06 0 0.01128416715813451 2.6472328531264195e-05 0 0.011212124705854691 -0.00010177437682921295 0 0.011187627055736346 9.1351111367998292e-05 0 0.011115359339455975 5.2263043856054833e-06 0 0.01128416715813451 2.6472328531264195e-05 0 0.011115359339455975 5.2263043856054833e-06 0 0.011212124705854691 -0.00010177437682921295 0 0.01104992071739778 -0.00011829558164665447 0 0.01128416715813451 2.6472328531264195e-05 0 0.011369365663521399 -0.0001479065783863861 0 0.011451838625895772 7.4274542517109335e-05 0 0.01128416715813451 2.6472328531264195e-05 0 0.011369365663521399 -0.0001479065783863861 0 0.011212124705854691 -0.00010177437682921295 0 0.011369365663521399 -0.0001479065783863861 0 0.011212124705854691 -0.00010177437682921295 0 0.011109555184836868 -0.00027646118993647804 0 0.011212124705854691 -0.00010177437682921295 0 0.01104992071739778 -0.00011829558164665447 0 0.011109555184836868 -0.00027646118993647804 0 0.01104992071739778 -0.00011829558164665447 0 0.010839174685701287 -0.00021568917439032204 0 0.011109555184836868 -0.00027646118993647804 0 0.01104992071739778 -0.00011829558164665447 0 0.010927073658997212 -1.872078871422911e-05 0 0.010839174685701287 -0.00021568917439032204 0 0.011023243875714172 8.3954299553522967e-05 0 0.010791933144550519 0.00015139475651644805 0 0.010927073658997212 -1.872078871422911e-05 0 0.011115359339455975 5.2263043856054833e-06 0 0.01104992071739778 -0.00011829558164665447 0 0.010927073658997212 -1.872078871422911e-05 0 0.011023243875714172 8.3954299553522967e-05 0 0.011115359339455975 5.2263043856054833e-06 0 0.010927073658997212 -1.872078871422911e-05 0 0.010791933144550519 0.00015139475651644805 0 0.010927073658997212 -1.872078871422911e-05 0 0.010690021083898665 -6.187673152849578e-05 0 0.010569495694467591 -0.00018821827181450234 0 0.010690021083898665 -6.187673152849578e-05 0 0.010839174685701287 -0.00021568917439032204 0 0.010927073658997212 -1.872078871422911e-05 0 0.010690021083898665 -6.187673152849578e-05 0 0.010839174685701287 -0.00021568917439032204 0 0.010569495694467591 -0.00018821827181450234 0 0.010839174685701287 -0.00021568917439032204 0 0.010660876079525551 -0.00036098898383982761 0 0.010839174685701287 -0.00021568917439032204 0 0.010660876079525551 -0.00036098898383982761 0 0.010897103113020397 -0.00039250531182606629 0 0.010660876079525551 -0.00036098898383982761 0 0.010897103113020397 -0.00039250531182606629 0 0.010752999678985315 -0.00059489971168529574 0 0.010839174685701287 -0.00021568917439032204 0 0.010897103113020397 -0.00039250531182606629 0 0.011109555184836868 -0.00027646118993647804 0 0.010897103113020397 -0.00039250531182606629 0 0.010978619329402714 -0.00053787924836980552 0 0.011109555184836868 -0.00027646118993647804 0 0.011518887573269715 -0.0005300609516615079 0 0.011737010075981311 -0.001393651111862329 0 0.012250331065807378 -0.00052276180237788078 0 0.010876056757912715 -0.00055421339635772086 0 0.010935025738440471 -0.00057677423392716177 0 0.010897103113020397 -0.00039250531182606629 0 0.010978619329402714 -0.00053787924836980552 0 0.010752999678985315 -0.00059489971168529574 0 0.011518887573269715 -0.0005300609516615079 0 0.010752999678985315 -0.00059489971168529574 0 0.011165430728162888 -0.00096821146152756103 0 0.010823418261267662 -0.001345631468442292 0 0.011165430728162888 -0.00096821146152756103 0 0.011737010075981311 -0.001393651111862329 0 0.010752999678985315 -0.00059489971168529574 0 0.010823418261267662 -0.001345631468442292 0 0.011165430728162888 -0.00096821146152756103 0 0.011518887573269715 -0.0005300609516615079 0 0.011165430728162888 -0.00096821146152756103 0 0.011737010075981311 -0.001393651111862329 0 0.018647866857678771 -5.8834838750402607e-05 0 0.018585707631076601 0.00014255875143507284 0 0.018734733584359019 0.00016926971157867421 0 0.015420952912481963 -0.00070152127164428138 0 0.015385085785083834 -0.001134050296800674 0 0.014663115365563051 -0.00077314416195140478 0 0.01524527663814728 -0.0019496140025832697 0 0.01427625938207183 -0.0018574538729226498 0 0.010823418261267662 -0.001345631468442292 0 0.011737010075981311 -0.001393651111862329 0 0.011294726841265279 -0.0022132144188874948 0 0.012448906084751955 -0.001183468634385249 0 0.015385085785083834 -0.001134050296800674 0 0.018419748443591368 0.00013042921165454856 0 0.018482657308353943 -0.000122822229605677 0 0.018287595926458827 7.0259023732540421e-05 0 0.018419748443591368 0.00013042921165454856 0 0.018482657308353943 -0.000122822229605677 0 0.018585707631076601 0.00014255875143507284 0 0.018647866857678771 -5.8834838750402607e-05 0 0.018482657308353943 -0.000122822229605677 0 0.018585707631076601 0.00014255875143507284 0 0.018647866857678771 -5.8834838750402607e-05 0 0.018482657308353943 -0.000122822229605677 0 0.018517002036140748 -0.00039504329449542829 0 0.015420952912481963 -0.00070152127164428138 0 0.01354394989155242 -0.00023587857757839057 0 0.018482657308353943 -0.000122822229605677 0 0.018198054999926369 -0.00050319401850504048 0 0.018287595926458827 7.0259023732540421e-05 0 0.018482657308353943 -0.000122822229605677 0 0.018517002036140748 -0.00039504329449542829 0 0.018198054999926369 -0.00050319401850504048 0 0.01354394989155242 -0.00023587857757839057 0 0.015163001134540414 -0.00054917271711637768 0 0.010876056757912715 -0.00055421339635772086 0 0.01354394989155242 -0.00023587857757839057 0 0.011369365663521399 -0.0001479065783863861 0 0.011245277770987534 -0.00051082078889468161 0 0.011109555184836868 -0.00027646118993647804 0 0.010978619329402714 -0.00053787924836980552 0 0.011245277770987534 -0.00051082078889468161 0 0.011109555184836868 -0.00027646118993647804 0 0.011369365663521399 -0.0001479065783863861 0 0.011223222090607126 -0.00048110525229947055 0 0.011550005240864056 -0.00050711459659406866 0 0.010648145682393839 -0.00043987238067031602 0 0.01354394989155242 -0.00023587857757839057 0 0.011369365663521399 -0.0001479065783863861 0 0.011550005240864056 -0.00050711459659406866 0 0.011645294213500235 -0.00010543919966569787 0 0.012179833239144849 -0.00062090760523454138 0 0.01213474009705575 9.5654953325278571e-05 0 0.011645294213500235 -0.00010543919966569787 0 0.011550005240864056 -0.00050711459659406866 0 0.012179833239144849 -0.00062090760523454138 0 0.011645294213500235 -0.00010543919966569787 0 0.015163001134540414 -0.00054917271711637768 0 0.014708628151616738 -0.00060101810972776879 0 0.018198054999926369 -0.00050319401850504048 0 0.017873796077645849 6.883021046042932e-05 0 0.017366853553760376 -0.00073260972843626026 0 0.018198054999926369 -0.00050319401850504048 0 0.017873796077645849 6.883021046042932e-05 0 0.018287595926458827 7.0259023732540421e-05 0 0.017873796077645849 6.883021046042932e-05 0 0.018211187556677933 0.00021062038709698572 0 0.018349680689107244 0.00030971113945146844 0 0.017873796077645849 6.883021046042932e-05 0 0.018211187556677933 0.00021062038709698572 0 0.018287595926458827 7.0259023732540421e-05 0 0.018211187556677933 0.00021062038709698572 0 0.018287595926458827 7.0259023732540421e-05 0 0.018302145720683703 0.00024018544300102691 0 0.018419748443591368 0.00013042921165454856 0 0.018287595926458827 7.0259023732540421e-05 0 0.018302145720683703 0.00024018544300102691 0 0.016683084505031937 1.6916177588465153e-06 0 0.017678029128190414 0.00018970399804369922 0 0.01684304524044113 6.424975687287972e-05 0 0.016683084505031937 1.6916177588465153e-06 0 0.017678029128190414 0.00018970399804369922 0 0.018723051789267885 0.00020268118316553427 0 0.017873796077645849 6.883021046042932e-05 0 0.017678029128190414 0.00018970399804369922 0 0.018349680689107244 0.00030971113945146844 0 0.017873796077645849 6.883021046042932e-05 0 0.01684304524044113 6.424975687287972e-05 0 0.017366853553760376 -0.00073260972843626026 0 0.017873796077645849 6.883021046042932e-05 0 0.017678029128190414 0.00018970399804369922 0 0.01684304524044113 6.424975687287972e-05 0 0.016683084505031937 1.6916177588465153e-06 0 0.01684304524044113 6.424975687287972e-05 0 0.014596069502198696 -2.8138392488258611e-06 0 0.014588889938314706 -2.0314732294294412e-06 0 0.012179833239144849 -0.00062090760523454138 0 0.013011171193660572 -2.0977300568610293e-05 0 0.014592420994754532 -2.9253051344089885e-07 0 0.014708628151616738 -0.00060101810972776879 0 0.01684304524044113 6.424975687287972e-05 0 0.014596069502198696 -2.8138392488258611e-06 0 0.017366853553760376 -0.00073260972843626026 0 0.012179833239144849 -0.00062090760523454138 0 0.013011171193660572 -2.0977300568610293e-05 0 0.01213474009705575 9.5654953325278571e-05 0 0.013011171193660572 -2.0977300568610293e-05 0 0.012951253386759424 7.8549000658244134e-07 0 0.01213474009705575 9.5654953325278571e-05 0 0.014588889938314706 -2.0314732294294412e-06 0 0.013011171193660572 -2.0977300568610293e-05 0 0.012951253386759424 7.8549000658244134e-07 0 0.012951253386759424 7.8549000658244134e-07 0 0.011756777238029996 0.00018128246575966763 0 0.01213474009705575 9.5654953325278571e-05 0 0.012951253386759424 7.8549000658244134e-07 0 0.011308385519577385 6.7052036463354099e-07 0 0.011756777238029996 0.00018128246575966763 0 0.011308385519577385 6.7052036463354099e-07 0 0.011756777238029996 0.00018128246575966763 0 0.011211275389564618 0.00016544577548865058 0 0.011756777238029996 0.00018128246575966763 0 0.011619365972104206 0.0001813297506364808 0 0.011211275389564618 0.00016544577548865058 0 0.011756777238029996 0.00018128246575966763 0 0.01213474009705575 9.5654953325278571e-05 0 0.011619365972104206 0.0001813297506364808 0 0.01213474009705575 9.5654953325278571e-05 0 0.011645294213500235 -0.00010543919966569787 0 0.011619365972104206 0.0001813297506364808 0 0.011369365663521399 -0.0001479065783863861 0 0.011645294213500235 -0.00010543919966569787 0 0.011451838625895772 7.4274542517109335e-05 0 0.011645294213500235 -0.00010543919966569787 0 0.011451838625895772 7.4274542517109335e-05 0 0.011619365972104206 0.0001813297506364808 0 0.011451838625895772 7.4274542517109335e-05 0 0.011619365972104206 0.0001813297506364808 0 0.011423909200842139 3.256213062551931e-05 0 0.011619365972104206 0.0001813297506364808 0 0.011423909200842139 3.256213062551931e-05 0 0.011211275389564618 0.00016544577548865058 0 0.011329339477503907 6.9443127006981909e-05 0 0.011451838625895772 7.4274542517109335e-05 0 0.011423909200842139 3.256213062551931e-05 0 0.011328382206040247 7.9372573564406715e-06 0 0.011329339477503907 6.9443127006981909e-05 0 0.011423909200842139 3.256213062551931e-05 0 0.011298278822636034 -0.00011634492703727767 0 0.011423909200842139 3.256213062551931e-05 0 0.011094125840984697 -0.00032307377060505308 0 0.011298278822636034 -0.00011634492703727767 0 0.011328382206040247 7.9372573564406715e-06 0 0.011423909200842139 3.256213062551931e-05 0 0.011423909200842139 3.256213062551931e-05 0 0.011094125840984697 -0.00032307377060505308 0 0.011211275389564618 0.00016544577548865058 0 0.011094125840984697 -0.00032307377060505308 0 0.0096715508628026862 -9.0021866728260919e-07 0 0.011211275389564618 0.00016544577548865058 0 0.0087636254317869505 -0.00035687477132634305 0 0.0096671713942293978 -7.7174570321050636e-08 0 0.011308385519577385 6.7052036463354099e-07 0 0.0096715508628026862 -9.0021866728260919e-07 0 0.011211275389564618 0.00016544577548865058 0 0.023241489469234725 -1.8462517068488284e-07 0 0.028274896705439923 -1.0227404797538682e-08 0 0.027610042824300875 -0.00018072592632031029 0 0.026195930324011334 -0.00033241509823713134 0 0.023241489469234725 -1.8462517068488284e-07 0 0.027610042824300875 -0.00018072592632031029 0 0.027808866591557378 -0.00016475063724117613 0 0.026195930324011334 -0.00033241509823713134 0 0.027610042824300875 -0.00018072592632031029 0 0.027808866591557378 -0.00016475063724117613 0 0.027587457579592498 -0.00045377220007182805 0 0.027849379795075846 -0.00015593265176665089 0 0.027808866591557378 -0.00016475063724117613 0 0.027587457579592498 -0.00045377220007182805 0 0.026195930324011334 -0.00033241509823713134 0 0.027587457579592498 -0.00045377220007182805 0 0.026195930324011334 -0.00033241509823713134 0 0.027178452247464183 -0.0012615337807752672 0 0.027587457579592498 -0.00045377220007182805 0 0.027178452247464183 -0.0012615337807752672 0 0.027808609991103003 -0.0011285267990627174 0 0.026051025541672504 -0.00034769666577475969 0 0.025850059069255672 -0.00052389118549231786 0 0.026195930324011334 -0.00033241509823713134 0 0.024462293069608534 -1.8173449738559762e-05 0 0.024498998531952264 2.6333707187517459e-05 0 0.024462293069608534 -1.8173449738559762e-05 0 0.024498998531952264 2.6333707187517459e-05 0 0.024033587508542745 3.9144213623969454e-06 0 0.027178452247464183 -0.0012615337807752672 0 0.027713887162433365 -0.00177196703318346 0 0.027808609991103003 -0.0011285267990627174 0 0.025850059069255672 -0.00052389118549231786 0 0.026286135858793337 -0.0010256779469267191 0 0.024033587508542745 3.9144213623969454e-06 0 0.024173849662536051 -0.00038166310068841417 0 0.024526601858874057 -1.3792113030409393e-05 0 0.024498998531952264 2.6333707187517459e-05 0 0.024033587508542745 3.9144213623969454e-06 0 0.024526601858874057 -1.3792113030409393e-05 0 0.024033587508542745 3.9144213623969454e-06 0 0.023183883409025777 -4.7346271567571609e-05 0 0.023274997930520899 -0.00028457511375988093 0 0.024462293069608534 -1.8173449738559762e-05 0 0.024033587508542745 3.9144213623969454e-06 0 0.023183883409025777 -4.7346271567571609e-05 0 0.024462293069608534 -1.8173449738559762e-05 0 0.023241489469234725 -1.8462517068488284e-07 0 0.023183883409025777 -4.7346271567571609e-05 0 0.023241489469234725 -1.8462517068488284e-07 0 0.023183883409025777 -4.7346271567571609e-05 0 0.02065488872699825 -0.00042645509884333495 0 0.026195930324011334 -0.00033241509823713134 0 0.024462293069608534 -1.8173449738559762e-05 0 0.023241489469234725 -1.8462517068488284e-07 0 0.023241489469234725 -1.8462517068488284e-07 0 0.02065488872699825 -0.00042645509884333495 0 0.019485990411743957 -1.1392666077031681e-06 0 0.023183883409025777 -4.7346271567571609e-05 0 0.02065488872699825 -0.00042645509884333495 0 0.023274997930520899 -0.00028457511375988093 0 0.02065488872699825 -0.00042645509884333495 0 0.018944677257907536 4.0273620350350447e-05 0 0.01853323740534905 -0.00073223516820520001 0 0.02069042486369297 -0.00053376668584528158 0 0.02118826333281482 -0.00088241471849123297 0 0.016683084505031937 1.6916177588465153e-06 0 0.019485990411743957 -1.1392666077031681e-06 0 0.018723051789267885 0.00020268118316553427 0 0.02065488872699825 -0.00042645509884333495 0 0.019485990411743957 -1.1392666077031681e-06 0 0.018723051789267885 0.00020268118316553427 0 0.018723051789267885 0.00020268118316553427 0 0.018349680689107244 0.00030971113945146844 0 0.018944677257907536 4.0273620350350447e-05 0 0.02065488872699825 -0.00042645509884333495 0 0.018723051789267885 0.00020268118316553427 0 0.018944677257907536 4.0273620350350447e-05 0 0.017678029128190414 0.00018970399804369922 0 0.018723051789267885 0.00020268118316553427 0 0.018349680689107244 0.00030971113945146844 0 0.018302145720683703 0.00024018544300102691 0 0.018349680689107244 0.00030971113945146844 0 0.018308288089079215 0.0002823995019258948 0 0.018211187556677933 0.00021062038709698572 0 0.018302145720683703 0.00024018544300102691 0 0.018349680689107244 0.00030971113945146844 0 0.018349680689107244 0.00030971113945146844 0 0.018944677257907536 4.0273620350350447e-05 0 0.018262403577291524 -3.063722847604645e-05 0 0.018944677257907536 4.0273620350350447e-05 0 0.018262403577291524 -3.063722847604645e-05 0 0.01853323740534905 -0.00073223516820520001 0 0.018492526431009192 0.00037146828653014067 0 0.017885512581439743 3.4667360251045173e-05 0 0.018302145720683703 0.00024018544300102691 0 0.018308288089079215 0.0002823995019258948 0 0.018393069846299806 0.00029757426001941788 0 0.018308288089079215 0.0002823995019258948 0 0.018427854377588523 0.00041898194927929484 0 0.018393069846299806 0.00029757426001941788 0 0.02118826333281482 -0.00088241471849123297 0 0.020641326759246206 -0.00053334381638991415 0 0.023629348359643382 -0.0011223264452499806 0 0.024173849662536051 -0.00038166310068841417 0 0.024670453266848549 -0.00089847778896122866 0 0.017885512581439743 3.4667360251045173e-05 0 0.020641326759246206 -0.00053334381638991415 0 0.018262403577291524 -3.063722847604645e-05 0 0.01853323740534905 -0.00073223516820520001 0 0.01763746677504505 -0.00074837641412972946 0 0.02065488872699825 -0.00042645509884333495 0 0.023629348359643382 -0.0011223264452499806 0 0.023274997930520899 -0.00028457511375988093 0 0.024033587508542745 3.9144213623969454e-06 0 0.023274997930520899 -0.00028457511375988093 0 0.024173849662536051 -0.00038166310068841417 0 0.023629348359643382 -0.0011223264452499806 0 0.023274997930520899 -0.00028457511375988093 0 0.024173849662536051 -0.00038166310068841417 0 0.024173849662536051 -0.00038166310068841417 0 0.024590215702433752 -0.00042293353335519569 0 0.024670453266848549 -0.00089847778896122866 0 0.024173849662536051 -0.00038166310068841417 0 0.024590215702433752 -0.00042293353335519569 0 0.024526601858874057 -1.3792113030409393e-05 0 0.024590215702433752 -0.00042293353335519569 0 0.024986607104867394 -0.0004725183142326578 0 0.024526601858874057 -1.3792113030409393e-05 0 0.024590215702433752 -0.00042293353335519569 0 0.024986607104867394 -0.0004725183142326578 0 0.024670453266848549 -0.00089847778896122866 0 0.022422684947914193 -0.00054988073034760963 0 0.022539178437408634 -0.00069883005357760319 0 0.022087550931241783 -0.0008920978316195677 0 0.025335448012688715 -0.0011667835452278184 0 0.020641326759246206 -0.00053334381638991415 0 0.025848944909255565 -0.0015359692496522996 0 0.023954446838020567 -0.0014037637539145607 0 0.025550341554126905 -0.0010282737698815456 0 0.026026324132750623 -0.0021102467707431135 0 0.026194450520845857 -0.0013892515813141574 0 0.025550341554126905 -0.0010282737698815456 0 0.025537533284241732 -0.0015837031958095202 0 0.025875419203402441 -0.001891004969424999 0 0.025550341554126905 -0.0010282737698815456 0 0.025382013809010406 -0.0014229300527324024 0 0.025537533284241732 -0.0015837031958095202 0 0.025550341554126905 -0.0010282737698815456 0 0.026194450520845857 -0.0013892515813141574 0 0.025955819888651352 -0.00097612245197656387 0 0.025550341554126905 -0.0010282737698815456 0 0.02506856931237831 -0.0014032836248075917 0 0.025737119878646953 -0.00074023792768004458 0 0.025335448012688715 -0.0011667835452278184 0 0.027108642439670542 -0.001383077070193595 0 0.025550341554126905 -0.0010282737698815456 0 0.02506856931237831 -0.0014032836248075917 0 0.025382013809010406 -0.0014229300527324024 0 0.02506856931237831 -0.0014032836248075917 0 0.025296282196058787 -0.0016568275214963479 0 0.025382013809010406 -0.0014229300527324024 0 0.025335448012688715 -0.0011667835452278184 0 0.023438041864695391 -0.0011907939867494425 0 0.023438041864695391 -0.0011907939867494425 0 0.021228486135676697 -0.00044607377180245242 0 0.023438041864695391 -0.0011907939867494425 0 0.022157049242174952 -0.00073834096730195987 0 0.025296282196058787 -0.0016568275214963479 0 0.025382013809010406 -0.0014229300527324024 0 0.025537533284241732 -0.0015837031958095202 0 0.025296282196058787 -0.0016568275214963479 0 0.025537533284241732 -0.0015837031958095202 0 0.025587497871489406 -0.0019041347612369789 0 0.025537533284241732 -0.0015837031958095202 0 0.025587497871489406 -0.0019041347612369789 0 0.025875419203402441 -0.001891004969424999 0 0.022539178437408634 -0.00069883005357760319 0 0.022659547156525007 -0.00085103023833756238 0 0.022087550931241783 -0.0008920978316195677 0 0.018590073238713301 0.00042919096499907688 0 0.018548319742035916 0.00038648063895355876 0 0.018427854377588523 0.00041898194927929484 0 0.022418016115382456 -0.0011479795748095775 0 0.022456304883037761 -0.0010557515099069977 0 0.022228324564279093 -0.00098771192389501524 0 0.021091284524811637 -0.00056220116240108034 0 0.022157049242174952 -0.00073834096730195987 0 0.018621637899347451 0.00039901098063305581 0 0.018616006410544141 0.00039571623067537589 0 0.018610015003315581 0.00040054269153397894 0 0.021091284524811637 -0.00056220116240108034 0 0.020437490805492169 -0.00066124104270154718 0 0.018621637899347451 0.00039901098063305581 0 0.018610015003315581 0.00040054269153397894 0 0.018608142060465457 0.00038843163494949506 0 0.022456304883037761 -0.0010557515099069977 0 0.022228324564279093 -0.00098771192389501524 0 0.022503968350213777 -0.00096778752074441581 0 0.022157049242174952 -0.00073834096730195987 0 0.023954446838020567 -0.0014037637539145607 0 0.021228486135676697 -0.00044607377180245242 0 0.020485797232757608 0.00016699248415732976 0 0.023018663147008973 -0.0014291839503085572 0 0.021640820956269229 -0.00024746889764629137 0 0.022047195522907823 -0.00022029604909961525 0 0.018616006410544141 0.00039571623067537589 0 0.018623898148191435 0.00039443631942113902 0 0.018610015003315581 0.00040054269153397894 0 0.022157049242174952 -0.00073834096730195987 0 0.021228486135676697 -0.00044607377180245242 0 0.018590073238713301 0.00042919096499907688 0 0.018610015003315581 0.00040054269153397894 0 0.018548319742035916 0.00038648063895355876 0 0.018610015003315581 0.00040054269153397894 0 0.018608142060465457 0.00038843163494949506 0 0.018548319742035916 0.00038648063895355876 0 0.018548319742035916 0.00038648063895355876 0 0.018575900146308597 0.00034568509384023184 0 0.01848279549477078 0.00033033559032363976 0 0.018608142060465457 0.00038843163494949506 0 0.018575900146308597 0.00034568509384023184 0 0.018660863667404486 0.00036469416727648638 0 0.018608142060465457 0.00038843163494949506 0 0.018548319742035916 0.00038648063895355876 0 0.018575900146308597 0.00034568509384023184 0 0.021228486135676697 -0.00044607377180245242 0 0.020641326759246206 -0.00053334381638991415 0 0.018427854377588523 0.00041898194927929484 0 0.018393069846299806 0.00029757426001941788 0 0.01848279549477078 0.00033033559032363976 0 0.018548319742035916 0.00038648063895355876 0 0.018427854377588523 0.00041898194927929484 0 0.01848279549477078 0.00033033559032363976 0 0.018302145720683703 0.00024018544300102691 0 0.018393069846299806 0.00029757426001941788 0 0.018458782369252528 0.00025597397631458527 0 0.018393069846299806 0.00029757426001941788 0 0.018458782369252528 0.00025597397631458527 0 0.01848279549477078 0.00033033559032363976 0 0.018575900146308597 0.00034568509384023184 0 0.01848279549477078 0.00033033559032363976 0 0.018581382375439576 0.00027196964645995631 0 0.018575900146308597 0.00034568509384023184 0 0.018581382375439576 0.00027196964645995631 0 0.018660863667404486 0.00036469416727648638 0 0.018458782369252528 0.00025597397631458527 0 0.01848279549477078 0.00033033559032363976 0 0.018581382375439576 0.00027196964645995631 0 0.018419748443591368 0.00013042921165454856 0 0.018458782369252528 0.00025597397631458527 0 0.018585707631076601 0.00014255875143507284 0 0.018458782369252528 0.00025597397631458527 0 0.018581382375439576 0.00027196964645995631 0 0.018585707631076601 0.00014255875143507284 0 0.018419748443591368 0.00013042921165454856 0 0.018302145720683703 0.00024018544300102691 0 0.018458782369252528 0.00025597397631458527 0 0.01524527663814728 -0.0019496140025832697 0 0.014981840155435081 -0.0024317349887145591 0 0.01427625938207183 -0.0018574538729226498 0 0.015385085785083834 -0.001134050296800674 0 0.018050215134939901 -0.0012322010662383746 0 0.018581382375439576 0.00027196964645995631 0 0.018585707631076601 0.00014255875143507284 0 0.018734733584359019 0.00016926971157867421 0 0.018581382375439576 0.00027196964645995631 0 0.018734733584359019 0.00016926971157867421 0 0.018660863667404486 0.00036469416727648638 0 0.017946939490540003 -0.00045706590734000157 0 0.017738668531653175 -0.00083774375134335901 0 0.018419012441617501 -0.0013862979145604062 0 0.018050215134939901 -0.0012322010662383746 0 0.020415265852344086 -0.00028136574261207746 0 0.015385085785083834 -0.001134050296800674 0 0.020415265852344086 -0.00028136574261207746 0 0.021605862163615593 -0.00016774568705297309 0 0.021610943825528868 -0.00027375668976474673 0 0.021777406969893106 -0.00031279886207971603 0 0.021605862163615593 -0.00016774568705297309 0 0.021548573031118866 -0.00018833485077476034 0 0.021475322236667673 -0.0001746040422767868 0 0.021605862163615593 -0.00016774568705297309 0 0.021548573031118866 -0.00018833485077476034 0 0.021575637032604573 -0.00021558726273065109 0 0.021548573031118866 -0.00018833485077476034 0 0.021538569931782745 -0.00022925307287291458 0 0.021475322236667673 -0.0001746040422767868 0 0.021548573031118866 -0.00018833485077476034 0 0.021538569931782745 -0.00022925307287291458 0 0.021575637032604573 -0.00021558726273065109 0 0.021538569931782745 -0.00022925307287291458 0 0.021610943825528868 -0.00027375668976474673 0 0.021464020752550644 -0.00027794531485279605 0 0.021605862163615593 -0.00016774568705297309 0 0.021575637032604573 -0.00021558726273065109 0 0.021610943825528868 -0.00027375668976474673 0 0.021538569931782745 -0.00022925307287291458 0 0.021575637032604573 -0.00021558726273065109 0 0.021610943825528868 -0.00027375668976474673 0 0.021610943825528868 -0.00027375668976474673 0 0.021765060673210278 -0.00040240056896881555 0 0.021541134551218429 -0.0004020473661580584 0 0.021610943825528868 -0.00027375668976474673 0 0.021541134551218429 -0.0004020473661580584 0 0.021464020752550644 -0.00027794531485279605 0 0.024469739371529124 -0.0014752372676115825 0 0.024339285885685371 -0.0013962683440233083 0 0.021610943825528868 -0.00027375668976474673 0 0.021777406969893106 -0.00031279886207971603 0 0.021765060673210278 -0.00040240056896881555 0 0.018628268598242181 0.00039619790036025861 0 0.018608142060465457 0.00038843163494949506 0 0.018660863667404486 0.00036469416727648638 0 0.021091284524811637 -0.00056220116240108034 0 0.020415265852344086 -0.00028136574261207746 0 0.021777406969893106 -0.00031279886207971603 0 0.021765060673210278 -0.00040240056896881555 0 0.021813548703950053 -0.0003771596944327928 0 0.024469739371529124 -0.0014752372676115825 0 0.023954446838020567 -0.0014037637539145607 0 0.024469739371529124 -0.0014752372676115825 0 0.022642826829754246 -0.00083114932890020958 0 0.024125307630433204 -0.0010179212639151555 0 0.023014804578629922 -0.0010942567912310614 0 0.023203568641533275 -0.0015026699289361 0 0.023954446838020567 -0.0014037637539145607 0 0.022642826829754246 -0.00083114932890020958 0 0.022456304883037761 -0.0010557515099069977 0 0.022503968350213777 -0.00096778752074441581 0 0.022554112128538563 -0.0010767990576323163 0 0.021091284524811637 -0.00056220116240108034 0 0.022642826829754246 -0.00083114932890020958 0 0.022418016115382456 -0.0011479795748095775 0 0.022456304883037761 -0.0010557515099069977 0 0.022554112128538563 -0.0010767990576323163 0 0.020415265852344086 -0.00028136574261207746 0 0.022642826829754246 -0.00083114932890020958 0 0.021980353329221269 -0.00087580633563634643 0 0.021071303228266832 -9.826785456433279e-05 0 0.021540664220165779 -0.0011078958997192705 0 0.026194450520845857 -0.0013892515813141574 0 0.027643431617260388 -0.0014631694033502103 0 0.026392620238087999 -0.00081817245531503463 0 0.026444428988054963 -0.0020818475861740697 0 0.026194450520845857 -0.0013892515813141574 0 0.027643431617260388 -0.0014631694033502103 0 0.026444428988054963 -0.0020818475861740697 0 0.026026324132750623 -0.0021102467707431135 0 0.026194450520845857 -0.0013892515813141574 0 0.026194450520845857 -0.0013892515813141574 0 0.026392620238087999 -0.00081817245531503463 0 0.025955819888651352 -0.00097612245197656387 0 0.0263986119265412 -0.0024789951527945629 0 0.027195013673076637 -0.0020932123590702962 0 0.027387910867935763 -0.0024041989077975799 0 0.024469739371529124 -0.0014752372676115825 0 0.028783998312544284 -0.0014220154962609024 0 0.028783998312544284 -0.0014220154962609024 0 0.029510649110928898 -0.0012022665571163318 0 0.030928539797698485 -0.00060958957557744888 0 0.030963410066100327 -0.0014168062815571847 0 0.03164773410659636 -0.0015121198070157549 0 0.030928539797698485 -0.00060958957557744888 0 0.030963410066100327 -0.0014168062815571847 0 0.030483638981855209 -0.0014051327824666845 0 0.030963410066100327 -0.0014168062815571847 0 0.031239202713933458 -0.0019841629803815965 0 0.030783609670945435 -0.0018016985134610677 0 0.030963410066100327 -0.0014168062815571847 0 0.031239202713933458 -0.0019841629803815965 0 0.03164773410659636 -0.0015121198070157549 0 0.031239202713933458 -0.0019841629803815965 0 0.030783609670945435 -0.0018016985134610677 0 0.030817614274617079 -0.0022806940393431496 0 0.031652957576998493 -0.0015306396763720151 0 0.032296222107621279 -0.0026190606010270934 0 0.03166197748665505 -0.0023198528524833867 0 0.031239202713933458 -0.0019841629803815965 0 0.031652957576998493 -0.0015306396763720151 0 0.03166197748665505 -0.0023198528524833867 0 0.031488939548598417 -0.001586685313221004 0 0.029510649110928898 -0.0012022665571163318 0 0.026479929184103679 2.9604768101069222e-05 0 0.026392620238087999 -0.00081817245531503463 0 0.025737119878646953 -0.00074023792768004458 0 0.029510649110928898 -0.0012022665571163318 0 0.027108642439670542 -0.001383077070193595 0 0.027643431617260388 -0.0014631694033502103 0 0.026479929184103679 2.9604768101069222e-05 0 0.026392620238087999 -0.00081817245531503463 0 0.026392620238087999 -0.00081817245531503463 0 0.025955819888651352 -0.00097612245197656387 0 0.025737119878646953 -0.00074023792768004458 0 0.028583347215770105 -0.0019156158992523632 0 0.028204123288751669 -0.001713427694377462 0 0.028388147505785874 -0.0013098615804181695 0 0.025550341554126905 -0.0010282737698815456 0 0.025955819888651352 -0.00097612245197656387 0 0.025737119878646953 -0.00074023792768004458 0 0.028163490620735993 -0.0023305786697540238 0 0.028583347215770105 -0.0019156158992523632 0 0.028204123288751669 -0.001713427694377462 0 0.02901341908897204 -0.0014800546204129619 0 0.028583347215770105 -0.0019156158992523632 0 0.028388147505785874 -0.0013098615804181695 0 0.028163490620735993 -0.0023305786697540238 0 0.028204123288751669 -0.001713427694377462 0 0.027713887162433365 -0.00177196703318346 0 0.025335448012688715 -0.0011667835452278184 0 0.026286135858793337 -0.0010256779469267191 0 0.028204123288751669 -0.001713427694377462 0 0.027713887162433365 -0.00177196703318346 0 0.028049586602830152 -0.0013889353975717969 0 0.027713887162433365 -0.00177196703318346 0 0.028049586602830152 -0.0013889353975717969 0 0.027808609991103003 -0.0011285267990627174 0 0.028049586602830152 -0.0013889353975717969 0 0.028139018134640353 -0.0010164359773173464 0 0.027808609991103003 -0.0011285267990627174 0 0.028139018134640353 -0.0010164359773173464 0 0.027808609991103003 -0.0011285267990627174 0 0.027961932265214186 -0.00077465555901651219 0 0.028139018134640353 -0.0010164359773173464 0 0.028388147505785874 -0.0013098615804181695 0 0.028357277331205275 -0.00065962535627908647 0 0.02901341908897204 -0.0014800546204129619 0 0.028388147505785874 -0.0013098615804181695 0 0.028357277331205275 -0.00065962535627908647 0 0.029510649110928898 -0.0012022665571163318 0 0.030448879402689019 -0.0017286833839736022 0 0.028204123288751669 -0.001713427694377462 0 0.028049586602830152 -0.0013889353975717969 0 0.028388147505785874 -0.0013098615804181695 0 0.028049586602830152 -0.0013889353975717969 0 0.028139018134640353 -0.0010164359773173464 0 0.028388147505785874 -0.0013098615804181695 0 0.032296222107621279 -0.0026190606010270934 0 0.03166197748665505 -0.0023198528524833867 0 0.031918900931774269 -0.0026135049407133067 0 0.032296222107621279 -0.0026190606010270934 0 0.03224337733975785 -0.0025910346939904032 0 0.031918900931774269 -0.0026135049407133067 0 0.027587457579592498 -0.00045377220007182805 0 0.027808609991103003 -0.0011285267990627174 0 0.027961932265214186 -0.00077465555901651219 0 0.028139018134640353 -0.0010164359773173464 0 0.028357277331205275 -0.00065962535627908647 0 0.027961932265214186 -0.00077465555901651219 0 0.028357277331205275 -0.00065962535627908647 0 0.027961932265214186 -0.00077465555901651219 0 0.027923464263255642 -0.00047278396170153086 0 0.027587457579592498 -0.00045377220007182805 0 0.027961932265214186 -0.00077465555901651219 0 0.027923464263255642 -0.00047278396170153086 0 0.028357277331205275 -0.00065962535627908647 0 0.027923464263255642 -0.00047278396170153086 0 0.027849379795075846 -0.00015593265176665089 0 0.030448879402689019 -0.0017286833839736022 0 0.029656690196957033 -0.001110654735998874 0 0.027587457579592498 -0.00045377220007182805 0 0.027923464263255642 -0.00047278396170153086 0 0.027849379795075846 -0.00015593265176665089 0 0.031477732114207971 -0.0022609325938026913 0 0.032504539331567703 -0.0023527314755643894 0 0.03217875634465947 -0.0016784409657763742 0 0.032296222107621279 -0.0026190606010270934 0 0.03224337733975785 -0.0025910346939904032 0 0.031477732114207971 -0.0022609325938026913 0 0.03224337733975785 -0.0025910346939904032 0 0.032504539331567703 -0.0023527314755643894 0 0.033310771302153139 -0.002036769830352449 0 0.032292529014262696 -0.0025905200559175512 0 0.032469332579130261 -0.0025406073636620101 0 0.03224337733975785 -0.0025910346939904032 0 0.031477732114207971 -0.0022609325938026913 0 0.032504539331567703 -0.0023527314755643894 0 0.03224337733975785 -0.0025910346939904032 0 0.031918900931774269 -0.0026135049407133067 0 0.031624505085441242 -0.0031184071667842319 0 0.031168330252745909 -0.0028169428947408615 0 0.031569925748013851 -0.0026268235894735979 0 0.031624505085441242 -0.0031184071667842319 0 0.031918900931774269 -0.0026135049407133067 0 0.031569925748013851 -0.0026268235894735979 0 0.031624505085441242 -0.0031184071667842319 0 0.031168330252745909 -0.0028169428947408615 0 0.03131523398330624 -0.0031139994934937299 0 0.031624505085441242 -0.0031184071667842319 0 0.031168330252745909 -0.0028169428947408615 0 0.031287618151409805 -0.0024222989767941254 0 0.031569925748013851 -0.0026268235894735979 0 0.031168330252745909 -0.0028169428947408615 0 0.030817614274617079 -0.0022806940393431496 0 0.030493899832259648 -0.0027017931856269869 0 0.031168330252745909 -0.0028169428947408615 0 0.031287618151409805 -0.0024222989767941254 0 0.030817614274617079 -0.0022806940393431496 0 0.031239202713933458 -0.0019841629803815965 0 0.031287618151409805 -0.0024222989767941254 0 0.030817614274617079 -0.0022806940393431496 0 0.031239202713933458 -0.0019841629803815965 0 0.031287618151409805 -0.0024222989767941254 0 0.03166197748665505 -0.0023198528524833867 0 0.03166197748665505 -0.0023198528524833867 0 0.031918900931774269 -0.0026135049407133067 0 0.031569925748013851 -0.0026268235894735979 0 0.031287618151409805 -0.0024222989767941254 0 0.03166197748665505 -0.0023198528524833867 0 0.031569925748013851 -0.0026268235894735979 0 0.029838579489651393 -0.0023545303313268319 0 0.030260003490144655 -0.0023419029855085995 0 0.029996378608935659 -0.0028315502992310318 0 0.029838579489651393 -0.0023545303313268319 0 0.029642810568601134 -0.0020347851709512288 0 0.030021663341459743 -0.0019887449940516784 0 0.029838579489651393 -0.0023545303313268319 0 0.029642810568601134 -0.0020347851709512288 0 0.029312292390064412 -0.0021100267131262352 0 0.029838579489651393 -0.0023545303313268319 0 0.030260003490144655 -0.0023419029855085995 0 0.030021663341459743 -0.0019887449940516784 0 0.030260003490144655 -0.0023419029855085995 0 0.030021663341459743 -0.0019887449940516784 0 0.030415441358040272 -0.0019129986907902555 0 0.030817614274617079 -0.0022806940393431496 0 0.030260003490144655 -0.0023419029855085995 0 0.030415441358040272 -0.0019129986907902555 0 0.030817614274617079 -0.0022806940393431496 0 0.030260003490144655 -0.0023419029855085995 0 0.030493899832259648 -0.0027017931856269869 0 0.030260003490144655 -0.0023419029855085995 0 0.030493899832259648 -0.0027017931856269869 0 0.029996378608935659 -0.0028315502992310318 0 0.030493899832259648 -0.0027017931856269869 0 0.029996378608935659 -0.0028315502992310318 0 0.030407983463047492 -0.0033186635198471223 0 0.031168330252745909 -0.0028169428947408615 0 0.030493899832259648 -0.0027017931856269869 0 0.030407983463047492 -0.0033186635198471223 0 0.029996378608935659 -0.0028315502992310318 0 0.029945482420927635 -0.0032214786350353566 0 0.030407983463047492 -0.0033186635198471223 0 0.029996378608935659 -0.0028315502992310318 0 0.029567035357181973 -0.0030914923900647725 0 0.029455273286726157 -0.0026165398453352161 0 0.029838579489651393 -0.0023545303313268319 0 0.029996378608935659 -0.0028315502992310318 0 0.029455273286726157 -0.0026165398453352161 0 0.029996378608935659 -0.0028315502992310318 0 0.029567035357181973 -0.0030914923900647725 0 0.029945482420927635 -0.0032214786350353566 0 0.029567035357181973 -0.0030914923900647725 0 0.029455273286726157 -0.0026165398453352161 0 0.028802178141265504 -0.0027529448345712249 0 0.029567035357181973 -0.0030914923900647725 0 0.028802178141265504 -0.0027529448345712249 0 0.029262654943774766 -0.0034345410518276816 0 0.027427232290838457 -0.0017644496345351078 0 0.027046870155339343 -0.0016575653059385123 0 0.02721237678882564 -0.0024919629544681359 0 0.027427232290838457 -0.0017644496345351078 0 0.02747797749426056 -0.00094421298141284091 0 0.027046870155339343 -0.0016575653059385123 0 0.028802178141265504 -0.0027529448345712249 0 0.029312292390064412 -0.0021100267131262352 0 0.028876328526670977 -0.0017032638088474304 0 0.02747797749426056 -0.00094421298141284091 0 0.026884766104797807 -0.0007749127436188271 0 0.027046870155339343 -0.0016575653059385123 0 0.028122832141516767 -0.0022106035680437806 0 0.028275372819539821 -0.0012858063704897229 0 0.029455273286726157 -0.0026165398453352161 0 0.028802178141265504 -0.0027529448345712249 0 0.029312292390064412 -0.0021100267131262352 0 0.029838579489651393 -0.0023545303313268319 0 0.029455273286726157 -0.0026165398453352161 0 0.029312292390064412 -0.0021100267131262352 0 0.029642810568601134 -0.0020347851709512288 0 0.029252536257914408 -0.0018541803999541655 0 0.029643165669370211 -0.0017008596372434547 0 0.029642810568601134 -0.0020347851709512288 0 0.029312292390064412 -0.0021100267131262352 0 0.029252536257914408 -0.0018541803999541655 0 0.029252536257914408 -0.0018541803999541655 0 0.028900471324242637 -0.0016699557463002394 0 0.029643165669370211 -0.0017008596372434547 0 0.028900471324242637 -0.0016699557463002394 0 0.029969156333513734 -0.0010956998309488925 0 0.029643165669370211 -0.0017008596372434547 0 0.029312292390064412 -0.0021100267131262352 0 0.029252536257914408 -0.0018541803999541655 0 0.028876328526670977 -0.0017032638088474304 0 0.029252536257914408 -0.0018541803999541655 0 0.028900471324242637 -0.0016699557463002394 0 0.028876328526670977 -0.0017032638088474304 0 0.02747797749426056 -0.00094421298141284091 0 0.027050623933485844 -0.00028737492922632177 0 0.026884766104797807 -0.0007749127436188271 0 0.02747797749426056 -0.00094421298141284091 0 0.027535208670694495 -9.697820583964995e-05 0 0.027050623933485844 -0.00028737492922632177 0 0.028275372819539821 -0.0012858063704897229 0 0.027309088337706969 -0.0012216975310272299 0 0.028900471324242637 -0.0016699557463002394 0 0.028876328526670977 -0.0017032638088474304 0 0.028827470044218061 -0.001818112591374076 0 0.028861954233112663 -0.0016561210821566421 0 0.029127816379852896 -0.0013928176109894476 0 0.028900471324242637 -0.0016699557463002394 0 0.028676084055474726 -0.0018425789200048727 0 0.028181278635978902 -0.0016955064089305251 0 0.028900471324242637 -0.0016699557463002394 0 0.028676084055474726 -0.0018425789200048727 0 0.028827470044218061 -0.001818112591374076 0 0.028883506436595447 -0.0018447529981934301 0 0.027309088337706969 -0.0012216975310272299 0 0.028676084055474726 -0.0018425789200048727 0 0.028181278635978902 -0.0016955064089305251 0 0.028432542484710836 -0.001979110120099172 0 0.029969156333513734 -0.0010956998309488925 0 0.029643165669370211 -0.0017008596372434547 0 0.03010887299522845 -0.0016221419117199475 0 0.029643165669370211 -0.0017008596372434547 0 0.03010887299522845 -0.0016221419117199475 0 0.030021663341459743 -0.0019887449940516784 0 0.029642810568601134 -0.0020347851709512288 0 0.029643165669370211 -0.0017008596372434547 0 0.030021663341459743 -0.0019887449940516784 0 0.030783609670945435 -0.0018016985134610677 0 0.030817614274617079 -0.0022806940393431496 0 0.030415441358040272 -0.0019129986907902555 0 0.03010887299522845 -0.0016221419117199475 0 0.030021663341459743 -0.0019887449940516784 0 0.030415441358040272 -0.0019129986907902555 0 0.03010887299522845 -0.0016221419117199475 0 0.030415441358040272 -0.0019129986907902555 0 0.030483638981855209 -0.0014051327824666845 0 0.030783609670945435 -0.0018016985134610677 0 0.030415441358040272 -0.0019129986907902555 0 0.030483638981855209 -0.0014051327824666845 0 0.030963410066100327 -0.0014168062815571847 0 0.030783609670945435 -0.0018016985134610677 0 0.030483638981855209 -0.0014051327824666845 0 0.030928539797698485 -0.00060958957557744888 0 0.029969156333513734 -0.0010956998309488925 0 0.030483638981855209 -0.0014051327824666845 0 0.029969156333513734 -0.0010956998309488925 0 0.03010887299522845 -0.0016221419117199475 0 0.030483638981855209 -0.0014051327824666845 0 0.028181278635978902 -0.0016955064089305251 0 0.027387910867935763 -0.0024041989077975799 0 0.028228594381415742 -0.0023298658825463216 0 0.024339285885685371 -0.0013962683440233083 0 0.025027556892772744 -0.0014091965400824589 0 0.027195013673076637 -0.0020932123590702962 0 0.028181278635978902 -0.0016955064089305251 0 0.027387910867935763 -0.0024041989077975799 0 0.028783998312544284 -0.0014220154962609024 0 0.029127816379852896 -0.0013928176109894476 0 0.028181278635978902 -0.0016955064089305251 0 0.028432542484710836 -0.001979110120099172 0 0.028228594381415742 -0.0023298658825463216 0 0.028432542484710836 -0.001979110120099172 0 0.028228594381415742 -0.0023298658825463216 0 0.028625361264919089 -0.0020606539264854014 0 0.021365374158484631 -0.00036410519008613535 0 0.021348465788874317 -0.00024562513804696738 0 0.021302484481009965 -0.0002812376860380586 0 0.021365374158484631 -0.00036410519008613535 0 0.021464020752550644 -0.00027794531485279605 0 0.021348465788874317 -0.00024562513804696738 0 0.021541134551218429 -0.0004020473661580584 0 0.021365374158484631 -0.00036410519008613535 0 0.021464020752550644 -0.00027794531485279605 0 0.021538569931782745 -0.00022925307287291458 0 0.021464020752550644 -0.00027794531485279605 0 0.021475322236667673 -0.0001746040422767868 0 0.021464020752550644 -0.00027794531485279605 0 0.021475322236667673 -0.0001746040422767868 0 0.021369003322852999 -0.00020031152442076251 0 0.021605862163615593 -0.00016774568705297309 0 0.021475322236667673 -0.0001746040422767868 0 0.021443229868319071 0.00011876785967359041 0 0.021475322236667673 -0.0001746040422767868 0 0.021369003322852999 -0.00020031152442076251 0 0.021313844264404733 -0.00014466692798054042 0 0.021464020752550644 -0.00027794531485279605 0 0.021369003322852999 -0.00020031152442076251 0 0.021348465788874317 -0.00024562513804696738 0 0.021369003322852999 -0.00020031152442076251 0 0.021348465788874317 -0.00024562513804696738 0 0.021313701995845567 -0.00016734808327812371 0 0.021348465788874317 -0.00024562513804696738 0 0.021296961235649631 -0.00020697022683819979 0 0.021302484481009965 -0.0002812376860380586 0 0.021348465788874317 -0.00024562513804696738 0 0.021313701995845567 -0.00016734808327812371 0 0.021296961235649631 -0.00020697022683819979 0 0.021313701995845567 -0.00016734808327812371 0 0.021290914917461053 -0.0001713977266434416 0 0.021296961235649631 -0.00020697022683819979 0 0.021369003322852999 -0.00020031152442076251 0 0.021313701995845567 -0.00016734808327812371 0 0.021313844264404733 -0.00014466692798054042 0 0.021140910184200536 -8.7570223118977927e-05 0 0.020957865467100961 -6.3505472026593237e-05 0 0.021313701995845567 -0.00016734808327812371 0 0.021313844264404733 -0.00014466692798054042 0 0.021289619250109068 -0.0001393970655598834 0 0.020894032335887592 0.00027527224024197488 0 0.021313844264404733 -0.00014466692798054042 0 0.020059672883086264 0.00025051395218248694 0 0.021313701995845567 -0.00016734808327812371 0 0.021289619250109068 -0.0001393970655598834 0 0.021290914917461053 -0.0001713977266434416 0 0.02067899141974763 0.00089416645902975394 0 0.020894032335887592 0.00027527224024197488 0 0.020059672883086264 0.00025051395218248694 0 0.02067899141974763 0.00089416645902975394 0 0.020894032335887592 0.00027527224024197488 0 0.021443229868319071 0.00011876785967359041 0 0.017199829969487001 -0.00024894582381634162 0 0.017859297326866863 -0.00086441954587923109 0 0.018050215134939901 -0.0012322010662383746 0 0.017859297326866863 -0.00086441954587923109 0 0.020894032335887592 0.00027527224024197488 0 0.021443229868319071 0.00011876785967359041 0 0.021313844264404733 -0.00014466692798054042 0 0.021475322236667673 -0.0001746040422767868 0 0.021443229868319071 0.00011876785967359041 0 0.021313844264404733 -0.00014466692798054042 0 0.018672077829212146 0.00095103418875328244 0 0.02046411754323068 0.00024379173477656016 0 0.021185639257517132 -0.00017212577468212373 0 0.021228953473843622 -0.00014358455484894688 0 0.021255968442568756 -0.00017765595676672358 0 0.019575203211660751 0.00086335534988352764 0 0.019587552061931069 0.00085712202111600216 0 0.019560355325892054 0.00068490462808388987 0 0.021185854587451466 -8.0189494858966346e-05 0 0.021185639257517132 -0.00017212577468212373 0 0.021228953473843622 -0.00014358455484894688 0 0.021185854587451466 -8.0189494858966346e-05 0 0.021228953473843622 -0.00014358455484894688 0 0.021289619250109068 -0.0001393970655598834 0 0.021289619250109068 -0.0001393970655598834 0 0.021290914917461053 -0.0001713977266434416 0 0.021255968442568756 -0.00017765595676672358 0 0.021228953473843622 -0.00014358455484894688 0 0.021289619250109068 -0.0001393970655598834 0 0.021255968442568756 -0.00017765595676672358 0 0.021255968442568756 -0.00017765595676672358 0 0.021296961235649631 -0.00020697022683819979 0 0.021248800288142768 -0.00024896916302570994 0 0.021290914917461053 -0.0001713977266434416 0 0.021255968442568756 -0.00017765595676672358 0 0.021296961235649631 -0.00020697022683819979 0 0.021185639257517132 -0.00017212577468212373 0 0.021248800288142768 -0.00024896916302570994 0 0.021196488848457023 -0.00024108149138736499 0 0.021185639257517132 -0.00017212577468212373 0 0.021255968442568756 -0.00017765595676672358 0 0.021248800288142768 -0.00024896916302570994 0 0.021262362483778819 -0.00028534026862664049 0 0.021204544908826738 -0.00028341463688704506 0 0.021196488848457023 -0.00024108149138736499 0 0.021231590355930946 -0.00025393713742421944 0 0.024016179404405671 -0.00053806194929327696 0 0.021248800288142768 -0.00024896916302570994 0 0.021262362483778819 -0.00028534026862664049 0 0.021196488848457023 -0.00024108149138736499 0 0.021302484481009965 -0.0002812376860380586 0 0.021248800288142768 -0.00024896916302570994 0 0.021257104094604302 -0.0003462274536331418 0 0.021365374158484631 -0.00036410519008613535 0 0.021302484481009965 -0.0002812376860380586 0 0.021257104094604302 -0.0003462274536331418 0 0.021296961235649631 -0.00020697022683819979 0 0.021302484481009965 -0.0002812376860380586 0 0.021248800288142768 -0.00024896916302570994 0 0.025027556892772744 -0.0014091965400824589 0 0.024016179404405671 -0.00053806194929327696 0 0.028228594381415742 -0.0023298658825463216 0 0.028625361264919089 -0.0020606539264854014 0 0.028867947322509736 -0.0022269527176109424 0 0.028676084055474726 -0.0018425789200048727 0 0.028625361264919089 -0.0020606539264854014 0 0.028894921022907513 -0.0019219078819411848 0 0.028625361264919089 -0.0020606539264854014 0 0.028867947322509736 -0.0022269527176109424 0 0.028894921022907513 -0.0019219078819411848 0 0.028676084055474726 -0.0018425789200048727 0 0.028432542484710836 -0.001979110120099172 0 0.028625361264919089 -0.0020606539264854014 0 0.027535208670694495 -9.697820583964995e-05 0 0.02672329604376748 0.00013689666133987846 0 0.027050623933485844 -0.00028737492922632177 0 0.025477876095470153 -9.9218825414494652e-06 0 0.025414566417691579 -0.00090268422253364869 0 0.023691299839014007 -0.00012311367951334853 0 0.024016179404405671 -0.00053806194929327696 0 0.022495198413028678 8.225204025606691e-05 0 0.027309088337706969 -0.0012216975310272299 0 0.024509038236815033 0.00072086070110249825 0 0.024016179404405671 -0.00053806194929327696 0 0.027309088337706969 -0.0012216975310272299 0 0.025414566417691579 -0.00090268422253364869 0 0.023615003881860448 -0.00038967007346859644 0 0.023691299839014007 -0.00012311367951334853 0 0.024509038236815033 0.00072086070110249825 0 0.023695846850552756 0.00048204856681020522 0 0.023748944875770246 0.00035933975216178985 0 0.023757071046818921 0.00029279409546315656 0 0.023705180265489192 0.00028903457609275556 0 0.024509038236815033 0.00072086070110249825 0 0.022495198413028678 8.225204025606691e-05 0 0.023695846850552756 0.00048204856681020522 0 0.022590398940467164 0.00038567474703817076 0 0.023742943614088321 0.0004096492714983758 0 0.023748944875770246 0.00035933975216178985 0 0.023705180265489192 0.00028903457609275556 0 0.022590398940467164 0.00038567474703817076 0 0.022495198413028678 8.225204025606691e-05 0 0.023695846850552756 0.00048204856681020522 0 0.022871902003315358 0.00087006702389686753 0 0.022590398940467164 0.00038567474703817076 0 0.022871902003315358 0.00087006702389686753 0 0.026582586706099087 0.0016502904346805023 0 0.026570401968000621 0.0017207366692414295 0 0.026337228099746743 0.001801118213741992 0 0.023220127793813973 0.00090599713217896078 0 0.023204738635515424 0.0010101155655169417 0 0.022962836816974599 0.00099499016306387887 0 0.019500406621079894 0.00023509142856053761 0 0.019435917752153753 0.00023168896316167574 0 0.019472630691298867 0.00032982824005020628 0 0.022590398940467164 0.00038567474703817076 0 0.021374300029028466 0.00052448874501157482 0 0.019499363529755825 0.00024549693346819868 0 0.019517263052404223 0.00024671406223828141 0 0.019472630691298867 0.00032982824005020628 0 0.022871902003315358 0.00087006702389686753 0 0.023778055946580452 0.0014325067773526391 0 0.022830938159699488 0.0010653644461489601 0 0.021725054805381987 0.0014476084821894576 0 0.021642180314235017 0.00099608951429710395 0 0.026337228099746743 0.001801118213741992 0 0.02602865372074533 0.0013854612572987955 0 0.025300187574748813 0.0017595641665625397 0 0.022871902003315358 0.00087006702389686753 0 0.020515852595878764 0.00083243988323375407 0 0.026582586706099087 0.0016502904346805023 0 0.026337228099746743 0.001801118213741992 0 0.02602865372074533 0.0013854612572987955 0 0.019435917752153753 0.00023168896316167574 0 0.019323349742299788 0.00038113835394866416 0 0.019160672646631832 0.00031958260458636795 0 0.019323349742299788 0.00038113835394866416 0 0.019472630691298867 0.00032982824005020628 0 0.01943622067035072 0.00046098952591765575 0 0.019435917752153753 0.00023168896316167574 0 0.019323349742299788 0.00038113835394866416 0 0.019472630691298867 0.00032982824005020628 0 0.019323349742299788 0.00038113835394866416 0 0.01943622067035072 0.00046098952591765575 0 0.019355257109574159 0.00055303984089609902 0 0.019517263052404223 0.00024671406223828141 0 0.019472630691298867 0.00032982824005020628 0 0.019540249880106549 0.0004782762818754483 0 0.022495198413028678 8.225204025606691e-05 0 0.020235173949366379 1.8538958720831962e-05 0 0.019472630691298867 0.00032982824005020628 0 0.01943622067035072 0.00046098952591765575 0 0.019540249880106549 0.0004782762818754483 0 0.02046411754323068 0.00024379173477656016 0 0.020235173949366379 1.8538958720831962e-05 0 0.019457644218394195 0.00058894276109433628 0 0.019355257109574159 0.00055303984089609902 0 0.019399751074609436 0.00073642716042621322 0 0.019560355325892054 0.00068490462808388987 0 0.019540249880106549 0.0004782762818754483 0 0.019457644218394195 0.00058894276109433628 0 0.01943622067035072 0.00046098952591765575 0 0.019540249880106549 0.0004782762818754483 0 0.019457644218394195 0.00058894276109433628 0 0.01943622067035072 0.00046098952591765575 0 0.019457644218394195 0.00058894276109433628 0 0.019355257109574159 0.00055303984089609902 0 0.019355257109574159 0.00055303984089609902 0 0.019399751074609436 0.00073642716042621322 0 0.019160208537351949 0.00059410096840675818 0 0.019323349742299788 0.00038113835394866416 0 0.019355257109574159 0.00055303984089609902 0 0.019160208537351949 0.00059410096840675818 0 0.017400820630798543 0.0011334138154029561 0 0.017121253062378411 0.0010537176658179223 0 0.015285629674598429 0.0015341505272136644 0 0.015340240988577921 0.0015353730547954332 0 0.015297497747203593 0.0016398378762960263 0 0.019560355325892054 0.00068490462808388987 0 0.019457644218394195 0.00058894276109433628 0 0.019399751074609436 0.00073642716042621322 0 0.019575203211660751 0.00086335534988352764 0 0.019560355325892054 0.00068490462808388987 0 0.019399751074609436 0.00073642716042621322 0 0.017416430420879633 0.0014100742250395132 0 0.017400820630798543 0.0011334138154029561 0 0.015318420878553856 0.0015491899167575935 0 0.015297497747203593 0.0016398378762960263 0 0.015490257060042685 0.0016420895739512496 0 0.015482535296454521 0.0014570823396729661 0 0.015318420878553856 0.0015491899167575935 0 0.015490257060042685 0.0016420895739512496 0 0.015285629674598429 0.0015341505272136644 0 0.015318420878553856 0.0015491899167575935 0 0.015297497747203593 0.0016398378762960263 0 0.017121253062378411 0.0010537176658179223 0 0.017723282882017924 0.0013850163767787401 0 0.015297497747203593 0.0016398378762960263 0 0.015490257060042685 0.0016420895739512496 0 0.015460466508932241 0.0018322907358944544 0 0.017723282882017924 0.0013850163767787401 0 0.017724255919705126 0.0014484784843949092 0 0.019160208537351949 0.00059410096840675818 0 0.018880910508798546 0.00041482643154009394 0 0.019160672646631832 0.00031958260458636795 0 0.020636632577353452 0.0018060872284352708 0 0.021725054805381987 0.0014476084821894576 0 0.021097220222888895 0.0013229835201105334 0 0.019323349742299788 0.00038113835394866416 0 0.019160208537351949 0.00059410096840675818 0 0.019160672646631832 0.00031958260458636795 0 0.017723282882017924 0.0013850163767787401 0 0.020515852595878764 0.00083243988323375407 0 0.021725054805381987 0.0014476084821894576 0 0.021642180314235017 0.00099608951429710395 0 0.021097220222888895 0.0013229835201105334 0 0.020636632577353452 0.0018060872284352708 0 0.020481126460214789 0.00093489833642607643 0 0.019998281099392303 0.0013304155808724519 0 0.020636632577353452 0.0018060872284352708 0 0.020481126460214789 0.00093489833642607643 0 0.021097220222888895 0.0013229835201105334 0 0.025300187574748813 0.0017595641665625397 0 0.024219579144046561 0.0017203830696239731 0 0.024495449614554975 0.00079953801197253042 0 0.021642180314235017 0.00099608951429710395 0 0.020481126460214789 0.00093489833642607643 0 0.021097220222888895 0.0013229835201105334 0 0.023778055946580452 0.0014325067773526391 0 0.022505489723114912 0.0013215774052721262 0 0.024495449614554975 0.00079953801197253042 0 0.024445945950852623 -0.00028209160852519334 0 0.023649651716008222 0.00021775430960984055 0 0.024495449614554975 0.00079953801197253042 0 0.02514667316975534 0.00022805550984658255 0 0.024445945950852623 -0.00028209160852519334 0 0.02514667316975534 0.00022805550984658255 0 0.024445945950852623 -0.00028209160852519334 0 0.025279799766253299 -0.00039792308329841131 0 0.02514667316975534 0.00022805550984658255 0 0.026002864795172446 0.00012460902156377629 0 0.025279799766253299 -0.00039792308329841131 0 0.02514667316975534 0.00022805550984658255 0 0.025544342824765979 0.00085584271186068107 0 0.026002864795172446 0.00012460902156377629 0 0.025300187574748813 0.0017595641665625397 0 0.024495449614554975 0.00079953801197253042 0 0.025544342824765979 0.00085584271186068107 0 0.024495449614554975 0.00079953801197253042 0 0.02514667316975534 0.00022805550984658255 0 0.025544342824765979 0.00085584271186068107 0 0.025544342824765979 0.00085584271186068107 0 0.026379553645609011 0.0008615503079984065 0 0.026002864795172446 0.00012460902156377629 0 0.02602865372074533 0.0013854612572987955 0 0.025544342824765979 0.00085584271186068107 0 0.026379553645609011 0.0008615503079984065 0 0.026582586706099087 0.0016502904346805023 0 0.02602865372074533 0.0013854612572987955 0 0.026379553645609011 0.0008615503079984065 0 0.02602865372074533 0.0013854612572987955 0 0.025300187574748813 0.0017595641665625397 0 0.025544342824765979 0.00085584271186068107 0 0.02672329604376748 0.00013689666133987846 0 0.027050623933485844 -0.00028737492922632177 0 0.026884766104797807 -0.0007749127436188271 0 0.024509038236815033 0.00072086070110249825 0 0.026503415448740318 0.0014186827995124206 0 0.024509038236815033 0.00072086070110249825 0 0.027113018280652563 -0.00022198811647074573 0 0.026586393669592 0.0016303233918048537 0 0.026379553645609011 0.0008615503079984065 0 0.026795649593968913 0.00030258193744196277 0 0.026795649593968913 0.00030258193744196277 0 0.026002864795172446 0.00012460902156377629 0 0.026449679616572196 -0.00033188966857210407 0 0.026379553645609011 0.0008615503079984065 0 0.026795649593968913 0.00030258193744196277 0 0.026002864795172446 0.00012460902156377629 0 0.026002864795172446 0.00012460902156377629 0 0.026100950441262479 -0.00081899270067001208 0 0.026449679616572196 -0.00033188966857210407 0 0.026002864795172446 0.00012460902156377629 0 0.026100950441262479 -0.00081899270067001208 0 0.025279799766253299 -0.00039792308329841131 0 0.026100950441262479 -0.00081899270067001208 0 0.026449679616572196 -0.00033188966857210407 0 0.026861626665113224 -0.00087868059037799363 0 0.027113018280652563 -0.00022198811647074573 0 0.026952944202214505 -0.001264988034666667 0 0.026795649593968913 0.00030258193744196277 0 0.026449679616572196 -0.00033188966857210407 0 0.026861626665113224 -0.00087868059037799363 0 0.026952944202214505 -0.001264988034666667 0 0.026810998569629863 -0.0020353432515054716 0 0.026100950441262479 -0.00081899270067001208 0 0.026861626665113224 -0.00087868059037799363 0 0.026482889029487894 -0.0013723239661575207 0 0.026100950441262479 -0.00081899270067001208 0 0.025988979430743121 -0.0015356965370316011 0 0.026482889029487894 -0.0013723239661575207 0 0.026188083521879773 -0.00078350110288486613 0 0.024801259269955158 -0.0013553215823460737 0 0.026100950441262479 -0.00081899270067001208 0 0.025527635568322507 -0.0010827192246454995 0 0.025988979430743121 -0.0015356965370316011 0 0.024642610484199367 -0.0013242673367038996 0 0.024445945950852623 -0.00028209160852519334 0 0.023630773798596513 -0.00072897360782747461 0 0.024642610484199367 -0.0013242673367038996 0 0.024445945950852623 -0.00028209160852519334 0 0.025279799766253299 -0.00039792308329841131 0 0.026100950441262479 -0.00081899270067001208 0 0.024642610484199367 -0.0013242673367038996 0 0.025279799766253299 -0.00039792308329841131 0 0.025527635568322507 -0.0010827192246454995 0 0.025988979430743121 -0.0015356965370316011 0 0.025281874829928545 -0.001884297274185112 0 0.025988979430743121 -0.0015356965370316011 0 0.025981917170528637 -0.0020866482545342548 0 0.025281874829928545 -0.001884297274185112 0 0.025988979430743121 -0.0015356965370316011 0 0.026482889029487894 -0.0013723239661575207 0 0.026640170591230597 -0.0020368900394241987 0 0.026482889029487894 -0.0013723239661575207 0 0.026640170591230597 -0.0020368900394241987 0 0.026917878185346009 -0.0016453234009610918 0 0.026861626665113224 -0.00087868059037799363 0 0.026482889029487894 -0.0013723239661575207 0 0.026917878185346009 -0.0016453234009610918 0 0.026640170591230597 -0.0020368900394241987 0 0.027038627978750601 -0.0023525169915817974 0 0.026917878185346009 -0.0016453234009610918 0 0.025988979430743121 -0.0015356965370316011 0 0.026640170591230597 -0.0020368900394241987 0 0.025981917170528637 -0.0020866482545342548 0 0.026640170591230597 -0.0020368900394241987 0 0.026372653169016106 -0.0024238406771873102 0 0.025981917170528637 -0.0020866482545342548 0 0.029096467451679944 -0.0018761556722975002 0 0.029151491041002973 -0.0028226979313927683 0 0.032122032958165576 -0.0013702727372686167 0 0.031065818775253023 -0.0011745898931999127 0 0.031025932316674928 -0.0015473861245138868 0 0.026640170591230597 -0.0020368900394241987 0 0.026372653169016106 -0.0024238406771873102 0 0.027038627978750601 -0.0023525169915817974 0 0.032122032958165576 -0.0013702727372686167 0 0.031555750852655676 -0.00085114861886682663 0 0.032070119749371226 -0.00054677372540298049 0 0.032122032958165576 -0.0013702727372686167 0 0.031555750852655676 -0.00085114861886682663 0 0.031065818775253023 -0.0011745898931999127 0 0.031555750852655676 -0.00085114861886682663 0 0.031643683212046775 -0.00028243228770725472 0 0.030941636127575257 -0.00087619573518123053 0 0.032122032958165576 -0.0013702727372686167 0 0.032630052440451141 -0.00037523239533912729 0 0.032070119749371226 -0.00054677372540298049 0 0.033045851403484455 -0.00081445560974630689 0 0.033194059827734157 -0.00044906775801381945 0 0.032630052440451141 -0.00037523239533912729 0 0.032122032958165576 -0.0013702727372686167 0 0.033154893146380857 -0.0012117555161377165 0 0.032630052440451141 -0.00037523239533912729 0 0.030049046894496615 -0.0012405513033309171 0 0.033452926790060282 -0.00062583999523783051 0 0.026372653169016106 -0.0024238406771873102 0 0.025721762382441928 -0.0024910489592495175 0 0.025981917170528637 -0.0020866482545342548 0 0.029096467451679944 -0.0018761556722975002 0 0.030049046894496615 -0.0012405513033309171 0 0.029186255813047905 -0.001227571062654687 0 0.028461049825972362 -0.00022282531123639764 0 0.02833314547988176 -0.001334862742255787 0 0.030049046894496615 -0.0012405513033309171 0 0.026633555656456066 -0.0010351742040183441 0 0.025721762382441928 -0.0024910489592495175 0 0.025981917170528637 -0.0020866482545342548 0 0.025281874829928545 -0.001884297274185112 0 0.033045851403484455 -0.00081445560974630689 0 0.033194059827734157 -0.00044906775801381945 0 0.033539315504149625 -0.00067880246794980396 0 0.030049046894496615 -0.0012405513033309171 0 0.031016814884678119 -0.001021593480657639 0 0.033194059827734157 -0.00044906775801381945 0 0.033539315504149625 -0.00067880246794980396 0 0.033524300832389824 -0.0003447120361561987 0 0.033194059827734157 -0.00044906775801381945 0 0.033335902733242481 -0.00021134510290449343 0 0.033524300832389824 -0.0003447120361561987 0 0.033194059827734157 -0.00044906775801381945 0 0.033335902733242481 -0.00021134510290449343 0 0.03303814917330055 -0.00017525521275173084 0 0.033335902733242481 -0.00021134510290449343 0 0.03303814917330055 -0.00017525521275173084 0 0.033180361072467794 6.7034731571014687e-05 0 0.033335902733242481 -0.00021134510290449343 0 0.033508427259056506 1.6775374772975543e-05 0 0.033545440054692698 -0.00014019753781870721 0 0.033335902733242481 -0.00021134510290449343 0 0.033545440054692698 -0.00014019753781870721 0 0.033524300832389824 -0.0003447120361561987 0 0.033194059827734157 -0.00044906775801381945 0 0.032630052440451141 -0.00037523239533912729 0 0.03303814917330055 -0.00017525521275173084 0 0.032630052440451141 -0.00037523239533912729 0 0.03303814917330055 -0.00017525521275173084 0 0.032810761174736337 0.00012764980434048793 0 0.032630052440451141 -0.00037523239533912729 0 0.032810761174736337 0.00012764980434048793 0 0.03233878964937769 0.00021411238714432967 0 0.032810761174736337 0.00012764980434048793 0 0.033185986844015088 0.00044238040616840477 0 0.032535845460842351 0.0006053100165045414 0 0.03303814917330055 -0.00017525521275173084 0 0.032810761174736337 0.00012764980434048793 0 0.033180361072467794 6.7034731571014687e-05 0 0.032810761174736337 0.00012764980434048793 0 0.033180361072467794 6.7034731571014687e-05 0 0.033185986844015088 0.00044238040616840477 0 0.033893558633231222 0.00027848253853933458 0 0.033877949288011425 0.00017928424394687132 0 0.03342137368918633 0.00017977302489459682 0 0.033185986844015088 0.00044238040616840477 0 0.033871468075825771 0.0001347217981675318 0 0.033335902733242481 -0.00021134510290449343 0 0.033508427259056506 1.6775374772975543e-05 0 0.033180361072467794 6.7034731571014687e-05 0 0.033508427259056506 1.6775374772975543e-05 0 0.033180361072467794 6.7034731571014687e-05 0 0.03342137368918633 0.00017977302489459682 0 0.033508427259056506 1.6775374772975543e-05 0 0.03342137368918633 0.00017977302489459682 0 0.033620299881697825 8.2967017257329158e-05 0 0.033180361072467794 6.7034731571014687e-05 0 0.03342137368918633 0.00017977302489459682 0 0.033185986844015088 0.00044238040616840477 0 0.034766151725261624 4.3981109072999105e-05 0 0.034453760801758097 5.7248748069208342e-05 0 0.034914375738379494 2.1161947701145559e-05 0 0.034805177616309434 5.669042836405232e-05 0 0.034956823506534958 -2.3208637954214912e-05 0 0.034573628161608375 0.00017254037870494354 0 0.034805177616309434 5.669042836405232e-05 0 0.033929514606461285 0.00012225650693855345 0 0.034914375738379494 2.1161947701145559e-05 0 0.034887825229685671 3.7784666543616643e-05 0 0.034805177616309434 5.669042836405232e-05 0 0.034932341977583929 2.3104711020628589e-05 0 0.034887825229685671 3.7784666543616643e-05 0 0.034927332703649561 2.5095738368361305e-05 0 0.034914375738379494 2.1161947701145559e-05 0 0.034932341977583929 2.3104711020628589e-05 0 0.034887825229685671 3.7784666543616643e-05 0 0.034914375738379494 2.1161947701145559e-05 0 0.034932341977583929 2.3104711020628589e-05 0 0.034946899622954809 9.4307104494234456e-06 0 0.033893558633231222 0.00027848253853933458 0 0.033694918256504419 0.00036156490796623939 0 0.034573628161608375 0.00017254037870494354 0 0.034805177616309434 5.669042836405232e-05 0 0.035039945769053289 4.9480030343470853e-05 0 0.034805177616309434 5.669042836405232e-05 0 0.034943759963794577 5.1188683082950038e-06 0 0.035039945769053289 4.9480030343470853e-05 0 0.034887825229685671 3.7784666543616643e-05 0 0.034805177616309434 5.669042836405232e-05 0 0.034943759963794577 5.1188683082950038e-06 0 0.034887825229685671 3.7784666543616643e-05 0 0.034943759963794577 5.1188683082950038e-06 0 0.034949339694353099 1.0942462568747598e-05 0 0.034943759963794577 5.1188683082950038e-06 0 0.03500006082841059 -5.0913466489436711e-08 0 0.035039945769053289 4.9480030343470853e-05 0 0.034943759963794577 5.1188683082950038e-06 0 0.034999933416408641 1.2594339742725941e-08 0 0.034949339694353099 1.0942462568747598e-05 0 0.034943759963794577 5.1188683082950038e-06 0 0.034999933416408641 1.2594339742725941e-08 0 0.03500006082841059 -5.0913466489436711e-08 0 0.034999933416408641 1.2594339742725941e-08 0 0.03499979796297311 2.5697648141433349e-08 0 0.034949339694353099 1.0942462568747598e-05 0 0.03499979796297311 2.5697648141433349e-08 0 0.034953998237553498 1.8560515213106677e-05 0 0.034927332703649561 2.5095738368361305e-05 0 0.034932341977583929 2.3104711020628589e-05 0 0.034953998237553498 1.8560515213106677e-05 0 0.034927332703649561 2.5095738368361305e-05 0 0.034887825229685671 3.7784666543616643e-05 0 0.034949339694353099 1.0942462568747598e-05 0 0.034927332703649561 2.5095738368361305e-05 0 0.03499979796297311 2.5697648141433349e-08 0 0.034949339694353099 1.0942462568747598e-05 0 0.034927332703649561 2.5095738368361305e-05 0 0.034999990916932545 -5.6775528769741023e-10 0 0.034999997793417441 -7.3568616803589473e-11 0 0.034993520172380804 -6.1848159457170992e-08 0 0.035001097337068361 5.0721397617953676e-07 0 0.033914872531721554 0.00010145821709231013 0 0.03500006082841059 -5.0913466489436711e-08 0 0.035039945769053289 4.9480030343470853e-05 0 0.035039888254495333 3.7218272539569914e-05 0 0.033694918256504419 0.00036156490796623939 0 0.033914872531721554 0.00010145821709231013 0 0.032535845460842351 0.0006053100165045414 0 0.032198430224611697 0.00045452505372833873 0 0.031989260263284927 0.00071175053642748667 0 0.033720174470934679 -9.8328513909302142e-05 0 0.033722768876187435 -9.8903836028377872e-05 0 0.033713170561214582 -9.537150148210048e-05 0 0.031989260263284927 0.00071175053642748667 0 0.031975898220179003 0.00026983309154044816 0 0.031617624044234939 0.00030178194713979199 0 0.033914872531721554 0.00010145821709231013 0 0.032903803641420884 -5.0981620084021692e-05 0 0.032198430224611697 0.00045452505372833873 0 0.031989260263284927 0.00071175053642748667 0 0.031975898220179003 0.00026983309154044816 0 0.031975898220179003 0.00026983309154044816 0 0.03233878964937769 0.00021411238714432967 0 0.03196482809264959 -0.0001476490263576407 0 0.031975898220179003 0.00026983309154044816 0 0.03196482809264959 -0.0001476490263576407 0 0.031760614440276801 7.3669877991054835e-05 0 0.031975898220179003 0.00026983309154044816 0 0.031760614440276801 7.3669877991054835e-05 0 0.031617624044234939 0.00030178194713979199 0 0.032810761174736337 0.00012764980434048793 0 0.032535845460842351 0.0006053100165045414 0 0.03233878964937769 0.00021411238714432967 0 0.032259014649391446 0.00015462689616967104 0 0.031867847794373259 -0.00014241540986168475 0 0.032535845460842351 0.0006053100165045414 0 0.032198430224611697 0.00045452505372833873 0 0.03233878964937769 0.00021411238714432967 0 0.032198430224611697 0.00045452505372833873 0 0.031975898220179003 0.00026983309154044816 0 0.03233878964937769 0.00021411238714432967 0 0.032630052440451141 -0.00037523239533912729 0 0.03233878964937769 0.00021411238714432967 0 0.032070119749371226 -0.00054677372540298049 0 0.03233878964937769 0.00021411238714432967 0 0.032070119749371226 -0.00054677372540298049 0 0.031643683212046775 -0.00028243228770725472 0 0.031867847794373259 -0.00014241540986168475 0 0.031085154784739593 -0.0011719958491281375 0 0.031555750852655676 -0.00085114861886682663 0 0.032070119749371226 -0.00054677372540298049 0 0.031643683212046775 -0.00028243228770725472 0 0.032282574319920508 -0.00036387061294687991 0 0.031085154784739593 -0.0011719958491281375 0 0.031584951309757227 -0.00026693385335197108 0 0.030714325054851117 -0.0019140374946656799 0 0.031792340214149485 -0.0017669743152678163 0 0.03196482809264959 -0.0001476490263576407 0 0.031760614440276801 7.3669877991054835e-05 0 0.031565915459457188 -0.00052372431285503391 0 0.031760614440276801 7.3669877991054835e-05 0 0.031488945561755334 6.1362500206808197e-05 0 0.031565915459457188 -0.00052372431285503391 0 0.031528241257203535 -0.0014079127166705715 0 0.032239024365811733 -0.00086849591973033253 0 0.031520620844149069 -0.0021637515713614761 0 0.032282574319920508 -0.00036387061294687991 0 0.031082452080975567 -0.0020488589842876503 0 0.034766737394091217 -0.00028530621146623806 0 0.034829313312513488 -0.00025333713818632633 0 0.034692922886795742 -0.00045388626503198114 0 0.034766737394091217 -0.00028530621146623806 0 0.034829313312513488 -0.00025333713818632633 0 0.034782996306069278 -0.00021228213297822281 0 0.031528241257203535 -0.0014079127166705715 0 0.032239024365811733 -0.00086849591973033253 0 0.03221391436427444 -0.00067962886717441403 0 0.034829313312513488 -0.00025333713818632633 0 0.034815394599037111 -0.00016178148262342628 0 0.034889572690366751 -0.00012174836950296799 0 0.033201741857915523 -0.00081873294501244261 0 0.033141506963381619 -0.00018787141513158126 0 0.034782996306069278 -0.00021228213297822281 0 0.034815394599037111 -0.00016178148262342628 0 0.034749951736931059 -0.00014084263306021288 0 0.034829313312513488 -0.00025333713818632633 0 0.034782996306069278 -0.00021228213297822281 0 0.034815394599037111 -0.00016178148262342628 0 0.034815394599037111 -0.00016178148262342628 0 0.034816510502231154 -8.6666963897661002e-05 0 0.034749951736931059 -0.00014084263306021288 0 0.034815394599037111 -0.00016178148262342628 0 0.034816510502231154 -8.6666963897661002e-05 0 0.034889572690366751 -0.00012174836950296799 0 0.034816510502231154 -8.6666963897661002e-05 0 0.034749393195188855 -4.6319029503835703e-05 0 0.034749951736931059 -0.00014084263306021288 0 0.031760614440276801 7.3669877991054835e-05 0 0.031488945561755334 6.1362500206808197e-05 0 0.031617624044234939 0.00030178194713979199 0 0.032282574319920508 -0.00036387061294687991 0 0.032903803641420884 -5.0981620084021692e-05 0 0.032612331370555948 -0.0002914746535865839 0 0.03259545785554134 -0.00017062476635394067 0 0.032781619420997311 2.9962643409698813e-05 0 0.032282574319920508 -0.00036387061294687991 0 0.033141506963381619 -0.00018787141513158126 0 0.033141506963381619 -0.00018787141513158126 0 0.032903803641420884 -5.0981620084021692e-05 0 0.033141506963381619 -0.00018787141513158126 0 0.034729556539916162 -6.9757693633175382e-05 0 0.033723459967283709 -9.2106868780049937e-05 0 0.033722823962586211 -9.4015073019472928e-05 0 0.033733806053936589 -0.00010229032277319292 0 0.033720174470934679 -9.8328513909302142e-05 0 0.033722768876187435 -9.8903836028377872e-05 0 0.033733806053936589 -0.00010229032277319292 0 0.03379478040591536 -4.6128754284917244e-06 0 0.032903803641420884 -5.0981620084021692e-05 0 0.033914872531721554 0.00010145821709231013 0 0.034729556539916162 -6.9757693633175382e-05 0 0.033722768876187435 -9.8903836028377872e-05 0 0.033722823962586211 -9.4015073019472928e-05 0 0.033733806053936589 -0.00010229032277319292 0 0.03483429226100139 6.0929426688316555e-05 0 0.034697469587565984 1.9644982738231433e-05 0 0.034749393195188855 -4.6319029503835703e-05 0 0.034816510502231154 -8.6666963897661002e-05 0 0.03483429226100139 6.0929426688316555e-05 0 0.034749393195188855 -4.6319029503835703e-05 0 0.034816510502231154 -8.6666963897661002e-05 0 0.034889572690366751 -0.00012174836950296799 0 0.03483429226100139 6.0929426688316555e-05 0 0.034729556539916162 -6.9757693633175382e-05 0 0.034877151153360958 3.6891179522653731e-05 0 0.0349999953080746 -6.3321879548678216e-10 0 0.034998412916614353 4.2753801000354296e-09 0 0.034999639757444842 6.3060230905488157e-08 0 0.034999926987790989 6.8662542279363982e-09 0 0.034729556539916162 -6.9757693633175382e-05 0 0.034999990916932545 -5.6775528769741023e-10 0 0.034999996919097505 -7.8292685742048994e-11 0 0.034996772686490617 -2.0293434824347967e-07 0 0.034999990916932545 -5.6775528769741023e-10 0 0.034993520172380804 -6.1848159457170992e-08 0 0.034996772686490617 -2.0293434824347967e-07 0 0.034666432816962904 4.9920880604091271e-05 0 0.034657354213024745 7.9525278937906988e-05 0 0.034998104527648378 3.6797081685744147e-07 0 0.034877151153360958 3.6891179522653731e-05 0 0.034999888947153078 8.042248688910504e-09 0 0.034999999134847713 3.8651591272462463e-10 0 0.034999639757444842 6.3060230905488157e-08 0 0.034999999806081684 -1.9271602984218423e-10 0 0.03483429226100139 6.0929426688316555e-05 0 0.034666432816962904 4.9920880604091271e-05 0 0.034697469587565984 1.9644982738231433e-05 0 0.0349999953080746 -6.3321879548678216e-10 0 0.034999999134847713 3.8651591272462463e-10 0 0.034999639757444842 6.3060230905488157e-08 0 0.034697469587565984 1.9644982738231433e-05 0 0.034643947367332714 -6.5541115791614376e-05 0 0.034749393195188855 -4.6319029503835703e-05 0 0.034697469587565984 1.9644982738231433e-05 0 0.034657354213024745 7.9525278937906988e-05 0 0.034643947367332714 -6.5541115791614376e-05 0 0.034666432816962904 4.9920880604091271e-05 0 0.034697469587565984 1.9644982738231433e-05 0 0.034657354213024745 7.9525278937906988e-05 0 0.034657354213024745 7.9525278937906988e-05 0 0.034643947367332714 -6.5541115791614376e-05 0 0.034465958885140403 -7.1063722170830495e-05 0 0.034643947367332714 -6.5541115791614376e-05 0 0.03451769398671474 -0.00023141869017705033 0 0.034465958885140403 -7.1063722170830495e-05 0 0.034643947367332714 -6.5541115791614376e-05 0 0.034749393195188855 -4.6319029503835703e-05 0 0.034749951736931059 -0.00014084263306021288 0 0.034643947367332714 -6.5541115791614376e-05 0 0.034749951736931059 -0.00014084263306021288 0 0.034665940483008431 -0.00021042421063256452 0 0.034782996306069278 -0.00021228213297822281 0 0.034749951736931059 -0.00014084263306021288 0 0.034736057413151722 -0.00022896880400167843 0 0.034736057413151722 -0.00022896880400167843 0 0.034665940483008431 -0.00021042421063256452 0 0.034709344593714955 -0.00030165169113730776 0 0.034749951736931059 -0.00014084263306021288 0 0.034736057413151722 -0.00022896880400167843 0 0.034665940483008431 -0.00021042421063256452 0 0.034766737394091217 -0.00028530621146623806 0 0.034782996306069278 -0.00021228213297822281 0 0.034736057413151722 -0.00022896880400167843 0 0.034665940483008431 -0.00021042421063256452 0 0.034627023072814081 -0.00034144348779967216 0 0.034709344593714955 -0.00030165169113730776 0 0.034766737394091217 -0.00028530621146623806 0 0.034709344593714955 -0.00030165169113730776 0 0.034753968024274051 -0.00046385759176253955 0 0.034766737394091217 -0.00028530621146623806 0 0.034736057413151722 -0.00022896880400167843 0 0.034709344593714955 -0.00030165169113730776 0 0.034643947367332714 -6.5541115791614376e-05 0 0.034665940483008431 -0.00021042421063256452 0 0.03451769398671474 -0.00023141869017705033 0 0.034665940483008431 -0.00021042421063256452 0 0.034627023072814081 -0.00034144348779967216 0 0.03451769398671474 -0.00023141869017705033 0 0.034627023072814081 -0.00034144348779967216 0 0.03451769398671474 -0.00023141869017705033 0 0.03449338257698125 -0.00045222474735494788 0 0.03451769398671474 -0.00023141869017705033 0 0.03449338257698125 -0.00045222474735494788 0 0.034250879827601236 -0.00038086583313938878 0 0.03449338257698125 -0.00045222474735494788 0 0.03433578011432243 -0.00065954958290642685 0 0.034250879827601236 -0.00038086583313938878 0 0.03449338257698125 -0.00045222474735494788 0 0.034533216971966617 -0.00060676695874138241 0 0.034753968024274051 -0.00046385759176253955 0 0.034533216971966617 -0.00060676695874138241 0 0.034517102697522971 -0.00085907505194921646 0 0.034753968024274051 -0.00046385759176253955 0 0.03449338257698125 -0.00045222474735494788 0 0.034533216971966617 -0.00060676695874138241 0 0.03433578011432243 -0.00065954958290642685 0 0.034533216971966617 -0.00060676695874138241 0 0.03433578011432243 -0.00065954958290642685 0 0.034517102697522971 -0.00085907505194921646 0 0.03433578011432243 -0.00065954958290642685 0 0.034517102697522971 -0.00085907505194921646 0 0.03424221287737618 -0.00091837251855644419 0 0.031385556867946522 -0.0028734197685246756 0 0.031520361313521726 -0.0029846547775686993 0 0.031343353608374903 -0.003077804952638586 0 0.030716129710935545 -0.0030294704252705005 0 0.031520620844149069 -0.0021637515713614761 0 0.030855544399353941 -0.0032048506658276686 0 0.030795717864599555 -0.0032270487670785046 0 0.032965582517543827 -0.0014741798406974769 0 0.030511093692586692 -0.0030850972667466237 0 0.030716129710935545 -0.0030294704252705005 0 0.030924424954178072 -0.0021219832114347087 0 0.031385556867946522 -0.0028734197685246756 0 0.031520361313521726 -0.0029846547775686993 0 0.031915491404609607 -0.0022856572753135688 0 0.033015739706919546 -0.0018308745159654641 0 0.032965582517543827 -0.0014741798406974769 0 0.029757871849412573 -0.0034441314435881875 0 0.030212522343620745 -0.0035430686635061748 0 0.030511093692586692 -0.0030850972667466237 0 0.030716129710935545 -0.0030294704252705005 0 0.030659199067289894 -0.0031577287873979171 0 0.030716129710935545 -0.0030294704252705005 0 0.030924424954178072 -0.0021219832114347087 0 0.031520620844149069 -0.0021637515713614761 0 0.034627023072814081 -0.00034144348779967216 0 0.03449338257698125 -0.00045222474735494788 0 0.034753968024274051 -0.00046385759176253955 0 0.034627023072814081 -0.00034144348779967216 0 0.034709344593714955 -0.00030165169113730776 0 0.034753968024274051 -0.00046385759176253955 0 0.034787780646192867 0.00013387157981072209 0 0.032965582517543827 -0.0014741798406974769 0 0.033201741857915523 -0.00081873294501244261 0 0.032965582517543827 -0.0014741798406974769 0 0.031085154784739593 -0.0011719958491281375 0 0.029757871849412573 -0.0034441314435881875 0 0.031528241257203535 -0.0014079127166705715 0 0.030924424954178072 -0.0021219832114347087 0 0.031520620844149069 -0.0021637515713614761 0 0.030714325054851117 -0.0019140374946656799 0 0.031792340214149485 -0.0017669743152678163 0 0.030478524863806988 -0.0029847272478492125 0 0.031555750852655676 -0.00085114861886682663 0 0.030941636127575257 -0.00087619573518123053 0 0.031065818775253023 -0.0011745898931999127 0 0.030941636127575257 -0.00087619573518123053 0 0.031065818775253023 -0.0011745898931999127 0 0.03101756523410374 -0.0015691671481996019 0 0.031085154784739593 -0.0011719958491281375 0 0.029151491041002973 -0.0028226979313927683 0 0.030335438355398411 -0.0019690666547849374 0 0.030437055448048769 -0.0026997310569216999 0 0.029398862660230132 -0.0028424197939365026 0 0.030189450021630052 -0.0012134312916183415 0 0.029151491041002973 -0.0028226979313927683 0 0.028710611901200302 -0.0046323155407740598 0 0.029079873870267156 -0.0043743570336040004 0 0.02950468628390401 -0.0045428052413478935 0 0.030714325054851117 -0.0019140374946656799 0 0.030478524863806988 -0.0029847272478492125 0 0.029849720355898314 -0.0035678971607839235 0 0.031082452080975567 -0.0020488589842876503 0 0.030212522343620745 -0.0035430686635061748 0 0.029151491041002973 -0.0028226979313927683 0 0.029757871849412573 -0.0034441314435881875 0 0.029079873870267156 -0.0043743570336040004 0 0.02950468628390401 -0.0045428052413478935 0 0.029390144654487603 -0.0040020565943924835 0 0.029079873870267156 -0.0043743570336040004 0 0.029390144654487603 -0.0040020565943924835 0 0.028764933969991684 -0.0037071681146228349 0 0.02950468628390401 -0.0045428052413478935 0 0.029390144654487603 -0.0040020565943924835 0 0.029856171231598068 -0.0042411845559641613 0 0.028710611901200302 -0.0046323155407740598 0 0.029079873870267156 -0.0043743570336040004 0 0.028764933969991684 -0.0037071681146228349 0 0.029151491041002973 -0.0028226979313927683 0 0.027940072230989731 -0.0033800813792247727 0 0.027399226172354858 -0.003257523118287069 0 0.027390261728136689 -0.0025411586559809349 0 0.02721237678882564 -0.0024919629544681359 0 0.029151491041002973 -0.0028226979313927683 0 0.026810998569629863 -0.0020353432515054716 0 0.028122832141516767 -0.0022106035680437806 0 0.027940072230989731 -0.0033800813792247727 0 0.027427232290838457 -0.0017644496345351078 0 0.027390261728136689 -0.0025411586559809349 0 0.02721237678882564 -0.0024919629544681359 0 0.028802178141265504 -0.0027529448345712249 0 0.028764933969991684 -0.0037071681146228349 0 0.029262654943774766 -0.0034345410518276816 0 0.029390144654487603 -0.0040020565943924835 0 0.028764933969991684 -0.0037071681146228349 0 0.029262654943774766 -0.0034345410518276816 0 0.029390144654487603 -0.0040020565943924835 0 0.029262654943774766 -0.0034345410518276816 0 0.029787260944506844 -0.003604614757455975 0 0.029567035357181973 -0.0030914923900647725 0 0.029262654943774766 -0.0034345410518276816 0 0.029787260944506844 -0.003604614757455975 0 0.029567035357181973 -0.0030914923900647725 0 0.029787260944506844 -0.003604614757455975 0 0.029945482420927635 -0.0032214786350353566 0 0.029787260944506844 -0.003604614757455975 0 0.030407983463047492 -0.0033186635198471223 0 0.029856171231598068 -0.0042411845559641613 0 0.029787260944506844 -0.003604614757455975 0 0.029945482420927635 -0.0032214786350353566 0 0.030407983463047492 -0.0033186635198471223 0 0.030407983463047492 -0.0033186635198471223 0 0.030601884239462487 -0.0034031740254998068 0 0.030588311215266239 -0.0032604459500089936 0 0.031168330252745909 -0.0028169428947408615 0 0.030407983463047492 -0.0033186635198471223 0 0.030601884239462487 -0.0034031740254998068 0 0.033015739706919546 -0.0018308745159654641 0 0.032655614165973172 -0.0022954180153932345 0 0.031520361313521726 -0.0029846547775686993 0 0.031247901954719805 -0.0032097552847590613 0 0.031343353608374903 -0.003077804952638586 0 0.030511093692586692 -0.0030850972667466237 0 0.030601884239462487 -0.0034031740254998068 0 0.030588311215266239 -0.0032604459500089936 0 0.030795717864599555 -0.0032270487670785046 0 0.030985218193166304 -0.0032029776811281462 0 0.031385556867946522 -0.0028734197685246756 0 0.031343353608374903 -0.003077804952638586 0 0.031243170788228414 -0.0032018010636939822 0 0.030511093692586692 -0.0030850972667466237 0 0.030588311215266239 -0.0032604459500089936 0 0.030659199067289894 -0.0031577287873979171 0 0.029390144654487603 -0.0040020565943924835 0 0.029787260944506844 -0.003604614757455975 0 0.029856171231598068 -0.0042411845559641613 0 0.030588311215266239 -0.0032604459500089936 0 0.030659199067289894 -0.0031577287873979171 0 0.030855544399353941 -0.0032048506658276686 0 0.030407983463047492 -0.0033186635198471223 0 0.030588311215266239 -0.0032604459500089936 0 0.030855544399353941 -0.0032048506658276686 0 0.030462262517345091 -0.003382956985768357 0 0.030212522343620745 -0.0035430686635061748 0 0.030716129710935545 -0.0030294704252705005 0 0.030659199067289894 -0.0031577287873979171 0 0.030855544399353941 -0.0032048506658276686 0 0.034071218617651847 -0.0013929994785833702 0 0.033200269340684214 -0.0013577540917077109 0 0.033749090626107134 -0.0010183602807431491 0 0.034517102697522971 -0.00085907505194921646 0 0.034071218617651847 -0.0013929994785833702 0 0.03424221287737618 -0.00091837251855644419 0 0.034071218617651847 -0.0013929994785833702 0 0.033749090626107134 -0.0010183602807431491 0 0.034036983954015741 -0.00080270753944945369 0 0.031247901954719805 -0.0032097552847590613 0 0.031343353608374903 -0.003077804952638586 0 0.031243170788228414 -0.0032018010636939822 0 0.031243170788228414 -0.0032018010636939822 0 0.03131523398330624 -0.0031139994934937299 0 0.031624505085441242 -0.0031184071667842319 0 0.031168330252745909 -0.0028169428947408615 0 0.031247901954719805 -0.0032097552847590613 0 0.03131523398330624 -0.0031139994934937299 0 0.031147459967077587 -0.0028582946496029703 0 0.030985218193166304 -0.0032029776811281462 0 0.031247901954719805 -0.0032097552847590613 0 0.031243170788228414 -0.0032018010636939822 0 0.03131523398330624 -0.0031139994934937299 0 0.032655614165973172 -0.0022954180153932345 0 0.032469332579130261 -0.0025406073636620101 0 0.034071218617651847 -0.0013929994785833702 0 0.033310771302153139 -0.002036769830352449 0 0.033200269340684214 -0.0013577540917077109 0 0.03217875634465947 -0.0016784409657763742 0 0.031761047046235794 -0.0010333300851218001 0 0.032899575778088372 -0.0010347979528121682 0 0.032558101067211687 -0.0023205910783893444 0 0.033037464144095439 -0.0012226793998564578 0 0.032504539331567703 -0.0023527314755643894 0 0.033310771302153139 -0.002036769830352449 0 0.033200269340684214 -0.0013577540917077109 0 0.032504539331567703 -0.0023527314755643894 0 0.03217875634465947 -0.0016784409657763742 0 0.032899575778088372 -0.0010347979528121682 0 0.031477732114207971 -0.0022609325938026913 0 0.03217875634465947 -0.0016784409657763742 0 0.031761047046235794 -0.0010333300851218001 0 0.031761047046235794 -0.0010333300851218001 0 0.032899575778088372 -0.0010347979528121682 0 0.031940763856367203 -4.7698719576560152e-05 0 0.031761047046235794 -0.0010333300851218001 0 0.031940763856367203 -4.7698719576560152e-05 0 0.029576191069047637 -0.00046184825280741248 0 0.031940763856367203 -4.7698719576560152e-05 0 0.03319047192594779 0.00022809716902749536 0 0.032600863603466423 0.0002971873795838802 0 0.032899575778088372 -0.0010347979528121682 0 0.031940763856367203 -4.7698719576560152e-05 0 0.033359605686357457 -3.3201278072274695e-05 0 0.031940763856367203 -4.7698719576560152e-05 0 0.033359605686357457 -3.3201278072274695e-05 0 0.03319047192594779 0.00022809716902749536 0 0.033723142962876741 -0.00059032810174436282 0 0.034250879827601236 -0.00038086583313938878 0 0.034151764054373895 -0.00013575022233731354 0 0.033200269340684214 -0.0013577540917077109 0 0.033723142962876741 -0.00059032810174436282 0 0.033749090626107134 -0.0010183602807431491 0 0.033037464144095439 -0.0012226793998564578 0 0.033545021645993288 -0.00031807889823314651 0 0.033723142962876741 -0.00059032810174436282 0 0.033749090626107134 -0.0010183602807431491 0 0.034036983954015741 -0.00080270753944945369 0 0.034071218617651847 -0.0013929994785833702 0 0.03424221287737618 -0.00091837251855644419 0 0.034036983954015741 -0.00080270753944945369 0 0.03433578011432243 -0.00065954958290642685 0 0.03424221287737618 -0.00091837251855644419 0 0.034036983954015741 -0.00080270753944945369 0 0.03433578011432243 -0.00065954958290642685 0 0.034036983954015741 -0.00080270753944945369 0 0.034250879827601236 -0.00038086583313938878 0 0.033723142962876741 -0.00059032810174436282 0 0.034036983954015741 -0.00080270753944945369 0 0.034250879827601236 -0.00038086583313938878 0 0.034998104527648378 3.6797081685744147e-07 0 0.034091506141777243 0.00026603744281825922 0 0.034997056013654916 4.9146190999899868e-07 0 0.034250879827601236 -0.00038086583313938878 0 0.034151764054373895 -0.00013575022233731354 0 0.034465958885140403 -7.1063722170830495e-05 0 0.03451769398671474 -0.00023141869017705033 0 0.034250879827601236 -0.00038086583313938878 0 0.034465958885140403 -7.1063722170830495e-05 0 0.033359605686357457 -3.3201278072274695e-05 0 0.033882130833522567 0.00025375258887969267 0 0.03319047192594779 0.00022809716902749536 0 0.033545021645993288 -0.00031807889823314651 0 0.034038512112573562 6.1467570574231836e-05 0 0.033882130833522567 0.00025375258887969267 0 0.034558494312660289 0.00010968727449942748 0 0.034091506141777243 0.00026603744281825922 0 0.034038512112573562 6.1467570574231836e-05 0 0.034479425427594988 0.00013804927456098721 0 0.034151764054373895 -0.00013575022233731354 0 0.034465958885140403 -7.1063722170830495e-05 0 0.034558494312660289 0.00010968727449942748 0 0.034657354213024745 7.9525278937906988e-05 0 0.034465958885140403 -7.1063722170830495e-05 0 0.034558494312660289 0.00010968727449942748 0 0.034558494312660289 0.00010968727449942748 0 0.034998104527648378 3.6797081685744147e-07 0 0.034091506141777243 0.00026603744281825922 0 0.034657354213024745 7.9525278937906988e-05 0 0.034558494312660289 0.00010968727449942748 0 0.034998104527648378 3.6797081685744147e-07 0 0.034091506141777243 0.00026603744281825922 0 0.032600863603466423 0.0002971873795838802 0 0.034997056013654916 4.9146190999899868e-07 0 0.034091506141777243 0.00026603744281825922 0 0.03319047192594779 0.00022809716902749536 0 0.032600863603466423 0.0002971873795838802 0 0.033882130833522567 0.00025375258887969267 0 0.034091506141777243 0.00026603744281825922 0 0.03319047192594779 0.00022809716902749536 0 0.032600863603466423 0.0002971873795838802 0 0.034997056013654916 4.9146190999899868e-07 0 0.032341932470515491 0.00020789041925154458 0 0.032600863603466423 0.0002971873795838802 0 0.032341932470515491 0.00020789041925154458 0 0.030449364947154701 9.5765363141493793e-06 0 0.034998279525705313 3.9786026738268864e-07 0 0.032341932470515491 0.00020789041925154458 0 0.028274896705439923 -1.0227404797538682e-08 0 0.034997056013654916 4.9146190999899868e-07 0 0.034998279525705313 3.9786026738268864e-07 0 0.032341932470515491 0.00020789041925154458 0 0.032341932470515491 0.00020789041925154458 0 0.030449364947154701 9.5765363141493793e-06 0 0.028274896705439923 -1.0227404797538682e-08 0 0.031940763856367203 -4.7698719576560152e-05 0 0.032600863603466423 0.0002971873795838802 0 0.030449364947154701 9.5765363141493793e-06 0 0.031940763856367203 -4.7698719576560152e-05 0 0.030449364947154701 9.5765363141493793e-06 0 0.029576191069047637 -0.00046184825280741248 0 0.030449364947154701 9.5765363141493793e-06 0 0.029576191069047637 -0.00046184825280741248 0 0.027610042824300875 -0.00018072592632031029 0 0.029656690196957033 -0.001110654735998874 0 0.029495622045245928 -0.00048091782920629974 0 0.027808866591557378 -0.00016475063724117613 0 0.027849379795075846 -0.00015593265176665089 0 0.029576191069047637 -0.00046184825280741248 0 0.031477732114207971 -0.0022609325938026913 0 0.031761047046235794 -0.0010333300851218001 0 0.029576191069047637 -0.00046184825280741248 0 0.027808866591557378 -0.00016475063724117613 0 0.029576191069047637 -0.00046184825280741248 0 0.027610042824300875 -0.00018072592632031029 0 0.030449364947154701 9.5765363141493793e-06 0 0.028274896705439923 -1.0227404797538682e-08 0 0.027610042824300875 -0.00018072592632031029 0 0.021005300494073603 0.0021041764261871534 0 0.020498108486398051 0.0021496033310015538 0 0.020918263817985377 0.0027079734398566813 0 0.021005300494073603 0.0021041764261871534 0 0.021264846357123435 0.0018954621187625617 0 0.021504972399832168 0.0022129070046087882 0 0.021005300494073603 0.0021041764261871534 0 0.021320728995231041 0.00255961272212114 0 0.021504972399832168 0.0022129070046087882 0 0.021005300494073603 0.0021041764261871534 0 0.021264846357123435 0.0018954621187625617 0 0.020978776142085646 0.0015301090245093544 0 0.021264846357123435 0.0018954621187625617 0 0.020978776142085646 0.0015301090245093544 0 0.021647998704086676 0.001756588207947886 0 0.021005300494073603 0.0021041764261871534 0 0.020978776142085646 0.0015301090245093544 0 0.020588880027939693 0.0016167752461023869 0 0.021005300494073603 0.0021041764261871534 0 0.020588880027939693 0.0016167752461023869 0 0.020498108486398051 0.0021496033310015538 0 0.020588880027939693 0.0016167752461023869 0 0.020165770531872351 0.0016898834831868641 0 0.020498108486398051 0.0021496033310015538 0 0.020165770531872351 0.0016898834831868641 0 0.01988590239368998 0.00209986146433188 0 0.020498108486398051 0.0021496033310015538 0 0.020165770531872351 0.0016898834831868641 0 0.01988590239368998 0.00209986146433188 0 0.019765444495400058 0.00139448864000554 0 0.019940748613133365 0.0019360889620396999 0 0.019355657924842843 0.001602713556834725 0 0.01988590239368998 0.00209986146433188 0 0.019729066859063924 0.0011841036917689942 0 0.019301788649869894 0.0022583810712026248 0 0.01988590239368998 0.00209986146433188 0 0.020078634182746673 0.0026902078478122874 0 0.019301788649869894 0.0022583810712026248 0 0.01988590239368998 0.00209986146433188 0 0.020498108486398051 0.0021496033310015538 0 0.02040741450361103 0.002586780831445585 0 0.020130764394836326 0.0027272933935988193 0 0.020736265467109376 0.003118262075347291 0 0.02040741450361103 0.002586780831445585 0 0.020078634182746673 0.0026902078478122874 0 0.020559270543836848 0.0029985884495846711 0 0.01988590239368998 0.00209986146433188 0 0.02040741450361103 0.002586780831445585 0 0.020078634182746673 0.0026902078478122874 0 0.020078634182746673 0.0026902078478122874 0 0.019378858817424158 0.0026857474712957863 0 0.019640220877142033 0.0030931881857208985 0 0.020078634182746673 0.0026902078478122874 0 0.020313062414992016 0.0032721541013393 0 0.019640220877142033 0.0030931881857208985 0 0.020313062414992016 0.0032721541013393 0 0.019640220877142033 0.0030931881857208985 0 0.019703241887207595 0.0037497752662659241 0 0.020313062414992016 0.0032721541013393 0 0.020974671052676537 0.0032719462550076846 0 0.020889557516250115 0.0036779864341421535 0 0.020078634182746673 0.0026902078478122874 0 0.020313062414992016 0.0032721541013393 0 0.020974671052676537 0.0032719462550076846 0 0.020736265467109376 0.003118262075347291 0 0.021108147064083895 0.0033737068097569353 0 0.020559270543836848 0.0029985884495846711 0 0.020918263817985377 0.0027079734398566813 0 0.021158245253571156 0.0033845109866819205 0 0.02040741450361103 0.002586780831445585 0 0.020559270543836848 0.0029985884495846711 0 0.020918263817985377 0.0027079734398566813 0 0.020498108486398051 0.0021496033310015538 0 0.02040741450361103 0.002586780831445585 0 0.020918263817985377 0.0027079734398566813 0 0.021005300494073603 0.0021041764261871534 0 0.020918263817985377 0.0027079734398566813 0 0.021320728995231041 0.00255961272212114 0 0.020918263817985377 0.0027079734398566813 0 0.021320728995231041 0.00255961272212114 0 0.021501183556255025 0.0029596593915546449 0 0.020918263817985377 0.0027079734398566813 0 0.021501183556255025 0.0029596593915546449 0 0.021158245253571156 0.0033845109866819205 0 0.021501183556255025 0.0029596593915546449 0 0.021158245253571156 0.0033845109866819205 0 0.021836581816297936 0.0033405148509684083 0 0.021501183556255025 0.0029596593915546449 0 0.022037560296029542 0.0029723498625219918 0 0.021836581816297936 0.0033405148509684083 0 0.022037560296029542 0.0029723498625219918 0 0.022300809175054746 0.0031754488459224137 0 0.021836581816297936 0.0033405148509684083 0 0.022037560296029542 0.0029723498625219918 0 0.022300809175054746 0.0031754488459224137 0 0.022550810624628839 0.0027708071354426702 0 0.023119662443169306 0.0019231205515206952 0 0.022673273993696487 0.0033245235543831048 0 0.022300809175054746 0.0031754488459224137 0 0.022550810624628839 0.0027708071354426702 0 0.022648985206103287 0.00339843967831028 0 0.021847566795923427 0.0026206058196909742 0 0.022550810624628839 0.0027708071354426702 0 0.022077303373240122 0.0022547542112315907 0 0.022037560296029542 0.0029723498625219918 0 0.021847566795923427 0.0026206058196909742 0 0.022550810624628839 0.0027708071354426702 0 0.021320728995231041 0.00255961272212114 0 0.021847566795923427 0.0026206058196909742 0 0.021504972399832168 0.0022129070046087882 0 0.021320728995231041 0.00255961272212114 0 0.021501183556255025 0.0029596593915546449 0 0.021847566795923427 0.0026206058196909742 0 0.021501183556255025 0.0029596593915546449 0 0.022037560296029542 0.0029723498625219918 0 0.021847566795923427 0.0026206058196909742 0 0.025952353221575658 -2.5829920663887371e-05 0 0.026689534564462401 -0.00018277589953064765 0 0.026059777023338435 -0.00024106143053611125 0 0.025952353221575658 -2.5829920663887371e-05 0 0.026247460759748788 0.00047626752976706534 0 0.026689534564462401 -0.00018277589953064765 0 0.025348915668912196 0.0018862493474456389 0 0.024363700721701551 0.0018012842064585087 0 0.024779150593443881 0.00066588461485787983 0 0.0236780188360175 0.0026021868337539069 0 0.023676766965155745 0.00094497279251741192 0 0.022648985206103287 0.00339843967831028 0 0.024363700721701551 0.0018012842064585087 0 0.0236780188360175 0.0026021868337539069 0 0.023676766965155745 0.00094497279251741192 0 0.024363700721701551 0.0018012842064585087 0 0.0236780188360175 0.0026021868337539069 0 0.024299159559443669 0.0030419790174506162 0 0.025348915668912196 0.0018862493474456389 0 0.024363700721701551 0.0018012842064585087 0 0.024299159559443669 0.0030419790174506162 0 0.023676766965155745 0.00094497279251741192 0 0.024779150593443881 0.00066588461485787983 0 0.024639691414895196 -0.00061140436233099232 0 0.023119662443169306 0.0019231205515206952 0 0.023667372109982071 0.00081470977826913755 0 0.024363700721701551 0.0018012842064585087 0 0.023676766965155745 0.00094497279251741192 0 0.024779150593443881 0.00066588461485787983 0 0.025952353221575658 -2.5829920663887371e-05 0 0.025492447733533201 -0.00029405585663884584 0 0.026059777023338435 -0.00024106143053611125 0 0.025348915668912196 0.0018862493474456389 0 0.024779150593443881 0.00066588461485787983 0 0.025492447733533201 -0.00029405585663884584 0 0.025529523337798354 0.0011514418085076369 0 0.025581728830221508 -0.00033439662434975347 0 0.025492447733533201 -0.00029405585663884584 0 0.024639691414895196 -0.00061140436233099232 0 0.025077970861909299 -0.00061606200273924873 0 0.024779150593443881 0.00066588461485787983 0 0.025492447733533201 -0.00029405585663884584 0 0.024639691414895196 -0.00061140436233099232 0 0.025492447733533201 -0.00029405585663884584 0 0.025077970861909299 -0.00061606200273924873 0 0.025465647939012844 -0.00047112566689636129 0 0.022550810624628839 0.0027708071354426702 0 0.022726227600210737 0.0021738796900806082 0 0.022077303373240122 0.0022547542112315907 0 0.022726227600210737 0.0021738796900806082 0 0.022212094882736587 0.0018815392586131953 0 0.023112881027084704 0.0014935719863081634 0 0.023667372109982071 0.00081470977826913755 0 0.023929890644587174 0.0004026236979868896 0 0.024851451252373161 -0.00059469399248701985 0 0.025077970861909299 -0.00061606200273924873 0 0.024813463361751508 -0.00059388633580264335 0 0.024639691414895196 -0.00061140436233099232 0 0.025077970861909299 -0.00061606200273924873 0 0.024813463361751508 -0.00059388633580264335 0 0.024851451252373161 -0.00059469399248701985 0 0.025077970861909299 -0.00061606200273924873 0 0.025185215649129566 -0.0005714844986969297 0 0.021847566795923427 0.0026206058196909742 0 0.021504972399832168 0.0022129070046087882 0 0.022077303373240122 0.0022547542112315907 0 0.021504972399832168 0.0022129070046087882 0 0.022077303373240122 0.0022547542112315907 0 0.021647998704086676 0.001756588207947886 0 0.022726227600210737 0.0021738796900806082 0 0.022077303373240122 0.0022547542112315907 0 0.022212094882736587 0.0018815392586131953 0 0.022077303373240122 0.0022547542112315907 0 0.022212094882736587 0.0018815392586131953 0 0.021647998704086676 0.001756588207947886 0 0.022212094882736587 0.0018815392586131953 0 0.021647998704086676 0.001756588207947886 0 0.021850112655368074 0.0013341666140267436 0 0.022212094882736587 0.0018815392586131953 0 0.021850112655368074 0.0013341666140267436 0 0.023112881027084704 0.0014935719863081634 0 0.021264846357123435 0.0018954621187625617 0 0.021504972399832168 0.0022129070046087882 0 0.021647998704086676 0.001756588207947886 0 0.021647998704086676 0.001756588207947886 0 0.021850112655368074 0.0013341666140267436 0 0.021206482692951077 0.0012103317019254585 0 0.021850112655368074 0.0013341666140267436 0 0.021363248814558634 0.00092812958077266984 0 0.021206482692951077 0.0012103317019254585 0 0.021850112655368074 0.0013341666140267436 0 0.021736400547343639 0.00078953133362147615 0 0.022501833752848831 0.00071271480049670357 0 0.021736400547343639 0.00078953133362147615 0 0.022501833752848831 0.00071271480049670357 0 0.021871312907764007 0.00026440786730493081 0 0.021850112655368074 0.0013341666140267436 0 0.021736400547343639 0.00078953133362147615 0 0.021363248814558634 0.00092812958077266984 0 0.021736400547343639 0.00078953133362147615 0 0.021363248814558634 0.00092812958077266984 0 0.021167028036044509 0.00062143213486324546 0 0.021736400547343639 0.00078953133362147615 0 0.021167028036044509 0.00062143213486324546 0 0.021871312907764007 0.00026440786730493081 0 0.021363248814558634 0.00092812958077266984 0 0.021167028036044509 0.00062143213486324546 0 0.020990740068544289 0.00079737491972060653 0 0.023929890644587174 0.0004026236979868896 0 0.023907062434758951 4.74959898540754e-05 0 0.024813463361751508 -0.00059388633580264335 0 0.023845360624102512 7.6547015265124448e-05 0 0.024459921696498632 -0.00042095466638034497 0 0.024851451252373161 -0.00059469399248701985 0 0.024813463361751508 -0.00059388633580264335 0 0.024459921696498632 -0.00042095466638034497 0 0.021850112655368074 0.0013341666140267436 0 0.023112881027084704 0.0014935719863081634 0 0.022501833752848831 0.00071271480049670357 0 0.022501833752848831 0.00071271480049670357 0 0.023845360624102512 7.6547015265124448e-05 0 0.023079585224988111 -0.00026542443814253115 0 0.023112881027084704 0.0014935719863081634 0 0.022501833752848831 0.00071271480049670357 0 0.023845360624102512 7.6547015265124448e-05 0 0.023845360624102512 7.6547015265124448e-05 0 0.023597259602752167 -0.00038300548938880342 0 0.02390240230893282 -0.0003590682199988074 0 0.023845360624102512 7.6547015265124448e-05 0 0.023079585224988111 -0.00026542443814253115 0 0.023597259602752167 -0.00038300548938880342 0 0.023079585224988111 -0.00026542443814253115 0 0.021871312907764007 0.00026440786730493081 0 0.02274049240732328 -0.0006142301217483846 0 0.022501833752848831 0.00071271480049670357 0 0.023079585224988111 -0.00026542443814253115 0 0.021871312907764007 0.00026440786730493081 0 0.023079585224988111 -0.00026542443814253115 0 0.023053665829427542 -0.00056781836673294251 0 0.02274049240732328 -0.0006142301217483846 0 0.023079585224988111 -0.00026542443814253115 0 0.023053665829427542 -0.00056781836673294251 0 0.023597259602752167 -0.00038300548938880342 0 0.023388997867244066 -0.00044430147712411591 0 0.023053665829427542 -0.00056781836673294251 0 0.023597259602752167 -0.00038300548938880342 0 0.021167028036044509 0.00062143213486324546 0 0.021246244739544035 0.00018557684482841801 0 0.02070926401039392 0.00030555090097216013 0 0.021167028036044509 0.00062143213486324546 0 0.021871312907764007 0.00026440786730493081 0 0.021246244739544035 0.00018557684482841801 0 0.020895574843491947 -6.1340096900944292e-05 0 0.021193125884449958 8.9549101381622721e-05 0 0.021246244739544035 0.00018557684482841801 0 0.021855173749919424 0.00029286616339763296 0 0.021960619142038302 -0.00017008318295179176 0 0.021871312907764007 0.00026440786730493081 0 0.021193125884449958 8.9549101381622721e-05 0 0.021246244739544035 0.00018557684482841801 0 0.020504965225521376 -7.5975228690361738e-06 0 0.020895574843491947 -6.1340096900944292e-05 0 0.021246244739544035 0.00018557684482841801 0 0.020504965225521376 -7.5975228690361738e-06 0 0.021246244739544035 0.00018557684482841801 0 0.02070926401039392 0.00030555090097216013 0 0.020504965225521376 -7.5975228690361738e-06 0 0.02070926401039392 0.00030555090097216013 0 0.020198239571496916 0.00019899226576761169 0 0.019692399353711355 1.7042219433611198e-05 0 0.020198239571496916 0.00019899226576761169 0 0.019881454694475467 0.00052685907569864339 0 0.02070926401039392 0.00030555090097216013 0 0.020198239571496916 0.00019899226576761169 0 0.019881454694475467 0.00052685907569864339 0 0.018771712617675129 0.00017356437351022258 0 0.019692399353711355 1.7042219433611198e-05 0 0.019881454694475467 0.00052685907569864339 0 0.02016224706939056 -0.00068998412104420801 0 0.020868706684038302 0.00012166541036145794 0 0.020139161944094826 0.00017256457461374769 0 0.019419640736214074 -0.00026864358939899787 0 0.020364512549152253 0.00028336693544801658 0 0.02054035249656995 0.00042815590299331857 0 0.020939005182033003 0.00035062748132348086 0 0.020378279409917217 0.00086563491957691321 0 0.020868706684038302 0.00012166541036145794 0 0.020139161944094826 0.00017256457461374769 0 0.02054035249656995 0.00042815590299331857 0 0.020139161944094826 0.00017256457461374769 0 0.02054035249656995 0.00042815590299331857 0 0.020378279409917217 0.00086563491957691321 0 0.020909008089588798 0.00039774130196446251 0 0.020497780592434452 0.00076751777389709962 0 0.021167028036044509 0.00062143213486324546 0 0.020939005182033003 0.00035062748132348086 0 0.020990740068544289 0.00079737491972060653 0 0.020939005182033003 0.00035062748132348086 0 0.020990740068544289 0.00079737491972060653 0 0.020614699697040013 0.00069190251790039032 0 0.021167028036044509 0.00062143213486324546 0 0.02070926401039392 0.00030555090097216013 0 0.019881454694475467 0.00052685907569864339 0 0.021167028036044509 0.00062143213486324546 0 0.020868706684038302 0.00012166541036145794 0 0.020939005182033003 0.00035062748132348086 0 0.021045020673225646 0.00060280529287914182 0 0.020364512549152253 0.00028336693544801658 0 0.020868706684038302 0.00012166541036145794 0 0.02054035249656995 0.00042815590299331857 0 0.020939005182033003 0.00035062748132348086 0 0.020990740068544289 0.00079737491972060653 0 0.020703365250334435 0.0011232539259059362 0 0.021206482692951077 0.0012103317019254585 0 0.021363248814558634 0.00092812958077266984 0 0.020990740068544289 0.00079737491972060653 0 0.021206482692951077 0.0012103317019254585 0 0.020614699697040013 0.00069190251790039032 0 0.020703365250334435 0.0011232539259059362 0 0.020213703121799032 0.0010345415718593367 0 0.020990740068544289 0.00079737491972060653 0 0.020614699697040013 0.00069190251790039032 0 0.020703365250334435 0.0011232539259059362 0 0.020588880027939693 0.0016167752461023869 0 0.020703365250334435 0.0011232539259059362 0 0.020213703121799032 0.0010345415718593367 0 0.020978776142085646 0.0015301090245093544 0 0.020588880027939693 0.0016167752461023869 0 0.020703365250334435 0.0011232539259059362 0 0.020978776142085646 0.0015301090245093544 0 0.021647998704086676 0.001756588207947886 0 0.021206482692951077 0.0012103317019254585 0 0.020978776142085646 0.0015301090245093544 0 0.020703365250334435 0.0011232539259059362 0 0.021206482692951077 0.0012103317019254585 0 0.020165770531872351 0.0016898834831868641 0 0.019765444495400058 0.00139448864000554 0 0.020213703121799032 0.0010345415718593367 0 0.019355657924842843 0.001602713556834725 0 0.018893484451873957 0.0012527288715581391 0 0.019355657924842843 0.001602713556834725 0 0.019955481037598387 0.001218679708550834 0 0.01902040056741983 0.0019162808123643822 0 0.019696304755941942 0.0013974962231405904 0 0.018899524997693502 0.0010725581468152526 0 0.020588880027939693 0.0016167752461023869 0 0.020165770531872351 0.0016898834831868641 0 0.020213703121799032 0.0010345415718593367 0 0.020378279409917217 0.00086563491957691321 0 0.019696304755941942 0.0013974962231405904 0 0.019541107181174695 0.00065490396884736266 0 0.020497780592434452 0.00076751777389709962 0 0.019955481037598387 0.001218679708550834 0 0.019696304755941942 0.0013974962231405904 0 0.018899524997693502 0.0010725581468152526 0 0.019541107181174695 0.00065490396884736266 0 0.019541107181174695 0.00065490396884736266 0 0.019397360263347072 -0.00031979351223550192 0 0.018766137767513492 0.00021080297828019896 0 0.018899524997693502 0.0010725581468152526 0 0.019541107181174695 0.00065490396884736266 0 0.018766137767513492 0.00021080297828019896 0 0.018893484451873957 0.0012527288715581391 0 0.018805062251203427 0.00026756557604676388 0 0.020139161944094826 0.00017256457461374769 0 0.020378279409917217 0.00086563491957691321 0 0.019541107181174695 0.00065490396884736266 0 0.020139161944094826 0.00017256457461374769 0 0.019541107181174695 0.00065490396884736266 0 0.019397360263347072 -0.00031979351223550192 0 0.02016224706939056 -0.00068998412104420801 0 0.020139161944094826 0.00017256457461374769 0 0.019397360263347072 -0.00031979351223550192 0 0.018633746735644014 -0.00069072126654178988 0 0.019397360263347072 -0.00031979351223550192 0 0.018766137767513492 0.00021080297828019896 0 0.018633746735644014 -0.00069072126654178988 0 0.018869463351879754 0.00037594028270828859 0 0.017694638974621927 -0.00053665032872127552 0 0.018661011290449003 -0.00059517308820186991 0 0.018805062251203427 0.00026756557604676388 0 0.018213320456924722 0.0010015882813931704 0 0.018869463351879754 0.00037594028270828859 0 0.017490459401675949 0.00033452869667553367 0 0.018935233975243389 0.0013654108847583441 0 0.018213320456924722 0.0010015882813931704 0 0.018869463351879754 0.00037594028270828859 0 0.018213320456924722 0.0010015882813931704 0 0.017490459401675949 0.00033452869667553367 0 0.016684803217489132 0.0014325434295321317 0 0.017490459401675949 0.00033452869667553367 0 0.017694638974621927 -0.00053665032872127552 0 0.016576169874243714 0.00016281424422807237 0 0.018869463351879754 0.00037594028270828859 0 0.017490459401675949 0.00033452869667553367 0 0.017694638974621927 -0.00053665032872127552 0 0.016468617180596834 -0.00072362018126532134 0 0.017694638974621927 -0.00053665032872127552 0 0.016576169874243714 0.00016281424422807237 0 0.014404394911306628 0.0010817424260728163 0 0.013773340832941522 0.00090126107964023244 0 0.014729686042945502 0.00060000741003492653 0 0.013773340832941522 0.00090126107964023244 0 0.014729686042945502 0.00060000741003492653 0 0.014953247116406635 0.00043845684498932151 0 0.016468617180596834 -0.00072362018126532134 0 0.016576169874243714 0.00016281424422807237 0 0.014953247116406635 0.00043845684498932151 0 0.015111707908316825 0.00013756125668904011 0 0.014928062559356274 0.00041804096714649169 0 0.01596596682690446 0.00071395695483909697 0 0.016684803217489132 0.0014325434295321317 0 0.014940077928791304 0.0005572582494752248 0 0.016576169874243714 0.00016281424422807237 0 0.01596596682690446 0.00071395695483909697 0 0.014953247116406635 0.00043845684498932151 0 0.017560948555034865 0.0015410203733430506 0 0.016399847817678451 0.0011151601294006658 0 0.018362438448320917 0.0016971263487058717 0 0.018179780302860118 0.0015869245762239405 0 0.018188398278714116 0.0016192828651880216 0 0.01596596682690446 0.00071395695483909697 0 0.014953247116406635 0.00043845684498932151 0 0.014940077928791304 0.0005572582494752248 0 0.016576169874243714 0.00016281424422807237 0 0.01596596682690446 0.00071395695483909697 0 0.016684803217489132 0.0014325434295321317 0 0.017490459401675949 0.00033452869667553367 0 0.016576169874243714 0.00016281424422807237 0 0.016684803217489132 0.0014325434295321317 0 0.018362438448320917 0.0016971263487058717 0 0.018255279224603137 0.0017383187647016002 0 0.018371560320818534 0.0017648268845041775 0 0.018362438448320917 0.0016971263487058717 0 0.018371560320818534 0.0017648268845041775 0 0.018413315337156295 0.0017701072530758922 0 0.018362438448320917 0.0016971263487058717 0 0.018255279224603137 0.0017383187647016002 0 0.018188398278714116 0.0016192828651880216 0 0.018423790910299061 0.0018958041474566813 0 0.017604719253072724 0.0014935938587243745 0 0.018516970347497583 0.0019286190207438677 0 0.01839327029226475 0.0019204358701514971 0 0.01823825984548429 0.0013053909937960732 0 0.018423790910299061 0.0018958041474566813 0 0.018326366201320519 0.0020475236876529457 0 0.018255279224603137 0.0017383187647016002 0 0.018310412337174772 0.0018252688170027872 0 0.018371560320818534 0.0017648268845041775 0 0.018516970347497583 0.0019286190207438677 0 0.01839327029226475 0.0019204358701514971 0 0.018538162398879739 0.0025419328457212823 0 0.018367368398710074 0.0018834595903373754 0 0.019817983610298164 0.0026319745678926271 0 0.018516970347497583 0.0019286190207438677 0 0.018783464988539167 0.002558094023836719 0 0.018538162398879739 0.0025419328457212823 0 0.018326366201320519 0.0020475236876529457 0 0.019817983610298164 0.0026319745678926271 0 0.018310412337174772 0.0018252688170027872 0 0.018412663110485686 0.0018115073749943613 0 0.018371560320818534 0.0017648268845041775 0 0.018326366201320519 0.0020475236876529457 0 0.018349905088484775 0.0018245196422330444 0 0.018412663110485686 0.0018115073749943613 0 0.018371560320818534 0.0017648268845041775 0 0.018413315337156295 0.0017701072530758922 0 0.018412663110485686 0.0018115073749943613 0 0.018413315337156295 0.0017701072530758922 0 0.01877175052120035 0.0019330235021464809 0 0.018873313837930884 0.0018768795110163893 0 0.018413315337156295 0.0017701072530758922 0 0.01877175052120035 0.0019330235021464809 0 0.018873313837930884 0.0018768795110163893 0 0.018935233975243389 0.0013654108847583441 0 0.018413315337156295 0.0017701072530758922 0 0.018935233975243389 0.0013654108847583441 0 0.018213320456924722 0.0010015882813931704 0 0.018413315337156295 0.0017701072530758922 0 0.018213320456924722 0.0010015882813931704 0 0.016684803217489132 0.0014325434295321317 0 0.018413315337156295 0.0017701072530758922 0 0.017560948555034865 0.0015410203733430506 0 0.0183175367153517 0.0017724745180554928 0 0.015490257060042685 0.0016420895739512496 0 0.015780753496986044 0.0015254379455698006 0 0.015738619598749115 0.0017859650592715289 0 0.015490257060042685 0.0016420895739512496 0 0.015460466508932241 0.0018322907358944544 0 0.015738619598749115 0.0017859650592715289 0 0.015482535296454521 0.0014570823396729661 0 0.015490257060042685 0.0016420895739512496 0 0.015780753496986044 0.0015254379455698006 0 0.015780753496986044 0.0015254379455698006 0 0.015738619598749115 0.0017859650592715289 0 0.015904634822172178 0.0017372215725969052 0 0.015904634822172178 0.0017372215725969052 0 0.016046757433050274 0.001640125815802618 0 0.016038172998071355 0.0018453243832872814 0 0.015780753496986044 0.0015254379455698006 0 0.015904634822172178 0.0017372215725969052 0 0.016046757433050274 0.001640125815802618 0 0.014402428896960051 0.0010835121950527457 0 0.015288520721140971 0.0010513519335353971 0 0.013117755377731129 0.0012125325981930358 0 0.01339480327096214 0.00073355834705328882 0 0.01266826068040462 0.0003733913947052735 0 0.014795874681818959 0.0010068363407602242 0 0.014729686042945502 0.00060000741003492653 0 0.01488362097983446 0.00061237900913482064 0 0.01504515393095889 0.0007648594493868964 0 0.016399847817678451 0.0011151601294006658 0 0.015131849549172753 0.00072355292610017715 0 0.01516553146843176 0.0010363535685693225 0 0.015114688782375495 0.0011875694420434072 0 0.015131849549172753 0.00072355292610017715 0 0.01516553146843176 0.0010363535685693225 0 0.0152138066262288 0.00099779967740504325 0 0.01516553146843176 0.0010363535685693225 0 0.0152138066262288 0.00099779967740504325 0 0.015302545218215509 0.0012766618023435975 0 0.013485694703312869 0.0010992548606357185 0 0.015288520721140971 0.0010513519335353971 0 0.01488362097983446 0.00061237900913482064 0 0.014953247116406635 0.00043845684498932151 0 0.014940077928791304 0.0005572582494752248 0 0.015164503633154035 0.00095817376926079015 0 0.016399847817678451 0.0011151601294006658 0 0.014729686042945502 0.00060000741003492653 0 0.01488362097983446 0.00061237900913482064 0 0.014953247116406635 0.00043845684498932151 0 0.015288520721140971 0.0010513519335353971 0 0.016772284672411906 0.0018628637416582986 0 0.018156124250979316 0.0011281354274193288 0 0.017706059029446653 0.00090378429433591798 0 0.017645038939789359 0.0017416985938746076 0 0.016399847817678451 0.0011151601294006658 0 0.015288520721140971 0.0010513519335353971 0 0.01516553146843176 0.0010363535685693225 0 0.015295155984235169 0.0012748021111977023 0 0.015114688782375495 0.0011875694420434072 0 0.018156124250979316 0.0011281354274193288 0 0.018197254454927498 0.0012936121287455504 0 0.017645038939789359 0.0017416985938746076 0 0.016399847817678451 0.0011151601294006658 0 0.017604719253072724 0.0014935938587243745 0 0.01836313196605887 0.0019675880743815904 0 0.018197254454927498 0.0012936121287455504 0 0.017645038939789359 0.0017416985938746076 0 0.018367368398710074 0.0018834595903373754 0 0.017604719253072724 0.0014935938587243745 0 0.01836313196605887 0.0019675880743815904 0 0.017580867158344851 0.0025728598656226307 0 0.017645038939789359 0.0017416985938746076 0 0.01836313196605887 0.0019675880743815904 0 0.018525304198362062 0.0026379784332873457 0 0.017580867158344851 0.0025728598656226307 0 0.019817983610298164 0.0026319745678926271 0 0.019562629854799878 0.0022347861908020221 0 0.019562629854799878 0.0022347861908020221 0 0.020125450920165908 0.0013876602873770954 0 0.019562629854799878 0.0022347861908020221 0 0.016772284672411906 0.0018628637416582986 0 0.021850733601372855 0.0015506704930708388 0 0.023002462180131477 0.0016096070119149596 0 0.0224411518043496 0.0011915715520715549 0 0.015904634822172178 0.0017372215725969052 0 0.016038172998071355 0.0018453243832872814 0 0.015883869829498548 0.0018893232714176857 0 0.016046134248913879 0.0020317804988430246 0 0.016038172998071355 0.0018453243832872814 0 0.015883869829498548 0.0018893232714176857 0 0.015738619598749115 0.0017859650592715289 0 0.015904634822172178 0.0017372215725969052 0 0.015883869829498548 0.0018893232714176857 0 0.015738619598749115 0.0017859650592715289 0 0.015782205036281204 0.0018936757999958472 0 0.015883869829498548 0.0018893232714176857 0 0.016046134248913879 0.0020317804988430246 0 0.015883869829498548 0.0018893232714176857 0 0.015806986092316393 0.0019993602328954719 0 0.020125450920165908 0.0013876602873770954 0 0.023112268444718306 0.0017653698779823714 0 0.015782205036281204 0.0018936757999958472 0 0.015883869829498548 0.0018893232714176857 0 0.015806986092316393 0.0019993602328954719 0 0.024219579144046561 0.0017203830696239731 0 0.023108671056280439 0.001668717618688903 0 0.023398740531324926 0.0010152651474205289 0 0.020125450920165908 0.0013876602873770954 0 0.017724255919705126 0.0014484784843949092 0 0.015782205036281204 0.0018936757999958472 0 0.015806986092316393 0.0019993602328954719 0 0.015712418509833598 0.001905562774761248 0 0.020481126460214789 0.00093489833642607643 0 0.019366984533421221 0.00087695296835929809 0 0.019998281099392303 0.0013304155808724519 0 0.022505489723114912 0.0013215774052721262 0 0.020125450920165908 0.0013876602873770954 0 0.015738619598749115 0.0017859650592715289 0 0.015782205036281204 0.0018936757999958472 0 0.015712418509833598 0.001905562774761248 0 0.017723282882017924 0.0013850163767787401 0 0.014842422130171076 0.002028774614322226 0 0.015667351155824846 0.0018584448690644633 0 0.015738619598749115 0.0017859650592715289 0 0.015712418509833598 0.001905562774761248 0 0.024495449614554975 0.00079953801197253042 0 0.023649651716008222 0.00021775430960984055 0 0.023398740531324926 0.0010152651474205289 0 0.024219579144046561 0.0017203830696239731 0 0.024495449614554975 0.00079953801197253042 0 0.023398740531324926 0.0010152651474205289 0 0.023398740531324926 0.0010152651474205289 0 0.022567026026393246 0.00047619182442336605 0 0.0224411518043496 0.0011915715520715549 0 0.023108671056280439 0.001668717618688903 0 0.023398740531324926 0.0010152651474205289 0 0.0224411518043496 0.0011915715520715549 0 0.023649651716008222 0.00021775430960984055 0 0.023398740531324926 0.0010152651474205289 0 0.022567026026393246 0.00047619182442336605 0 0.022567026026393246 0.00047619182442336605 0 0.022006061302351089 2.8854341301204612e-05 0 0.022986136149743767 -0.00018067272841400969 0 0.023649651716008222 0.00021775430960984055 0 0.022567026026393246 0.00047619182442336605 0 0.022986136149743767 -0.00018067272841400969 0 0.023240999894587999 0.0011514025325398219 0 0.022536452185492065 0.0014457062766331916 0 0.023352469637071847 0.0017647737817529752 0 0.023286873767022102 0.00227303089772855 0 0.02315203695438197 0.0020572856565148645 0 0.022567026026393246 0.00047619182442336605 0 0.022006061302351089 2.8854341301204612e-05 0 0.021919426154181007 0.00081049822991385682 0 0.023240999894587999 0.0011514025325398219 0 0.02305273727187223 0.0019462212434147824 0 0.021850733601372855 0.0015506704930708388 0 0.0224411518043496 0.0011915715520715549 0 0.021919426154181007 0.00081049822991385682 0 0.019562629854799878 0.0022347861908020221 0 0.022536452185492065 0.0014457062766331916 0 0.023206485687856635 0.0027896936813386793 0 0.023286873767022102 0.00227303089772855 0 0.023038983498827912 0.0023062577799486859 0 0.022567026026393246 0.00047619182442336605 0 0.0224411518043496 0.0011915715520715549 0 0.021919426154181007 0.00081049822991385682 0 0.023286873767022102 0.00227303089772855 0 0.023038983498827912 0.0023062577799486859 0 0.02315203695438197 0.0020572856565148645 0 0.022440320856085046 0.0027417876555508808 0 0.023206485687856635 0.0027896936813386793 0 0.022749169366230608 0.0023843597728296249 0 0.023206485687856635 0.0027896936813386793 0 0.023038983498827912 0.0023062577799486859 0 0.022749169366230608 0.0023843597728296249 0 0.023038983498827912 0.0023062577799486859 0 0.022749169366230608 0.0023843597728296249 0 0.022795740303479969 0.0020254715058387902 0 0.023038983498827912 0.0023062577799486859 0 0.022795740303479969 0.0020254715058387902 0 0.02315203695438197 0.0020572856565148645 0 0.022795740303479969 0.0020254715058387902 0 0.02315203695438197 0.0020572856565148645 0 0.022988156069050563 0.0016992399668527398 0 0.023403982833222991 0.0017519457073172729 0 0.02315203695438197 0.0020572856565148645 0 0.022988156069050563 0.0016992399668527398 0 0.022795740303479969 0.0020254715058387902 0 0.022988156069050563 0.0016992399668527398 0 0.022607800522749553 0.001686074552355209 0 0.022988156069050563 0.0016992399668527398 0 0.022806347615782319 0.0013036675196223613 0 0.022607800522749553 0.001686074552355209 0 0.022988156069050563 0.0016992399668527398 0 0.023180773542993718 0.0013578848175047975 0 0.022806347615782319 0.0013036675196223613 0 0.023403982833222991 0.0017519457073172729 0 0.022988156069050563 0.0016992399668527398 0 0.023180773542993718 0.0013578848175047975 0 0.023180773542993718 0.0013578848175047975 0 0.022806347615782319 0.0013036675196223613 0 0.023130137421032579 0.0010288569124038873 0 0.023405518996575253 0.00079761541694172854 0 0.023169557100081613 0.00076923764473792937 0 0.023324805636564715 0.00066917696431617753 0 0.022806347615782319 0.0013036675196223613 0 0.023130137421032579 0.0010288569124038873 0 0.022664545654876078 0.00066277206685695178 0 0.023287151812561354 0.0007785272634219907 0 0.023112863217665813 0.00071354977690952657 0 0.023130137421032579 0.0010288569124038873 0 0.023405518996575253 0.00079761541694172854 0 0.022664545654876078 0.00066277206685695178 0 0.023676495380001623 0.00070365151851760788 0 0.024755156898475895 0.00058376635492475787 0 0.023914891194102131 0.00044069139786584894 0 0.024196725186092338 0.00013175877125255761 0 0.023994039767421777 -0.00022249328683039986 0 0.023405518996575253 0.00079761541694172854 0 0.023518865675042445 0.00098934044462842155 0 0.023552847485214704 0.00055709602212198912 0 0.023130137421032579 0.0010288569124038873 0 0.023405518996575253 0.00079761541694172854 0 0.023518865675042445 0.00098934044462842155 0 0.023914891194102131 0.00044069139786584894 0 0.024237465965033591 0.00054289670792104412 0 0.024196725186092338 0.00013175877125255761 0 0.023240999894587999 0.0011514025325398219 0 0.023676495380001623 0.00070365151851760788 0 0.023832815402766969 0.0011152162680273551 0 0.023914891194102131 0.00044069139786584894 0 0.024237465965033591 0.00054289670792104412 0 0.023240999894587999 0.0011514025325398219 0 0.023307074235968075 -0.00018775540799550322 0 0.023403982833222991 0.0017519457073172729 0 0.023180773542993718 0.0013578848175047975 0 0.023518865675042445 0.00098934044462842155 0 0.023180773542993718 0.0013578848175047975 0 0.023130137421032579 0.0010288569124038873 0 0.023518865675042445 0.00098934044462842155 0 0.022006061302351089 2.8854341301204612e-05 0 0.022986136149743767 -0.00018067272841400969 0 0.022635020015261711 -0.00086536340390256923 0 0.022986136149743767 -0.00018067272841400969 0 0.022635020015261711 -0.00086536340390256923 0 0.023630773798596513 -0.00072897360782747461 0 0.024237465965033591 0.00054289670792104412 0 0.024196725186092338 0.00013175877125255761 0 0.024634477854365622 -2.4429781480177193e-05 0 0.023307074235968075 -0.00018775540799550322 0 0.025236659432983286 -0.00067793244208944222 0 0.022635020015261711 -0.00086536340390256923 0 0.023630773798596513 -0.00072897360782747461 0 0.023265862976516796 -0.0017561475616303917 0 0.024801259269955158 -0.0013553215823460737 0 0.025236659432983286 -0.00067793244208944222 0 0.024642610484199367 -0.0013242673367038996 0 0.023630773798596513 -0.00072897360782747461 0 0.023265862976516796 -0.0017561475616303917 0 0.023649651716008222 0.00021775430960984055 0 0.022986136149743767 -0.00018067272841400969 0 0.023630773798596513 -0.00072897360782747461 0 0.024445945950852623 -0.00028209160852519334 0 0.023649651716008222 0.00021775430960984055 0 0.023630773798596513 -0.00072897360782747461 0 0.018772610310662317 0.0024527302784438138 0 0.01877175052120035 0.0019330235021464809 0 0.018495851752779159 0.0020794426578289627 0 0.018772610310662317 0.0024527302784438138 0 0.018495851752779159 0.0020794426578289627 0 0.018331869660461134 0.0023567551167816936 0 0.018772610310662317 0.0024527302784438138 0 0.019301788649869894 0.0022583810712026248 0 0.019378858817424158 0.0026857474712957863 0 0.018772610310662317 0.0024527302784438138 0 0.019301788649869894 0.0022583810712026248 0 0.01877175052120035 0.0019330235021464809 0 0.019355657924842843 0.001602713556834725 0 0.018784634408155799 0.0018951019521278539 0 0.019729066859063924 0.0011841036917689942 0 0.019301788649869894 0.0022583810712026248 0 0.01877175052120035 0.0019330235021464809 0 0.018412663110485686 0.0018115073749943613 0 0.01877175052120035 0.0019330235021464809 0 0.018495851752779159 0.0020794426578289627 0 0.018143160804953352 0.0017911456925173022 0 0.018412663110485686 0.0018115073749943613 0 0.018233518210686528 0.0020205578103146575 0 0.018412663110485686 0.0018115073749943613 0 0.018233518210686528 0.0020205578103146575 0 0.018495851752779159 0.0020794426578289627 0 0.022440320856085046 0.0027417876555508808 0 0.022749169366230608 0.0023843597728296249 0 0.022301328059878826 0.0020513907861279602 0 0.01798767610432422 0.0018054975774763023 0 0.018194611279983446 0.0020619436383238115 0 0.018037197107596558 0.0021874898024381935 0 0.019817983610298164 0.0026319745678926271 0 0.02019098018925735 0.0020606650862475726 0 0.018100694863974517 0.0018143851397749617 0 0.01798767610432422 0.0018054975774763023 0 0.018194611279983446 0.0020619436383238115 0 0.018326366201320519 0.0020475236876529457 0 0.018205213363394916 0.0020110179465438784 0 0.022301328059878826 0.0020513907861279602 0 0.022607800522749553 0.001686074552355209 0 0.022140520954465902 0.0013352982046783721 0 0.02019098018925735 0.0020606650862475726 0 0.020044182297075001 0.0020921679331258928 0 0.022795740303479969 0.0020254715058387902 0 0.022301328059878826 0.0020513907861279602 0 0.022607800522749553 0.001686074552355209 0 0.022749169366230608 0.0023843597728296249 0 0.022795740303479969 0.0020254715058387902 0 0.022301328059878826 0.0020513907861279602 0 0.018037197107596558 0.0021874898024381935 0 0.018331869660461134 0.0023567551167816936 0 0.018092194543675954 0.0027300267970224376 0 0.018233518210686528 0.0020205578103146575 0 0.018495851752779159 0.0020794426578289627 0 0.018331869660461134 0.0023567551167816936 0 0.018205213363394916 0.0020110179465438784 0 0.01832408469333302 0.0023249319466100613 0 0.018194611279983446 0.0020619436383238115 0 0.018037197107596558 0.0021874898024381935 0 0.018331869660461134 0.0023567551167816936 0 0.018772610310662317 0.0024527302784438138 0 0.018331869660461134 0.0023567551167816936 0 0.018434332675803845 0.0026940291391635268 0 0.018331869660461134 0.0023567551167816936 0 0.018434332675803845 0.0026940291391635268 0 0.018092194543675954 0.0027300267970224376 0 0.018434332675803845 0.0026940291391635268 0 0.018507009193465793 0.003105975134094489 0 0.018676672701699391 0.0028960289283005867 0 0.018434332675803845 0.0026940291391635268 0 0.018092194543675954 0.0027300267970224376 0 0.018507009193465793 0.003105975134094489 0 0.022806347615782319 0.0013036675196223613 0 0.022607800522749553 0.001686074552355209 0 0.022140520954465902 0.0013352982046783721 0 0.022806347615782319 0.0013036675196223613 0 0.022140520954465902 0.0013352982046783721 0 0.022664545654876078 0.00066277206685695178 0 0.023112863217665813 0.00071354977690952657 0 0.021287590145856409 0.0015816321787048247 0 0.022140520954465902 0.0013352982046783721 0 0.022664545654876078 0.00066277206685695178 0 0.021971390527502535 0.00058239288139629681 0 0.021287590145856409 0.0015816321787048247 0 0.02035677094021876 0.0034551301670774823 0 0.018507009193465793 0.003105975134094489 0 0.018221112955324675 0.0033968499459454326 0 0.01886075638618611 0.0035221300209678295 0 0.020044182297075001 0.0020921679331258928 0 0.021287590145856409 0.0015816321787048247 0 0.018092194543675954 0.0027300267970224376 0 0.018507009193465793 0.003105975134094489 0 0.018221112955324675 0.0033968499459454326 0 0.018507009193465793 0.003105975134094489 0 0.018835151043098585 0.0031910706265545334 0 0.01886075638618611 0.0035221300209678295 0 0.018835151043098585 0.0031910706265545334 0 0.019160013772211108 0.0033687864856771221 0 0.01886075638618611 0.0035221300209678295 0 0.019089887655590151 0.0037290944836650113 0 0.02035677094021876 0.0034551301670774823 0 0.018835151043098585 0.0031910706265545334 0 0.019063936851882471 0.0029386704129627152 0 0.019160013772211108 0.0033687864856771221 0 0.018835151043098585 0.0031910706265545334 0 0.018676672701699391 0.0028960289283005867 0 0.019063936851882471 0.0029386704129627152 0 0.018507009193465793 0.003105975134094489 0 0.018835151043098585 0.0031910706265545334 0 0.018676672701699391 0.0028960289283005867 0 0.018772610310662317 0.0024527302784438138 0 0.018676672701699391 0.0028960289283005867 0 0.019063936851882471 0.0029386704129627152 0 0.018772610310662317 0.0024527302784438138 0 0.018434332675803845 0.0026940291391635268 0 0.018676672701699391 0.0028960289283005867 0 0.020078634182746673 0.0026902078478122874 0 0.019301788649869894 0.0022583810712026248 0 0.019378858817424158 0.0026857474712957863 0 0.018772610310662317 0.0024527302784438138 0 0.019063936851882471 0.0029386704129627152 0 0.019378858817424158 0.0026857474712957863 0 0.019063936851882471 0.0029386704129627152 0 0.019378858817424158 0.0026857474712957863 0 0.019640220877142033 0.0030931881857208985 0 0.019160013772211108 0.0033687864856771221 0 0.019703241887207595 0.0037497752662659241 0 0.018785659824764739 0.0036205262864106151 0 0.019640220877142033 0.0030931881857208985 0 0.019160013772211108 0.0033687864856771221 0 0.019703241887207595 0.0037497752662659241 0 0.019063936851882471 0.0029386704129627152 0 0.019640220877142033 0.0030931881857208985 0 0.019160013772211108 0.0033687864856771221 0 0.021884753614282926 0.0040075480068231589 0 0.022329876238180134 0.0037580299844799116 0 0.021806001825101565 0.0034105406688660867 0 0.021884753614282926 0.0040075480068231589 0 0.022329876238180134 0.0037580299844799116 0 0.022721378693828599 0.0041229917992799446 0 0.020889747504861503 0.0038840070321876541 0 0.02035677094021876 0.0034551301670774823 0 0.022385282814766292 0.0030055733847757136 0 0.021926027452213941 0.0028023650841719878 0 0.021806001825101565 0.0034105406688660867 0 0.022329876238180134 0.0037580299844799116 0 0.022422217981194821 0.0034018020496750612 0 0.021806001825101565 0.0034105406688660867 0 0.022422217981194821 0.0034018020496750612 0 0.022385282814766292 0.0030055733847757136 0 0.021806001825101565 0.0034105406688660867 0 0.022817730025024657 0.0031784254364931115 0 0.02275386587129883 0.0036264096755027841 0 0.023378974748863295 0.0036753460634708665 0 0.022422217981194821 0.0034018020496750612 0 0.022817730025024657 0.0031784254364931115 0 0.022385282814766292 0.0030055733847757136 0 0.022422217981194821 0.0034018020496750612 0 0.022817730025024657 0.0031784254364931115 0 0.02275386587129883 0.0036264096755027841 0 0.02275386587129883 0.0036264096755027841 0 0.022721378693828599 0.0041229917992799446 0 0.023378974748863295 0.0036753460634708665 0 0.022329876238180134 0.0037580299844799116 0 0.02275386587129883 0.0036264096755027841 0 0.022721378693828599 0.0041229917992799446 0 0.022329876238180134 0.0037580299844799116 0 0.022422217981194821 0.0034018020496750612 0 0.02275386587129883 0.0036264096755027841 0 0.02035677094021876 0.0034551301670774823 0 0.024247901858497182 0.0024559833829582703 0 0.022446692521624727 0.0029209949837268358 0 0.021098987954738441 0.0027604493814932713 0 0.022248558066811492 0.0019956122966581394 0 0.022814005306718916 0.00075130390308841713 0 0.022750873081148044 0.00048403816736158038 0 0.023070779545617627 0.00057432003326236825 0 0.021287590145856409 0.0015816321787048247 0 0.024247901858497182 0.0024559833829582703 0 0.023169557100081613 0.00076923764473792937 0 0.022814005306718916 0.00075130390308841713 0 0.023070779545617627 0.00057432003326236825 0 0.022750873081148044 0.00048403816736158038 0 0.023070779545617627 0.00057432003326236825 0 0.023076725807363904 0.00022410767433522601 0 0.023070779545617627 0.00057432003326236825 0 0.023076725807363904 0.00022410767433522601 0 0.02335374872052811 0.00049960318451018897 0 0.024247901858497182 0.0024559833829582703 0 0.025728473594502133 0.0010548239360728051 0 0.027196560666437237 0.0027126255683683417 0 0.028011132170969386 0.0021805914070343693 0 0.026975657230598159 0.0015688861078516124 0 0.022817730025024657 0.0031784254364931115 0 0.023378974748863295 0.0036753460634708665 0 0.02319451162522343 0.0027900879147238133 0 0.024247901858497182 0.0024559833829582703 0 0.024921784677631516 0.0022637320887977722 0 0.028011132170969386 0.0021805914070343693 0 0.026975657230598159 0.0015688861078516124 0 0.0280544464148317 0.0013544396897521547 0 0.026975657230598159 0.0015688861078516124 0 0.0280544464148317 0.0013544396897521547 0 0.027847326117566424 0.000567877446165397 0 0.031928979940261143 8.2104194209877291e-05 0 0.027473458733829403 0.001377384324927044 0 0.026975657230598159 0.0015688861078516124 0 0.027847326117566424 0.000567877446165397 0 0.026752926413359884 0.00043803433143553225 0 0.024921784677631516 0.0022637320887977722 0 0.027473458733829403 0.001377384324927044 0 0.02319451162522343 0.0027900879147238133 0 0.022776337193218654 0.0022949599094657393 0 0.023064762144859276 0.0019652801016792508 0 0.022776337193218654 0.0022949599094657393 0 0.022711810408322833 0.0019064645581679067 0 0.023064762144859276 0.0019652801016792508 0 0.022290826672625642 0.0022393052909103705 0 0.022254960184580477 0.0018125206999776212 0 0.021721029172222583 0.0020526740877302185 0 0.022776337193218654 0.0022949599094657393 0 0.022290826672625642 0.0022393052909103705 0 0.022711810408322833 0.0019064645581679067 0 0.022290826672625642 0.0022393052909103705 0 0.022254960184580477 0.0018125206999776212 0 0.022711810408322833 0.0019064645581679067 0 0.022776337193218654 0.0022949599094657393 0 0.022290826672625642 0.0022393052909103705 0 0.022604804028345804 0.002598923472320483 0 0.022290826672625642 0.0022393052909103705 0 0.022604804028345804 0.002598923472320483 0 0.021926027452213941 0.0028023650841719878 0 0.022385282814766292 0.0030055733847757136 0 0.022604804028345804 0.002598923472320483 0 0.021926027452213941 0.0028023650841719878 0 0.02319451162522343 0.0027900879147238133 0 0.022776337193218654 0.0022949599094657393 0 0.022604804028345804 0.002598923472320483 0 0.022817730025024657 0.0031784254364931115 0 0.022385282814766292 0.0030055733847757136 0 0.022604804028345804 0.002598923472320483 0 0.022817730025024657 0.0031784254364931115 0 0.02319451162522343 0.0027900879147238133 0 0.022604804028345804 0.002598923472320483 0 0.025527635568322507 -0.0010827192246454995 0 0.025281874829928545 -0.001884297274185112 0 0.024874471590913449 -0.0012968738644703536 0 0.028461049825972362 -0.00022282531123639764 0 0.027570682996279006 2.5094910141929234e-05 0 0.027778104147941417 -0.00057923768081379989 0 0.026633555656456066 -0.0010351742040183441 0 0.025236659432983286 -0.00067793244208944222 0 0.028461049825972362 -0.00022282531123639764 0 0.027737534713041724 0.00076941922487640431 0 0.027570682996279006 2.5094910141929234e-05 0 0.025236659432983286 -0.00067793244208944222 0 0.024755156898475895 0.00058376635492475787 0 0.024196725186092338 0.00013175877125255761 0 0.024634477854365622 -2.4429781480177193e-05 0 0.023994039767421777 -0.00022249328683039986 0 0.027737534713041724 0.00076941922487640431 0 0.027570682996279006 2.5094910141929234e-05 0 0.026885477720011437 0.00049977687090347136 0 0.027570682996279006 2.5094910141929234e-05 0 0.026992926445889166 -0.0003439167277062357 0 0.026885477720011437 0.00049977687090347136 0 0.027570682996279006 2.5094910141929234e-05 0 0.026992926445889166 -0.0003439167277062357 0 0.027778104147941417 -0.00057923768081379989 0 0.023944307323759136 0.00010219985981202459 0 0.023668996934845123 0.00028334463075099835 0 0.023878654088120968 0.00067795255882170528 0 0.025438399613709705 -0.00023892848925902255 0 0.024755156898475895 0.00058376635492475787 0 0.023944307323759136 0.00010219985981202459 0 0.023668996934845123 0.00028334463075099835 0 0.023514953627545274 -0.00012109784964299449 0 0.023405518996575253 0.00079761541694172854 0 0.023552847485214704 0.00055709602212198912 0 0.023324805636564715 0.00066917696431617753 0 0.024755156898475895 0.00058376635492475787 0 0.023071584987745631 0.00041728855093424428 0 0.023668996934845123 0.00028334463075099835 0 0.023878654088120968 0.00067795255882170528 0 0.02335374872052811 0.00049960318451018897 0 0.023552847485214704 0.00055709602212198912 0 0.02335374872052811 0.00049960318451018897 0 0.023324805636564715 0.00066917696431617753 0 0.023169557100081613 0.00076923764473792937 0 0.023070779545617627 0.00057432003326236825 0 0.023324805636564715 0.00066917696431617753 0 0.023070779545617627 0.00057432003326236825 0 0.02335374872052811 0.00049960318451018897 0 0.023324805636564715 0.00066917696431617753 0 0.025728473594502133 0.0010548239360728051 0 0.026079392964241853 0.00084342324269402302 0 0.023076725807363904 0.00022410767433522601 0 0.02335374872052811 0.00049960318451018897 0 0.023514953627545274 -0.00012109784964299449 0 0.023668996934845123 0.00028334463075099835 0 0.02335374872052811 0.00049960318451018897 0 0.023514953627545274 -0.00012109784964299449 0 0.028011132170969386 0.0021805914070343693 0 0.0280544464148317 0.0013544396897521547 0 0.028821122014890493 0.0016445737834286534 0 0.0280544464148317 0.0013544396897521547 0 0.028821122014890493 0.0016445737834286534 0 0.028941491262702911 0.00069345085557400116 0 0.0280544464148317 0.0013544396897521547 0 0.027847326117566424 0.000567877446165397 0 0.028941491262702911 0.00069345085557400116 0 0.031928979940261143 8.2104194209877291e-05 0 0.031606074875245138 0.0002255531835306833 0 0.028941491262702911 0.00069345085557400116 0 0.029644686163531137 0.00099076073775546786 0 0.030043045539185586 0.0008166377662645279 0 0.034248975515318685 -0.00036435902601508448 0 0.033885959166741503 -0.00044429411977195166 0 0.034128875418930574 -0.00016708237089275302 0 0.031606074875245138 0.0002255531835306833 0 0.031298028545601979 -0.00033390710627379688 0 0.028941491262702911 0.00069345085557400116 0 0.029644686163531137 0.00099076073775546786 0 0.029631205574770125 0.0010977738354551782 0 0.027151180368808221 5.5380742049846498e-05 0 0.027029550033450648 -0.00012008348342228306 0 0.028821122014890493 0.0016445737834286534 0 0.028941491262702911 0.00069345085557400116 0 0.029631205574770125 0.0010977738354551782 0 0.025438399613709705 -0.00023892848925902255 0 0.027029550033450648 -0.00012008348342228306 0 0.026079392964241853 0.00084342324269402302 0 0.027029550033450648 -0.00012008348342228306 0 0.023944307323759136 0.00010219985981202459 0 0.023514953627545274 -0.00012109784964299449 0 0.02403842417366104 -0.00046431997759051661 0 0.026992926445889166 -0.0003439167277062357 0 0.027778104147941417 -0.00057923768081379989 0 0.02753970503170567 -0.00097619462739132899 0 0.026992926445889166 -0.0003439167277062357 0 0.027104085185218056 -0.0011876393042445151 0 0.02753970503170567 -0.00097619462739132899 0 0.027029550033450648 -0.00012008348342228306 0 0.031298028545601979 -0.00033390710627379688 0 0.029644686163531137 0.00099076073775546786 0 0.029631810155082917 0.001095283465471843 0 0.030043045539185586 0.0008166377662645279 0 0.027104085185218056 -0.0011876393042445151 0 0.02753970503170567 -0.00097619462739132899 0 0.027488754337090901 -0.0014377924513603822 0 0.02753970503170567 -0.00097619462739132899 0 0.027488754337090901 -0.0014377924513603822 0 0.02833314547988176 -0.001334862742255787 0 0.033885959166741503 -0.00044429411977195166 0 0.033763009527787664 -0.00039890840534906335 0 0.033938313078552843 -0.00019618451769902706 0 0.031298028545601979 -0.00033390710627379688 0 0.034024084618862291 -0.00093860973020253047 0 0.033993015067268643 -0.00055952839104856527 0 0.033763009527787664 -0.00039890840534906335 0 0.033539315504149625 -0.00067880246794980396 0 0.031298028545601979 -0.00033390710627379688 0 0.031016814884678119 -0.001021593480657639 0 0.033763009527787664 -0.00039890840534906335 0 0.033539315504149625 -0.00067880246794980396 0 0.033524300832389824 -0.0003447120361561987 0 0.027778104147941417 -0.00057923768081379989 0 0.02753970503170567 -0.00097619462739132899 0 0.02833314547988176 -0.001334862742255787 0 0.028461049825972362 -0.00022282531123639764 0 0.027778104147941417 -0.00057923768081379989 0 0.02833314547988176 -0.001334862742255787 0 0.033929514606461285 0.00012225650693855345 0 0.033871468075825771 0.0001347217981675318 0 0.033932334314801658 5.9032994892825445e-05 0 0.034573628161608375 0.00017254037870494354 0 0.033929514606461285 0.00012225650693855345 0 0.033871468075825771 0.0001347217981675318 0 0.03342137368918633 0.00017977302489459682 0 0.033871468075825771 0.0001347217981675318 0 0.033620299881697825 8.2967017257329158e-05 0 0.033871468075825771 0.0001347217981675318 0 0.033712385923288665 -8.7732272604780047e-06 0 0.033853605840789586 -2.3697921939363082e-05 0 0.033871468075825771 0.0001347217981675318 0 0.033712385923288665 -8.7732272604780047e-06 0 0.033620299881697825 8.2967017257329158e-05 0 0.033508427259056506 1.6775374772975543e-05 0 0.033712385923288665 -8.7732272604780047e-06 0 0.033620299881697825 8.2967017257329158e-05 0 0.033508427259056506 1.6775374772975543e-05 0 0.033712385923288665 -8.7732272604780047e-06 0 0.033545440054692698 -0.00014019753781870721 0 0.033545440054692698 -0.00014019753781870721 0 0.033524300832389824 -0.0003447120361561987 0 0.033707769020760808 -0.0001394720375139963 0 0.033712385923288665 -8.7732272604780047e-06 0 0.033545440054692698 -0.00014019753781870721 0 0.033707769020760808 -0.0001394720375139963 0 0.033763009527787664 -0.00039890840534906335 0 0.033707769020760808 -0.0001394720375139963 0 0.033821564289523938 -0.00020326419485208131 0 0.033763009527787664 -0.00039890840534906335 0 0.033524300832389824 -0.0003447120361561987 0 0.033707769020760808 -0.0001394720375139963 0 0.033712385923288665 -8.7732272604780047e-06 0 0.033707769020760808 -0.0001394720375139963 0 0.033853605840789586 -2.3697921939363082e-05 0 0.033707769020760808 -0.0001394720375139963 0 0.033821564289523938 -0.00020326419485208131 0 0.033853605840789586 -2.3697921939363082e-05 0 0.033938313078552843 -0.00019618451769902706 0 0.033932334314801658 5.9032994892825445e-05 0 0.033853605840789586 -2.3697921939363082e-05 0 0.033885959166741503 -0.00044429411977195166 0 0.033938313078552843 -0.00019618451769902706 0 0.034128875418930574 -0.00016708237089275302 0 0.033821564289523938 -0.00020326419485208131 0 0.033938313078552843 -0.00019618451769902706 0 0.033853605840789586 -2.3697921939363082e-05 0 0.033763009527787664 -0.00039890840534906335 0 0.033821564289523938 -0.00020326419485208131 0 0.033938313078552843 -0.00019618451769902706 0 0.034453760801758097 5.7248748069208342e-05 0 0.034447410749501355 2.7962994018621982e-05 0 0.033871468075825771 0.0001347217981675318 0 0.033932334314801658 5.9032994892825445e-05 0 0.033853605840789586 -2.3697921939363082e-05 0 0.034956823506534958 -2.3208637954214912e-05 0 0.034954540650738386 -1.0447786938693667e-05 0 0.034957624429185846 -1.0351286347827072e-05 0 0.034954540650738386 -1.0447786938693667e-05 0 0.034946777572099422 -1.9635125016793082e-05 0 0.034927926535335718 -1.2643640431060381e-05 0 0.034447410749501355 2.7962994018621982e-05 0 0.034657403437617404 -1.5994169041266295e-05 0 0.034954540650738386 -1.0447786938693667e-05 0 0.034946777572099422 -1.9635125016793082e-05 0 0.034954465769815368 -1.2808880244878029e-05 0 0.033932334314801658 5.9032994892825445e-05 0 0.034128875418930574 -0.00016708237089275302 0 0.034376580894022929 -3.306530037192974e-06 0 0.033938313078552843 -0.00019618451769902706 0 0.033932334314801658 5.9032994892825445e-05 0 0.034128875418930574 -0.00016708237089275302 0 0.034248975515318685 -0.00036435902601508448 0 0.034128875418930574 -0.00016708237089275302 0 0.034376580894022929 -3.306530037192974e-06 0 0.034707289056041507 -0.00024501346921023472 0 0.034248975515318685 -0.00036435902601508448 0 0.034376580894022929 -3.306530037192974e-06 0 0.034946777572099422 -1.9635125016793082e-05 0 0.034927926535335718 -1.2643640431060381e-05 0 0.034928415693329121 -2.7402513063248014e-05 0 0.034927926535335718 -1.2643640431060381e-05 0 0.034928415693329121 -2.7402513063248014e-05 0 0.034887029743389794 -3.8636135783219149e-05 0 0.034928415693329121 -2.7402513063248014e-05 0 0.034954522596722881 -1.9688777871341225e-05 0 0.03492754397432165 -2.3854925793276553e-05 0 0.034946777572099422 -1.9635125016793082e-05 0 0.034928415693329121 -2.7402513063248014e-05 0 0.034954522596722881 -1.9688777871341225e-05 0 0.034994099493477364 -5.843197085860211e-07 0 0.034999941502687683 -5.6539965660940705e-09 0 0.034999970041681275 2.4277594277416464e-09 0 0.034954522596722881 -1.9688777871341225e-05 0 0.034976093891281368 -9.8456548246064121e-06 0 0.034964810449827417 -1.2505347643224486e-05 0 0.034976093891281368 -9.8456548246064121e-06 0 0.034994099493477364 -5.843197085860211e-07 0 0.034999970041681275 2.4277594277416464e-09 0 0.034954522596722881 -1.9688777871341225e-05 0 0.034976093891281368 -9.8456548246064121e-06 0 0.034967919609967743 -1.1093289556703415e-05 0 0.034976093891281368 -9.8456548246064121e-06 0 0.034994099493477364 -5.843197085860211e-07 0 0.034967919609967743 -1.1093289556703415e-05 0 0.034992721948617411 -6.9297942857103816e-07 0 0.034971998685915627 -1.4594545143491174e-07 0 0.034994099493477364 -5.843197085860211e-07 0 0.034967919609967743 -1.1093289556703415e-05 0 0.034959044772102474 -6.227949158491534e-06 0 0.034994099493477364 -5.843197085860211e-07 0 0.034959044772102474 -6.227949158491534e-06 0 0.03494076372920335 -6.5759890437641372e-07 0 0.034994099493477364 -5.843197085860211e-07 0 0.034999941502687683 -5.6539965660940705e-09 0 0.035000461836369526 8.4664558643872104e-08 0 0.034959044772102474 -6.227949158491534e-06 0 0.034954914706643192 -7.3154604275194152e-06 0 0.034947886032572394 -9.8846290684718822e-07 0 0.034967919609967743 -1.1093289556703415e-05 0 0.034959044772102474 -6.227949158491534e-06 0 0.034954914706643192 -7.3154604275194152e-06 0 0.034967919609967743 -1.1093289556703415e-05 0 0.034954914706643192 -7.3154604275194152e-06 0 0.034956792102900848 -1.4098550629268644e-05 0 0.034956792102900848 -1.4098550629268644e-05 0 0.034954465769815368 -1.2808880244878029e-05 0 0.034952995887155676 -4.1900180137814816e-06 0 0.034954522596722881 -1.9688777871341225e-05 0 0.034967919609967743 -1.1093289556703415e-05 0 0.034956792102900848 -1.4098550629268644e-05 0 0.034946777572099422 -1.9635125016793082e-05 0 0.034954522596722881 -1.9688777871341225e-05 0 0.034956792102900848 -1.4098550629268644e-05 0 0.034954914706643192 -7.3154604275194152e-06 0 0.034956792102900848 -1.4098550629268644e-05 0 0.034952995887155676 -4.1900180137814816e-06 0 0.034946777572099422 -1.9635125016793082e-05 0 0.034956792102900848 -1.4098550629268644e-05 0 0.034954465769815368 -1.2808880244878029e-05 0 0.034954540650738386 -1.0447786938693667e-05 0 0.034956894900474857 -7.4019676487987961e-06 0 0.034957624429185846 -1.0351286347827072e-05 0 0.034954540650738386 -1.0447786938693667e-05 0 0.034954465769815368 -1.2808880244878029e-05 0 0.034956894900474857 -7.4019676487987961e-06 0 0.034956894900474857 -7.4019676487987961e-06 0 0.034952995887155676 -4.1900180137814816e-06 0 0.034953637825965812 4.4790224599060568e-06 0 0.034954465769815368 -1.2808880244878029e-05 0 0.034956894900474857 -7.4019676487987961e-06 0 0.034952995887155676 -4.1900180137814816e-06 0 0.034954914706643192 -7.3154604275194152e-06 0 0.034952995887155676 -4.1900180137814816e-06 0 0.034947886032572394 -9.8846290684718822e-07 0 0.034999941502687683 -5.6539965660940705e-09 0 0.035000030851146814 2.9592205059310266e-09 0 0.035000461836369526 8.4664558643872104e-08 0 0.034959044772102474 -6.227949158491534e-06 0 0.034947886032572394 -9.8846290684718822e-07 0 0.03494076372920335 -6.5759890437641372e-07 0 0.034947886032572394 -9.8846290684718822e-07 0 0.034952095449357408 8.3177558086984947e-06 0 0.034956289465580118 4.0720479969107749e-06 0 0.034947886032572394 -9.8846290684718822e-07 0 0.03494076372920335 -6.5759890437641372e-07 0 0.034956289465580118 4.0720479969107749e-06 0 0.034952995887155676 -4.1900180137814816e-06 0 0.034952095449357408 8.3177558086984947e-06 0 0.034953637825965812 4.4790224599060568e-06 0 0.034952995887155676 -4.1900180137814816e-06 0 0.034947886032572394 -9.8846290684718822e-07 0 0.034952095449357408 8.3177558086984947e-06 0 0.03499979796297311 2.5697648141433349e-08 0 0.034952095449357408 8.3177558086984947e-06 0 0.034956289465580118 4.0720479969107749e-06 0 0.03499979796297311 2.5697648141433349e-08 0 0.034952095449357408 8.3177558086984947e-06 0 0.034957726568097508 1.4414705904688706e-05 0 0.03499979796297311 2.5697648141433349e-08 0 0.03494076372920335 -6.5759890437641372e-07 0 0.034956289465580118 4.0720479969107749e-06 0 0.034999991258732488 -2.7072853842641427e-10 0 0.034971998685915627 -1.4594545143491174e-07 0 0.0349999820886953 -1.7538231143942471e-09 0 0.035000030851146814 2.9592205059310266e-09 0 0.035000461836369526 8.4664558643872104e-08 0 0.034952095449357408 8.3177558086984947e-06 0 0.034957726568097508 1.4414705904688706e-05 0 0.034953637825965812 4.4790224599060568e-06 0 0.034953998237553498 1.8560515213106677e-05 0 0.034957726568097508 1.4414705904688706e-05 0 0.034949228494714796 1.6365608905796912e-05 0 0.03499979796297311 2.5697648141433349e-08 0 0.034953998237553498 1.8560515213106677e-05 0 0.034957726568097508 1.4414705904688706e-05 0 0.034957726568097508 1.4414705904688706e-05 0 0.034949228494714796 1.6365608905796912e-05 0 0.034953741791726778 6.9238220543753477e-06 0 0.034932341977583929 2.3104711020628589e-05 0 0.034953998237553498 1.8560515213106677e-05 0 0.034949228494714796 1.6365608905796912e-05 0 0.034932341977583929 2.3104711020628589e-05 0 0.034949228494714796 1.6365608905796912e-05 0 0.034946899622954809 9.4307104494234456e-06 0 0.034949228494714796 1.6365608905796912e-05 0 0.034946899622954809 9.4307104494234456e-06 0 0.034953741791726778 6.9238220543753477e-06 0 0.034956894900474857 -7.4019676487987961e-06 0 0.034953637825965812 4.4790224599060568e-06 0 0.034953741791726778 6.9238220543753477e-06 0 0.034957726568097508 1.4414705904688706e-05 0 0.034953637825965812 4.4790224599060568e-06 0 0.034953741791726778 6.9238220543753477e-06 0 0.034946899622954809 9.4307104494234456e-06 0 0.034953741791726778 6.9238220543753477e-06 0 0.034957624429185846 -1.0351286347827072e-05 0 0.034956894900474857 -7.4019676487987961e-06 0 0.034953741791726778 6.9238220543753477e-06 0 0.034957624429185846 -1.0351286347827072e-05 0 0.034914375738379494 2.1161947701145559e-05 0 0.034956823506534958 -2.3208637954214912e-05 0 0.034948695191362775 -1.3428973481751808e-06 0 0.034914375738379494 2.1161947701145559e-05 0 0.034946899622954809 9.4307104494234456e-06 0 0.034948695191362775 -1.3428973481751808e-06 0 0.034956823506534958 -2.3208637954214912e-05 0 0.034957624429185846 -1.0351286347827072e-05 0 0.034948695191362775 -1.3428973481751808e-06 0 0.034946899622954809 9.4307104494234456e-06 0 0.034957624429185846 -1.0351286347827072e-05 0 0.034948695191362775 -1.3428973481751808e-06 0 0.034913004532766127 -1.6977357801072011e-05 0 0.034892319172974015 -0.00010812560133772571 0 0.034891029363461473 -3.0449982453867472e-05 0 0.023100069582418382 0.00079352156317267434 0 0.022652952515974954 0.0013504429331855313 0 0.02209181131369975 0.00042328340083491966 0 0.022652952515974954 0.0013504429331855313 0 0.02209181131369975 0.00042328340083491966 0 0.022026350573263891 0.0013823460734438556 0 0.022652952515974954 0.0013504429331855313 0 0.022254960184580477 0.0018125206999776212 0 0.022026350573263891 0.0013823460734438556 0 0.022652952515974954 0.0013504429331855313 0 0.022254960184580477 0.0018125206999776212 0 0.022711810408322833 0.0019064645581679067 0 0.023100069582418382 0.00079352156317267434 0 0.022652952515974954 0.0013504429331855313 0 0.023281182630677577 0.0019733624086577194 0 0.028902176678389058 0.00028922900969415933 0 0.027473458733829403 0.001377384324927044 0 0.021975806927027969 0.0015350516177086583 0 0.027473458733829403 0.001377384324927044 0 0.022652952515974954 0.0013504429331855313 0 0.022711810408322833 0.0019064645581679067 0 0.023281182630677577 0.0019733624086577194 0 0.034892319172974015 -0.00010812560133772571 0 0.034817332086655703 -8.2659043017540264e-05 0 0.034891029363461473 -3.0449982453867472e-05 0 0.034707289056041507 -0.00024501346921023472 0 0.034892319172974015 -0.00010812560133772571 0 0.034817332086655703 -8.2659043017540264e-05 0 0.034927926535335718 -1.2643640431060381e-05 0 0.034817332086655703 -8.2659043017540264e-05 0 0.034887029743389794 -3.8636135783219149e-05 0 0.034657403437617404 -1.5994169041266295e-05 0 0.034816928507844742 -7.6701963349398134e-05 0 0.034707289056041507 -0.00024501346921023472 0 0.034376580894022929 -3.306530037192974e-06 0 0.034817332086655703 -8.2659043017540264e-05 0 0.034887029743389794 -3.8636135783219149e-05 0 0.034891029363461473 -3.0449982453867472e-05 0 0.03492754397432165 -2.3854925793276553e-05 0 0.034928415693329121 -2.7402513063248014e-05 0 0.034887029743389794 -3.8636135783219149e-05 0 0.03492754397432165 -2.3854925793276553e-05 0 0.034817332086655703 -8.2659043017540264e-05 0 0.034887029743389794 -3.8636135783219149e-05 0 0.034891029363461473 -3.0449982453867472e-05 0 0.034891029363461473 -3.0449982453867472e-05 0 0.034947618870365633 -1.430240841646512e-05 0 0.03494784623532645 -7.3979805056919472e-06 0 0.034891029363461473 -3.0449982453867472e-05 0 0.034947618870365633 -1.430240841646512e-05 0 0.03492754397432165 -2.3854925793276553e-05 0 0.034947618870365633 -1.430240841646512e-05 0 0.03492754397432165 -2.3854925793276553e-05 0 0.034964810449827417 -1.2505347643224486e-05 0 0.034954522596722881 -1.9688777871341225e-05 0 0.03492754397432165 -2.3854925793276553e-05 0 0.034964810449827417 -1.2505347643224486e-05 0 0.034976093891281368 -9.8456548246064121e-06 0 0.034964810449827417 -1.2505347643224486e-05 0 0.034999970041681275 2.4277594277416464e-09 0 0.034947618870365633 -1.430240841646512e-05 0 0.034964810449827417 -1.2505347643224486e-05 0 0.034976807008294988 -7.237411492225299e-06 0 0.034964810449827417 -1.2505347643224486e-05 0 0.034999970041681275 2.4277594277416464e-09 0 0.034976807008294988 -7.237411492225299e-06 0 0.034999970041681275 2.4277594277416464e-09 0 0.034976807008294988 -7.237411492225299e-06 0 0.034999821805688412 -6.2477173683680767e-08 0 0.034976807008294988 -7.237411492225299e-06 0 0.034999821805688412 -6.2477173683680767e-08 0 0.03494784623532645 -7.3979805056919472e-06 0 0.034947618870365633 -1.430240841646512e-05 0 0.034976807008294988 -7.237411492225299e-06 0 0.03494784623532645 -7.3979805056919472e-06 0 0.035000007119665714 -1.8883722127722395e-09 0 0.034999982641472548 5.5254007110477171e-10 0 0.034997395250089554 -4.5788483512590185e-07 0 0.034999821805688412 -6.2477173683680767e-08 0 0.034937451208283885 -9.4526025083372743e-06 0 0.03494784623532645 -7.3979805056919472e-06 0 0.035000806273737375 -3.5375558268502495e-07 0 0.033503389228277905 -0.00035204308477621059 0 0.03108192848232148 -0.00028626118768645704 0 0.03499250676286586 7.7843341238061606e-07 0 0.034999991648339536 -7.2476274291466828e-10 0 0.034994541182967784 -5.1573923761941842e-06 0 0.034999993973426832 -5.1170183490969955e-09 0 0.034994541182967784 -5.1573923761941842e-06 0 0.034993935100194939 -6.1873340900232382e-06 0 0.034999993973426832 -5.1170183490969955e-09 0 0.034998110606906968 -1.1796510318934587e-06 0 0.033503389228277905 -0.00035204308477621059 0 0.033503389228277905 -0.00035204308477621059 0 0.03108192848232148 -0.00028626118768645704 0 0.034937451208283885 -9.4526025083372743e-06 0 0.034934150638357017 -8.827538156782875e-06 0 0.03494784623532645 -7.3979805056919472e-06 0 0.028902176678389058 0.00028922900969415933 0 0.03108192848232148 -0.00028626118768645704 0 0.034913004532766127 -1.6977357801072011e-05 0 0.034934150638357017 -8.827538156782875e-06 0 0.03494784623532645 -7.3979805056919472e-06 0 0.034913004532766127 -1.6977357801072011e-05 0 0.034891029363461473 -3.0449982453867472e-05 0 0.03494784623532645 -7.3979805056919472e-06 0 0.023100069582418382 0.00079352156317267434 0 0.022935355304792796 -0.00047619898956728797 0 0.02209181131369975 0.00042328340083491966 0 0.03108192848232148 -0.00028626118768645704 0 0.03226913023296183 -0.00010399505616382277 0 0.029939675760460319 -0.00041034199244560047 0 0.028922065206241146 -0.00012495966161603302 0 0.02908502291697947 0.00055967573722256146 0 0.03499993847731795 -2.316596270888218e-09 0 0.035000042633047949 2.3880676959446362e-08 0 0.034989923356362813 1.3824378593278118e-05 0 0.03108192848232148 -0.00028626118768645704 0 0.024824857575360713 0.00067261838994160856 0 0.03499365721046608 1.9121561655462454e-06 0 0.03499993847731795 -2.316596270888218e-09 0 0.034989923356362813 1.3824378593278118e-05 0 0.035000042633047949 2.3880676959446362e-08 0 0.034989923356362813 1.3824378593278118e-05 0 0.034974410283949972 5.4537004707023565e-05 0 0.035000042633047949 2.3880676959446362e-08 0 0.034974410283949972 5.4537004707023565e-05 0 0.034999789187162282 -1.2706431354340477e-08 0 0.03226913023296183 -0.00010399505616382277 0 0.031164043891156165 0.00015475645054404118 0 0.028922065206241146 -0.00012495966161603302 0 0.027935852243234378 0.00015502497201661772 0 0.028352069981121268 0.00070026608397407938 0 0.027935852243234378 0.00015502497201661772 0 0.028352069981121268 0.00070026608397407938 0 0.027406500792325809 0.001217863714550846 0 0.028922065206241146 -0.00012495966161603302 0 0.028352069981121268 0.00070026608397407938 0 0.02908502291697947 0.00055967573722256146 0 0.03497317441875291 1.695269757496796e-05 0 0.034927325543332145 5.2392641952770465e-06 0 0.034974860762525845 2.0477029094513393e-05 0 0.034891384108632031 4.3683487762358371e-05 0 0.034849633525735307 2.2791873315253777e-06 0 0.034999928656963872 3.7804609296470013e-08 0 0.034974860762525845 2.0477029094513393e-05 0 0.035000647736696901 -1.1539390327308961e-06 0 0.034974410283949972 5.4537004707023565e-05 0 0.034999789187162282 -1.2706431354340477e-08 0 0.034819460548761408 0.00010042679397182018 0 0.034974860762525845 2.0477029094513393e-05 0 0.035000041081181564 -3.5864978569410186e-08 0 0.034951865665571909 5.287266764600183e-05 0 0.035002712636090526 -1.6912217836031755e-06 0 0.032094298074021761 0.00027282845984681451 0 0.034999928656963872 3.7804609296470013e-08 0 0.034974860762525845 2.0477029094513393e-05 0 0.035000041081181564 -3.5864978569410186e-08 0 0.031164043891156165 0.00015475645054404118 0 0.032094298074021761 0.00027282845984681451 0 0.027935852243234378 0.00015502497201661772 0 0.02695531999259481 0.00042495248587140131 0 0.027406500792325809 0.001217863714550846 0 0.034974860762525845 2.0477029094513393e-05 0 0.034951865665571909 5.287266764600183e-05 0 0.034891384108632031 4.3683487762358371e-05 0 0.030977281897627235 0.00041087339811343943 0 0.030537699019905371 0.00099278972758961464 0 0.030169065901527438 0.00064363245967225609 0 0.034951865665571909 5.287266764600183e-05 0 0.034891384108632031 4.3683487762358371e-05 0 0.034844297130825166 8.5725486446517937e-05 0 0.032094298074021761 0.00027282845984681451 0 0.032661333563106756 0.00034292237902913404 0 0.032094298074021761 0.00027282845984681451 0 0.028105753232202189 0.0013618480847943806 0 0.026378510859754321 0.0011763387619129883 0 0.027406500792325809 0.001217863714550846 0 0.02655523070393041 0.0022552520168425405 0 0.02695531999259481 0.00042495248587140131 0 0.026378510859754321 0.0011763387619129883 0 0.027406500792325809 0.001217863714550846 0 0.027406500792325809 0.001217863714550846 0 0.02655523070393041 0.0022552520168425405 0 0.02740171992555672 0.0023354342525001904 0 0.026378510859754321 0.0011763387619129883 0 0.02655523070393041 0.0022552520168425405 0 0.025812700847035124 0.0019249629099796055 0 0.028352069981121268 0.00070026608397407938 0 0.02908502291697947 0.00055967573722256146 0 0.028242164219980423 0.0014484998496452845 0 0.02209181131369975 0.00042328340083491966 0 0.021353997002242071 0.0012617494672059878 0 0.022026350573263891 0.0013823460734438556 0 0.024824857575360713 0.00067261838994160856 0 0.024914036596723619 0.0012945949828889122 0 0.028352069981121268 0.00070026608397407938 0 0.027406500792325809 0.001217863714550846 0 0.028242164219980423 0.0014484998496452845 0 0.021353997002242071 0.0012617494672059878 0 0.021721029172222583 0.0020526740877302185 0 0.020716673708062537 0.0020415653697132049 0 0.027406500792325809 0.001217863714550846 0 0.028242164219980423 0.0014484998496452845 0 0.02740171992555672 0.0023354342525001904 0 0.024914036596723619 0.0012945949828889122 0 0.024173074941763552 0.0021658828789074542 0 0.021353997002242071 0.0012617494672059878 0 0.022026350573263891 0.0013823460734438556 0 0.021721029172222583 0.0020526740877302185 0 0.022254960184580477 0.0018125206999776212 0 0.022026350573263891 0.0013823460734438556 0 0.021721029172222583 0.0020526740877302185 0 0.022290826672625642 0.0022393052909103705 0 0.021721029172222583 0.0020526740877302185 0 0.021926027452213941 0.0028023650841719878 0 0.021721029172222583 0.0020526740877302185 0 0.021926027452213941 0.0028023650841719878 0 0.021392378198221842 0.0027042596821717753 0 0.021926027452213941 0.0028023650841719878 0 0.021392378198221842 0.0027042596821717753 0 0.021182633098590191 0.0032922670064550619 0 0.021392378198221842 0.0027042596821717753 0 0.020716673708062537 0.0020415653697132049 0 0.020928403914381239 0.0031591274243316664 0 0.021392378198221842 0.0027042596821717753 0 0.020928403914381239 0.0031591274243316664 0 0.021182633098590191 0.0032922670064550619 0 0.021721029172222583 0.0020526740877302185 0 0.021392378198221842 0.0027042596821717753 0 0.020716673708062537 0.0020415653697132049 0 0.024173074941763552 0.0021658828789074542 0 0.022477661275086575 0.0029660234418561961 0 0.02655523070393041 0.0022552520168425405 0 0.026562287028509671 0.0032130468787593637 0 0.025912865460113434 0.0029394814662792321 0 0.02655523070393041 0.0022552520168425405 0 0.02740171992555672 0.0023354342525001904 0 0.026562287028509671 0.0032130468787593637 0 0.02097392604670683 0.0033833722407733023 0 0.020938180619965021 0.0033332854312682972 0 0.021055294231708949 0.0033991295558253266 0 0.022477661275086575 0.0029660234418561961 0 0.023438294013540324 0.0032061869253505316 0 0.022477661275086575 0.0029660234418561961 0 0.02078919472384811 0.0037408700256611051 0 0.020716673708062537 0.0020415653697132049 0 0.020079254559254727 0.0027946515173177294 0 0.020928403914381239 0.0031591274243316664 0 0.02097392604670683 0.0033833722407733023 0 0.020928403914381239 0.0031591274243316664 0 0.020938180619965021 0.0033332854312682972 0 0.022477661275086575 0.0029660234418561961 0 0.020179306601685671 0.0030554124376015244 0 0.020928403914381239 0.0031591274243316664 0 0.020938180619965021 0.0033332854312682972 0 0.020923778544011701 0.0034563321395305294 0 0.020990942095317117 0.0033464528833219652 0 0.020938180619965021 0.0033332854312682972 0 0.020923778544011701 0.0034563321395305294 0 0.020990942095317117 0.0033464528833219652 0 0.020938180619965021 0.0033332854312682972 0 0.021055294231708949 0.0033991295558253266 0 0.021108147064083895 0.0033737068097569353 0 0.021387829874977018 0.0034867428284195549 0 0.020990942095317117 0.0033464528833219652 0 0.020993744717875087 0.0033412338567576148 0 0.020923778544011701 0.0034563321395305294 0 0.020990942095317117 0.0033464528833219652 0 0.020993744717875087 0.0033412338567576148 0 0.021104995103935143 0.0032903299643285552 0 0.020974671052676537 0.0032719462550076846 0 0.020993744717875087 0.0033412338567576148 0 0.020923778544011701 0.0034563321395305294 0 0.020923778544011701 0.0034563321395305294 0 0.020889557516250115 0.0036779864341421535 0 0.021182633098590191 0.0032922670064550619 0 0.020974671052676537 0.0032719462550076846 0 0.020923778544011701 0.0034563321395305294 0 0.020889557516250115 0.0036779864341421535 0 0.020313062414992016 0.0032721541013393 0 0.019703241887207595 0.0037497752662659241 0 0.020889557516250115 0.0036779864341421535 0 0.021884753614282926 0.0040075480068231589 0 0.020889557516250115 0.0036779864341421535 0 0.021806001825101565 0.0034105406688660867 0 0.020889747504861503 0.0038840070321876541 0 0.020839639485057317 0.0037253991853459607 0 0.021926027452213941 0.0028023650841719878 0 0.021806001825101565 0.0034105406688660867 0 0.021182633098590191 0.0032922670064550619 0 0.020889557516250115 0.0036779864341421535 0 0.021806001825101565 0.0034105406688660867 0 0.021182633098590191 0.0032922670064550619 0 0.020928403914381239 0.0031591274243316664 0 0.020923778544011701 0.0034563321395305294 0 0.021182633098590191 0.0032922670064550619 0 0.023582170320268988 0.0048590782066578646 0 0.022980417338595547 0.0053984162768598489 0 0.023402016564656986 0.006394961919092868 0 0.02596411567463924 0.0017596390566691708 0 0.023989951329933635 0.0037507189162170568 0 0.02585554589504762 0.0018885674087203697 0 0.025844770829957245 0.0019513000453247849 0 0.025805536314400242 0.001955203847674739 0 0.023582170320268988 0.0048590782066578646 0 0.024948202854442273 0.0043980723742750001 0 0.023402016564656986 0.006394961919092868 0 0.023582170320268988 0.0048590782066578646 0 0.022992384910247986 0.0043564456142426477 0 0.022980417338595547 0.0053984162768598489 0 0.022364890315013337 0.0042002317160876393 0 0.023989951329933635 0.0037507189162170568 0 0.02596411567463924 0.0017596390566691708 0 0.026660561795106699 0.00033537484569081386 0 0.027842057638979817 -0.0010465286697930194 0 0.027376814215900068 -0.00069424832112284962 0 0.028038183345278869 -0.00099278485179444599 0 0.027842057638979817 -0.0010465286697930194 0 0.027716722393878665 -0.0010321498120830779 0 0.027376814215900068 -0.00069424832112284962 0 0.025529523337798354 0.0011514418085076369 0 0.02596411567463924 0.0017596390566691708 0 0.02596411567463924 0.0017596390566691708 0 0.027133024109863069 -0.00042287481712828214 0 0.027842057638979817 -0.0010465286697930194 0 0.027716722393878665 -0.0010321498120830779 0 0.0277690783137329 -0.00078468201391212523 0 0.025952353221575658 -2.5829920663887371e-05 0 0.025793065367588897 0.0011010982582093764 0 0.026247460759748788 0.00047626752976706534 0 0.025348915668912196 0.0018862493474456389 0 0.024948202854442273 0.0043980723742750001 0 0.024299159559443669 0.0030419790174506162 0 0.024948202854442273 0.0043980723742750001 0 0.024299159559443669 0.0030419790174506162 0 0.023587935449698814 0.0037556240518125854 0 0.023582170320268988 0.0048590782066578646 0 0.024948202854442273 0.0043980723742750001 0 0.023587935449698814 0.0037556240518125854 0 0.023582170320268988 0.0048590782066578646 0 0.023587935449698814 0.0037556240518125854 0 0.022992384910247986 0.0043564456142426477 0 0.023587935449698814 0.0037556240518125854 0 0.022992384910247986 0.0043564456142426477 0 0.022852873474199387 0.0037807829021068106 0 0.0236780188360175 0.0026021868337539069 0 0.024299159559443669 0.0030419790174506162 0 0.023587935449698814 0.0037556240518125854 0 0.0236780188360175 0.0026021868337539069 0 0.023587935449698814 0.0037556240518125854 0 0.022648985206103287 0.00339843967831028 0 0.022300809175054746 0.0031754488459224137 0 0.022648985206103287 0.00339843967831028 0 0.022302255814175186 0.0036036970992834164 0 0.023587935449698814 0.0037556240518125854 0 0.022648985206103287 0.00339843967831028 0 0.022852873474199387 0.0037807829021068106 0 0.022648985206103287 0.00339843967831028 0 0.022302255814175186 0.0036036970992834164 0 0.022852873474199387 0.0037807829021068106 0 0.022300809175054746 0.0031754488459224137 0 0.022302255814175186 0.0036036970992834164 0 0.021836581816297936 0.0033405148509684083 0 0.022302255814175186 0.0036036970992834164 0 0.022992384910247986 0.0043564456142426477 0 0.022852873474199387 0.0037807829021068106 0 0.021158245253571156 0.0033845109866819205 0 0.021836581816297936 0.0033405148509684083 0 0.021838157990558157 0.0038102774812487084 0 0.022302255814175186 0.0036036970992834164 0 0.021836581816297936 0.0033405148509684083 0 0.021838157990558157 0.0038102774812487084 0 0.021104995103935143 0.0032903299643285552 0 0.021196655266254204 0.0033847672742715589 0 0.021055294231708949 0.0033991295558253266 0 0.020990942095317117 0.0033464528833219652 0 0.021104995103935143 0.0032903299643285552 0 0.021055294231708949 0.0033991295558253266 0 0.021196655266254204 0.0033847672742715589 0 0.021055294231708949 0.0033991295558253266 0 0.021252459357750796 0.0034893699075322811 0 0.022302255814175186 0.0036036970992834164 0 0.022992384910247986 0.0043564456142426477 0 0.022980417338595547 0.0053984162768598489 0 0.022453001384895796 0.0039613194507445082 0 0.022364890315013337 0.0042002317160876393 0 0.021104995103935143 0.0032903299643285552 0 0.021196655266254204 0.0033847672742715589 0 0.021387190756594635 0.0033684208446600676 0 0.022302255814175186 0.0036036970992834164 0 0.021838157990558157 0.0038102774812487084 0 0.022562516963741282 0.0042514314709578699 0 0.021387829874977018 0.0034867428284195549 0 0.022364890315013337 0.0042002317160876393 0 0.021196655266254204 0.0033847672742715589 0 0.021387190756594635 0.0033684208446600676 0 0.021252459357750796 0.0034893699075322811 0 0.021252459357750796 0.0034893699075322811 0 0.021316856571862178 0.0036909406544937003 0 0.021454604882819184 0.0034866218711948871 0 0.021387190756594635 0.0033684208446600676 0 0.021252459357750796 0.0034893699075322811 0 0.021454604882819184 0.0034866218711948871 0 0.025624545454289188 0.0028094774785067619 0 0.023989951329933635 0.0037507189162170568 0 0.021055294231708949 0.0033991295558253266 0 0.021252459357750796 0.0034893699075322811 0 0.021126319358859367 0.0036191412126390151 0 0.021252459357750796 0.0034893699075322811 0 0.021126319358859367 0.0036191412126390151 0 0.021316856571862178 0.0036909406544937003 0 0.020949966336018869 0.0035403659639536835 0 0.021055294231708949 0.0033991295558253266 0 0.021126319358859367 0.0036191412126390151 0 0.025912865460113434 0.0029394814662792321 0 0.025259920314267294 0.0026679055449079503 0 0.025812700847035124 0.0019249629099796055 0 0.025624545454289188 0.0028094774785067619 0 0.028218101219031604 0.0014926585726300859 0 0.02655523070393041 0.0022552520168425405 0 0.025912865460113434 0.0029394814662792321 0 0.025812700847035124 0.0019249629099796055 0 0.023438294013540324 0.0032061869253505316 0 0.025624545454289188 0.0028094774785067619 0 0.029677657366594511 0.0020928165467414164 0 0.028977519183590445 0.0017922250040872611 0 0.029496299679412443 0.0015575463642942551 0 0.026867529889978391 0.0016358619941261555 0 0.026660561795106699 0.00033537484569081386 0 0.026867529889978391 0.0016358619941261555 0 0.023989951329933635 0.0037507189162170568 0 0.025931688594162876 0.002685505222013833 0 0.025646823382739239 0.0026207446180375555 0 0.025750748454787538 0.0029253879846590225 0 0.025931688594162876 0.002685505222013833 0 0.025646823382739239 0.0026207446180375555 0 0.025657303586510968 0.0025636250116042258 0 0.025624545454289188 0.0028094774785067619 0 0.027757878030613567 0.0019111932746263811 0 0.02693157323149941 0.00052408828378539896 0 0.027383093846168965 0.00066660819537871143 0 0.027031582486182561 0.00089117604049087176 0 0.02718226389231208 0.0016569387280437828 0 0.027305043498980903 0.0019561678941522765 0 0.027149366912242838 0.0018927112289465432 0 0.026867529889978391 0.0016358619941261555 0 0.02732585353271106 0.0015908639285365969 0 0.026867529889978391 0.0016358619941261555 0 0.027757878030613567 0.0019111932746263811 0 0.025841944491886319 0.0020066288326548824 0 0.025844770829957245 0.0019513000453247849 0 0.025805536314400242 0.001955203847674739 0 0.027376814215900068 -0.00069424832112284962 0 0.027900995773510146 -0.00054644821145593322 0 0.028038183345278869 -0.00099278485179444599 0 0.027376814215900068 -0.00069424832112284962 0 0.027900995773510146 -0.00054644821145593322 0 0.027707328744178594 7.0232939889928935e-05 0 0.027900995773510146 -0.00054644821145593322 0 0.027707328744178594 7.0232939889928935e-05 0 0.028475367659865004 -0.00017759198609599281 0 0.02693157323149941 0.00052408828378539896 0 0.027376814215900068 -0.00069424832112284962 0 0.027707328744178594 7.0232939889928935e-05 0 0.02693157323149941 0.00052408828378539896 0 0.027707328744178594 7.0232939889928935e-05 0 0.027383093846168965 0.00066660819537871143 0 0.027707328744178594 7.0232939889928935e-05 0 0.027911918376368663 0.00077942135553564908 0 0.028404345222756432 0.00040773506554723029 0 0.027707328744178594 7.0232939889928935e-05 0 0.027383093846168965 0.00066660819537871143 0 0.027911918376368663 0.00077942135553564908 0 0.028123409550502913 0.0015193296199856197 0 0.027365717329850773 0.0010917966213398423 0 0.027491173925294699 0.0024037702425449242 0 0.027365717329850773 0.0010917966213398423 0 0.026940448519533856 0.00091247843685110833 0 0.027491173925294699 0.0024037702425449242 0 0.027911918376368663 0.00077942135553564908 0 0.028123409550502913 0.0015193296199856197 0 0.027365717329850773 0.0010917966213398423 0 0.02732585353271106 0.0015908639285365969 0 0.031008768850889296 0.00094148341706474538 0 0.027383093846168965 0.00066660819537871143 0 0.027911918376368663 0.00077942135553564908 0 0.027365717329850773 0.0010917966213398423 0 0.027383093846168965 0.00066660819537871143 0 0.027365717329850773 0.0010917966213398423 0 0.027031582486182561 0.00089117604049087176 0 0.027181523861004437 0.0013645547967935255 0 0.02732585353271106 0.0015908639285365969 0 0.028923422079976426 0.0016863740839720102 0 0.029006338444661123 0.0017206808783049381 0 0.029094217497952136 0.0011808547601260073 0 0.027757878030613567 0.0019111932746263811 0 0.029136265559284755 0.0011335354204605398 0 0.028923422079976426 0.0016863740839720102 0 0.029094217497952136 0.0011808547601260073 0 0.028687696736622224 0.0010918047101344871 0 0.028977519183590445 0.0017922250040872611 0 0.029094217497952136 0.0011808547601260073 0 0.029496299679412443 0.0015575463642942551 0 0.02732585353271106 0.0015908639285365969 0 0.027757878030613567 0.0019111932746263811 0 0.029094217497952136 0.0011808547601260073 0 0.029496299679412443 0.0015575463642942551 0 0.029447155291657926 0.0011972822446844299 0 0.029094217497952136 0.0011808547601260073 0 0.028687696736622224 0.0010918047101344871 0 0.029392943242440121 0.0008767235600913272 0 0.031008768850889296 0.00094148341706474538 0 0.032179388431180338 0.00047801923609280063 0 0.034493806476723933 0.00031163579221728152 0 0.034798291924180456 0.00013870130763650188 0 0.03474494554937857 1.3128665554118372e-05 0 0.029094217497952136 0.0011808547601260073 0 0.029447155291657926 0.0011972822446844299 0 0.029392943242440121 0.0008767235600913272 0 0.034459686599419927 0.0002369521679907678 0 0.034493806476723933 0.00031163579221728152 0 0.03474494554937857 1.3128665554118372e-05 0 0.034459686599419927 0.0002369521679907678 0 0.034480288198613325 0.0003145924021378323 0 0.034221319541661403 0.00021721418599732727 0 0.032045300857455945 0.0010300662653593357 0 0.031008768850889296 0.00094148341706474538 0 0.029677657366594511 0.0020928165467414164 0 0.030103717921454467 0.0015481340593486259 0 0.029496299679412443 0.0015575463642942551 0 0.030103717921454467 0.0015481340593486259 0 0.029496299679412443 0.0015575463642942551 0 0.029849673315966489 0.0011407757202622311 0 0.029496299679412443 0.0015575463642942551 0 0.029447155291657926 0.0011972822446844299 0 0.029849673315966489 0.0011407757202622311 0 0.032179388431180338 0.00047801923609280063 0 0.032661333563106756 0.00034292237902913404 0 0.029392943242440121 0.0008767235600913272 0 0.029849673315966489 0.0011407757202622311 0 0.030169065901527438 0.00064363245967225609 0 0.029447155291657926 0.0011972822446844299 0 0.029392943242440121 0.0008767235600913272 0 0.029849673315966489 0.0011407757202622311 0 0.030537699019905371 0.00099278972758961464 0 0.030103717921454467 0.0015481340593486259 0 0.029849673315966489 0.0011407757202622311 0 0.028105753232202189 0.0013618480847943806 0 0.028218101219031604 0.0014926585726300859 0 0.030537699019905371 0.00099278972758961464 0 0.029849673315966489 0.0011407757202622311 0 0.030169065901527438 0.00064363245967225609 0 0.034891384108632031 4.3683487762358371e-05 0 0.034844297130825166 8.5725486446517937e-05 0 0.034843388526328595 4.1955095324971008e-05 0 0.034843388526328595 4.1955095324971008e-05 0 0.03481452679263395 4.3074273546361894e-05 0 0.034826429356867632 2.9564493821756317e-05 0 0.034844297130825166 8.5725486446517937e-05 0 0.034843388526328595 4.1955095324971008e-05 0 0.03481452679263395 4.3074273546361894e-05 0 0.034844297130825166 8.5725486446517937e-05 0 0.03481452679263395 4.3074273546361894e-05 0 0.034801879509285483 6.192275255475306e-05 0 0.034798291924180456 0.00013870130763650188 0 0.034844297130825166 8.5725486446517937e-05 0 0.034801879509285483 6.192275255475306e-05 0 0.03481452679263395 4.3074273546361894e-05 0 0.034801879509285483 6.192275255475306e-05 0 0.034786560710302748 2.2450035622334432e-05 0 0.034799851497269371 2.900232842486523e-05 0 0.034826429356867632 2.9564493821756317e-05 0 0.034849633525735307 2.2791873315253777e-06 0 0.034927325543332145 5.2392641952770465e-06 0 0.034890512482539153 1.463954579305816e-05 0 0.035000022189283997 -1.2656262440901759e-08 0 0.035000647736696901 -1.1539390327308961e-06 0 0.034999855552372117 6.4439301732938316e-08 0 0.034799851497269371 2.900232842486523e-05 0 0.034849633525735307 2.2791873315253777e-06 0 0.034775302960625046 3.9965335129192431e-05 0 0.035000022189283997 -1.2656262440901759e-08 0 0.03499999234742112 3.8947092644689426e-09 0 0.034999855552372117 6.4439301732938316e-08 0 0.034799851497269371 2.900232842486523e-05 0 0.034786560710302748 2.2450035622334432e-05 0 0.034775302960625046 3.9965335129192431e-05 0 0.03481452679263395 4.3074273546361894e-05 0 0.034799851497269371 2.900232842486523e-05 0 0.034786560710302748 2.2450035622334432e-05 0 0.03481452679263395 4.3074273546361894e-05 0 0.034799851497269371 2.900232842486523e-05 0 0.034826429356867632 2.9564493821756317e-05 0 0.034999928656963872 3.7804609296470013e-08 0 0.035000022189283997 -1.2656262440901759e-08 0 0.035000647736696901 -1.1539390327308961e-06 0 0.034843388526328595 4.1955095324971008e-05 0 0.034826429356867632 2.9564493821756317e-05 0 0.034849633525735307 2.2791873315253777e-06 0 0.034891384108632031 4.3683487762358371e-05 0 0.034843388526328595 4.1955095324971008e-05 0 0.034849633525735307 2.2791873315253777e-06 0 0.03474494554937857 1.3128665554118372e-05 0 0.034868881120051098 6.6493157443117509e-06 0 0.034981532083884201 -3.5078444070113491e-05 0 0.034749381521910178 1.1498406908083946e-05 0 0.034651152272466616 7.0365884420098661e-06 0 0.034459686599419927 0.0002369521679907678 0 0.03474494554937857 1.3128665554118372e-05 0 0.034311718787885644 2.6054146620108949e-05 0 0.034798291924180456 0.00013870130763650188 0 0.034801879509285483 6.192275255475306e-05 0 0.03474494554937857 1.3128665554118372e-05 0 0.034801879509285483 6.192275255475306e-05 0 0.03474494554937857 1.3128665554118372e-05 0 0.034786560710302748 2.2450035622334432e-05 0 0.03474494554937857 1.3128665554118372e-05 0 0.034786560710302748 2.2450035622334432e-05 0 0.03479675844185972 1.4154479594455904e-05 0 0.03499999234742112 3.8947092644689426e-09 0 0.034999855552372117 6.4439301732938316e-08 0 0.035000003376415456 -1.8322571176941727e-09 0 0.03474494554937857 1.3128665554118372e-05 0 0.03479675844185972 1.4154479594455904e-05 0 0.034868881120051098 6.6493157443117509e-06 0 0.03479675844185972 1.4154479594455904e-05 0 0.034775302960625046 3.9965335129192431e-05 0 0.034868881120051098 6.6493157443117509e-06 0 0.034786560710302748 2.2450035622334432e-05 0 0.03479675844185972 1.4154479594455904e-05 0 0.034775302960625046 3.9965335129192431e-05 0 0.034890512482539153 1.463954579305816e-05 0 0.034999956039796692 1.0486305208188092e-08 0 0.034775302960625046 3.9965335129192431e-05 0 0.034999626932285227 2.7334004258575037e-07 0 0.034868881120051098 6.6493157443117509e-06 0 0.034999626932285227 2.7334004258575037e-07 0 0.034868881120051098 6.6493157443117509e-06 0 0.034981532083884201 -3.5078444070113491e-05 0 0.035009397729633324 7.5446080320556205e-06 0 0.034981532083884201 -3.5078444070113491e-05 0 0.035045265209122066 4.1878665438388401e-05 0 0.034999626932285227 2.7334004258575037e-07 0 0.035009397729633324 7.5446080320556205e-06 0 0.035000276825466116 -1.0329309689875074e-07 0 0.034999626932285227 2.7334004258575037e-07 0 0.035009397729633324 7.5446080320556205e-06 0 0.034981532083884201 -3.5078444070113491e-05 0 0.034459686599419927 0.0002369521679907678 0 0.034311718787885644 2.6054146620108949e-05 0 0.034221319541661403 0.00021721418599732727 0 0.034651152272466616 7.0365884420098661e-06 0 0.034532067518037252 6.9050381783935627e-05 0 0.034311718787885644 2.6054146620108949e-05 0 0.034005425950290179 0.00010978319960620338 0 0.034221319541661403 0.00021721418599732727 0 0.034005425950290179 0.00010978319960620338 0 0.034221319541661403 0.00021721418599732727 0 0.034053203626970098 0.00016618767495403861 0 0.035009397729633324 7.5446080320556205e-06 0 0.035045265209122066 4.1878665438388401e-05 0 0.035000276825466116 -1.0329309689875074e-07 0 0.035000276825466116 -1.0329309689875074e-07 0 0.034922449886079919 1.2211689871988547e-05 0 0.034998930120306734 1.7984067779708725e-07 0 0.035045265209122066 4.1878665438388401e-05 0 0.035000276825466116 -1.0329309689875074e-07 0 0.034922449886079919 1.2211689871988547e-05 0 0.034005425950290179 0.00010978319960620338 0 0.034671667334278705 0.00012747930452956091 0 0.034128671417720004 7.9835977518268245e-05 0 0.035045265209122066 4.1878665438388401e-05 0 0.034922449886079919 1.2211689871988547e-05 0 0.034671667334278705 0.00012747930452956091 0 0.034532067518037252 6.9050381783935627e-05 0 0.034644733811921472 0.00011957319031828444 0 0.034671667334278705 0.00012747930452956091 0 0.034317777474469777 0.00012624504567507118 0 0.034678653957086997 0.00010900671862145559 0 0.034998930120306734 1.7984067779708725e-07 0 0.034671667334278705 0.00012747930452956091 0 0.034678653957086997 0.00010900671862145559 0 0.034922449886079919 1.2211689871988547e-05 0 0.034998930120306734 1.7984067779708725e-07 0 0.034671667334278705 0.00012747930452956091 0 0.034166055060001088 0.00016441641640527795 0 0.034317777474469777 0.00012624504567507118 0 0.034678653957086997 0.00010900671862145559 0 0.034166055060001088 0.00016441641640527795 0 0.034317777474469777 0.00012624504567507118 0 0.033833675614544263 0.00016385535490699815 0 0.034671667334278705 0.00012747930452956091 0 0.034317777474469777 0.00012624504567507118 0 0.034128671417720004 7.9835977518268245e-05 0 0.034005425950290179 0.00010978319960620338 0 0.034128671417720004 7.9835977518268245e-05 0 0.034053203626970098 0.00016618767495403861 0 0.034128671417720004 7.9835977518268245e-05 0 0.033833675614544263 0.00016385535490699815 0 0.034053203626970098 0.00016618767495403861 0 0.034317777474469777 0.00012624504567507118 0 0.034128671417720004 7.9835977518268245e-05 0 0.033833675614544263 0.00016385535490699815 0 0.033833675614544263 0.00016385535490699815 0 0.033039431492819807 0.00068071293339317296 0 0.034112630894484186 0.00044085362425184878 0 0.034166055060001088 0.00016441641640527795 0 0.033833675614544263 0.00016385535490699815 0 0.033740444484441079 0.00028627621964401112 0 0.033833675614544263 0.00016385535490699815 0 0.033740444484441079 0.00028627621964401112 0 0.033039431492819807 0.00068071293339317296 0 0.033740444484441079 0.00028627621964401112 0 0.033039431492819807 0.00068071293339317296 0 0.033762645125942084 -2.2227252608589129e-05 0 0.032980854803370041 0.0007224993155949042 0 0.031873859002114702 0.0012567724202304927 0 0.033039431492819807 0.00068071293339317296 0 0.029641656357585606 0.0020147671399591968 0 0.029580141971627328 0.00038911897517227223 0 0.028123409550502913 0.0015193296199856197 0 0.027491173925294699 0.0024037702425449242 0 0.029641656357585606 0.0020147671399591968 0 0.028123409550502913 0.0015193296199856197 0 0.029641656357585606 0.0020147671399591968 0 0.02862129769204648 0.0010278098668734601 0 0.029641656357585606 0.0020147671399591968 0 0.02862129769204648 0.0010278098668734601 0 0.029580141971627328 0.00038911897517227223 0 0.027911918376368663 0.00077942135553564908 0 0.028123409550502913 0.0015193296199856197 0 0.02862129769204648 0.0010278098668734601 0 0.031008768850889296 0.00094148341706474538 0 0.031873859002114702 0.0012567724202304927 0 0.034480288198613325 0.0003145924021378323 0 0.034112630894484186 0.00044085362425184878 0 0.034221319541661403 0.00021721418599732727 0 0.034112630894484186 0.00044085362425184878 0 0.034221319541661403 0.00021721418599732727 0 0.034053203626970098 0.00016618767495403861 0 0.033833675614544263 0.00016385535490699815 0 0.034112630894484186 0.00044085362425184878 0 0.034053203626970098 0.00016618767495403861 0 0.034999611542406606 7.9630633002142423e-08 0 0.034657349326160283 7.5947505617533813e-05 0 0.034607404590142957 -1.9155927731006406e-05 0 0.034999611542406606 7.9630633002142423e-08 0 0.034607404590142957 -1.9155927731006406e-05 0 0.034807718812488356 -2.8308559335704249e-05 0 0.034999611542406606 7.9630633002142423e-08 0 0.034657349326160283 7.5947505617533813e-05 0 0.034999448647608455 1.1615097630674737e-07 0 0.034657349326160283 7.5947505617533813e-05 0 0.034678653957086997 0.00010900671862145559 0 0.034241922673148913 0.00013662760631209448 0 0.034657349326160283 7.5947505617533813e-05 0 0.034999448647608455 1.1615097630674737e-07 0 0.034678653957086997 0.00010900671862145559 0 0.034998930120306734 1.7984067779708725e-07 0 0.034999448647608455 1.1615097630674737e-07 0 0.034678653957086997 0.00010900671862145559 0 0.034166055060001088 0.00016441641640527795 0 0.034678653957086997 0.00010900671862145559 0 0.034241922673148913 0.00013662760631209448 0 0.034166055060001088 0.00016441641640527795 0 0.033740444484441079 0.00028627621964401112 0 0.034241922673148913 0.00013662760631209448 0 0.033740444484441079 0.00028627621964401112 0 0.033762645125942084 -2.2227252608589129e-05 0 0.034241922673148913 0.00013662760631209448 0 0.033762645125942084 -2.2227252608589129e-05 0 0.034241922673148913 0.00013662760631209448 0 0.034311738551796242 -4.8981411794044472e-05 0 0.033762645125942084 -2.2227252608589129e-05 0 0.034311738551796242 -4.8981411794044472e-05 0 0.034119220178089077 -0.0003724358822284246 0 0.034657349326160283 7.5947505617533813e-05 0 0.034241922673148913 0.00013662760631209448 0 0.034311738551796242 -4.8981411794044472e-05 0 0.034311738551796242 -4.8981411794044472e-05 0 0.034388330197087036 -0.00023968929518255745 0 0.034607404590142957 -1.9155927731006406e-05 0 0.034657349326160283 7.5947505617533813e-05 0 0.034311738551796242 -4.8981411794044472e-05 0 0.034607404590142957 -1.9155927731006406e-05 0 0.034311738551796242 -4.8981411794044472e-05 0 0.034388330197087036 -0.00023968929518255745 0 0.034119220178089077 -0.0003724358822284246 0 0.034388330197087036 -0.00023968929518255745 0 0.034297752098353201 -0.00044948015753591773 0 0.034447596446832013 -0.00037501898346527994 0 0.034388330197087036 -0.00023968929518255745 0 0.034583393727175761 -0.00014977683503886874 0 0.034447596446832013 -0.00037501898346527994 0 0.034583393727175761 -0.00014977683503886874 0 0.034607404590142957 -1.9155927731006406e-05 0 0.034807718812488356 -2.8308559335704249e-05 0 0.034388330197087036 -0.00023968929518255745 0 0.034583393727175761 -0.00014977683503886874 0 0.034607404590142957 -1.9155927731006406e-05 0 0.034217684853891879 -0.00047569566582264554 0 0.033984564539804051 -0.00036838794134605668 0 0.03404571847272473 -0.00046523697318202265 0 0.034297752098353201 -0.00044948015753591773 0 0.034217684853891879 -0.00047569566582264554 0 0.03404571847272473 -0.00046523697318202265 0 0.034297752098353201 -0.00044948015753591773 0 0.034119220178089077 -0.0003724358822284246 0 0.034217684853891879 -0.00047569566582264554 0 0.034069218876779127 -0.00039930719329849814 0 0.03404348367294216 -0.00067297653634777613 0 0.034388330197087036 -0.00023968929518255745 0 0.034297752098353201 -0.00044948015753591773 0 0.034119220178089077 -0.0003724358822284246 0 0.033907419294222918 -0.00093930607683094666 0 0.033815675608389412 -0.00076151821811781578 0 0.03370839462288653 -0.0011121104816126054 0 0.034119220178089077 -0.0003724358822284246 0 0.033907419294222918 -0.00093930607683094666 0 0.033815675608389412 -0.00076151821811781578 0 0.033762645125942084 -2.2227252608589129e-05 0 0.034119220178089077 -0.0003724358822284246 0 0.033815675608389412 -0.00076151821811781578 0 0.033762645125942084 -2.2227252608589129e-05 0 0.033815675608389412 -0.00076151821811781578 0 0.033389413638570765 -0.00072015429708983123 0 0.033762645125942084 -2.2227252608589129e-05 0 0.033389413638570765 -0.00072015429708983123 0 0.033250223806815894 -0.00018685443417600932 0 0.033815675608389412 -0.00076151821811781578 0 0.033389413638570765 -0.00072015429708983123 0 0.033408563905947743 -0.0012493939255407802 0 0.033389413638570765 -0.00072015429708983123 0 0.033408563905947743 -0.0012493939255407802 0 0.032605617371462309 -0.0014293453669332681 0 0.033408563905947743 -0.0012493939255407802 0 0.033061751272215875 -0.0016551751616995913 0 0.033639132723515312 -0.0013011636137557452 0 0.032547238854590814 -0.0007164759038507056 0 0.032856286398933843 -0.00063276412025650328 0 0.033408563905947743 -0.0012493939255407802 0 0.03370839462288653 -0.0011121104816126054 0 0.033639132723515312 -0.0013011636137557452 0 0.03370839462288653 -0.0011121104816126054 0 0.033646589770166158 -0.0011021092748025115 0 0.033639132723515312 -0.0013011636137557452 0 0.033815675608389412 -0.00076151821811781578 0 0.033408563905947743 -0.0012493939255407802 0 0.03370839462288653 -0.0011121104816126054 0 0.033907419294222918 -0.00093930607683094666 0 0.03370839462288653 -0.0011121104816126054 0 0.033646589770166158 -0.0011021092748025115 0 0.033646589770166158 -0.0011021092748025115 0 0.033561789347000791 -0.0010785071741776053 0 0.033380166490030165 -0.0009004735328865559 0 0.033907419294222918 -0.00093930607683094666 0 0.033646589770166158 -0.0011021092748025115 0 0.033561789347000791 -0.0010785071741776053 0 0.03404348367294216 -0.00067297653634777613 0 0.033768801074444708 -0.00071852593234306053 0 0.029491254163301079 -0.00048220007665786258 0 0.031222821980000044 -0.00026363617122978234 0 0.030602357132183223 -0.0007990725592925713 0 0.029491254163301079 -0.00048220007665786258 0 0.030602357132183223 -0.0007990725592925713 0 0.028877123418319633 -0.0013775399204060455 0 0.029491254163301079 -0.00048220007665786258 0 0.028576838621787223 -0.00085832383962207459 0 0.028877123418319633 -0.0013775399204060455 0 0.027900995773510146 -0.00054644821145593322 0 0.028576838621787223 -0.00085832383962207459 0 0.028038183345278869 -0.00099278485179444599 0 0.027900995773510146 -0.00054644821145593322 0 0.028576838621787223 -0.00085832383962207459 0 0.028475367659865004 -0.00017759198609599281 0 0.029491254163301079 -0.00048220007665786258 0 0.028576838621787223 -0.00085832383962207459 0 0.028475367659865004 -0.00017759198609599281 0 0.028475367659865004 -0.00017759198609599281 0 0.028404345222756432 0.00040773506554723029 0 0.029580141971627328 0.00038911897517227223 0 0.027707328744178594 7.0232939889928935e-05 0 0.028475367659865004 -0.00017759198609599281 0 0.028404345222756432 0.00040773506554723029 0 0.027911918376368663 0.00077942135553564908 0 0.02862129769204648 0.0010278098668734601 0 0.028404345222756432 0.00040773506554723029 0 0.02862129769204648 0.0010278098668734601 0 0.028404345222756432 0.00040773506554723029 0 0.029580141971627328 0.00038911897517227223 0 0.029491254163301079 -0.00048220007665786258 0 0.029580141971627328 0.00038911897517227223 0 0.031222821980000044 -0.00026363617122978234 0 0.029491254163301079 -0.00048220007665786258 0 0.028475367659865004 -0.00017759198609599281 0 0.029580141971627328 0.00038911897517227223 0 0.033039431492819807 0.00068071293339317296 0 0.031222821980000044 -0.00026363617122978234 0 0.032603632945379865 -0.00051085560858535014 0 0.033039431492819807 0.00068071293339317296 0 0.029580141971627328 0.00038911897517227223 0 0.031222821980000044 -0.00026363617122978234 0 0.033039431492819807 0.00068071293339317296 0 0.033250223806815894 -0.00018685443417600932 0 0.032603632945379865 -0.00051085560858535014 0 0.033039431492819807 0.00068071293339317296 0 0.033762645125942084 -2.2227252608589129e-05 0 0.033250223806815894 -0.00018685443417600932 0 0.032603632945379865 -0.00051085560858535014 0 0.031815287209061155 -0.00089725295064313579 0 0.032605617371462309 -0.0014293453669332681 0 0.033389413638570765 -0.00072015429708983123 0 0.032603632945379865 -0.00051085560858535014 0 0.032605617371462309 -0.0014293453669332681 0 0.033389413638570765 -0.00072015429708983123 0 0.033250223806815894 -0.00018685443417600932 0 0.032603632945379865 -0.00051085560858535014 0 0.031222821980000044 -0.00026363617122978234 0 0.032603632945379865 -0.00051085560858535014 0 0.031815287209061155 -0.00089725295064313579 0 0.031222821980000044 -0.00026363617122978234 0 0.031815287209061155 -0.00089725295064313579 0 0.030602357132183223 -0.0007990725592925713 0 0.031815287209061155 -0.00089725295064313579 0 0.030602357132183223 -0.0007990725592925713 0 0.031617684832598268 -0.0015816635088809832 0 0.030602357132183223 -0.0007990725592925713 0 0.031617684832598268 -0.0015816635088809832 0 0.028877123418319633 -0.0013775399204060455 0 0.031617684832598268 -0.0015816635088809832 0 0.03143309336426077 -0.0027102183034960446 0 0.028877123418319633 -0.0013775399204060455 0 0.030627754149122055 -0.00087283082108237809 0 0.028787122647864028 -0.0013265447318439264 0 0.030886778992790062 -0.0015026929346626896 0 0.030627754149122055 -0.00087283082108237809 0 0.031617684832598268 -0.0015816635088809832 0 0.031697907807989235 -0.0017881508217520528 0 0.032605617371462309 -0.0014293453669332681 0 0.031815287209061155 -0.00089725295064313579 0 0.031617684832598268 -0.0015816635088809832 0 0.032605617371462309 -0.0014293453669332681 0 0.033408563905947743 -0.0012493939255407802 0 0.032605617371462309 -0.0014293453669332681 0 0.033061751272215875 -0.0016551751616995913 0 0.030627754149122055 -0.00087283082108237809 0 0.032547238854590814 -0.0007164759038507056 0 0.031697907807989235 -0.0017881508217520528 0 0.032605617371462309 -0.0014293453669332681 0 0.033061751272215875 -0.0016551751616995913 0 0.031406977678853663 0.00040156092044617091 0 0.031790839926950497 0.00022732540449118765 0 0.031540008243341092 9.9701391884787112e-05 0 0.031790839926950497 0.00022732540449118765 0 0.031540008243341092 9.9701391884787112e-05 0 0.031675544669058739 2.4635447118898523e-05 0 0.030627754149122055 -0.00087283082108237809 0 0.028976375771345035 -8.6131877880804149e-05 0 0.031406977678853663 0.00040156092044617091 0 0.031540008243341092 9.9701391884787112e-05 0 0.031354549984293427 -4.7431313470018911e-05 0 0.02754710062822948 -0.0011332904865456153 0 0.027480770875503813 -0.00071125528360264326 0 0.026982719057258929 -0.00036343948624809004 0 0.027480770875503813 -0.00071125528360264326 0 0.027598835854674864 -0.00081499683988302794 0 0.027045139504391514 -0.00043952604057575752 0 0.027480770875503813 -0.00071125528360264326 0 0.027598835854674864 -0.00081499683988302794 0 0.027953238382661175 -0.00098584872836263268 0 0.02754710062822948 -0.0011332904865456153 0 0.027480770875503813 -0.00071125528360264326 0 0.027953238382661175 -0.00098584872836263268 0 0.02754710062822948 -0.0011332904865456153 0 0.027953238382661175 -0.00098584872836263268 0 0.028877123418319633 -0.0013775399204060455 0 0.027598835854674864 -0.00081499683988302794 0 0.027953238382661175 -0.00098584872836263268 0 0.028196588531092817 -0.0011393811928682145 0 0.027953238382661175 -0.00098584872836263268 0 0.028877123418319633 -0.0013775399204060455 0 0.028196588531092817 -0.0011393811928682145 0 0.028576838621787223 -0.00085832383962207459 0 0.028877123418319633 -0.0013775399204060455 0 0.028196588531092817 -0.0011393811928682145 0 0.028576838621787223 -0.00085832383962207459 0 0.028038183345278869 -0.00099278485179444599 0 0.028196588531092817 -0.0011393811928682145 0 0.028038183345278869 -0.00099278485179444599 0 0.028196588531092817 -0.0011393811928682145 0 0.027768614245613627 -0.001002648627307422 0 0.027842057638979817 -0.0010465286697930194 0 0.028038183345278869 -0.00099278485179444599 0 0.027768614245613627 -0.001002648627307422 0 0.027842057638979817 -0.0010465286697930194 0 0.0277690783137329 -0.00078468201391212523 0 0.027768614245613627 -0.001002648627307422 0 0.027598835854674864 -0.00081499683988302794 0 0.028196588531092817 -0.0011393811928682145 0 0.027768614245613627 -0.001002648627307422 0 0.027598835854674864 -0.00081499683988302794 0 0.027768614245613627 -0.001002648627307422 0 0.027313680702596831 -0.00064789113075373146 0 0.027598835854674864 -0.00081499683988302794 0 0.027313680702596831 -0.00064789113075373146 0 0.027045139504391514 -0.00043952604057575752 0 0.0277690783137329 -0.00078468201391212523 0 0.027768614245613627 -0.001002648627307422 0 0.027313680702596831 -0.00064789113075373146 0 0.0277690783137329 -0.00078468201391212523 0 0.027313680702596831 -0.00064789113075373146 0 0.026689534564462401 -0.00018277589953064765 0 0.027133024109863069 -0.00042287481712828214 0 0.026750028682244638 -0.00010572078321418768 0 0.027313680702596831 -0.00064789113075373146 0 0.026689534564462401 -0.00018277589953064765 0 0.027045139504391514 -0.00043952604057575752 0 0.026689534564462401 -0.00018277589953064765 0 0.027045139504391514 -0.00043952604057575752 0 0.026579313217968751 -0.00030212550785369989 0 0.027480770875503813 -0.00071125528360264326 0 0.027045139504391514 -0.00043952604057575752 0 0.026982719057258929 -0.00036343948624809004 0 0.027045139504391514 -0.00043952604057575752 0 0.026579313217968751 -0.00030212550785369989 0 0.026982719057258929 -0.00036343948624809004 0 0.026579313217968751 -0.00030212550785369989 0 0.026112701079921516 -0.00036438759169515558 0 0.026982719057258929 -0.00036343948624809004 0 0.026579313217968751 -0.00030212550785369989 0 0.026001952222483454 -0.00033707441675791098 0 0.026112701079921516 -0.00036438759169515558 0 0.026689534564462401 -0.00018277589953064765 0 0.026001952222483454 -0.00033707441675791098 0 0.026059777023338435 -0.00024106143053611125 0 0.026689534564462401 -0.00018277589953064765 0 0.026579313217968751 -0.00030212550785369989 0 0.026001952222483454 -0.00033707441675791098 0 0.025492447733533201 -0.00029405585663884584 0 0.026001952222483454 -0.00033707441675791098 0 0.026059777023338435 -0.00024106143053611125 0 0.025492447733533201 -0.00029405585663884584 0 0.026001952222483454 -0.00033707441675791098 0 0.025465647939012844 -0.00047112566689636129 0 0.026001952222483454 -0.00033707441675791098 0 0.025465647939012844 -0.00047112566689636129 0 0.025490976840028556 -0.0005018541011067723 0 0.025465647939012844 -0.00047112566689636129 0 0.025490976840028556 -0.0005018541011067723 0 0.025185215649129566 -0.0005714844986969297 0 0.025077970861909299 -0.00061606200273924873 0 0.025465647939012844 -0.00047112566689636129 0 0.025185215649129566 -0.0005714844986969297 0 0.026001952222483454 -0.00033707441675791098 0 0.025490976840028556 -0.0005018541011067723 0 0.026112701079921516 -0.00036438759169515558 0 0.026112701079921516 -0.00036438759169515558 0 0.025017299961811984 -0.00065634201187796018 0 0.02504948585658601 -0.00073421769107893877 0 0.031283229836741373 -0.00030256448566374632 0 0.031344188267100212 -0.00053455734045678284 0 0.031197322567647481 -0.00061674159634472357 0 0.028937650337356405 -0.00026779522192270019 0 0.026632569140322429 -0.00076943310692430202 0 0.025490976840028556 -0.0005018541011067723 0 0.026112701079921516 -0.00036438759169515558 0 0.025017299961811984 -0.00065634201187796018 0 0.025490976840028556 -0.0005018541011067723 0 0.025017299961811984 -0.00065634201187796018 0 0.024936285799220217 -0.00060131055013084764 0 0.025017299961811984 -0.00065634201187796018 0 0.024936285799220217 -0.00060131055013084764 0 0.024827873884615138 -0.00058888659478939997 0 0.024851451252373161 -0.00059469399248701985 0 0.024936285799220217 -0.00060131055013084764 0 0.025185215649129566 -0.0005714844986969297 0 0.025490976840028556 -0.0005018541011067723 0 0.024936285799220217 -0.00060131055013084764 0 0.025185215649129566 -0.0005714844986969297 0 0.031623405359306044 -0.00044197198529217211 0 0.03144240998917102 -0.00043095459223806924 0 0.031481774773650842 -0.00059357877074398284 0 0.031283229836741373 -0.00030256448566374632 0 0.031344188267100212 -0.00053455734045678284 0 0.03144240998917102 -0.00043095459223806924 0 0.031344188267100212 -0.00053455734045678284 0 0.03144240998917102 -0.00043095459223806924 0 0.031481774773650842 -0.00059357877074398284 0 0.031283229836741373 -0.00030256448566374632 0 0.03144240998917102 -0.00043095459223806924 0 0.031478739844862741 -0.00023712983887262445 0 0.031623405359306044 -0.00044197198529217211 0 0.031478739844862741 -0.00023712983887262445 0 0.031648469838429928 -0.00027330941841814476 0 0.031623405359306044 -0.00044197198529217211 0 0.03144240998917102 -0.00043095459223806924 0 0.031478739844862741 -0.00023712983887262445 0 0.031478739844862741 -0.00023712983887262445 0 0.031492074108026513 -9.5147153211099856e-05 0 0.031648469838429928 -0.00027330941841814476 0 0.031492074108026513 -9.5147153211099856e-05 0 0.031889149825352611 -0.00013597137229706227 0 0.031881221153048894 -0.00054260685538216153 0 0.031505248466217335 -0.00010713477728593297 0 0.031764824729376924 -0.0004010681715481969 0 0.028937650337356405 -0.00026779522192270019 0 0.028976375771345035 -8.6131877880804149e-05 0 0.031283229836741373 -0.00030256448566374632 0 0.031478739844862741 -0.00023712983887262445 0 0.031354549984293427 -4.7431313470018911e-05 0 0.031478739844862741 -0.00023712983887262445 0 0.031492074108026513 -9.5147153211099856e-05 0 0.031354549984293427 -4.7431313470018911e-05 0 0.031540008243341092 9.9701391884787112e-05 0 0.031492074108026513 -9.5147153211099856e-05 0 0.031354549984293427 -4.7431313470018911e-05 0 0.031790839926950497 0.00022732540449118765 0 0.031675544669058739 2.4635447118898523e-05 0 0.031889149825352611 -0.00013597137229706227 0 0.031492074108026513 -9.5147153211099856e-05 0 0.031675544669058739 2.4635447118898523e-05 0 0.031889149825352611 -0.00013597137229706227 0 0.031540008243341092 9.9701391884787112e-05 0 0.031492074108026513 -9.5147153211099856e-05 0 0.031675544669058739 2.4635447118898523e-05 0 0.031889149825352611 -0.00013597137229706227 0 0.03220235495720071 7.6238914223074564e-07 0 0.032228174252055333 -0.00044398581565485701 0 0.031790839926950497 0.00022732540449118765 0 0.031889149825352611 -0.00013597137229706227 0 0.03220235495720071 7.6238914223074564e-07 0 0.03220235495720071 7.6238914223074564e-07 0 0.032228174252055333 -0.00044398581565485701 0 0.032564096285278891 -0.00024462949698601875 0 0.032856286398933843 -0.00063276412025650328 0 0.033058014867609863 -0.00055236127250640364 0 0.031889149825352611 -0.00013597137229706227 0 0.032228174252055333 -0.00044398581565485701 0 0.031881221153048894 -0.00054260685538216153 0 0.032564096285278891 -0.00024462949698601875 0 0.032546962732169345 -0.00073404949935804435 0 0.03298890865755566 -0.00052524486356084275 0 0.032228174252055333 -0.00044398581565485701 0 0.032564096285278891 -0.00024462949698601875 0 0.032546962732169345 -0.00073404949935804435 0 0.033380166490030165 -0.0009004735328865559 0 0.033582848539898839 -0.0008359384867601342 0 0.03298890865755566 -0.00052524486356084275 0 0.033646589770166158 -0.0011021092748025115 0 0.033380166490030165 -0.0009004735328865559 0 0.033582848539898839 -0.0008359384867601342 0 0.033646589770166158 -0.0011021092748025115 0 0.033639132723515312 -0.0013011636137557452 0 0.033582848539898839 -0.0008359384867601342 0 0.033058014867609863 -0.00055236127250640364 0 0.032998709837255828 -0.00052018200058844715 0 0.032546962732169345 -0.00073404949935804435 0 0.032762036124568628 -0.00078735627194549316 0 0.03298890865755566 -0.00052524486356084275 0 0.032546962732169345 -0.00073404949935804435 0 0.032221299701838811 -0.00084512189310303825 0 0.03242812146530364 -0.00085089658584903331 0 0.032546962732169345 -0.00073404949935804435 0 0.032554814794270394 -0.00090768155702982138 0 0.03242812146530364 -0.00085089658584903331 0 0.032546962732169345 -0.00073404949935804435 0 0.032554814794270394 -0.00090768155702982138 0 0.032762036124568628 -0.00078735627194549316 0 0.031764824729376924 -0.0004010681715481969 0 0.032082639233631811 -0.00067510753532807287 0 0.032228174252055333 -0.00044398581565485701 0 0.031881221153048894 -0.00054260685538216153 0 0.032221299701838811 -0.00084512189310303825 0 0.032228174252055333 -0.00044398581565485701 0 0.032546962732169345 -0.00073404949935804435 0 0.032221299701838811 -0.00084512189310303825 0 0.031623405359306044 -0.00044197198529217211 0 0.031939687963996849 -0.0004986222917363664 0 0.031687474865558327 -0.00071262550145362845 0 0.031623405359306044 -0.00044197198529217211 0 0.031648469838429928 -0.00027330941841814476 0 0.031939687963996849 -0.0004986222917363664 0 0.031939687963996849 -0.0004986222917363664 0 0.031687474865558327 -0.00071262550145362845 0 0.031927581046711513 -0.00082030093777786691 0 0.031939687963996849 -0.0004986222917363664 0 0.031927581046711513 -0.00082030093777786691 0 0.032345788478655671 -0.00089672487321878493 0 0.032082639233631811 -0.00067510753532807287 0 0.032328364851761889 -0.00089204629403112341 0 0.032345788478655671 -0.00089672487321878493 0 0.032322423268154953 -0.0010226272269440251 0 0.031935696147291755 -0.0010609073031124789 0 0.031927581046711513 -0.00082030093777786691 0 0.032345788478655671 -0.00089672487321878493 0 0.031935696147291755 -0.0010609073031124789 0 0.031776528661266144 -0.00091643713904323275 0 0.031927581046711513 -0.00082030093777786691 0 0.031935696147291755 -0.0010609073031124789 0 0.031687474865558327 -0.00071262550145362845 0 0.031776528661266144 -0.00091643713904323275 0 0.031927581046711513 -0.00082030093777786691 0 0.031687474865558327 -0.00071262550145362845 0 0.031776528661266144 -0.00091643713904323275 0 0.031650046810513609 -0.00086676350528377044 0 0.032221299701838811 -0.00084512189310303825 0 0.03242812146530364 -0.00085089658584903331 0 0.032345788478655671 -0.00089672487321878493 0 0.032554814794270394 -0.00090768155702982138 0 0.03242812146530364 -0.00085089658584903331 0 0.032345788478655671 -0.00089672487321878493 0 0.032345788478655671 -0.00089672487321878493 0 0.032509456812202638 -0.00095829009312729536 0 0.032322423268154953 -0.0010226272269440251 0 0.032554814794270394 -0.00090768155702982138 0 0.032345788478655671 -0.00089672487321878493 0 0.032509456812202638 -0.00095829009312729536 0 0.032509456812202638 -0.00095829009312729536 0 0.032490370346606574 -0.00099854948297972853 0 0.032581768344656134 -0.0009853552608585336 0 0.032554814794270394 -0.00090768155702982138 0 0.032509456812202638 -0.00095829009312729536 0 0.032581768344656134 -0.0009853552608585336 0 0.032509456812202638 -0.00095829009312729536 0 0.032490370346606574 -0.00099854948297972853 0 0.032322423268154953 -0.0010226272269440251 0 0.032490370346606574 -0.00099854948297972853 0 0.032466171557292325 -0.0010172643879121912 0 0.032532275390580782 -0.00096362405122757519 0 0.032490370346606574 -0.00099854948297972853 0 0.032405291117129538 -0.0010462163436090639 0 0.032466171557292325 -0.0010172643879121912 0 0.032322423268154953 -0.0010226272269440251 0 0.032405291117129538 -0.0010462163436090639 0 0.032320469253574867 -0.001152990079602686 0 0.032490370346606574 -0.00099854948297972853 0 0.032322423268154953 -0.0010226272269440251 0 0.032405291117129538 -0.0010462163436090639 0 0.032405291117129538 -0.0010462163436090639 0 0.032320469253574867 -0.001152990079602686 0 0.032466171557292325 -0.0010172643879121912 0 0.026946473251250342 -0.0016783250134626507 0 0.020137052556998904 -0.0013020239867996301 0 0.02171927660960871 -0.0025954822113114541 0 0.022017701754463746 -0.0023108083515104268 0 0.021505574161277251 -0.0018703388299434992 0 0.032320469253574867 -0.001152990079602686 0 0.032466171557292325 -0.0010172643879121912 0 0.032530597060364444 -0.00093561079579288246 0 0.026946473251250342 -0.0016783250134626507 0 0.026653146375650437 -0.0013178912710549013 0 0.021944319334420984 -0.002109705987995484 0 0.020706929946430645 -0.0017278476612135392 0 0.021016232468103635 -0.0013173285705142055 0 0.032466171557292325 -0.0010172643879121912 0 0.032530597060364444 -0.00093561079579288246 0 0.032532275390580782 -0.00096362405122757519 0 0.031788860338324398 -0.0011338345775871441 0 0.031935696147291755 -0.0010609073031124789 0 0.031844159643919651 -0.0010765946048422038 0 0.025101591444118148 5.3224329985672331e-06 0 0.025689954327499574 -0.00015871784399672644 0 0.027587281545201181 -0.0024086602646711747 0 0.025255023883907327 -0.0014741258136147701 0 0.028894012063456688 -0.0013521830948976853 0 0.025255023883907327 -0.0014741258136147701 0 0.023403506693929259 -0.00083859736323535776 0 0.031776528661266144 -0.00091643713904323275 0 0.031781303560534491 -0.0010482456067453601 0 0.031623339939025531 -0.0010568531592134623 0 0.031788860338324398 -0.0011338345775871441 0 0.031781303560534491 -0.0010482456067453601 0 0.031623339939025531 -0.0010568531592134623 0 0.031776528661266144 -0.00091643713904323275 0 0.031781303560534491 -0.0010482456067453601 0 0.031935696147291755 -0.0010609073031124789 0 0.031788860338324398 -0.0011338345775871441 0 0.031781303560534491 -0.0010482456067453601 0 0.031935696147291755 -0.0010609073031124789 0 0.032322423268154953 -0.0010226272269440251 0 0.032320469253574867 -0.001152990079602686 0 0.031935696147291755 -0.0010609073031124789 0 0.031719683899707481 -0.0010915321974860912 0 0.031935696147291755 -0.0010609073031124789 0 0.031844159643919651 -0.0010765946048422038 0 0.026946473251250342 -0.0016783250134626507 0 0.03360530418746227 -0.0013055785838214664 0 0.025255023883907327 -0.0014741258136147701 0 0.020826424945123576 -0.0011484768969568834 0 0.020880029546384387 -0.00084006313022322093 0 0.020572662678765934 -0.00048347327283236965 0 0.020389102320475617 -0.00043249393859812657 0 0.02358697016291603 -0.0031172388399750795 0 0.022623232685794914 -0.0028767625698327918 0 0.022278655673479992 -0.0019603101298730032 0 0.02171927660960871 -0.0025954822113114541 0 0.022623232685794914 -0.0028767625698327918 0 0.022017701754463746 -0.0023108083515104268 0 0.026946473251250342 -0.0016783250134626507 0 0.027562384171851948 -0.0020677199610285696 0 0.022623232685794914 -0.0028767625698327918 0 0.022017701754463746 -0.0023108083515104268 0 0.022278655673479992 -0.0019603101298730032 0 0.023403506693929259 -0.00083859736323535776 0 0.020092969980289466 -0.00016696050817133421 0 0.020191749814488649 -5.4873872085297099e-05 0 0.020682304628522118 -0.00036321231845713666 0 0.02043465294064346 0.0001201121355783809 0 0.020880029546384387 -0.00084006313022322093 0 0.020947450305929573 -0.00085524930751473415 0 0.020572662678765934 -0.00048347327283236965 0 0.021022186214890763 -0.0011340621789899417 0 0.020191749814488649 -5.4873872085297099e-05 0 0.020682304628522118 -0.00036321231845713666 0 0.025255023883907327 -0.0014741258136147701 0 0.027562384171851948 -0.0020677199610285696 0 0.021022186214890763 -0.0011340621789899417 0 0.021033820267927248 -0.00045294743911200325 0 0.021376571501309373 -0.00074482789012043785 0 0.021022186214890763 -0.0011340621789899417 0 0.020682304628522118 -0.00036321231845713666 0 0.021033820267927248 -0.00045294743911200325 0 0.021033820267927248 -0.00045294743911200325 0 0.021778223322165401 -0.00035094702457716756 0 0.02043465294064346 0.0001201121355783809 0 0.020682304628522118 -0.00036321231845713666 0 0.021033820267927248 -0.00045294743911200325 0 0.02043465294064346 0.0001201121355783809 0 0.021778223322165401 -0.00035094702457716756 0 0.022604540275585894 -0.00057351093588111919 0 0.022918806372518488 0.00033721237701973936 0 0.021778223322165401 -0.00035094702457716756 0 0.02190715829735736 -0.00080560105872213856 0 0.022604540275585894 -0.00057351093588111919 0 0.021778223322165401 -0.00035094702457716756 0 0.021376571501309373 -0.00074482789012043785 0 0.02190715829735736 -0.00080560105872213856 0 0.021022186214890763 -0.0011340621789899417 0 0.021376571501309373 -0.00074482789012043785 0 0.02190715829735736 -0.00080560105872213856 0 0.021033820267927248 -0.00045294743911200325 0 0.021778223322165401 -0.00035094702457716756 0 0.021376571501309373 -0.00074482789012043785 0 0.024443948465167127 -0.00088663181496646956 0 0.024715127596782144 -0.00075871177799879432 0 0.024235509747231879 -0.00063203857654897861 0 0.023403506693929259 -0.00083859736323535776 0 0.028894012063456688 -0.0013521830948976853 0 0.024923502811953647 -0.001009231181969426 0 0.024443948465167127 -0.00088663181496646956 0 0.024715127596782144 -0.00075871177799879432 0 0.023403506693929259 -0.00083859736323535776 0 0.023418604277390957 -0.00098397766245056492 0 0.021022186214890763 -0.0011340621789899417 0 0.02190715829735736 -0.00080560105872213856 0 0.022612856289501361 -0.0011874920688681628 0 0.02190715829735736 -0.00080560105872213856 0 0.022612856289501361 -0.0011874920688681628 0 0.022604540275585894 -0.00057351093588111919 0 0.022612856289501361 -0.0011874920688681628 0 0.023375988988474351 -0.0004902380477190178 0 0.023868284757670732 -0.00070913150790664686 0 0.023418604277390957 -0.00098397766245056492 0 0.023794473634285971 -0.00080740207666902717 0 0.024443948465167127 -0.00088663181496646956 0 0.023868284757670732 -0.00070913150790664686 0 0.024235509747231879 -0.00063203857654897861 0 0.023375988988474351 -0.0004902380477190178 0 0.022604540275585894 -0.00057351093588111919 0 0.022918806372518488 0.00033721237701973936 0 0.023375988988474351 -0.0004902380477190178 0 0.023591476802145798 -0.00028291555718262882 0 0.022918806372518488 0.00033721237701973936 0 0.022612856289501361 -0.0011874920688681628 0 0.023375988988474351 -0.0004902380477190178 0 0.022604540275585894 -0.00057351093588111919 0 0.023375988988474351 -0.0004902380477190178 0 0.023591476802145798 -0.00028291555718262882 0 0.023765692392230267 -0.00041901479176420872 0 0.023591476802145798 -0.00028291555718262882 0 0.023765692392230267 -0.00041901479176420872 0 0.023661469613820554 -0.0003628314426450141 0 0.023597259602752167 -0.00038300548938880342 0 0.023765692392230267 -0.00041901479176420872 0 0.023661469613820554 -0.0003628314426450141 0 0.023388997867244066 -0.00044430147712411591 0 0.023597259602752167 -0.00038300548938880342 0 0.023661469613820554 -0.0003628314426450141 0 0.023597259602752167 -0.00038300548938880342 0 0.023765692392230267 -0.00041901479176420872 0 0.02390240230893282 -0.0003590682199988074 0 0.023765692392230267 -0.00041901479176420872 0 0.02390240230893282 -0.0003590682199988074 0 0.023868284757670732 -0.00070913150790664686 0 0.023375988988474351 -0.0004902380477190178 0 0.023765692392230267 -0.00041901479176420872 0 0.023868284757670732 -0.00070913150790664686 0 0.02390240230893282 -0.0003590682199988074 0 0.023868284757670732 -0.00070913150790664686 0 0.024152682102423162 -0.00037447681550870088 0 0.023868284757670732 -0.00070913150790664686 0 0.024191746657934467 -0.00043871097184492141 0 0.024163684130300789 -0.00051080275894432783 0 0.023868284757670732 -0.00070913150790664686 0 0.024191746657934467 -0.00043871097184492141 0 0.024152682102423162 -0.00037447681550870088 0 0.024152682102423162 -0.00037447681550870088 0 0.02430121865510948 -0.00042348334558831122 0 0.024475713887122687 -0.00044643618084831151 0 0.024191746657934467 -0.00043871097184492141 0 0.024152682102423162 -0.00037447681550870088 0 0.02430121865510948 -0.00042348334558831122 0 0.023845360624102512 7.6547015265124448e-05 0 0.024152682102423162 -0.00037447681550870088 0 0.024459921696498632 -0.00042095466638034497 0 0.023845360624102512 7.6547015265124448e-05 0 0.02390240230893282 -0.0003590682199988074 0 0.024152682102423162 -0.00037447681550870088 0 0.024152682102423162 -0.00037447681550870088 0 0.024459921696498632 -0.00042095466638034497 0 0.024475713887122687 -0.00044643618084831151 0 0.024459921696498632 -0.00042095466638034497 0 0.024654668486697978 -0.00051151900019001846 0 0.024475713887122687 -0.00044643618084831151 0 0.024936285799220217 -0.00060131055013084764 0 0.024654668486697978 -0.00051151900019001846 0 0.024827873884615138 -0.00058888659478939997 0 0.024936285799220217 -0.00060131055013084764 0 0.024459921696498632 -0.00042095466638034497 0 0.024654668486697978 -0.00051151900019001846 0 0.024851451252373161 -0.00059469399248701985 0 0.024936285799220217 -0.00060131055013084764 0 0.024459921696498632 -0.00042095466638034497 0 0.024191746657934467 -0.00043871097184492141 0 0.024397176879977726 -0.00046069163070894834 0 0.02424283399864207 -0.00041024944993097806 0 0.024398230651757048 -0.00050090376748378412 0 0.024397176879977726 -0.00046069163070894834 0 0.02424283399864207 -0.00041024944993097806 0 0.024191746657934467 -0.00043871097184492141 0 0.02430121865510948 -0.00042348334558831122 0 0.024397176879977726 -0.00046069163070894834 0 0.02430121865510948 -0.00042348334558831122 0 0.024475713887122687 -0.00044643618084831151 0 0.024397176879977726 -0.00046069163070894834 0 0.02467336018799907 -0.0005418651799878432 0 0.024562303457318916 -0.00058606427843374185 0 0.024397176879977726 -0.00046069163070894834 0 0.024475713887122687 -0.00044643618084831151 0 0.02467336018799907 -0.0005418651799878432 0 0.024397176879977726 -0.00046069163070894834 0 0.024654668486697978 -0.00051151900019001846 0 0.024475713887122687 -0.00044643618084831151 0 0.02467336018799907 -0.0005418651799878432 0 0.025017299961811984 -0.00065634201187796018 0 0.024827873884615138 -0.00058888659478939997 0 0.02467336018799907 -0.0005418651799878432 0 0.024654668486697978 -0.00051151900019001846 0 0.024827873884615138 -0.00058888659478939997 0 0.02467336018799907 -0.0005418651799878432 0 0.025017299961811984 -0.00065634201187796018 0 0.02467336018799907 -0.0005418651799878432 0 0.024562303457318916 -0.00058606427843374185 0 0.025672017659088647 -0.00030201266056431152 0 0.026632569140322429 -0.00076943310692430202 0 0.026632569140322429 -0.00076943310692430202 0 0.02606396185183104 -0.00070146120413327562 0 0.031344188267100212 -0.00053455734045678284 0 0.031197322567647481 -0.00061674159634472357 0 0.03130802669072065 -0.00070796733631887173 0 0.031344188267100212 -0.00053455734045678284 0 0.03130802669072065 -0.00070796733631887173 0 0.031481774773650842 -0.00059357877074398284 0 0.026632569140322429 -0.00076943310692430202 0 0.027775678366055559 -0.00049574136958706913 0 0.031197322567647481 -0.00061674159634472357 0 0.03130802669072065 -0.00070796733631887173 0 0.031295996265687277 -0.00074858559148219977 0 0.03130802669072065 -0.00070796733631887173 0 0.031481774773650842 -0.00059357877074398284 0 0.031511946596701562 -0.00078364323761195734 0 0.031623405359306044 -0.00044197198529217211 0 0.031687474865558327 -0.00071262550145362845 0 0.031481774773650842 -0.00059357877074398284 0 0.031687474865558327 -0.00071262550145362845 0 0.031481774773650842 -0.00059357877074398284 0 0.031511946596701562 -0.00078364323761195734 0 0.031623339939025531 -0.0010568531592134623 0 0.03130802669072065 -0.00070796733631887173 0 0.031511946596701562 -0.00078364323761195734 0 0.031623339939025531 -0.0010568531592134623 0 0.031511946596701562 -0.00078364323761195734 0 0.031650046810513609 -0.00086676350528377044 0 0.028894012063456688 -0.0013521830948976853 0 0.027775678366055559 -0.00049574136958706913 0 0.028894012063456688 -0.0013521830948976853 0 0.032156989400583043 -0.00075759543716351081 0 0.031687474865558327 -0.00071262550145362845 0 0.031511946596701562 -0.00078364323761195734 0 0.031650046810513609 -0.00086676350528377044 0 0.031776528661266144 -0.00091643713904323275 0 0.031623339939025531 -0.0010568531592134623 0 0.031650046810513609 -0.00086676350528377044 0 0.031240728937132669 -0.00085212481473479428 0 0.03130802669072065 -0.00070796733631887173 0 0.031295996265687277 -0.00074858559148219977 0 0.024715127596782144 -0.00075871177799879432 0 0.024235509747231879 -0.00063203857654897861 0 0.02424283399864207 -0.00041024944993097806 0 0.023868284757670732 -0.00070913150790664686 0 0.024235509747231879 -0.00063203857654897861 0 0.024163684130300789 -0.00051080275894432783 0 0.024235509747231879 -0.00063203857654897861 0 0.024163684130300789 -0.00051080275894432783 0 0.02424283399864207 -0.00041024944993097806 0 0.024191746657934467 -0.00043871097184492141 0 0.024163684130300789 -0.00051080275894432783 0 0.02424283399864207 -0.00041024944993097806 0 0.030235636669151255 -0.0022323982743535516 0 0.02972022497456021 -0.0024613457588809583 0 0.029786970614967739 -0.0018996632250059167 0 0.030235636669151255 -0.0022323982743535516 0 0.029786970614967739 -0.0018996632250059167 0 0.030336010330042625 -0.0016669068097341499 0 0.030235636669151255 -0.0022323982743535516 0 0.030823476263435588 -0.002015997803259807 0 0.030336010330042625 -0.0016669068097341499 0 0.030823476263435588 -0.002015997803259807 0 0.030600410581277923 -0.0025425207479362368 0 0.03142887740505676 -0.0021951715044855064 0 0.030823476263435588 -0.002015997803259807 0 0.031043784069236253 -0.00138527570814191 0 0.03142887740505676 -0.0021951715044855064 0 0.030235636669151255 -0.0022323982743535516 0 0.030823476263435588 -0.002015997803259807 0 0.030600410581277923 -0.0025425207479362368 0 0.031958627604318883 -0.0015408058104518182 0 0.031363194136822321 -0.0023159836873959958 0 0.032447688932454831 -0.0010009591243627918 0 0.032395878113903549 -0.0013288098265702973 0 0.032258932955032862 -0.0012629809363372631 0 0.030600410581277923 -0.0025425207479362368 0 0.03142887740505676 -0.0021951715044855064 0 0.030726150282851993 -0.0030527701091333545 0 0.030600410581277923 -0.0025425207479362368 0 0.03031617459794177 -0.0029510234661332437 0 0.030726150282851993 -0.0030527701091333545 0 0.030600410581277923 -0.0025425207479362368 0 0.03031617459794177 -0.0029510234661332437 0 0.030081525045526202 -0.0027098519915771404 0 0.030235636669151255 -0.0022323982743535516 0 0.030600410581277923 -0.0025425207479362368 0 0.030081525045526202 -0.0027098519915771404 0 0.030235636669151255 -0.0022323982743535516 0 0.030081525045526202 -0.0027098519915771404 0 0.02972022497456021 -0.0024613457588809583 0 0.030081525045526202 -0.0027098519915771404 0 0.029634080751202396 -0.0029392833128088314 0 0.029981023514696167 -0.0030409655888950877 0 0.03031617459794177 -0.0029510234661332437 0 0.030081525045526202 -0.0027098519915771404 0 0.029981023514696167 -0.0030409655888950877 0 0.030081525045526202 -0.0027098519915771404 0 0.029634080751202396 -0.0029392833128088314 0 0.02972022497456021 -0.0024613457588809583 0 0.029634080751202396 -0.0029392833128088314 0 0.029460216069066306 -0.0026841815813655012 0 0.02972022497456021 -0.0024613457588809583 0 0.02921661954608093 -0.002938715505472379 0 0.029460216069066306 -0.0026841815813655012 0 0.029135825455768646 -0.0026130071931372797 0 0.029634080751202396 -0.0029392833128088314 0 0.02921661954608093 -0.002938715505472379 0 0.029460216069066306 -0.0026841815813655012 0 0.029460216069066306 -0.0026841815813655012 0 0.02972022497456021 -0.0024613457588809583 0 0.029252659669774705 -0.002188819624659619 0 0.029460216069066306 -0.0026841815813655012 0 0.029135825455768646 -0.0026130071931372797 0 0.029252659669774705 -0.002188819624659619 0 0.028608810971404611 -0.0029494348449122217 0 0.02888588133979517 -0.0027854217757571479 0 0.028921249018825534 -0.0031730616316634889 0 0.028608810971404611 -0.0029494348449122217 0 0.02888588133979517 -0.0027854217757571479 0 0.028581564931795245 -0.0026014792911040995 0 0.02921661954608093 -0.002938715505472379 0 0.02888588133979517 -0.0027854217757571479 0 0.028921249018825534 -0.0031730616316634889 0 0.02921661954608093 -0.002938715505472379 0 0.02888588133979517 -0.0027854217757571479 0 0.029135825455768646 -0.0026130071931372797 0 0.02888588133979517 -0.0027854217757571479 0 0.029135825455768646 -0.0026130071931372797 0 0.028856324876973032 -0.0024276218364198596 0 0.029135825455768646 -0.0026130071931372797 0 0.028856324876973032 -0.0024276218364198596 0 0.029252659669774705 -0.002188819624659619 0 0.02888588133979517 -0.0027854217757571479 0 0.028856324876973032 -0.0024276218364198596 0 0.028581564931795245 -0.0026014792911040995 0 0.028856324876973032 -0.0024276218364198596 0 0.028581564931795245 -0.0026014792911040995 0 0.028416053450879317 -0.0022340615230326379 0 0.028856324876973032 -0.0024276218364198596 0 0.028772174828403451 -0.0021164551402905814 0 0.028416053450879317 -0.0022340615230326379 0 0.028772174828403451 -0.0021164551402905814 0 0.028416053450879317 -0.0022340615230326379 0 0.028447845856733014 -0.0019358170132082902 0 0.028856324876973032 -0.0024276218364198596 0 0.028772174828403451 -0.0021164551402905814 0 0.029252659669774705 -0.002188819624659619 0 0.028772174828403451 -0.0021164551402905814 0 0.028890563710499563 -0.0018094558287848788 0 0.029252659669774705 -0.002188819624659619 0 0.028772174828403451 -0.0021164551402905814 0 0.028890563710499563 -0.0018094558287848788 0 0.028447845856733014 -0.0019358170132082902 0 0.028890563710499563 -0.0018094558287848788 0 0.028552463032698351 -0.0016662095916158842 0 0.028447845856733014 -0.0019358170132082902 0 0.02972022497456021 -0.0024613457588809583 0 0.029252659669774705 -0.002188819624659619 0 0.029786970614967739 -0.0018996632250059167 0 0.028890563710499563 -0.0018094558287848788 0 0.029252659669774705 -0.002188819624659619 0 0.02930159456821544 -0.0016119441737666321 0 0.029252659669774705 -0.002188819624659619 0 0.029786970614967739 -0.0018996632250059167 0 0.02930159456821544 -0.0016119441737666321 0 0.029786970614967739 -0.0018996632250059167 0 0.02930159456821544 -0.0016119441737666321 0 0.029769062371395944 -0.001338467070313702 0 0.02930159456821544 -0.0016119441737666321 0 0.028818177531750033 -0.0014034071940639996 0 0.029238070489048914 -0.0010916840879685544 0 0.02930159456821544 -0.0016119441737666321 0 0.029769062371395944 -0.001338467070313702 0 0.029238070489048914 -0.0010916840879685544 0 0.028552463032698351 -0.0016662095916158842 0 0.028818177531750033 -0.0014034071940639996 0 0.028397038519353594 -0.0014430018836578821 0 0.028890563710499563 -0.0018094558287848788 0 0.028552463032698351 -0.0016662095916158842 0 0.028818177531750033 -0.0014034071940639996 0 0.028890563710499563 -0.0018094558287848788 0 0.02930159456821544 -0.0016119441737666321 0 0.028818177531750033 -0.0014034071940639996 0 0.028818177531750033 -0.0014034071940639996 0 0.028644692547693213 -0.00099658280799932585 0 0.029238070489048914 -0.0010916840879685544 0 0.028644692547693213 -0.00099658280799932585 0 0.028245296648206273 -0.0011990818874776162 0 0.028397038519353594 -0.0014430018836578821 0 0.028818177531750033 -0.0014034071940639996 0 0.028644692547693213 -0.00099658280799932585 0 0.028397038519353594 -0.0014430018836578821 0 0.028644692547693213 -0.00099658280799932585 0 0.029238070489048914 -0.0010916840879685544 0 0.029095166990598036 -0.00035160935854464088 0 0.028644692547693213 -0.00099658280799932585 0 0.028245296648206273 -0.0011990818874776162 0 0.028244149915610695 -0.00091616784671443041 0 0.028644692547693213 -0.00099658280799932585 0 0.028440720839806238 -0.00048755056234499496 0 0.029095166990598036 -0.00035160935854464088 0 0.028644692547693213 -0.00099658280799932585 0 0.028440720839806238 -0.00048755056234499496 0 0.028244149915610695 -0.00091616784671443041 0 0.029238070489048914 -0.0010916840879685544 0 0.029769377037650337 -0.00069098628962028033 0 0.029095166990598036 -0.00035160935854464088 0 0.029769062371395944 -0.001338467070313702 0 0.029238070489048914 -0.0010916840879685544 0 0.029769377037650337 -0.00069098628962028033 0 0.029769377037650337 -0.00069098628962028033 0 0.030432538980271821 -0.0010088185833813945 0 0.030370943262440279 -0.00035459903848603135 0 0.029769062371395944 -0.001338467070313702 0 0.029769377037650337 -0.00069098628962028033 0 0.030432538980271821 -0.0010088185833813945 0 0.029769062371395944 -0.001338467070313702 0 0.030432538980271821 -0.0010088185833813945 0 0.030336010330042625 -0.0016669068097341499 0 0.029786970614967739 -0.0018996632250059167 0 0.029769062371395944 -0.001338467070313702 0 0.030336010330042625 -0.0016669068097341499 0 0.030823476263435588 -0.002015997803259807 0 0.030336010330042625 -0.0016669068097341499 0 0.031043784069236253 -0.00138527570814191 0 0.030432538980271821 -0.0010088185833813945 0 0.030336010330042625 -0.0016669068097341499 0 0.031043784069236253 -0.00138527570814191 0 0.030432538980271821 -0.0010088185833813945 0 0.031043784069236253 -0.00138527570814191 0 0.031253299801953842 -0.00050303360382389221 0 0.030432538980271821 -0.0010088185833813945 0 0.031253299801953842 -0.00050303360382389221 0 0.030370943262440279 -0.00035459903848603135 0 0.031253299801953842 -0.00050303360382389221 0 0.032189399291561671 -0.00063113054666996357 0 0.032191942669553303 -0.001063702905946832 0 0.032189399291561671 -0.00063113054666996357 0 0.032191942669553303 -0.001063702905946832 0 0.032543905850916079 -0.00091293028790808111 0 0.031043784069236253 -0.00138527570814191 0 0.031253299801953842 -0.00050303360382389221 0 0.032191942669553303 -0.001063702905946832 0 0.031043784069236253 -0.00138527570814191 0 0.032191942669553303 -0.001063702905946832 0 0.03142887740505676 -0.0021951715044855064 0 0.032530597060364444 -0.00093561079579288246 0 0.032543905850916079 -0.00091293028790808111 0 0.032452909131116175 -0.00056412610086300097 0 0.032530597060364444 -0.00093561079579288246 0 0.032543905850916079 -0.00091293028790808111 0 0.032532275390580782 -0.00096362405122757519 0 0.032189399291561671 -0.00063113054666996357 0 0.032543905850916079 -0.00091293028790808111 0 0.032452909131116175 -0.00056412610086300097 0 0.032191942669553303 -0.001063702905946832 0 0.032543905850916079 -0.00091293028790808111 0 0.032508559342829819 -0.0010440260063957364 0 0.032543905850916079 -0.00091293028790808111 0 0.032581768344656134 -0.0009853552608585336 0 0.032508559342829819 -0.0010440260063957364 0 0.032490370346606574 -0.00099854948297972853 0 0.032532275390580782 -0.00096362405122757519 0 0.032581768344656134 -0.0009853552608585336 0 0.032543905850916079 -0.00091293028790808111 0 0.032532275390580782 -0.00096362405122757519 0 0.032581768344656134 -0.0009853552608585336 0 0.032554814794270394 -0.00090768155702982138 0 0.032581768344656134 -0.0009853552608585336 0 0.032666268553316134 -0.00095919042552044479 0 0.032581768344656134 -0.0009853552608585336 0 0.032508559342829819 -0.0010440260063957364 0 0.032666268553316134 -0.00095919042552044479 0 0.032508559342829819 -0.0010440260063957364 0 0.032666268553316134 -0.00095919042552044479 0 0.032703839141454007 -0.0010420938516435337 0 0.032666268553316134 -0.00095919042552044479 0 0.032703839141454007 -0.0010420938516435337 0 0.032828854535221573 -0.00083699623538484107 0 0.032554814794270394 -0.00090768155702982138 0 0.032666268553316134 -0.00095919042552044479 0 0.032762036124568628 -0.00078735627194549316 0 0.032183512551120966 -0.0011081385385786377 0 0.031958627604318883 -0.0015408058104518182 0 0.032508559342829819 -0.0010440260063957364 0 0.032447688932454831 -0.0010009591243627918 0 0.032703839141454007 -0.0010420938516435337 0 0.032191942669553303 -0.001063702905946832 0 0.032508559342829819 -0.0010440260063957364 0 0.032447688932454831 -0.0010009591243627918 0 0.032447688932454831 -0.0010009591243627918 0 0.032703839141454007 -0.0010420938516435337 0 0.032395878113903549 -0.0013288098265702973 0 0.032622689919972442 -0.0011329184993816334 0 0.033044683484004932 -0.00087971239610165467 0 0.032703839141454007 -0.0010420938516435337 0 0.032949962439251662 -0.00082055815483119158 0 0.033255879740218049 -0.00084065957323394556 0 0.032949962439251662 -0.00082055815483119158 0 0.033137259813021971 -0.00068467122921702869 0 0.033255879740218049 -0.00084065957323394556 0 0.032703839141454007 -0.0010420938516435337 0 0.032949962439251662 -0.00082055815483119158 0 0.032828854535221573 -0.00083699623538484107 0 0.032949962439251662 -0.00082055815483119158 0 0.032980394990957292 -0.00072678886383541045 0 0.032828854535221573 -0.00083699623538484107 0 0.032949962439251662 -0.00082055815483119158 0 0.032980394990957292 -0.00072678886383541045 0 0.033137259813021971 -0.00068467122921702869 0 0.032980394990957292 -0.00072678886383541045 0 0.032963030639897084 -0.00065033691161047889 0 0.033109488430408521 -0.00058771915382593311 0 0.032980394990957292 -0.00072678886383541045 0 0.033137259813021971 -0.00068467122921702869 0 0.033109488430408521 -0.00058771915382593311 0 0.033137259813021971 -0.00068467122921702869 0 0.03330057662746308 -0.00066338834206203527 0 0.033255879740218049 -0.00084065957323394556 0 0.033137259813021971 -0.00068467122921702869 0 0.033247185140677107 -0.00056187946715888107 0 0.03330057662746308 -0.00066338834206203527 0 0.033137259813021971 -0.00068467122921702869 0 0.033247185140677107 -0.00056187946715888107 0 0.033109488430408521 -0.00058771915382593311 0 0.032762036124568628 -0.00078735627194549316 0 0.032828854535221573 -0.00083699623538484107 0 0.032963030639897084 -0.00065033691161047889 0 0.032666268553316134 -0.00095919042552044479 0 0.032762036124568628 -0.00078735627194549316 0 0.032828854535221573 -0.00083699623538484107 0 0.032980394990957292 -0.00072678886383541045 0 0.032828854535221573 -0.00083699623538484107 0 0.032963030639897084 -0.00065033691161047889 0 0.032762036124568628 -0.00078735627194549316 0 0.032963030639897084 -0.00065033691161047889 0 0.03298890865755566 -0.00052524486356084275 0 0.032963030639897084 -0.00065033691161047889 0 0.03298890865755566 -0.00052524486356084275 0 0.033137573584804035 -0.00051808904838592722 0 0.032963030639897084 -0.00065033691161047889 0 0.033137573584804035 -0.00051808904838592722 0 0.033109488430408521 -0.00058771915382593311 0 0.03319348988349706 -0.00054046413636914888 0 0.033402131827150398 -0.00061231305772724146 0 0.033137573584804035 -0.00051808904838592722 0 0.033579303481541936 -0.00033936819113467996 0 0.033455196968542385 -0.00037035398791934542 0 0.03298890865755566 -0.00052524486356084275 0 0.033137573584804035 -0.00051808904838592722 0 0.03318398662999604 -0.00085561240257752129 0 0.033380166490030165 -0.0009004735328865559 0 0.03298890865755566 -0.00052524486356084275 0 0.03318398662999604 -0.00085561240257752129 0 0.033247185140677107 -0.00056187946715888107 0 0.033234108880897444 -0.0005057538117071331 0 0.033109488430408521 -0.00058771915382593311 0 0.033247185140677107 -0.00056187946715888107 0 0.033234108880897444 -0.0005057538117071331 0 0.033325345772487414 -0.00046807409736111778 0 0.033137573584804035 -0.00051808904838592722 0 0.033234108880897444 -0.0005057538117071331 0 0.033109488430408521 -0.00058771915382593311 0 0.033137573584804035 -0.00051808904838592722 0 0.03332311895017185 -0.00041927352299167407 0 0.033455196968542385 -0.00037035398791934542 0 0.033137573584804035 -0.00051808904838592722 0 0.033234108880897444 -0.0005057538117071331 0 0.03332311895017185 -0.00041927352299167407 0 0.03332311895017185 -0.00041927352299167407 0 0.033325345772487414 -0.00046807409736111778 0 0.033345649997689568 -0.00041315937590589205 0 0.033234108880897444 -0.0005057538117071331 0 0.03332311895017185 -0.00041927352299167407 0 0.033325345772487414 -0.00046807409736111778 0 0.033325345772487414 -0.00046807409736111778 0 0.033394551629156458 -0.00042068820600219144 0 0.033345649997689568 -0.00041315937590589205 0 0.033325345772487414 -0.00046807409736111778 0 0.033400250566592959 -0.00049568385233579864 0 0.033394551629156458 -0.00042068820600219144 0 0.033444956684430392 -0.00048036842694117637 0 0.033468768292325854 -0.00043611629754653527 0 0.033394551629156458 -0.00042068820600219144 0 0.033400250566592959 -0.00049568385233579864 0 0.033444956684430392 -0.00048036842694117637 0 0.033394551629156458 -0.00042068820600219144 0 0.033400250566592959 -0.00049568385233579864 0 0.033444956684430392 -0.00048036842694117637 0 0.03343937347522933 -0.00052195573528853411 0 0.033421453572901348 -0.00058319686680924441 0 0.033429047730664678 -0.00066935252264611314 0 0.033472897417504352 -0.00055145298024333617 0 0.033400250566592959 -0.00049568385233579864 0 0.03343937347522933 -0.00052195573528853411 0 0.033421453572901348 -0.00058319686680924441 0 0.033400250566592959 -0.00049568385233579864 0 0.033421453572901348 -0.00058319686680924441 0 0.03334743366139295 -0.00055183740420916734 0 0.033421453572901348 -0.00058319686680924441 0 0.03334743366139295 -0.00055183740420916734 0 0.033375621681058031 -0.00061467021706216208 0 0.03343937347522933 -0.00052195573528853411 0 0.033421453572901348 -0.00058319686680924441 0 0.033458104712277829 -0.00054426105391540717 0 0.033555130751716247 -0.00056229309615190258 0 0.032850210046334684 -0.0010249735550332518 0 0.033325345772487414 -0.00046807409736111778 0 0.033400250566592959 -0.00049568385233579864 0 0.03334743366139295 -0.00055183740420916734 0 0.033247185140677107 -0.00056187946715888107 0 0.033325345772487414 -0.00046807409736111778 0 0.03334743366139295 -0.00055183740420916734 0 0.033247185140677107 -0.00056187946715888107 0 0.03334743366139295 -0.00055183740420916734 0 0.03330057662746308 -0.00066338834206203527 0 0.03330057662746308 -0.00066338834206203527 0 0.033429047730664678 -0.00066935252264611314 0 0.033255879740218049 -0.00084065957323394556 0 0.03330057662746308 -0.00066338834206203527 0 0.033375621681058031 -0.00061467021706216208 0 0.033429047730664678 -0.00066935252264611314 0 0.03334743366139295 -0.00055183740420916734 0 0.03330057662746308 -0.00066338834206203527 0 0.033375621681058031 -0.00061467021706216208 0 0.033421453572901348 -0.00058319686680924441 0 0.033375621681058031 -0.00061467021706216208 0 0.033429047730664678 -0.00066935252264611314 0 0.031827852356673833 -0.0020469321118435882 0 0.032850210046334684 -0.0010249735550332518 0 0.030124315027045045 -0.0038249017069324084 0 0.029894409748925346 -0.0035206661735085114 0 0.029578241162459371 -0.0036575807393216396 0 0.030124315027045045 -0.0038249017069324084 0 0.030142179839497206 -0.0032930823750290644 0 0.030726150282851993 -0.0030527701091333545 0 0.031827852356673833 -0.0020469321118435882 0 0.031363194136822321 -0.0023159836873959958 0 0.030124315027045045 -0.0038249017069324084 0 0.029894409748925346 -0.0035206661735085114 0 0.030142179839497206 -0.0032930823750290644 0 0.029894409748925346 -0.0035206661735085114 0 0.030142179839497206 -0.0032930823750290644 0 0.029735243449335928 -0.0033023905823347092 0 0.029981023514696167 -0.0030409655888950877 0 0.030142179839497206 -0.0032930823750290644 0 0.029735243449335928 -0.0033023905823347092 0 0.03031617459794177 -0.0029510234661332437 0 0.029981023514696167 -0.0030409655888950877 0 0.030142179839497206 -0.0032930823750290644 0 0.03031617459794177 -0.0029510234661332437 0 0.030142179839497206 -0.0032930823750290644 0 0.030726150282851993 -0.0030527701091333545 0 0.03204792966435533 -0.001592068844304913 0 0.032395878113903549 -0.0013288098265702973 0 0.032258932955032862 -0.0012629809363372631 0 0.031827852356673833 -0.0020469321118435882 0 0.033044683484004932 -0.00087971239610165467 0 0.028921249018825534 -0.0031730616316634889 0 0.029340323376737774 -0.0032875036587694494 0 0.028970683126378835 -0.0036952108999438373 0 0.028921249018825534 -0.0031730616316634889 0 0.028970683126378835 -0.0036952108999438373 0 0.028571066932591919 -0.0033239688454426574 0 0.028608810971404611 -0.0029494348449122217 0 0.028921249018825534 -0.0031730616316634889 0 0.028571066932591919 -0.0033239688454426574 0 0.02921661954608093 -0.002938715505472379 0 0.028921249018825534 -0.0031730616316634889 0 0.029340323376737774 -0.0032875036587694494 0 0.029634080751202396 -0.0029392833128088314 0 0.02921661954608093 -0.002938715505472379 0 0.029340323376737774 -0.0032875036587694494 0 0.029634080751202396 -0.0029392833128088314 0 0.029735243449335928 -0.0033023905823347092 0 0.029340323376737774 -0.0032875036587694494 0 0.029634080751202396 -0.0029392833128088314 0 0.029981023514696167 -0.0030409655888950877 0 0.029735243449335928 -0.0033023905823347092 0 0.029894409748925346 -0.0035206661735085114 0 0.029735243449335928 -0.0033023905823347092 0 0.029578241162459371 -0.0036575807393216396 0 0.029735243449335928 -0.0033023905823347092 0 0.029340323376737774 -0.0032875036587694494 0 0.029578241162459371 -0.0036575807393216396 0 0.029340323376737774 -0.0032875036587694494 0 0.029578241162459371 -0.0036575807393216396 0 0.028970683126378835 -0.0036952108999438373 0 0.029578241162459371 -0.0036575807393216396 0 0.028970683126378835 -0.0036952108999438373 0 0.029426049361279898 -0.0042397241077797194 0 0.031827852356673833 -0.0020469321118435882 0 0.030390812814022842 -0.0032827540694023963 0 0.030124315027045045 -0.0038249017069324084 0 0.029578241162459371 -0.0036575807393216396 0 0.029426049361279898 -0.0042397241077797194 0 0.028970683126378835 -0.0036952108999438373 0 0.028907038087848703 -0.0041727329470875136 0 0.029426049361279898 -0.0042397241077797194 0 0.028970683126378835 -0.0036952108999438373 0 0.028571066932591919 -0.0033239688454426574 0 0.028449343775761592 -0.0036658784246439307 0 0.028970683126378835 -0.0036952108999438373 0 0.028449343775761592 -0.0036658784246439307 0 0.028464534944396269 -0.004123395946712894 0 0.028970683126378835 -0.0036952108999438373 0 0.028907038087848703 -0.0041727329470875136 0 0.028464534944396269 -0.004123395946712894 0 0.031441420619455325 -0.002233006712884511 0 0.031573507391887461 -0.0021460784289724557 0 0.031467560210697465 -0.0022492368282151509 0 0.028907038087848703 -0.0041727329470875136 0 0.02877275349588946 -0.0046249370187031041 0 0.029426049361279898 -0.0042397241077797194 0 0.029727570493114412 -0.0037311235544840965 0 0.030390812814022842 -0.0032827540694023963 0 0.028907038087848703 -0.0041727329470875136 0 0.02877275349588946 -0.0046249370187031041 0 0.028464534944396269 -0.004123395946712894 0 0.031725029344433581 -0.0020463542699899503 0 0.031631283043437375 -0.00218141368429657 0 0.031573507391887461 -0.0021460784289724557 0 0.031631283043437375 -0.00218141368429657 0 0.031573507391887461 -0.0021460784289724557 0 0.031467560210697465 -0.0022492368282151509 0 0.033457053464568363 -0.00053822920742494071 0 0.033463111798822311 -0.00052373095720104816 0 0.033506406728797955 -0.00048762672006496047 0 0.032850210046334684 -0.0010249735550332518 0 0.032564237684383171 -0.001352240169799534 0 0.033444956684430392 -0.00048036842694117637 0 0.03343937347522933 -0.00052195573528853411 0 0.033463111798822311 -0.00052373095720104816 0 0.03343937347522933 -0.00052195573528853411 0 0.033458104712277829 -0.00054426105391540717 0 0.033463111798822311 -0.00052373095720104816 0 0.032850210046334684 -0.0010249735550332518 0 0.033079458857540517 -0.00073914175415331707 0 0.033463111798822311 -0.00052373095720104816 0 0.033483068643287407 -0.00047378544386981547 0 0.033506406728797955 -0.00048762672006496047 0 0.033483068643287407 -0.00047378544386981547 0 0.033516972320396396 -0.00043172386173341218 0 0.033468768292325854 -0.00043611629754653527 0 0.033444956684430392 -0.00048036842694117637 0 0.033463111798822311 -0.00052373095720104816 0 0.033483068643287407 -0.00047378544386981547 0 0.033444956684430392 -0.00048036842694117637 0 0.033483068643287407 -0.00047378544386981547 0 0.033468768292325854 -0.00043611629754653527 0 0.033506406728797955 -0.00048762672006496047 0 0.033516972320396396 -0.00043172386173341218 0 0.033525750111528071 -0.00047147563880564598 0 0.031441420619455325 -0.002233006712884511 0 0.031467560210697465 -0.0022492368282151509 0 0.031348357366078328 -0.0022651634239932309 0 0.033483068643287407 -0.00047378544386981547 0 0.033506406728797955 -0.00048762672006496047 0 0.033516972320396396 -0.00043172386173341218 0 0.033556703938705669 -0.00037160245108880375 0 0.033572727258897921 -0.00031037949490208622 0 0.03360303699596158 -0.00034927840847104286 0 0.033556703938705669 -0.00037160245108880375 0 0.033572727258897921 -0.00031037949490208622 0 0.033474885559150305 -0.00035270070439681259 0 0.033474885559150305 -0.00035270070439681259 0 0.033454731664723035 -0.0002555787855241516 0 0.033515518770111392 -0.00027924014772349749 0 0.033572727258897921 -0.00031037949490208622 0 0.033474885559150305 -0.00035270070439681259 0 0.033515518770111392 -0.00027924014772349749 0 0.033516972320396396 -0.00043172386173341218 0 0.033474885559150305 -0.00035270070439681259 0 0.033468768292325854 -0.00043611629754653527 0 0.033810470306307981 -0.00036002167400756008 0 0.033389100395564794 -0.00033339386554910117 0 0.033474885559150305 -0.00035270070439681259 0 0.033468768292325854 -0.00043611629754653527 0 0.033394551629156458 -0.00042068820600219144 0 0.033394551629156458 -0.00042068820600219144 0 0.033354760679002199 -0.00040300939263785963 0 0.033345649997689568 -0.00041315937590589205 0 0.033394551629156458 -0.00042068820600219144 0 0.033336201760817946 -0.00035727109814217406 0 0.033398535771478118 -0.00031184397910864276 0 0.033418693289390344 -0.00043841003605800063 0 0.033266162379526419 -0.00033422466637913491 0 0.033336201760817946 -0.00035727109814217406 0 0.033345373780727924 -0.00030168151410957776 0 0.033398535771478118 -0.00031184397910864276 0 0.033474885559150305 -0.00035270070439681259 0 0.033398535771478118 -0.00031184397910864276 0 0.033454731664723035 -0.0002555787855241516 0 0.033474885559150305 -0.00035270070439681259 0 0.033394551629156458 -0.00042068820600219144 0 0.033398535771478118 -0.00031184397910864276 0 0.033398535771478118 -0.00031184397910864276 0 0.033454731664723035 -0.0002555787855241516 0 0.03336881163976791 -0.00023311651258268562 0 0.033454731664723035 -0.0002555787855241516 0 0.03336881163976791 -0.00023311651258268562 0 0.033467965279713185 -0.00015695288533327883 0 0.033345373780727924 -0.00030168151410957776 0 0.033398535771478118 -0.00031184397910864276 0 0.03336881163976791 -0.00023311651258268562 0 0.033345373780727924 -0.00030168151410957776 0 0.03336881163976791 -0.00023311651258268562 0 0.033279159034240065 -0.00030412728838501819 0 0.035145695817789861 -0.00048659818226960976 0 0.035091075675640369 -0.0003916209942239083 0 0.035175841902151103 -0.00036965110883500148 0 0.035145695817789861 -0.00048659818226960976 0 0.035091075675640369 -0.0003916209942239083 0 0.035022380247098577 -0.00048211150324414619 0 0.035145695817789861 -0.00048659818226960976 0 0.035220682749556198 -0.00037927320238546804 0 0.035175841902151103 -0.00036965110883500148 0 0.034295233381199282 -0.00035489263258883721 0 0.034330773265545136 -0.00027560242655484408 0 0.033454731664723035 -0.0002555787855241516 0 0.033467965279713185 -0.00015695288533327883 0 0.033503745277737154 -0.00020975326174795536 0 0.033467965279713185 -0.00015695288533327883 0 0.033503745277737154 -0.00020975326174795536 0 0.03353992169254736 -0.00016873007055176394 0 0.03353992169254736 -0.00016873007055176394 0 0.033594419688982968 -0.00017446380279284351 0 0.033566342369773253 -8.7848581612887602e-05 0 0.03353992169254736 -0.00016873007055176394 0 0.033594419688982968 -0.00017446380279284351 0 0.033560588305122575 -0.00023423467883164204 0 0.033503745277737154 -0.00020975326174795536 0 0.03353992169254736 -0.00016873007055176394 0 0.033560588305122575 -0.00023423467883164204 0 0.033503745277737154 -0.00020975326174795536 0 0.033560588305122575 -0.00023423467883164204 0 0.033515518770111392 -0.00027924014772349749 0 0.033572727258897921 -0.00031037949490208622 0 0.033560588305122575 -0.00023423467883164204 0 0.033515518770111392 -0.00027924014772349749 0 0.033454731664723035 -0.0002555787855241516 0 0.033503745277737154 -0.00020975326174795536 0 0.033515518770111392 -0.00027924014772349749 0 0.033984564539804051 -0.00036838794134605668 0 0.03374344983995297 -0.00040277455249972382 0 0.03404571847272473 -0.00046523697318202265 0 0.033768801074444708 -0.00071852593234306053 0 0.033402131827150398 -0.00061231305772724146 0 0.033561789347000791 -0.0010785071741776053 0 0.033380166490030165 -0.0009004735328865559 0 0.03318398662999604 -0.00085561240257752129 0 0.033984564539804051 -0.00036838794134605668 0 0.033579303481541936 -0.00033936819113467996 0 0.03374344983995297 -0.00040277455249972382 0 0.033579303481541936 -0.00033936819113467996 0 0.03374344983995297 -0.00040277455249972382 0 0.033455196968542385 -0.00037035398791934542 0 0.03374344983995297 -0.00040277455249972382 0 0.033608195150622973 -0.00043569011918334551 0 0.033455196968542385 -0.00037035398791934542 0 0.03374344983995297 -0.00040277455249972382 0 0.033608195150622973 -0.00043569011918334551 0 0.033830705763716849 -0.00048379024482173255 0 0.033608195150622973 -0.00043569011918334551 0 0.033444431510973031 -0.00042111607621180588 0 0.033455196968542385 -0.00037035398791934542 0 0.033444431510973031 -0.00042111607621180588 0 0.033386966826449413 -0.00046395681598749075 0 0.033608965784582952 -0.00054853931527010778 0 0.033608195150622973 -0.00043569011918334551 0 0.033444431510973031 -0.00042111607621180588 0 0.033608965784582952 -0.00054853931527010778 0 0.03332311895017185 -0.00041927352299167407 0 0.033455196968542385 -0.00037035398791934542 0 0.03337952654151298 -0.00039880745985029293 0 0.033444431510973031 -0.00042111607621180588 0 0.033455196968542385 -0.00037035398791934542 0 0.03337952654151298 -0.00039880745985029293 0 0.03337952654151298 -0.00039880745985029293 0 0.033345649997689568 -0.00041315937590589205 0 0.033375107792599307 -0.0004086059690043455 0 0.03332311895017185 -0.00041927352299167407 0 0.03337952654151298 -0.00039880745985029293 0 0.033345649997689568 -0.00041315937590589205 0 0.033354760679002199 -0.00040300939263785963 0 0.033345649997689568 -0.00041315937590589205 0 0.033375107792599307 -0.0004086059690043455 0 0.033354760679002199 -0.00040300939263785963 0 0.033375107792599307 -0.0004086059690043455 0 0.033395921612348188 -0.00044626857073454252 0 0.033336201760817946 -0.00035727109814217406 0 0.033345373780727924 -0.00030168151410957776 0 0.033279159034240065 -0.00030412728838501819 0 0.033266162379526419 -0.00033422466637913491 0 0.033918148374425368 -0.00042442566384251327 0 0.033444431510973031 -0.00042111607621180588 0 0.033375107792599307 -0.0004086059690043455 0 0.033395921612348188 -0.00044626857073454252 0 0.033444431510973031 -0.00042111607621180588 0 0.03337952654151298 -0.00039880745985029293 0 0.033375107792599307 -0.0004086059690043455 0 0.033516474512836465 -0.00054403701481574502 0 0.033918148374425368 -0.00042442566384251327 0 0.034295233381199282 -0.00035489263258883721 0 0.033918148374425368 -0.00042442566384251327 0 0.035145695817789861 -0.00048659818226960976 0 0.034990578636032263 -0.00061857978292458266 0 0.035022380247098577 -0.00048211150324414619 0 0.035022380247098577 -0.00048211150324414619 0 0.03490951368211747 -0.00043474555264246586 0 0.035004699040302914 -0.00034334705584906553 0 0.035091075675640369 -0.0003916209942239083 0 0.035022380247098577 -0.00048211150324414619 0 0.035004699040302914 -0.00034334705584906553 0 0.035022380247098577 -0.00048211150324414619 0 0.03490951368211747 -0.00043474555264246586 0 0.034879432617391036 -0.00054533802660110687 0 0.033918148374425368 -0.00042442566384251327 0 0.034286522888851714 -0.00056699344988321619 0 0.034990578636032263 -0.00061857978292458266 0 0.035022380247098577 -0.00048211150324414619 0 0.034879432617391036 -0.00054533802660110687 0 0.033608965784582952 -0.00054853931527010778 0 0.033830705763716849 -0.00048379024482173255 0 0.034002419502695322 -0.00055784555784875608 0 0.033608195150622973 -0.00043569011918334551 0 0.033608965784582952 -0.00054853931527010778 0 0.033830705763716849 -0.00048379024482173255 0 0.03490951368211747 -0.00043474555264246586 0 0.034879432617391036 -0.00054533802660110687 0 0.034710630075614056 -0.00049029783545766182 0 0.03490951368211747 -0.00043474555264246586 0 0.034710630075614056 -0.00049029783545766182 0 0.034869039629863818 -0.00031170844541773563 0 0.034286522888851714 -0.00056699344988321619 0 0.034332193869793845 -0.00048749072099564202 0 0.034297752098353201 -0.00044948015753591773 0 0.034002419502695322 -0.00055784555784875608 0 0.034447596446832013 -0.00037501898346527994 0 0.034297752098353201 -0.00044948015753591773 0 0.034002419502695322 -0.00055784555784875608 0 0.03404571847272473 -0.00046523697318202265 0 0.034332193869793845 -0.00048749072099564202 0 0.034398456858735091 -0.00039663667530750752 0 0.033830705763716849 -0.00048379024482173255 0 0.034002419502695322 -0.00055784555784875608 0 0.03404571847272473 -0.00046523697318202265 0 0.03374344983995297 -0.00040277455249972382 0 0.033830705763716849 -0.00048379024482173255 0 0.03404571847272473 -0.00046523697318202265 0 0.034583393727175761 -0.00014977683503886874 0 0.034718091408901142 -0.00016623743396515674 0 0.034807718812488356 -2.8308559335704249e-05 0 0.034583393727175761 -0.00014977683503886874 0 0.034718091408901142 -0.00016623743396515674 0 0.034447596446832013 -0.00037501898346527994 0 0.034710630075614056 -0.00049029783545766182 0 0.034447596446832013 -0.00037501898346527994 0 0.034869039629863818 -0.00031170844541773563 0 0.034718091408901142 -0.00016623743396515674 0 0.034447596446832013 -0.00037501898346527994 0 0.034869039629863818 -0.00031170844541773563 0 0.034718091408901142 -0.00016623743396515674 0 0.034886612195641903 -0.00012315826542700004 0 0.034807718812488356 -2.8308559335704249e-05 0 0.034718091408901142 -0.00016623743396515674 0 0.034869039629863818 -0.00031170844541773563 0 0.034886612195641903 -0.00012315826542700004 0 0.034869039629863818 -0.00031170844541773563 0 0.034886612195641903 -0.00012315826542700004 0 0.034973260004913582 -0.00022978552042888842 0 0.034886612195641903 -0.00012315826542700004 0 0.034973260004913582 -0.00022978552042888842 0 0.034997602707856013 -8.0092124816828482e-05 0 0.034869039629863818 -0.00031170844541773563 0 0.034973260004913582 -0.00022978552042888842 0 0.035004699040302914 -0.00034334705584906553 0 0.03490951368211747 -0.00043474555264246586 0 0.034869039629863818 -0.00031170844541773563 0 0.035004699040302914 -0.00034334705584906553 0 0.034973260004913582 -0.00022978552042888842 0 0.035004699040302914 -0.00034334705584906553 0 0.035081955897679887 -0.00029070732127441595 0 0.035091075675640369 -0.0003916209942239083 0 0.035004699040302914 -0.00034334705584906553 0 0.035081955897679887 -0.00029070732127441595 0 0.034973260004913582 -0.00022978552042888842 0 0.035081955897679887 -0.00029070732127441595 0 0.035049578849260722 -0.00017259461886815175 0 0.034973260004913582 -0.00022978552042888842 0 0.035049578849260722 -0.00017259461886815175 0 0.034997602707856013 -8.0092124816828482e-05 0 0.035065694183996111 -3.418082460677364e-05 0 0.034997602707856013 -8.0092124816828482e-05 0 0.03509980061990231 -0.00010592443054772852 0 0.035049578849260722 -0.00017259461886815175 0 0.034997602707856013 -8.0092124816828482e-05 0 0.03509980061990231 -0.00010592443054772852 0 0.035065694183996111 -3.418082460677364e-05 0 0.034995343550517491 1.3163158478989076e-06 0 0.034997602707856013 -8.0092124816828482e-05 0 0.03500051860679361 -1.7363091213908553e-06 0 0.035000003402448222 1.4171523409619602e-08 0 0.035000003177141435 -9.635808300247123e-09 0 0.035036832043423734 -1.7070656571660363e-05 0 0.034997933571727396 3.5150303281019938e-07 0 0.03500051860679361 -1.7363091213908553e-06 0 0.035000003402448222 1.4171523409619602e-08 0 0.034995343550517491 1.3163158478989076e-06 0 0.034995343550517491 1.3163158478989076e-06 0 0.034997602707856013 -8.0092124816828482e-05 0 0.034939959298492959 -2.5622068911117856e-05 0 0.035000003402448222 1.4171523409619602e-08 0 0.034995343550517491 1.3163158478989076e-06 0 0.034999853468891416 -1.5107501363665637e-08 0 0.034886612195641903 -0.00012315826542700004 0 0.034997602707856013 -8.0092124816828482e-05 0 0.034939959298492959 -2.5622068911117856e-05 0 0.034886612195641903 -0.00012315826542700004 0 0.034939959298492959 -2.5622068911117856e-05 0 0.034807718812488356 -2.8308559335704249e-05 0 0.034995343550517491 1.3163158478989076e-06 0 0.034939959298492959 -2.5622068911117856e-05 0 0.034999853468891416 -1.5107501363665637e-08 0 0.034939959298492959 -2.5622068911117856e-05 0 0.034999853468891416 -1.5107501363665637e-08 0 0.034807718812488356 -2.8308559335704249e-05 0 0.034999611542406606 7.9630633002142423e-08 0 0.034999853468891416 -1.5107501363665637e-08 0 0.034807718812488356 -2.8308559335704249e-05 0 0.03499565953552853 -6.4885149114903205e-06 0 0.034998087484086685 -6.0322988911683632e-06 0 0.034992330920463686 -7.2010253151033158e-06 0 0.03499565953552853 -6.4885149114903205e-06 0 0.034998087484086685 -6.0322988911683632e-06 0 0.035000129087493358 -3.0066474124004731e-06 0 0.035227853316500739 -0.0002038074337389404 0 0.03442771117140507 -0.0002077139762879429 0 0.03499565953552853 -6.4885149114903205e-06 0 0.034994655680860146 -5.4716460761563819e-06 0 0.034992330920463686 -7.2010253151033158e-06 0 0.03499565953552853 -6.4885149114903205e-06 0 0.034994655680860146 -5.4716460761563819e-06 0 0.034994691116897694 -3.9512870350604971e-06 0 0.034995993872757029 -5.9373830503636679e-06 0 0.034997428742272386 -3.5948702531282468e-06 0 0.033467965279713185 -0.00015695288533327883 0 0.03353992169254736 -0.00016873007055176394 0 0.033566342369773253 -8.7848581612887602e-05 0 0.035216895745943853 -0.00032072472145301841 0 0.035240894994388136 -0.00034307649476830976 0 0.035220642676599308 -0.00034762275780274689 0 0.035220682749556198 -0.00037927320238546804 0 0.035240894994388136 -0.00034307649476830976 0 0.035220642676599308 -0.00034762275780274689 0 0.034330773265545136 -0.00027560242655484408 0 0.03442771117140507 -0.0002077139762879429 0 0.035216895745943853 -0.00032072472145301841 0 0.035220642676599308 -0.00034762275780274689 0 0.035199619743895676 -0.00034904197096689621 0 0.035220682749556198 -0.00037927320238546804 0 0.035220642676599308 -0.00034762275780274689 0 0.035199619743895676 -0.00034904197096689621 0 0.035178379211937429 -0.00035111003199184008 0 0.035183592140941626 -0.00030225306126234681 0 0.035220682749556198 -0.00037927320238546804 0 0.035175841902151103 -0.00036965110883500148 0 0.035199619743895676 -0.00034904197096689621 0 0.035175841902151103 -0.00036965110883500148 0 0.035199619743895676 -0.00034904197096689621 0 0.035176433525982688 -0.00033029859975053827 0 0.035091075675640369 -0.0003916209942239083 0 0.035081955897679887 -0.00029070732127441595 0 0.035175841902151103 -0.00036965110883500148 0 0.035081955897679887 -0.00029070732127441595 0 0.035175841902151103 -0.00036965110883500148 0 0.035189867464548857 -0.00022929431971916659 0 0.035049578849260722 -0.00017259461886815175 0 0.035189867464548857 -0.00022929431971916659 0 0.03509980061990231 -0.00010592443054772852 0 0.035183592140941626 -0.00030225306126234681 0 0.035065506891152926 -8.3181478831453914e-05 0 0.035189867464548857 -0.00022929431971916659 0 0.03509980061990231 -0.00010592443054772852 0 0.035186708442577118 -0.00010074057106966316 0 0.035081955897679887 -0.00029070732127441595 0 0.035049578849260722 -0.00017259461886815175 0 0.035189867464548857 -0.00022929431971916659 0 0.035216895745943853 -0.00032072472145301841 0 0.035199619743895676 -0.00034904197096689621 0 0.035176433525982688 -0.00033029859975053827 0 0.035227853316500739 -0.0002038074337389404 0 0.035065506891152926 -8.3181478831453914e-05 0 0.035216895745943853 -0.00032072472145301841 0 0.035176433525982688 -0.00033029859975053827 0 0.035174203128909842 -0.00028961212084010644 0 0.034998087484086685 -6.0322988911683632e-06 0 0.034998535290929292 -3.8701459455401484e-06 0 0.0349991661660684 -2.8055921064163275e-06 0 0.035065694183996111 -3.418082460677364e-05 0 0.03509980061990231 -0.00010592443054772852 0 0.035186708442577118 -0.00010074057106966316 0 0.035036832043423734 -1.7070656571660363e-05 0 0.035065506891152926 -8.3181478831453914e-05 0 0.03500051860679361 -1.7363091213908553e-06 0 0.035002056829816629 -3.3601322379511453e-06 0 0.035000003177141435 -9.635808300247123e-09 0 0.035065506891152926 -8.3181478831453914e-05 0 0.034999966286020791 1.2295872793699846e-07 0 0.034999996084419609 -1.9692908575910863e-09 0 0.034999999281506662 -1.3848053693922807e-09 0 0.0349991661660684 -2.8055921064163275e-06 0 0.034998535290929292 -3.8701459455401484e-06 0 0.034999996084419609 -1.9692908575910863e-09 0 0.0349991661660684 -2.8055921064163275e-06 0 0.034999999281506662 -1.3848053693922807e-09 0 0.0349991661660684 -2.8055921064163275e-06 0 0.035000129087493358 -3.0066474124004731e-06 0 0.034998087484086685 -6.0322988911683632e-06 0 0.0349991661660684 -2.8055921064163275e-06 0 0.035000129087493358 -3.0066474124004731e-06 0 0.034994655680860146 -5.4716460761563819e-06 0 0.034994691116897694 -3.9512870350604971e-06 0 0.034997527355027057 -2.5593558827426593e-06 0 0.034994691116897694 -3.9512870350604971e-06 0 0.034999989919240915 -1.4670592045831111e-09 0 0.034997527355027057 -2.5593558827426593e-06 0 0.034999999281506662 -1.3848053693922807e-09 0 0.035000129087493358 -3.0066474124004731e-06 0 0.035000002729867877 -8.666736639688243e-10 0 0.034997428742272386 -3.5948702531282468e-06 0 0.034999998794087668 -1.64907660742868e-09 0 0.034999989919240915 -1.4670592045831111e-09 0 0.034999999539498568 -9.7547261139977715e-10 0 0.034997527355027057 -2.5593558827426593e-06 0 0.034999999539498568 -9.7547261139977715e-10 0 0.03499885611016474 -1.5188622303634097e-06 0 0.034999999034648684 -1.1680041509335424e-09 0 0.034999999539498568 -9.7547261139977715e-10 0 0.03499885611016474 -1.5188622303634097e-06 0 0.034997527355027057 -2.5593558827426593e-06 0 0.03499885611016474 -1.5188622303634097e-06 0 0.034995881349048796 -5.4436737171701066e-06 0 0.034999623210794147 -1.4866501914569211e-06 0 0.034688378786233279 -4.3743300113729764e-05 0 0.03486050809668307 7.3646440739310957e-06 0 0.03499885611016474 -1.5188622303634097e-06 0 0.034997527355027057 -2.5593558827426593e-06 0 0.034995881349048796 -5.4436737171701066e-06 0 0.034994655680860146 -5.4716460761563819e-06 0 0.034997527355027057 -2.5593558827426593e-06 0 0.034995881349048796 -5.4436737171701066e-06 0 0.03442771117140507 -0.0002077139762879429 0 0.034688378786233279 -4.3743300113729764e-05 0 0.034994655680860146 -5.4716460761563819e-06 0 0.034992330920463686 -7.2010253151033158e-06 0 0.034995881349048796 -5.4436737171701066e-06 0 0.034334685501271833 -9.5032644316479504e-05 0 0.034513302741649966 -0.0003081512874435484 0 0.034151463229845684 -0.00027720359349927784 0 0.034046364472531315 -0.00032344281874709379 0 0.034334685501271833 -9.5032644316479504e-05 0 0.034151463229845684 -0.00027720359349927784 0 0.034334685501271833 -9.5032644316479504e-05 0 0.034513302741649966 -0.0003081512874435484 0 0.034682623781808877 -0.00014372371999976942 0 0.033930596392537503 -0.00033857067415642779 0 0.033826629566826742 -0.00025741304410810157 0 0.034065901469665753 -0.00023620501859366591 0 0.03442771117140507 -0.0002077139762879429 0 0.033730085442000006 -0.00016025294604169591 0 0.033594419688982968 -0.00017446380279284351 0 0.033566342369773253 -8.7848581612887602e-05 0 0.033654340108627417 -0.00013770497793605047 0 0.034046364472531315 -0.00032344281874709379 0 0.034151463229845684 -0.00027720359349927784 0 0.034065901469665753 -0.00023620501859366591 0 0.033930596392537503 -0.00033857067415642779 0 0.034151463229845684 -0.00027720359349927784 0 0.034065901469665753 -0.00023620501859366591 0 0.034216586415333136 -0.00030987499792849225 0 0.034150457362458329 -0.00028766378316498519 0 0.034285847953826366 -0.00026212528251549753 0 0.034316368187371354 -0.00021113726518238627 0 0.034791384267740831 -0.00024231607000620183 0 0.034876532268164506 -0.00010194401696074905 0 0.034913851261705771 -0.00015297144277823759 0 0.03377933332343741 -0.00028178446483002954 0 0.033766266677782118 -0.00024779024499187538 0 0.033770712407690848 -0.00023143755144895052 0 0.034513302741649966 -0.0003081512874435484 0 0.034791384267740831 -0.00024231607000620183 0 0.034682623781808877 -0.00014372371999976942 0 0.033930596392537503 -0.00033857067415642779 0 0.03377933332343741 -0.00028178446483002954 0 0.033826629566826742 -0.00025741304410810157 0 0.03377933332343741 -0.00028178446483002954 0 0.033826629566826742 -0.00025741304410810157 0 0.033770712407690848 -0.00023143755144895052 0 0.034216586415333136 -0.00030987499792849225 0 0.034285847953826366 -0.00026212528251549753 0 0.034791384267740831 -0.00024231607000620183 0 0.034682623781808877 -0.00014372371999976942 0 0.034876532268164506 -0.00010194401696074905 0 0.034748112360711604 3.6101183264277552e-05 0 0.034999651815634976 1.5974436383608764e-07 0 0.034963913230140288 -2.9165460650642403e-05 0 0.034876532268164506 -0.00010194401696074905 0 0.034748112360711604 3.6101183264277552e-05 0 0.034963913230140288 -2.9165460650642403e-05 0 0.034682623781808877 -0.00014372371999976942 0 0.034876532268164506 -0.00010194401696074905 0 0.034748112360711604 3.6101183264277552e-05 0 0.034334685501271833 -9.5032644316479504e-05 0 0.034682623781808877 -0.00014372371999976942 0 0.034748112360711604 3.6101183264277552e-05 0 0.03499885611016474 -1.5188622303634097e-06 0 0.034999623210794147 -1.4866501914569211e-06 0 0.034999999034648684 -1.1680041509335424e-09 0 0.03486050809668307 7.3646440739310957e-06 0 0.034999958406207288 7.3390482738119698e-09 0 0.034999623210794147 -1.4866501914569211e-06 0 0.034999999034648684 -1.1680041509335424e-09 0 0.035000000892682612 6.9144442122134695e-10 0 0.034999651815634976 1.5974436383608764e-07 0 0.035000028050699128 -7.3637790936718192e-08 0 0.034963913230140288 -2.9165460650642403e-05 0 0.035000028050699128 -7.3637790936718192e-08 0 0.034952048702727938 -6.1478610809723245e-05 0 0.034963913230140288 -2.9165460650642403e-05 0 0.035000028050699128 -7.3637790936718192e-08 0 0.034952048702727938 -6.1478610809723245e-05 0 0.034944891680013059 -5.0147305361957548e-05 0 0.034876532268164506 -0.00010194401696074905 0 0.034952048702727938 -6.1478610809723245e-05 0 0.034963913230140288 -2.9165460650642403e-05 0 0.035000028050699128 -7.3637790936718192e-08 0 0.034999890103512545 -3.8578185979555413e-08 0 0.034944891680013059 -5.0147305361957548e-05 0 0.034999890103512545 -3.8578185979555413e-08 0 0.034944891680013059 -5.0147305361957548e-05 0 0.034881737581450106 -5.4328361399930204e-05 0 0.034881737581450106 -5.4328361399930204e-05 0 0.034856887096578776 -5.247849443538087e-05 0 0.034772172662230191 -2.4602510452330821e-05 0 0.034944891680013059 -5.0147305361957548e-05 0 0.034881737581450106 -5.4328361399930204e-05 0 0.034856887096578776 -5.247849443538087e-05 0 0.034952048702727938 -6.1478610809723245e-05 0 0.034944891680013059 -5.0147305361957548e-05 0 0.034928422255983728 -7.2496609422702872e-05 0 0.034944891680013059 -5.0147305361957548e-05 0 0.034856887096578776 -5.247849443538087e-05 0 0.034928422255983728 -7.2496609422702872e-05 0 0.034856887096578776 -5.247849443538087e-05 0 0.034928422255983728 -7.2496609422702872e-05 0 0.034926191694589014 -8.3637726875827878e-05 0 0.034443370056021744 -4.7649859384936434e-05 0 0.034728357822080315 0.00010514922345896295 0 0.034856887096578776 -5.247849443538087e-05 0 0.034983121280975915 6.4376129912862499e-05 0 0.034688493088812181 6.6023913462546084e-05 0 0.035018627514434769 1.3347093951688263e-05 0 0.034443370056021744 -4.7649859384936434e-05 0 0.034856887096578776 -5.247849443538087e-05 0 0.034688493088812181 6.6023913462546084e-05 0 0.034772172662230191 -2.4602510452330821e-05 0 0.034876532268164506 -0.00010194401696074905 0 0.034952048702727938 -6.1478610809723245e-05 0 0.034913851261705771 -0.00015297144277823759 0 0.034952048702727938 -6.1478610809723245e-05 0 0.034928422255983728 -7.2496609422702872e-05 0 0.034913851261705771 -0.00015297144277823759 0 0.034928422255983728 -7.2496609422702872e-05 0 0.034926191694589014 -8.3637726875827878e-05 0 0.034913851261705771 -0.00015297144277823759 0 0.034443370056021744 -4.7649859384936434e-05 0 0.034316368187371354 -0.00021113726518238627 0 0.033766266677782118 -0.00024779024499187538 0 0.033767211028924771 -0.00023668217901393296 0 0.033770712407690848 -0.00023143755144895052 0 0.033775414444204503 -0.00024209421872882581 0 0.033766266677782118 -0.00024779024499187538 0 0.033767211028924771 -0.00023668217901393296 0 0.034143376703997225 0.00016060789957123985 0 0.033989111440139205 -0.00019387713466132193 0 0.034180937742221154 -0.00018453139735783011 0 0.034143376703997225 0.00016060789957123985 0 0.033879292518578234 -6.5895279949937518e-05 0 0.033989111440139205 -0.00019387713466132193 0 0.034443370056021744 -4.7649859384936434e-05 0 0.033734755278433323 -0.00017601374751217836 0 0.033879292518578234 -6.5895279949937518e-05 0 0.033989111440139205 -0.00019387713466132193 0 0.03386443135901597 -0.0002277844215953462 0 0.033879292518578234 -6.5895279949937518e-05 0 0.03386443135901597 -0.0002277844215953462 0 0.033767383272594445 -0.00023104952383520797 0 0.033734755278433323 -0.00017601374751217836 0 0.033804888920711658 -0.00020640609602805485 0 0.034688493088812181 6.6023913462546084e-05 0 0.034180937742221154 -0.00018453139735783011 0 0.034703779650758097 -0.00011056327684798634 0 0.034143376703997225 0.00016060789957123985 0 0.034688493088812181 6.6023913462546084e-05 0 0.034180937742221154 -0.00018453139735783011 0 0.034180937742221154 -0.00018453139735783011 0 0.034035225554728384 -0.00017041604229418077 0 0.034013445855008081 -0.00018790596566801171 0 0.034186089964967463 -0.00017911920188855502 0 0.034348029352606564 -0.00013960764996720677 0 0.034035225554728384 -0.00017041604229418077 0 0.034067549476493729 -0.00020920988707899972 0 0.033989419507517868 -0.00014776966624265652 0 0.034180937742221154 -0.00018453139735783011 0 0.034035225554728384 -0.00017041604229418077 0 0.034067549476493729 -0.00020920988707899972 0 0.034180937742221154 -0.00018453139735783011 0 0.034067549476493729 -0.00020920988707899972 0 0.033984196410194151 -0.00027142846626986738 0 0.034067549476493729 -0.00020920988707899972 0 0.033984196410194151 -0.00027142846626986738 0 0.034035176899609304 -0.0003894337131938286 0 0.033984196410194151 -0.00027142846626986738 0 0.033906997085988669 -0.00040448534515008917 0 0.034035176899609304 -0.0003894337131938286 0 0.034067549476493729 -0.00020920988707899972 0 0.034015594070847234 -0.00013635944707005907 0 0.033989419507517868 -0.00014776966624265652 0 0.034067549476493729 -0.00020920988707899972 0 0.034015594070847234 -0.00013635944707005907 0 0.034050732488841655 -0.00010153933367259736 0 0.034015594070847234 -0.00013635944707005907 0 0.033989419507517868 -0.00014776966624265652 0 0.03397046028647184 -9.8302288346827286e-05 0 0.034284296992334082 9.4563853991702694e-05 0 0.032061203097981411 -0.00088312352894902757 0 0.03386443135901597 -0.0002277844215953462 0 0.033896385806717284 -0.00027805753626877484 0 0.03380800282784098 -0.00032147449281642545 0 0.033989111440139205 -0.00019387713466132193 0 0.03386443135901597 -0.0002277844215953462 0 0.033896385806717284 -0.00027805753626877484 0 0.033989111440139205 -0.00019387713466132193 0 0.033896385806717284 -0.00027805753626877484 0 0.033984196410194151 -0.00027142846626986738 0 0.033989111440139205 -0.00019387713466132193 0 0.034180937742221154 -0.00018453139735783011 0 0.033984196410194151 -0.00027142846626986738 0 0.033896385806717284 -0.00027805753626877484 0 0.033984196410194151 -0.00027142846626986738 0 0.033857109691947107 -0.00037410579415654219 0 0.033984196410194151 -0.00027142846626986738 0 0.033857109691947107 -0.00037410579415654219 0 0.033906997085988669 -0.00040448534515008917 0 0.033896385806717284 -0.00027805753626877484 0 0.03380800282784098 -0.00032147449281642545 0 0.033857109691947107 -0.00037410579415654219 0 0.03380800282784098 -0.00032147449281642545 0 0.033857109691947107 -0.00037410579415654219 0 0.033792957500570084 -0.0004297188962476502 0 0.03380800282784098 -0.00032147449281642545 0 0.03376447649734951 -0.00038949311615582398 0 0.033723569295408741 -0.00032057372841518786 0 0.03380800282784098 -0.00032147449281642545 0 0.03376447649734951 -0.00038949311615582398 0 0.033792957500570084 -0.0004297188962476502 0 0.03376447649734951 -0.00038949311615582398 0 0.033723569295408741 -0.00032057372841518786 0 0.033724891635001669 -0.00039230563170396525 0 0.03380800282784098 -0.00032147449281642545 0 0.033723569295408741 -0.00032057372841518786 0 0.033767383272594445 -0.00023104952383520797 0 0.03386443135901597 -0.0002277844215953462 0 0.03380800282784098 -0.00032147449281642545 0 0.033767383272594445 -0.00023104952383520797 0 0.033723569295408741 -0.00032057372841518786 0 0.033710814987931985 -0.00027150265014129189 0 0.0336643555705032 -0.00032380423937551742 0 0.033723569295408741 -0.00032057372841518786 0 0.033710814987931985 -0.00027150265014129189 0 0.033767383272594445 -0.00023104952383520797 0 0.033723569295408741 -0.00032057372841518786 0 0.03364725329634758 -0.00035579708452364891 0 0.0336643555705032 -0.00032380423937551742 0 0.033723569295408741 -0.00032057372841518786 0 0.033724891635001669 -0.00039230563170396525 0 0.03364725329634758 -0.00035579708452364891 0 0.033724891635001669 -0.00039230563170396525 0 0.03364725329634758 -0.00035579708452364891 0 0.03363848394900712 -0.00049154449284436819 0 0.03364725329634758 -0.00035579708452364891 0 0.033413383686222313 -0.00045166654215576205 0 0.0335545408846721 -0.00046309810433465903 0 0.033747277732715186 -0.00029522654846366505 0 0.033215060020775559 -0.00070373286490129825 0 0.033635134081591363 -0.00035067978634617568 0 0.03361410020970871 -0.00039047387187435105 0 0.033627072801237036 -0.00038139928012623003 0 0.03364725329634758 -0.00035579708452364891 0 0.033635134081591363 -0.00035067978634617568 0 0.033627072801237036 -0.00038139928012623003 0 0.033635134081591363 -0.00035067978634617568 0 0.033635561077083938 -0.00031391512092006683 0 0.0336643555705032 -0.00032380423937551742 0 0.03364725329634758 -0.00035579708452364891 0 0.033635134081591363 -0.00035067978634617568 0 0.0336643555705032 -0.00032380423937551742 0 0.033556703938705669 -0.00037160245108880375 0 0.03360303699596158 -0.00034927840847104286 0 0.03361410020970871 -0.00039047387187435105 0 0.033635134081591363 -0.00035067978634617568 0 0.03360303699596158 -0.00034927840847104286 0 0.03361410020970871 -0.00039047387187435105 0 0.033810470306307981 -0.00036002167400756008 0 0.031683016888461771 -0.0016938107365691503 0 0.033635134081591363 -0.00035067978634617568 0 0.03360303699596158 -0.00034927840847104286 0 0.033635561077083938 -0.00031391512092006683 0 0.033572727258897921 -0.00031037949490208622 0 0.03360303699596158 -0.00034927840847104286 0 0.033635561077083938 -0.00031391512092006683 0 0.033572727258897921 -0.00031037949490208622 0 0.033635561077083938 -0.00031391512092006683 0 0.033643362338958774 -0.0002369924245264576 0 0.033635561077083938 -0.00031391512092006683 0 0.033710814987931985 -0.00027150265014129189 0 0.033643362338958774 -0.0002369924245264576 0 0.033635561077083938 -0.00031391512092006683 0 0.033710814987931985 -0.00027150265014129189 0 0.0336643555705032 -0.00032380423937551742 0 0.033710814987931985 -0.00027150265014129189 0 0.033643362338958774 -0.0002369924245264576 0 0.033783682961381831 -0.00019577417646302232 0 0.033572727258897921 -0.00031037949490208622 0 0.033560588305122575 -0.00023423467883164204 0 0.033643362338958774 -0.0002369924245264576 0 0.033594419688982968 -0.00017446380279284351 0 0.033560588305122575 -0.00023423467883164204 0 0.033643362338958774 -0.0002369924245264576 0 0.033594419688982968 -0.00017446380279284351 0 0.033643362338958774 -0.0002369924245264576 0 0.033654340108627417 -0.00013770497793605047 0 0.033826629566826742 -0.00025741304410810157 0 0.034065901469665753 -0.00023620501859366591 0 0.033783682961381831 -0.00019577417646302232 0 0.033643362338958774 -0.0002369924245264576 0 0.033654340108627417 -0.00013770497793605047 0 0.033783682961381831 -0.00019577417646302232 0 0.033730085442000006 -0.00016025294604169591 0 0.033848659927788217 -0.00021393889545827624 0 0.033826629566826742 -0.00025741304410810157 0 0.033783682961381831 -0.00019577417646302232 0 0.033770712407690848 -0.00023143755144895052 0 0.033767211028924771 -0.00023668217901393296 0 0.033770712407690848 -0.00023143755144895052 0 0.033767383272594445 -0.00023104952383520797 0 0.033710814987931985 -0.00027150265014129189 0 0.033783682961381831 -0.00019577417646302232 0 0.033767383272594445 -0.00023104952383520797 0 0.033783682961381831 -0.00019577417646302232 0 0.033770712407690848 -0.00023143755144895052 0 0.033767383272594445 -0.00023104952383520797 0 0.031408583055183674 -1.0825593596582654e-06 0 0.031272556678892983 -0.00014939774645464696 0 0.030019215436322379 3.6550413292240167e-05 0 0.031408583055183674 -1.0825593596582654e-06 0 0.031272556678892983 -0.00014939774645464696 0 0.03178936190326398 -0.00017509923416062713 0 0.031272556678892983 -0.00014939774645464696 0 0.03178936190326398 -0.00017509923416062713 0 0.031536040644718807 -0.00017322416624704324 0 0.031272556678892983 -0.00014939774645464696 0 0.031536040644718807 -0.00017322416624704324 0 0.031510882925169618 -5.318051582657073e-06 0 0.03178936190326398 -0.00017509923416062713 0 0.031643903638837054 0.00021164418030881547 0 0.031536040644718807 -0.00017322416624704324 0 0.031408583055183674 -1.0825593596582654e-06 0 0.03178936190326398 -0.00017509923416062713 0 0.033228310646015703 1.1452900234787803e-06 0 0.03178936190326398 -0.00017509923416062713 0 0.033228310646015703 1.1452900234787803e-06 0 0.031643903638837054 0.00021164418030881547 0 0.033231770772116649 -3.2483251553705956e-09 0 0.032539111494568632 0.00013925484723120048 0 0.033235887153110336 2.6272636928367085e-08 0 0.033701506618972678 -7.5705718209453682e-05 0 0.033738330602140654 -3.0624422865519785e-05 0 0.034996872361986821 -6.3401437664242943e-07 0 0.034955930505617891 2.4311855051145561e-06 0 0.035001402827267186 3.0909638239760652e-07 0 0.033235887153110336 2.6272636928367085e-08 0 0.033701506618972678 -7.5705718209453682e-05 0 0.034134377253391052 -2.9245095775031314e-08 0 0.033701506618972678 -7.5705718209453682e-05 0 0.034134377253391052 -2.9245095775031314e-08 0 0.033611322239475626 3.0100520549902567e-05 0 0.034143436154757199 9.5620330159272471e-07 0 0.034996872361986821 -6.3401437664242943e-07 0 0.034955930505617891 2.4311855051145561e-06 0 0.034138655984837715 -1.724354450776324e-08 0 0.034263249537827736 5.5047823967384147e-05 0 0.033701506618972678 -7.5705718209453682e-05 0 0.033611322239475626 3.0100520549902567e-05 0 0.033738330602140654 -3.0624422865519785e-05 0 0.033611322239475626 3.0100520549902567e-05 0 0.033468631598515493 1.1503073287290031e-05 0 0.033486847549192296 -3.1165333367175191e-05 0 0.031643903638837054 0.00021164418030881547 0 0.031363226909760712 0.00017078950430172619 0 0.031536040644718807 -0.00017322416624704324 0 0.033611322239475626 3.0100520549902567e-05 0 0.033738330602140654 -3.0624422865519785e-05 0 0.033486847549192296 -3.1165333367175191e-05 0 0.032539111494568632 0.00013925484723120048 0 0.033150438002267552 -0.00037999187482655775 0 0.034263249537827736 5.5047823967384147e-05 0 0.034304439311513606 -0.0002871767513894165 0 0.034955930505617891 2.4311855051145561e-06 0 0.035001402827267186 3.0909638239760652e-07 0 0.034995674584328805 1.3057287988074708e-05 0 0.035001735557774666 5.9133320607267835e-06 0 0.035001402827267186 3.0909638239760652e-07 0 0.034995674584328805 1.3057287988074708e-05 0 0.03481194180898195 -7.4494030685903724e-05 0 0.034999774015508835 -1.0870590159115232e-07 0 0.034999442961549193 -3.6212240769629794e-07 0 0.034999999876144335 -1.029348110941961e-10 0 0.03499999920674611 -1.3921353761430004e-10 0 0.03481194180898195 -7.4494030685903724e-05 0 0.034999836130204985 3.9391456291314349e-08 0 0.034601395290209717 -0.00023602976851851059 0 0.03461596251893357 -0.00026782191740427539 0 0.034584520058726698 -0.00026866239441402674 0 0.03481194180898195 -7.4494030685903724e-05 0 0.034304439311513606 -0.0002871767513894165 0 0.034304439311513606 -0.0002871767513894165 0 0.034603033684275961 -0.00032363300537155697 0 0.033150438002267552 -0.00037999187482655775 0 0.034242897114082869 -0.00067926388487953601 0 0.034304439311513606 -0.0002871767513894165 0 0.033150438002267552 -0.00037999187482655775 0 0.034056127044187465 -0.00090524294095125409 0 0.03399037760128569 -0.00077861175048712201 0 0.034152851698332334 -0.00079229788583148116 0 0.034056127044187465 -0.00090524294095125409 0 0.034152851698332334 -0.00079229788583148116 0 0.034165731860956915 -0.00090325490086931982 0 0.033990193645643818 -0.00078694351969579737 0 0.034107686686970999 -0.00069722030462105529 0 0.034152851698332334 -0.00079229788583148116 0 0.033990193645643818 -0.00078694351969579737 0 0.034107686686970999 -0.00069722030462105529 0 0.034085619169732156 -0.00057736691890508598 0 0.033990193645643818 -0.00078694351969579737 0 0.034085619169732156 -0.00057736691890508598 0 0.033815262433810729 -0.00045866893827741482 0 0.034085619169732156 -0.00057736691890508598 0 0.033815262433810729 -0.00045866893827741482 0 0.034065991431926262 -0.00037854350194480789 0 0.033150438002267552 -0.00037999187482655775 0 0.032538093956231501 -0.00021195622378162898 0 0.032538093956231501 -0.00021195622378162898 0 0.033063490263733383 -0.0002951492818391599 0 0.033815262433810729 -0.00045866893827741482 0 0.033935075416072227 -0.00021007679882198267 0 0.033646378542621189 -0.00013725483569824792 0 0.033815262433810729 -0.00045866893827741482 0 0.033935075416072227 -0.00021007679882198267 0 0.034065991431926262 -0.00037854350194480789 0 0.033935075416072227 -0.00021007679882198267 0 0.034065991431926262 -0.00037854350194480789 0 0.03427030018026074 -0.00012877791440431366 0 0.034065991431926262 -0.00037854350194480789 0 0.034284760587299699 -0.0003936690806247164 0 0.03427030018026074 -0.00012877791440431366 0 0.034346346331457799 -0.00035817917370894347 0 0.034283375373048958 -0.00012688872561916593 0 0.034404204984956402 -0.00025965175550157256 0 0.034464836886973368 -0.00012629073402845207 0 0.03427030018026074 -0.00012877791440431366 0 0.034404204984956402 -0.00025965175550157256 0 0.034654946904702708 -0.00018001716806824463 0 0.034464836886973368 -0.00012629073402845207 0 0.034654946904702708 -0.00018001716806824463 0 0.034616805385942258 -7.8054278416226456e-05 0 0.034464836886973368 -0.00012629073402845207 0 0.034654946904702708 -0.00018001716806824463 0 0.034713972278835353 -0.00010325999450872733 0 0.034616805385942258 -7.8054278416226456e-05 0 0.034654946904702708 -0.00018001716806824463 0 0.034762469849510098 -0.00010571134247800646 0 0.034713972278835353 -0.00010325999450872733 0 0.034677948729354188 -0.0001842427127944745 0 0.034660162585896118 -0.00034075529287585073 0 0.034654946904702708 -0.00018001716806824463 0 0.034805310687113178 -9.4636541984121841e-05 0 0.034883438659746011 -8.6093335603315934e-05 0 0.034654946904702708 -0.00018001716806824463 0 0.034805310687113178 -9.4636541984121841e-05 0 0.034762469849510098 -0.00010571134247800646 0 0.034805310687113178 -9.4636541984121841e-05 0 0.034847139449902725 -6.4409065956964689e-05 0 0.034762469849510098 -0.00010571134247800646 0 0.034085619169732156 -0.00057736691890508598 0 0.034284760587299699 -0.0003936690806247164 0 0.034315883342253328 -0.00063041411479232044 0 0.034404204984956402 -0.00025965175550157256 0 0.034654946904702708 -0.00018001716806824463 0 0.034464136110657413 -0.00058284912007291686 0 0.034346346331457799 -0.00035817917370894347 0 0.034660162585896118 -0.00034075529287585073 0 0.034085619169732156 -0.00057736691890508598 0 0.034065991431926262 -0.00037854350194480789 0 0.034284760587299699 -0.0003936690806247164 0 0.034107686686970999 -0.00069722030462105529 0 0.034085619169732156 -0.00057736691890508598 0 0.034315883342253328 -0.00063041411479232044 0 0.03498787891355442 -5.1255894321746822e-05 0 0.035005596006660485 -1.5300617955857176e-05 0 0.034998615923786155 -1.4967531063158268e-05 0 0.034315883342253328 -0.00063041411479232044 0 0.034152851698332334 -0.00079229788583148116 0 0.034165731860956915 -0.00090325490086931982 0 0.034660162585896118 -0.00034075529287585073 0 0.034950519202819955 1.526036630247633e-05 0 0.03498787891355442 -5.1255894321746822e-05 0 0.034987047899390257 -1.8742264784627131e-05 0 0.034998615923786155 -1.4967531063158268e-05 0 0.034107686686970999 -0.00069722030462105529 0 0.034315883342253328 -0.00063041411479232044 0 0.034152851698332334 -0.00079229788583148116 0 0.034660162585896118 -0.00034075529287585073 0 0.034603033684275961 -0.00032363300537155697 0 0.035004171753749626 -5.625389898041779e-06 0 0.035002093603512412 -1.414350746419857e-05 0 0.034999339098226417 -5.8628097896491701e-06 0 0.035000023579180209 -8.6997726892459941e-09 0 0.034999339098226417 -5.8628097896491701e-06 0 0.034999966445535838 -7.2975034119724039e-10 0 0.034987047899390257 -1.8742264784627131e-05 0 0.034999339098226417 -5.8628097896491701e-06 0 0.034999966445535838 -7.2975034119724039e-10 0 0.03481194180898195 -7.4494030685903724e-05 0 0.034603033684275961 -0.00032363300537155697 0 0.035002093603512412 -1.414350746419857e-05 0 0.034998615923786155 -1.4967531063158268e-05 0 0.034999339098226417 -5.8628097896491701e-06 0 0.034603033684275961 -0.00032363300537155697 0 0.034799611562459754 -0.0002707332089383337 0 0.034987047899390257 -1.8742264784627131e-05 0 0.034998615923786155 -1.4967531063158268e-05 0 0.034999339098226417 -5.8628097896491701e-06 0 0.035004171753749626 -5.625389898041779e-06 0 0.035000023579180209 -8.6997726892459941e-09 0 0.034999339098226417 -5.8628097896491701e-06 0 0.034950519202819955 1.526036630247633e-05 0 0.034999977255806641 -2.6784525029071523e-08 0 0.034928961099965197 -2.8220890674227122e-05 0 0.034999883542831983 -1.8573602702181006e-08 0 0.034934474612856328 -2.5328438408758039e-05 0 0.034805310687113178 -9.4636541984121841e-05 0 0.034928961099965197 -2.8220890674227122e-05 0 0.034847139449902725 -6.4409065956964689e-05 0 0.034805310687113178 -9.4636541984121841e-05 0 0.034883438659746011 -8.6093335603315934e-05 0 0.034928961099965197 -2.8220890674227122e-05 0 0.034928961099965197 -2.8220890674227122e-05 0 0.034847139449902725 -6.4409065956964689e-05 0 0.034934474612856328 -2.5328438408758039e-05 0 0.034847139449902725 -6.4409065956964689e-05 0 0.034908380377360999 -4.2047776828263261e-05 0 0.034792326875258718 -6.6380598289747942e-05 0 0.034847139449902725 -6.4409065956964689e-05 0 0.034934474612856328 -2.5328438408758039e-05 0 0.034908380377360999 -4.2047776828263261e-05 0 0.034999860369010816 -2.9113943716637135e-08 0 0.034934474612856328 -2.5328438408758039e-05 0 0.034908380377360999 -4.2047776828263261e-05 0 0.034999883542831983 -1.8573602702181006e-08 0 0.034999860369010816 -2.9113943716637135e-08 0 0.034934474612856328 -2.5328438408758039e-05 0 0.034999890103512545 -3.8578185979555413e-08 0 0.034999860369010816 -2.9113943716637135e-08 0 0.034908380377360999 -4.2047776828263261e-05 0 0.034999890103512545 -3.8578185979555413e-08 0 0.034881737581450106 -5.4328361399930204e-05 0 0.034908380377360999 -4.2047776828263261e-05 0 0.034881737581450106 -5.4328361399930204e-05 0 0.034908380377360999 -4.2047776828263261e-05 0 0.034792326875258718 -6.6380598289747942e-05 0 0.034881737581450106 -5.4328361399930204e-05 0 0.034792326875258718 -6.6380598289747942e-05 0 0.034772172662230191 -2.4602510452330821e-05 0 0.034847139449902725 -6.4409065956964689e-05 0 0.034792326875258718 -6.6380598289747942e-05 0 0.034762469849510098 -0.00010571134247800646 0 0.034792326875258718 -6.6380598289747942e-05 0 0.034762469849510098 -0.00010571134247800646 0 0.034713972278835353 -0.00010325999450872733 0 0.034792326875258718 -6.6380598289747942e-05 0 0.034713972278835353 -0.00010325999450872733 0 0.034741331024033595 -3.9471453026840998e-05 0 0.034713972278835353 -0.00010325999450872733 0 0.034741331024033595 -3.9471453026840998e-05 0 0.034616805385942258 -7.8054278416226456e-05 0 0.034792326875258718 -6.6380598289747942e-05 0 0.034772172662230191 -2.4602510452330821e-05 0 0.034741331024033595 -3.9471453026840998e-05 0 0.034688493088812181 6.6023913462546084e-05 0 0.034772172662230191 -2.4602510452330821e-05 0 0.034741331024033595 -3.9471453026840998e-05 0 0.034688493088812181 6.6023913462546084e-05 0 0.034741331024033595 -3.9471453026840998e-05 0 0.034703779650758097 -0.00011056327684798634 0 0.034741331024033595 -3.9471453026840998e-05 0 0.034647633420442643 6.5321117230756034e-05 0 0.034616805385942258 -7.8054278416226456e-05 0 0.034741331024033595 -3.9471453026840998e-05 0 0.034647633420442643 6.5321117230756034e-05 0 0.034703779650758097 -0.00011056327684798634 0 0.034311221539238157 8.9293258992107471e-06 0 0.034348029352606564 -0.00013960764996720677 0 0.033977740420910653 -4.0022875104933854e-05 0 0.034013445855008081 -0.00018790596566801171 0 0.033977771328073995 -0.00012761855717120107 0 0.034035225554728384 -0.00017041604229418077 0 0.034013445855008081 -0.00018790596566801171 0 0.033977771328073995 -0.00012761855717120107 0 0.034035225554728384 -0.00017041604229418077 0 0.033977771328073995 -0.00012761855717120107 0 0.033989419507517868 -0.00014776966624265652 0 0.033989419507517868 -0.00014776966624265652 0 0.033929690924496686 -0.00013326553377189469 0 0.03397046028647184 -9.8302288346827286e-05 0 0.033977771328073995 -0.00012761855717120107 0 0.033989419507517868 -0.00014776966624265652 0 0.033929690924496686 -0.00013326553377189469 0 0.033977771328073995 -0.00012761855717120107 0 0.033973755483888417 -0.00010255290483042209 0 0.033929690924496686 -0.00013326553377189469 0 0.033973755483888417 -0.00010255290483042209 0 0.033929690924496686 -0.00013326553377189469 0 0.033967197495710984 -0.0001553917561770182 0 0.034193346858556198 -0.00039625914394438862 0 0.031903466628861413 -5.2244010769886397e-05 0 0.033977740420910653 -4.0022875104933854e-05 0 0.033977771328073995 -0.00012761855717120107 0 0.033973755483888417 -0.00010255290483042209 0 0.033977740420910653 -4.0022875104933854e-05 0 0.034048082863327944 -7.2265269507528341e-05 0 0.034117006330791406 0.00012873168863685605 0 0.033977740420910653 -4.0022875104933854e-05 0 0.033973755483888417 -0.00010255290483042209 0 0.034048082863327944 -7.2265269507528341e-05 0 0.034338169239933145 0.00026080308474829881 0 0.031903466628861413 -5.2244010769886397e-05 0 0.033971631196671098 0.00030145211487189342 0 0.033925720394318556 0.00036589758820249578 0 0.033951648233516041 0.00034379102783619253 0 0.033973755483888417 -0.00010255290483042209 0 0.034048082863327944 -7.2265269507528341e-05 0 0.033967197495710984 -0.0001553917561770182 0 0.033971631196671098 0.00030145211487189342 0 0.033907819881311432 0.0003436578540328937 0 0.03396115548878445 0.00027765504927258674 0 0.033971631196671098 0.00030145211487189342 0 0.033907819881311432 0.0003436578540328937 0 0.033925720394318556 0.00036589758820249578 0 0.034338169239933145 0.00026080308474829881 0 0.033949576123899282 5.1799642516780405e-05 0 0.033971631196671098 0.00030145211487189342 0 0.03396115548878445 0.00027765504927258674 0 0.034085721078876016 0.00014756393268740075 0 0.034048082863327944 -7.2265269507528341e-05 0 0.034085721078876016 0.00014756393268740075 0 0.034117006330791406 0.00012873168863685605 0 0.034104432368623212 7.2673887620484627e-05 0 0.034353005926185683 3.1005330666798783e-06 0 0.034076164552182799 -4.3974037085011698e-06 0 0.034085721078876016 0.00014756393268740075 0 0.034117006330791406 0.00012873168863685605 0 0.034104432368623212 7.2673887620484627e-05 0 0.034117006330791406 0.00012873168863685605 0 0.034104432368623212 7.2673887620484627e-05 0 0.034353005926185683 3.1005330666798783e-06 0 0.034311221539238157 8.9293258992107471e-06 0 0.034135951671475123 0.00011150514091339507 0 0.034647633420442643 6.5321117230756034e-05 0 0.034117006330791406 0.00012873168863685605 0 0.034353005926185683 3.1005330666798783e-06 0 0.034647633420442643 6.5321117230756034e-05 0 0.034353005926185683 3.1005330666798783e-06 0 0.034616805385942258 -7.8054278416226456e-05 0 0.034353005926185683 3.1005330666798783e-06 0 0.034616805385942258 -7.8054278416226456e-05 0 0.034464836886973368 -0.00012629073402845207 0 0.034353005926185683 3.1005330666798783e-06 0 0.03427030018026074 -0.00012877791440431366 0 0.034076164552182799 -4.3974037085011698e-06 0 0.034353005926185683 3.1005330666798783e-06 0 0.034464836886973368 -0.00012629073402845207 0 0.03427030018026074 -0.00012877791440431366 0 0.033935075416072227 -0.00021007679882198267 0 0.03427030018026074 -0.00012877791440431366 0 0.034076164552182799 -4.3974037085011698e-06 0 0.033935075416072227 -0.00021007679882198267 0 0.033882742043287083 -3.0095927333547898e-05 0 0.034076164552182799 -4.3974037085011698e-06 0 0.033882742043287083 -3.0095927333547898e-05 0 0.033756767406887156 0.00011617311567976189 0 0.033646378542621189 -0.00013725483569824792 0 0.033935075416072227 -0.00021007679882198267 0 0.033882742043287083 -3.0095927333547898e-05 0 0.033646378542621189 -0.00013725483569824792 0 0.033882742043287083 -3.0095927333547898e-05 0 0.033756767406887156 0.00011617311567976189 0 0.033926562164967124 0.00011092656563276243 0 0.033756767406887156 0.00011617311567976189 0 0.033926562164967124 0.00011092656563276243 0 0.033861891097743048 0.00024993056793567276 0 0.033882742043287083 -3.0095927333547898e-05 0 0.034076164552182799 -4.3974037085011698e-06 0 0.033926562164967124 0.00011092656563276243 0 0.034104432368623212 7.2673887620484627e-05 0 0.034076164552182799 -4.3974037085011698e-06 0 0.03402916026379961 0.00010499803142868078 0 0.034076164552182799 -4.3974037085011698e-06 0 0.033926562164967124 0.00011092656563276243 0 0.03402916026379961 0.00010499803142868078 0 0.033926562164967124 0.00011092656563276243 0 0.03402916026379961 0.00010499803142868078 0 0.033952116275149047 0.00019615725801754889 0 0.034085721078876016 0.00014756393268740075 0 0.03402916026379961 0.00010499803142868078 0 0.033952116275149047 0.00019615725801754889 0 0.034085721078876016 0.00014756393268740075 0 0.034104432368623212 7.2673887620484627e-05 0 0.03402916026379961 0.00010499803142868078 0 0.03396115548878445 0.00027765504927258674 0 0.034085721078876016 0.00014756393268740075 0 0.033952116275149047 0.00019615725801754889 0 0.033926562164967124 0.00011092656563276243 0 0.033952116275149047 0.00019615725801754889 0 0.033861891097743048 0.00024993056793567276 0 0.03396115548878445 0.00027765504927258674 0 0.033952116275149047 0.00019615725801754889 0 0.033861891097743048 0.00024993056793567276 0 0.033907819881311432 0.0003436578540328937 0 0.03396115548878445 0.00027765504927258674 0 0.033800436265488711 0.0003700131624264019 0 0.03396115548878445 0.00027765504927258674 0 0.033861891097743048 0.00024993056793567276 0 0.033800436265488711 0.0003700131624264019 0 0.027923490008011965 0.0011493293816590303 0 0.02807017293180513 0.0016815519037589595 0 0.033861891097743048 0.00024993056793567276 0 0.033800436265488711 0.0003700131624264019 0 0.033675756579387615 0.00029817989137230586 0 0.021559867525023833 0.0016353055113174282 0 0.022427995250424163 0.0028687339672838512 0 0.023075119897431533 0.0013983806655903281 0 0.033756767406887156 0.00011617311567976189 0 0.033861891097743048 0.00024993056793567276 0 0.033675756579387615 0.00029817989137230586 0 0.033756767406887156 0.00011617311567976189 0 0.033675756579387615 0.00029817989137230586 0 0.033487672719159957 0.00014378638586159739 0 0.022427995250424163 0.0028687339672838512 0 0.024580248126468036 0.0026821695289027149 0 0.023742201082282435 0.0043285360072070032 0 0.02807017293180513 0.0016815519037589595 0 0.028873140335705143 0.0011178477592608065 0 0.022427995250424163 0.0028687339672838512 0 0.023075119897431533 0.0013983806655903281 0 0.024580248126468036 0.0026821695289027149 0 0.027676778871697349 3.6293138825683276e-05 0 0.027759888950331102 -5.5743809274411427e-07 0 0.025936511578026782 6.1547077224514863e-07 0 0.023075119897431533 0.0013983806655903281 0 0.024580248126468036 0.0026821695289027149 0 0.025931059526151632 4.7104944062315698e-06 0 0.025814302254299405 0.0015546511160388066 0 0.025936078931764656 -2.7481085986794026e-07 0 0.027676778871697349 3.6293138825683276e-05 0 0.027759888950331102 -5.5743809274411427e-07 0 0.028415126093712759 -3.3984661287625277e-05 0 0.025814302254299405 0.0015546511160388066 0 0.028873140335705143 0.0011178477592608065 0 0.031205393610389629 0.0011707648109946383 0 0.031055265320989837 0.00019729961649836292 0 0.030019215436322379 3.6550413292240167e-05 0 0.028415126093712759 -3.3984661287625277e-05 0 0.029583425331451078 7.6589501598368421e-07 0 0.030019215436322379 3.6550413292240167e-05 0 0.027759888950331102 -5.5743809274411427e-07 0 0.028415126093712759 -3.3984661287625277e-05 0 0.029583425331451078 7.6589501598368421e-07 0 0.028873140335705143 0.0011178477592608065 0 0.030129598406309022 -4.6270989993973927e-05 0 0.033756767406887156 0.00011617311567976189 0 0.033487672719159957 0.00014378638586159739 0 0.033646378542621189 -0.00013725483569824792 0 0.028873140335705143 0.0011178477592608065 0 0.033063490263733383 -0.0002951492818391599 0 0.031205393610389629 0.0011707648109946383 0 0.031055265320989837 0.00019729961649836292 0 0.031510882925169618 -5.318051582657073e-06 0 0.031272556678892983 -0.00014939774645464696 0 0.031055265320989837 0.00019729961649836292 0 0.031510882925169618 -5.318051582657073e-06 0 0.031408583055183674 -1.0825593596582654e-06 0 0.029583425331451078 7.6589501598368421e-07 0 0.030019215436322379 3.6550413292240167e-05 0 0.031272556678892983 -0.00014939774645464696 0 0.031055265320989837 0.00019729961649836292 0 0.030019215436322379 3.6550413292240167e-05 0 0.022081421522811034 -1.4668632937020837e-07 0 0.021824021469896454 -1.724861759927808e-05 0 0.020738558553996981 -0.00025307152259757367 0 0.021824021469896454 -1.724861759927808e-05 0 0.020371645345258715 -0.00015498267515759911 0 0.020738558553996981 -0.00025307152259757367 0 0.021824021469896454 -1.724861759927808e-05 0 0.022441767964093334 0.00032090197245957186 0 0.020720015208151369 0.00046845170253081807 0 0.021824021469896454 -1.724861759927808e-05 0 0.022441767964093334 0.00032090197245957186 0 0.024008589511283943 -8.5858660726467391e-07 0 0.022081421522811034 -1.4668632937020837e-07 0 0.021824021469896454 -1.724861759927808e-05 0 0.024008589511283943 -8.5858660726467391e-07 0 0.022441767964093334 0.00032090197245957186 0 0.024008589511283943 -8.5858660726467391e-07 0 0.023377600234034381 0.00037606751416317536 0 0.024008589511283943 -8.5858660726467391e-07 0 0.025931059526151632 4.7104944062315698e-06 0 0.023377600234034381 0.00037606751416317536 0 0.023075119897431533 0.0013983806655903281 0 0.025931059526151632 4.7104944062315698e-06 0 0.023377600234034381 0.00037606751416317536 0 0.023075119897431533 0.0013983806655903281 0 0.023377600234034381 0.00037606751416317536 0 0.022155621035351247 0.0009910383897288389 0 0.023377600234034381 0.00037606751416317536 0 0.021963518339457054 0.00081005686501843565 0 0.022155621035351247 0.0009910383897288389 0 0.022441767964093334 0.00032090197245957186 0 0.021963518339457054 0.00081005686501843565 0 0.020720015208151369 0.00046845170253081807 0 0.022441767964093334 0.00032090197245957186 0 0.023377600234034381 0.00037606751416317536 0 0.021963518339457054 0.00081005686501843565 0 0.021963518339457054 0.00081005686501843565 0 0.020304187676852076 0.0018060802077776504 0 0.020720015208151369 0.00046845170253081807 0 0.021963518339457054 0.00081005686501843565 0 0.021708769759645859 0.00076697769866980003 0 0.022155621035351247 0.0009910383897288389 0 0.022032000347612088 0.00084583014994614166 0 0.02021564081285623 0.0015622415323892698 0 0.021559867525023833 0.0016353055113174282 0 0.021708769759645859 0.00076697769866980003 0 0.022155621035351247 0.0009910383897288389 0 0.021559867525023833 0.0016353055113174282 0 0.023075119897431533 0.0013983806655903281 0 0.022155621035351247 0.0009910383897288389 0 0.033907819881311432 0.0003436578540328937 0 0.033800436265488711 0.0003700131624264019 0 0.033837169412040645 0.00040762992907569372 0 0.021559867525023833 0.0016353055113174282 0 0.021708769759645859 0.00076697769866980003 0 0.021121825181798053 0.00097512722539796711 0 0.027923490008011965 0.0011493293816590303 0 0.025491763535669176 0.00059749483370367961 0 0.020304187676852076 0.0018060802077776504 0 0.019438570003324454 0.001493870549800561 0 0.020720015208151369 0.00046845170253081807 0 0.020304187676852076 0.0018060802077776504 0 0.019153421160720434 0.0022530725442596326 0 0.019438570003324454 0.001493870549800561 0 0.02021564081285623 0.0015622415323892698 0 0.025491763535669176 0.00059749483370367961 0 0.019207501054449658 0.00090661654404364364 0 0.019116794508400294 0.00013994295935735717 0 0.018447596770330837 0.0006653158782673526 0 0.019207501054449658 0.00090661654404364364 0 0.020720015208151369 0.00046845170253081807 0 0.019116794508400294 0.00013994295935735717 0 0.019438570003324454 0.001493870549800561 0 0.019207501054449658 0.00090661654404364364 0 0.020720015208151369 0.00046845170253081807 0 0.020371645345258715 -0.00015498267515759911 0 0.019116794508400294 0.00013994295935735717 0 0.019417525534123851 -0.00034925639180679213 0 0.021824021469896454 -1.724861759927808e-05 0 0.020720015208151369 0.00046845170253081807 0 0.020371645345258715 -0.00015498267515759911 0 0.020720015208151369 0.00046845170253081807 0 0.020371645345258715 -0.00015498267515759911 0 0.019116794508400294 0.00013994295935735717 0 0.019116794508400294 0.00013994295935735717 0 0.018008924247399128 -4.7952786977323617e-05 0 0.018562519234224382 -0.00021251826365570087 0 0.018259746554351121 0.00026956093102099187 0 0.01771333415118246 0.00025804800253383721 0 0.018447596770330837 0.0006653158782673526 0 0.019116794508400294 0.00013994295935735717 0 0.018259746554351121 0.00026956093102099187 0 0.018447596770330837 0.0006653158782673526 0 0.019116794508400294 0.00013994295935735717 0 0.018259746554351121 0.00026956093102099187 0 0.018008924247399128 -4.7952786977323617e-05 0 0.018259746554351121 0.00026956093102099187 0 0.018008924247399128 -4.7952786977323617e-05 0 0.01771333415118246 0.00025804800253383721 0 0.018008924247399128 -4.7952786977323617e-05 0 0.01771333415118246 0.00025804800253383721 0 0.017388727735404941 -0.00017179778476618686 0 0.017230230437931038 2.0527328026753375e-05 0 0.01771333415118246 0.00025804800253383721 0 0.017388727735404941 -0.00017179778476618686 0 0.022004848913849798 6.3463675110936093e-06 0 0.021842688136146971 -0.00013373801381271142 0 0.017230230437931038 2.0527328026753375e-05 0 0.017286402663064832 0.00051426859024581914 0 0.017028193888453089 0.00018642402661655572 0 0.017230230437931038 2.0527328026753375e-05 0 0.01771333415118246 0.00025804800253383721 0 0.017286402663064832 0.00051426859024581914 0 0.01771333415118246 0.00025804800253383721 0 0.017286402663064832 0.00051426859024581914 0 0.017875332695061676 0.0010608874175553665 0 0.026587528464512834 -0.00057517426343334883 0 0.026612137821112249 -0.00069203489211871788 0 0.026627501194384541 -0.00051814624825058235 0 0.026587528464512834 -0.00057517426343334883 0 0.026522433520307181 -0.00064741814197225261 0 0.026612137821112249 -0.00069203489211871788 0 0.022004848913849798 6.3463675110936093e-06 0 0.021665986926198536 5.4620136170526998e-05 0 0.019207501054449658 0.00090661654404364364 0 0.017875332695061676 0.0010608874175553665 0 0.018447596770330837 0.0006653158782673526 0 0.01771333415118246 0.00025804800253383721 0 0.017875332695061676 0.0010608874175553665 0 0.018447596770330837 0.0006653158782673526 0 0.019438570003324454 0.001493870549800561 0 0.019207501054449658 0.00090661654404364364 0 0.017875332695061676 0.0010608874175553665 0 0.019153421160720434 0.0022530725442596326 0 0.019438570003324454 0.001493870549800561 0 0.017875332695061676 0.0010608874175553665 0 0.026274627463326417 -0.0008074049283533308 0 0.026522433520307181 -0.00064741814197225261 0 0.026552605818631791 -0.00077160685239926292 0 0.025491763535669176 0.00059749483370367961 0 0.021665986926198536 5.4620136170526998e-05 0 0.026274627463326417 -0.0008074049283533308 0 0.026550971797801113 -0.000880102977204292 0 0.026625439358603526 -0.001010349918161516 0 0.033907819881311432 0.0003436578540328937 0 0.033837169412040645 0.00040762992907569372 0 0.033925720394318556 0.00036589758820249578 0 0.026274627463326417 -0.0008074049283533308 0 0.026550971797801113 -0.000880102977204292 0 0.026552605818631791 -0.00077160685239926292 0 0.025491763535669176 0.00059749483370367961 0 0.030906665709772498 -0.00052875969940113982 0 0.026550971797801113 -0.000880102977204292 0 0.026607942712654622 -0.00081830863397352603 0 0.026664987301224737 -0.00083008161696129334 0 0.026008894949706356 -0.00086982564390708451 0 0.028765403284932677 -0.00080004824250373631 0 0.030906665709772498 -0.00052875969940113982 0 0.031903466628861413 -5.2244010769886397e-05 0 0.026625439358603526 -0.001010349918161516 0 0.027980691473550076 -0.00092812509350578625 0 0.027629732676949802 -0.0013203145557554941 0 0.026550971797801113 -0.000880102977204292 0 0.026625439358603526 -0.001010349918161516 0 0.027980691473550076 -0.00092812509350578625 0 0.026550971797801113 -0.000880102977204292 0 0.026664987301224737 -0.00083008161696129334 0 0.026727142658769014 -0.00087048781401646565 0 0.026607942712654622 -0.00081830863397352603 0 0.026639647277515062 -0.00078217381598300062 0 0.026552605818631791 -0.00077160685239926292 0 0.026607942712654622 -0.00081830863397352603 0 0.026639647277515062 -0.00078217381598300062 0 0.026664987301224737 -0.00083008161696129334 0 0.026639647277515062 -0.00078217381598300062 0 0.026552605818631791 -0.00077160685239926292 0 0.026612137821112249 -0.00069203489211871788 0 0.026550971797801113 -0.000880102977204292 0 0.026607942712654622 -0.00081830863397352603 0 0.026552605818631791 -0.00077160685239926292 0 0.026522433520307181 -0.00064741814197225261 0 0.026552605818631791 -0.00077160685239926292 0 0.026612137821112249 -0.00069203489211871788 0 0.026639647277515062 -0.00078217381598300062 0 0.026712213124087093 -0.00077947188350164143 0 0.026711196913346127 -0.00067686271235978636 0 0.026774669634764145 -0.00073538098636196866 0 0.026712213124087093 -0.00077947188350164143 0 0.026727142658769014 -0.00087048781401646565 0 0.026639647277515062 -0.00078217381598300062 0 0.026612137821112249 -0.00069203489211871788 0 0.026711196913346127 -0.00067686271235978636 0 0.026774669634764145 -0.00073538098636196866 0 0.026712213124087093 -0.00077947188350164143 0 0.026711196913346127 -0.00067686271235978636 0 0.026774669634764145 -0.00073538098636196866 0 0.026808661252417494 -0.00066073589618162887 0 0.026711196913346127 -0.00067686271235978636 0 0.026639647277515062 -0.00078217381598300062 0 0.026712213124087093 -0.00077947188350164143 0 0.026664987301224737 -0.00083008161696129334 0 0.026712213124087093 -0.00077947188350164143 0 0.026664987301224737 -0.00083008161696129334 0 0.026727142658769014 -0.00087048781401646565 0 0.033929690924496686 -0.00013326553377189469 0 0.033873217429126495 -7.2201078619330212e-05 0 0.033817147341188507 -0.00011809004434169372 0 0.028765403284932677 -0.00080004824250373631 0 0.031903466628861413 -5.2244010769886397e-05 0 0.033929690924496686 -0.00013326553377189469 0 0.033873217429126495 -7.2201078619330212e-05 0 0.03397046028647184 -9.8302288346827286e-05 0 0.026645206779267031 -0.0010607647040234399 0 0.026946449577400524 -0.001118785765790879 0 0.026919249945318351 -0.00090359469369596338 0 0.028765403284932677 -0.00080004824250373631 0 0.030485440064140956 -0.00059282262921014927 0 0.026774669634764145 -0.00073538098636196866 0 0.026727142658769014 -0.00087048781401646565 0 0.026908662034202217 -0.0006927673994362902 0 0.028765403284932677 -0.00080004824250373631 0 0.026150447058252729 -0.00092516503442668669 0 0.026645206779267031 -0.0010607647040234399 0 0.026919249945318351 -0.00090359469369596338 0 0.026908662034202217 -0.0006927673994362902 0 0.026774669634764145 -0.00073538098636196866 0 0.026908662034202217 -0.0006927673994362902 0 0.026808661252417494 -0.00066073589618162887 0 0.026919249945318351 -0.00090359469369596338 0 0.026908662034202217 -0.0006927673994362902 0 0.026964643684877356 -0.00072969878799492591 0 0.026908662034202217 -0.0006927673994362902 0 0.026876800532426595 -0.00062187249434971859 0 0.026964643684877356 -0.00072969878799492591 0 0.026908662034202217 -0.0006927673994362902 0 0.026876800532426595 -0.00062187249434971859 0 0.026808661252417494 -0.00066073589618162887 0 0.026876800532426595 -0.00062187249434971859 0 0.026827766519395561 -0.00056134548406483681 0 0.026901209913731561 -0.00057153226747483593 0 0.026876800532426595 -0.00062187249434971859 0 0.026774815326347411 -0.00058740265116673056 0 0.026827766519395561 -0.00056134548406483681 0 0.026876800532426595 -0.00062187249434971859 0 0.026774815326347411 -0.00058740265116673056 0 0.026808661252417494 -0.00066073589618162887 0 0.026774815326347411 -0.00058740265116673056 0 0.026808661252417494 -0.00066073589618162887 0 0.026711196913346127 -0.00067686271235978636 0 0.026774815326347411 -0.00058740265116673056 0 0.026711196913346127 -0.00067686271235978636 0 0.026627501194384541 -0.00051814624825058235 0 0.026612137821112249 -0.00069203489211871788 0 0.026711196913346127 -0.00067686271235978636 0 0.026627501194384541 -0.00051814624825058235 0 0.026627501194384541 -0.00051814624825058235 0 0.026657265446403212 -0.00047689759567657707 0 0.026790430685032361 -0.00049866147394825398 0 0.026774815326347411 -0.00058740265116673056 0 0.026627501194384541 -0.00051814624825058235 0 0.026790430685032361 -0.00049866147394825398 0 0.017230230437931038 2.0527328026753375e-05 0 0.017028193888453089 0.00018642402661655572 0 0.016888290697782478 -3.2617806788848066e-05 0 0.021842688136146971 -0.00013373801381271142 0 0.022082639588274593 3.0778685303328702e-05 0 0.026774815326347411 -0.00058740265116673056 0 0.026790430685032361 -0.00049866147394825398 0 0.026827766519395561 -0.00056134548406483681 0 0.026790430685032361 -0.00049866147394825398 0 0.026827766519395561 -0.00056134548406483681 0 0.026901209913731561 -0.00057153226747483593 0 0.026657265446403212 -0.00047689759567657707 0 0.026790430685032361 -0.00049866147394825398 0 0.026716874944679558 -0.00037467785103577193 0 0.019208201053575357 -0.00054427961725037044 0 0.023780778789356631 -0.0021360093475014975 0 0.018809033119516743 -0.0028155149884806427 0 0.018998400255654406 -0.0026049691586960766 0 0.019598609279235974 -0.003272267518296409 0 0.026790430685032361 -0.00049866147394825398 0 0.026716874944679558 -0.00037467785103577193 0 0.026879849222524684 -0.00045009886725996573 0 0.019208201053575357 -0.00054427961725037044 0 0.016429608215475656 -0.001241135048441199 0 0.016888290697782478 -3.2617806788848066e-05 0 0.016720955477757305 -0.00029912245137088557 0 0.017017029985548746 -0.00027653976217895527 0 0.016720955477757305 -0.00029912245137088557 0 0.017017029985548746 -0.00027653976217895527 0 0.01694852960914893 -0.00041054249375215658 0 0.022082639588274593 3.0778685303328702e-05 0 0.019208201053575357 -0.00054427961725037044 0 0.017230230437931038 2.0527328026753375e-05 0 0.016888290697782478 -3.2617806788848066e-05 0 0.017017029985548746 -0.00027653976217895527 0 0.019208201053575357 -0.00054427961725037044 0 0.014711011445856209 0.00049305576351776003 0 0.014057694709606267 0.00068161495808210766 0 0.012173783488424725 0.0010196616522959415 0 0.012629981608620037 -0.00061254329176260117 0 0.012551563772038695 0.0014354311673476429 0 0.014057694709606267 0.00068161495808210766 0 0.012173783488424725 0.0010196616522959415 0 0.012173783488424725 0.0010196616522959415 0 0.012629981608620037 -0.00061254329176260117 0 0.011229032455728755 -0.00020839898571374494 0 0.01316623831394164 -0.0017573621769477121 0 0.011314343585581836 -0.0019344011246224533 0 0.011901449814765005 -0.0026274713459027896 0 0.012629981608620037 -0.00061254329176260117 0 0.01316623831394164 -0.0017573621769477121 0 0.011314343585581836 -0.0019344011246224533 0 0.014057694709606267 0.00068161495808210766 0 0.012629981608620037 -0.00061254329176260117 0 0.014865112057215357 -0.0013959767033524782 0 0.012629981608620037 -0.00061254329176260117 0 0.01316623831394164 -0.0017573621769477121 0 0.014865112057215357 -0.0013959767033524782 0 0.014057694709606267 0.00068161495808210766 0 0.016296053429867192 -0.00044986964327623852 0 0.014865112057215357 -0.0013959767033524782 0 0.016296053429867192 -0.00044986964327623852 0 0.014865112057215357 -0.0013959767033524782 0 0.016451304438466596 -0.0011165711680095614 0 0.014865112057215357 -0.0013959767033524782 0 0.015955343281284791 -0.0017460107496041748 0 0.016451304438466596 -0.0011165711680095614 0 0.014865112057215357 -0.0013959767033524782 0 0.015955343281284791 -0.0017460107496041748 0 0.015159116289681173 -0.0028208074332155045 0 0.01316623831394164 -0.0017573621769477121 0 0.014865112057215357 -0.0013959767033524782 0 0.015159116289681173 -0.0028208074332155045 0 0.015955343281284791 -0.0017460107496041748 0 0.016451304438466596 -0.0011165711680095614 0 0.017119840728817386 -0.0016095182561666553 0 0.015955343281284791 -0.0017460107496041748 0 0.017119840728817386 -0.0016095182561666553 0 0.015159116289681173 -0.0028208074332155045 0 0.013659938216020556 -0.0025764092584034093 0 0.010173566236652559 -0.003899926904777497 0 0.0052440888840693074 -0.0053190696749195578 0 0.0053802871806484963 -0.0045584857310073737 0 0.0061318936988693515 -0.0045166069816209341 0 0.016296053429867192 -0.00044986964327623852 0 0.016451304438466596 -0.0011165711680095614 0 0.01745675134631831 -0.00058905251885510651 0 0.018471285075319671 -0.00060391360004651853 0 0.013659938216020556 -0.0025764092584034093 0 0.016451304438466596 -0.0011165711680095614 0 0.01745675134631831 -0.00058905251885510651 0 0.017119840728817386 -0.0016095182561666553 0 0.01745675134631831 -0.00058905251885510651 0 0.017721896317708274 -0.00031904362589410231 0 0.018455413166531286 -0.00049372818070292585 0 0.01745675134631831 -0.00058905251885510651 0 0.016983298727653195 -0.00041562984758223285 0 0.017721896317708274 -0.00031904362589410231 0 0.016296053429867192 -0.00044986964327623852 0 0.01745675134631831 -0.00058905251885510651 0 0.016983298727653195 -0.00041562984758223285 0 0.014711011445856209 0.00049305576351776003 0 0.016555986436962229 -0.00055397727847005494 0 0.017017029985548746 -0.00027653976217895527 0 0.01694852960914893 -0.00041054249375215658 0 0.016983298727653195 -0.00041562984758223285 0 0.01694852960914893 -0.00041054249375215658 0 0.016296053429867192 -0.00044986964327623852 0 0.016983298727653195 -0.00041562984758223285 0 0.017017029985548746 -0.00027653976217895527 0 0.016983298727653195 -0.00041562984758223285 0 0.017388727735404941 -0.00017179778476618686 0 0.017230230437931038 2.0527328026753375e-05 0 0.017017029985548746 -0.00027653976217895527 0 0.017388727735404941 -0.00017179778476618686 0 0.018008924247399128 -4.7952786977323617e-05 0 0.017388727735404941 -0.00017179778476618686 0 0.017721896317708274 -0.00031904362589410231 0 0.018008924247399128 -4.7952786977323617e-05 0 0.017721896317708274 -0.00031904362589410231 0 0.018562519234224382 -0.00021251826365570087 0 0.016983298727653195 -0.00041562984758223285 0 0.017388727735404941 -0.00017179778476618686 0 0.017721896317708274 -0.00031904362589410231 0 0.019116794508400294 0.00013994295935735717 0 0.018562519234224382 -0.00021251826365570087 0 0.019417525534123851 -0.00034925639180679213 0 0.018562519234224382 -0.00021251826365570087 0 0.019417525534123851 -0.00034925639180679213 0 0.018455413166531286 -0.00049372818070292585 0 0.017721896317708274 -0.00031904362589410231 0 0.018562519234224382 -0.00021251826365570087 0 0.018455413166531286 -0.00049372818070292585 0 0.020371645345258715 -0.00015498267515759911 0 0.019417525534123851 -0.00034925639180679213 0 0.019884115485015324 -0.00045293567808344878 0 0.019417525534123851 -0.00034925639180679213 0 0.019061770833742026 -0.00077069807409684389 0 0.019884115485015324 -0.00045293567808344878 0 0.019061770833742026 -0.00077069807409684389 0 0.01900583108223779 -0.0014673875379728333 0 0.019884115485015324 -0.00045293567808344878 0 0.019061770833742026 -0.00077069807409684389 0 0.018455413166531286 -0.00049372818070292585 0 0.018351235005551605 -0.0012586805052527113 0 0.019061770833742026 -0.00077069807409684389 0 0.018351235005551605 -0.0012586805052527113 0 0.01900583108223779 -0.0014673875379728333 0 0.019417525534123851 -0.00034925639180679213 0 0.019061770833742026 -0.00077069807409684389 0 0.018455413166531286 -0.00049372818070292585 0 0.01745675134631831 -0.00058905251885510651 0 0.018455413166531286 -0.00049372818070292585 0 0.018351235005551605 -0.0012586805052527113 0 0.018351235005551605 -0.0012586805052527113 0 0.018601034568088662 -0.0020181251751031446 0 0.018271209327176175 -0.0023928600680258932 0 0.01745675134631831 -0.00058905251885510651 0 0.018351235005551605 -0.0012586805052527113 0 0.018271209327176175 -0.0023928600680258932 0 0.018351235005551605 -0.0012586805052527113 0 0.018601034568088662 -0.0020181251751031446 0 0.01900583108223779 -0.0014673875379728333 0 0.018601034568088662 -0.0020181251751031446 0 0.01898529544983998 -0.0020731139312962499 0 0.01900583108223779 -0.0014673875379728333 0 0.018746197678113561 -0.0023823718814226418 0 0.01902092088656054 -0.0024867609820436588 0 0.018669253708601039 -0.0031199673186257933 0 0.0052440888840693074 -0.0053190696749195578 0 0.0053802871806484963 -0.0045584857310073737 0 0.004810991856807334 -0.0043796791106020111 0 0.013659938216020556 -0.0025764092584034093 0 0.011645973923833437 -0.0041120479933006993 0 0.018374151406161512 -0.0022220301348821357 0 0.018746197678113561 -0.0023823718814226418 0 0.018669253708601039 -0.0031199673186257933 0 0.016830814094580173 -0.0011377409374953129 0 0.013659938216020556 -0.0025764092584034093 0 0.018601034568088662 -0.0020181251751031446 0 0.018374151406161512 -0.0022220301348821357 0 0.018746197678113561 -0.0023823718814226418 0 0.018601034568088662 -0.0020181251751031446 0 0.018746197678113561 -0.0023823718814226418 0 0.01898529544983998 -0.0020731139312962499 0 0.018879761517556902 -0.0011112218090659029 0 0.0185708666906985 -0.0014958166891675302 0 0.01902092088656054 -0.0024867609820436588 0 0.01959534752591046 -0.001889999492511761 0 0.019167779654109016 -0.0030033696113047404 0 0.018289646202463511 -9.6394901518792844e-05 0 0.017457624321028566 -0.00014717673811407903 0 0.016796871864002832 -0.00019958194098247927 0 0.01902092088656054 -0.0024867609820436588 0 0.01959534752591046 -0.001889999492511761 0 0.01898529544983998 -0.0020731139312962499 0 0.018746197678113561 -0.0023823718814226418 0 0.01902092088656054 -0.0024867609820436588 0 0.01898529544983998 -0.0020731139312962499 0 0.01959534752591046 -0.001889999492511761 0 0.01900583108223779 -0.0014673875379728333 0 0.019884115485015324 -0.00045293567808344878 0 0.018879761517556902 -0.0011112218090659029 0 0.019707125636787386 -0.000528755559084256 0 0.01959534752591046 -0.001889999492511761 0 0.01898529544983998 -0.0020731139312962499 0 0.01900583108223779 -0.0014673875379728333 0 0.018289646202463511 -9.6394901518792844e-05 0 0.019215348411219114 -0.00016793745036573052 0 0.018091833263633089 -0.00010119183074035884 0 0.018289646202463511 -9.6394901518792844e-05 0 0.019215348411219114 -0.00016793745036573052 0 0.019884115485015324 -0.00045293567808344878 0 0.018289646202463511 -9.6394901518792844e-05 0 0.018091833263633089 -0.00010119183074035884 0 0.017457624321028566 -0.00014717673811407903 0 0.018091833263633089 -0.00010119183074035884 0 0.017457624321028566 -0.00014717673811407903 0 0.017194141519452491 -0.00013512579378308128 0 0.018091833263633089 -0.00010119183074035884 0 0.018228526609664678 -1.7789426822745731e-07 0 0.017194141519452491 -0.00013512579378308128 0 0.019215348411219114 -0.00016793745036573052 0 0.018228526609664678 -1.7789426822745731e-07 0 0.020155051494425338 -4.7384961544692947e-07 0 0.019215348411219114 -0.00016793745036573052 0 0.018091833263633089 -0.00010119183074035884 0 0.018228526609664678 -1.7789426822745731e-07 0 0.019215348411219114 -0.00016793745036573052 0 0.020155051494425338 -4.7384961544692947e-07 0 0.020738558553996981 -0.00025307152259757367 0 0.019215348411219114 -0.00016793745036573052 0 0.019884115485015324 -0.00045293567808344878 0 0.020738558553996981 -0.00025307152259757367 0 0.020371645345258715 -0.00015498267515759911 0 0.019884115485015324 -0.00045293567808344878 0 0.020738558553996981 -0.00025307152259757367 0 0.022081421522811034 -1.4668632937020837e-07 0 0.020155051494425338 -4.7384961544692947e-07 0 0.020738558553996981 -0.00025307152259757367 0 0.02727208570132569 -0.0037968032957735598 0 0.027561541797630026 -0.0035830588519028491 0 0.027576967568137576 -0.0041390927485989524 0 0.02727208570132569 -0.0037968032957735598 0 0.027001541747795902 -0.0034259445273855851 0 0.027010089805144397 -0.0043167956973153947 0 0.02664154214541628 -0.0036495326106108276 0 0.030289868209532271 -0.0022654427712404893 0 0.02727208570132569 -0.0037968032957735598 0 0.027001541747795902 -0.0034259445273855851 0 0.027251258883200905 -0.0034749693958645964 0 0.02727208570132569 -0.0037968032957735598 0 0.027251258883200905 -0.0034749693958645964 0 0.027561541797630026 -0.0035830588519028491 0 0.027123045545923159 -0.0031389888134248077 0 0.026993219817909624 -0.0031524716036307673 0 0.027183404781012631 -0.0033788714029240451 0 0.026993219817909624 -0.0031524716036307673 0 0.027183404781012631 -0.0033788714029240451 0 0.026926021429493276 -0.0032547737232598421 0 0.027123045545923159 -0.0031389888134248077 0 0.026993219817909624 -0.0031524716036307673 0 0.026972624773342606 -0.003024486527376356 0 0.027187609881673961 -0.0033925427560947867 0 0.027178009127886385 -0.0028091707332733866 0 0.027001541747795902 -0.0034259445273855851 0 0.027251258883200905 -0.0034749693958645964 0 0.027132869819936699 -0.0029716034452627977 0 0.027425029356264084 -0.0032886768990296905 0 0.027251258883200905 -0.0034749693958645964 0 0.027561541797630026 -0.0035830588519028491 0 0.027425029356264084 -0.0032886768990296905 0 0.027251258883200905 -0.0034749693958645964 0 0.027266565246899428 -0.0029340582427289049 0 0.027425029356264084 -0.0032886768990296905 0 0.027611118129438322 -0.0031472298709551601 0 0.027266565246899428 -0.0029340582427289049 0 0.027611118129438322 -0.0031472298709551601 0 0.027266565246899428 -0.0029340582427289049 0 0.027511324373368732 -0.0028624105050160456 0 0.027611118129438322 -0.0031472298709551601 0 0.027959442536915447 -0.0030896253744944367 0 0.027854532384436321 -0.0034150040844626367 0 0.027611118129438322 -0.0031472298709551601 0 0.027959442536915447 -0.0030896253744944367 0 0.027754762757700453 -0.0028141997666624695 0 0.027425029356264084 -0.0032886768990296905 0 0.027611118129438322 -0.0031472298709551601 0 0.027561541797630026 -0.0035830588519028491 0 0.027611118129438322 -0.0031472298709551601 0 0.027854532384436321 -0.0034150040844626367 0 0.027561541797630026 -0.0035830588519028491 0 0.028608810971404611 -0.0029494348449122217 0 0.028283419962889057 -0.0030566532156743168 0 0.028571066932591919 -0.0033239688454426574 0 0.028283419962889057 -0.0030566532156743168 0 0.028198691426718242 -0.0033916832382523336 0 0.028571066932591919 -0.0033239688454426574 0 0.027959442536915447 -0.0030896253744944367 0 0.028283419962889057 -0.0030566532156743168 0 0.028198691426718242 -0.0033916832382523336 0 0.027959442536915447 -0.0030896253744944367 0 0.027854532384436321 -0.0034150040844626367 0 0.028198691426718242 -0.0033916832382523336 0 0.028198691426718242 -0.0033916832382523336 0 0.028571066932591919 -0.0033239688454426574 0 0.028449343775761592 -0.0036658784246439307 0 0.028198691426718242 -0.0033916832382523336 0 0.028449343775761592 -0.0036658784246439307 0 0.028029982969279162 -0.0038362360313708801 0 0.027854532384436321 -0.0034150040844626367 0 0.028198691426718242 -0.0033916832382523336 0 0.028029982969279162 -0.0038362360313708801 0 0.028449343775761592 -0.0036658784246439307 0 0.028029982969279162 -0.0038362360313708801 0 0.028464534944396269 -0.004123395946712894 0 0.028029982969279162 -0.0038362360313708801 0 0.027561541797630026 -0.0035830588519028491 0 0.027576967568137576 -0.0041390927485989524 0 0.027854532384436321 -0.0034150040844626367 0 0.028029982969279162 -0.0038362360313708801 0 0.027561541797630026 -0.0035830588519028491 0 0.028029982969279162 -0.0038362360313708801 0 0.027576967568137576 -0.0041390927485989524 0 0.028115932508454004 -0.0044248730093021148 0 0.027576967568137576 -0.0041390927485989524 0 0.028115932508454004 -0.0044248730093021148 0 0.027582311834623091 -0.0046756109837149092 0 0.028029982969279162 -0.0038362360313708801 0 0.028115932508454004 -0.0044248730093021148 0 0.028464534944396269 -0.004123395946712894 0 0.02877275349588946 -0.0046249370187031041 0 0.028115932508454004 -0.0044248730093021148 0 0.028464534944396269 -0.004123395946712894 0 0.02877275349588946 -0.0046249370187031041 0 0.028115932508454004 -0.0044248730093021148 0 0.028176749374973487 -0.0050102190992395912 0 0.032564237684383171 -0.001352240169799534 0 0.031683016888461771 -0.0016938107365691503 0 0.029727570493114412 -0.0037311235544840965 0 0.031683016888461771 -0.0016938107365691503 0 0.031683016888461771 -0.0016938107365691503 0 0.033215060020775559 -0.00070373286490129825 0 0.028115932508454004 -0.0044248730093021148 0 0.028176749374973487 -0.0050102190992395912 0 0.027582311834623091 -0.0046756109837149092 0 0.031683016888461771 -0.0016938107365691503 0 0.030533679599007775 -0.0026645565374689511 0 0.033359762737183447 -0.00048327818143338006 0 0.033561961383199508 -0.0005827953498792381 0 0.033413383686222313 -0.00045166654215576205 0 0.033561961383199508 -0.0005827953498792381 0 0.033413383686222313 -0.00045166654215576205 0 0.0335545408846721 -0.00046309810433465903 0 0.033561961383199508 -0.0005827953498792381 0 0.0335545408846721 -0.00046309810433465903 0 0.03363848394900712 -0.00049154449284436819 0 0.033724891635001669 -0.00039230563170396525 0 0.03363848394900712 -0.00049154449284436819 0 0.033718372958913528 -0.00068730477573588462 0 0.03364725329634758 -0.00035579708452364891 0 0.0335545408846721 -0.00046309810433465903 0 0.03363848394900712 -0.00049154449284436819 0 0.033561961383199508 -0.0005827953498792381 0 0.03363848394900712 -0.00049154449284436819 0 0.033718372958913528 -0.00068730477573588462 0 0.03444079974386572 0.00026413124713309472 0 0.030289868209532271 -0.0022654427712404893 0 0.02727208570132569 -0.0037968032957735598 0 0.027576967568137576 -0.0041390927485989524 0 0.027010089805144397 -0.0043167956973153947 0 0.027576967568137576 -0.0041390927485989524 0 0.027582311834623091 -0.0046756109837149092 0 0.027010089805144397 -0.0043167956973153947 0 0.030533679599007775 -0.0026645565374689511 0 0.030289868209532271 -0.0022654427712404893 0 0.030289868209532271 -0.0022654427712404893 0 0.030966584957469775 -0.0018044494402635926 0 0.033700333204115612 -0.00047984705095260177 0 0.033792957500570084 -0.0004297188962476502 0 0.033765311199673194 -0.00051423769124110241 0 0.033700333204115612 -0.00047984705095260177 0 0.033739159130476863 -0.00043313502684684638 0 0.033792957500570084 -0.0004297188962476502 0 0.033724891635001669 -0.00039230563170396525 0 0.033700333204115612 -0.00047984705095260177 0 0.033739159130476863 -0.00043313502684684638 0 0.03376447649734951 -0.00038949311615582398 0 0.033724891635001669 -0.00039230563170396525 0 0.033739159130476863 -0.00043313502684684638 0 0.03376447649734951 -0.00038949311615582398 0 0.033739159130476863 -0.00043313502684684638 0 0.033792957500570084 -0.0004297188962476502 0 0.033857109691947107 -0.00037410579415654219 0 0.033792957500570084 -0.0004297188962476502 0 0.033838098333333629 -0.00045675655405273008 0 0.033857109691947107 -0.00037410579415654219 0 0.033906997085988669 -0.00040448534515008917 0 0.033838098333333629 -0.00045675655405273008 0 0.033906997085988669 -0.00040448534515008917 0 0.033838098333333629 -0.00045675655405273008 0 0.033870928624194038 -0.00043741941573556526 0 0.033838098333333629 -0.00045675655405273008 0 0.033765311199673194 -0.00051423769124110241 0 0.033796983540211503 -0.00050535389385848468 0 0.033792957500570084 -0.0004297188962476502 0 0.033838098333333629 -0.00045675655405273008 0 0.033765311199673194 -0.00051423769124110241 0 0.027394275654582852 -0.0012046740229177389 0 0.027465613524079908 -0.0007152701598205195 0 0.027229109092640182 -0.0009394958044172387 0 0.030485440064140956 -0.00059282262921014927 0 0.032061203097981411 -0.00088312352894902757 0 0.034015594070847234 -0.00013635944707005907 0 0.03397046028647184 -9.8302288346827286e-05 0 0.034050732488841655 -0.00010153933367259736 0 0.026946449577400524 -0.001118785765790879 0 0.027394275654582852 -0.0012046740229177389 0 0.027229109092640182 -0.0009394958044172387 0 0.026946449577400524 -0.001118785765790879 0 0.026919249945318351 -0.00090359469369596338 0 0.027229109092640182 -0.0009394958044172387 0 0.033870792119862624 -0.00043199929291258744 0 0.033870928624194038 -0.00043741941573556526 0 0.033849377537441092 -0.00046938079794530893 0 0.032061203097981411 -0.00088312352894902757 0 0.030745214070590915 -0.00053796313705615942 0 0.034494863055851963 -0.00047856318261480082 0 0.032061203097981411 -0.00088312352894902757 0 0.033906997085988669 -0.00040448534515008917 0 0.033870792119862624 -0.00043199929291258744 0 0.033870928624194038 -0.00043741941573556526 0 0.033838098333333629 -0.00045675655405273008 0 0.033849377537441092 -0.00046938079794530893 0 0.033796983540211503 -0.00050535389385848468 0 0.033838098333333629 -0.00045675655405273008 0 0.033870928624194038 -0.00043741941573556526 0 0.033849377537441092 -0.00046938079794530893 0 0.027465613524079908 -0.0007152701598205195 0 0.027229109092640182 -0.0009394958044172387 0 0.027302370862184452 -0.0006394463999260608 0 0.027229109092640182 -0.0009394958044172387 0 0.027302370862184452 -0.0006394463999260608 0 0.026964643684877356 -0.00072969878799492591 0 0.026919249945318351 -0.00090359469369596338 0 0.027229109092640182 -0.0009394958044172387 0 0.026964643684877356 -0.00072969878799492591 0 0.026722942949918241 -0.00074761806215223109 0 0.027980828114432598 -0.00040572465775503148 0 0.026876800532426595 -0.00062187249434971859 0 0.026964643684877356 -0.00072969878799492591 0 0.026901209913731561 -0.00057153226747483593 0 0.026964643684877356 -0.00072969878799492591 0 0.026998718989737571 -0.00056705744150128414 0 0.026901209913731561 -0.00057153226747483593 0 0.027302370862184452 -0.0006394463999260608 0 0.026964643684877356 -0.00072969878799492591 0 0.02756125920035439 -0.00012397225031698754 0 0.033849377537441092 -0.00046938079794530893 0 0.033788288113837092 -0.00052876980515065991 0 0.033796983540211503 -0.00050535389385848468 0 0.027465613524079908 -0.0007152701598205195 0 0.027302370862184452 -0.0006394463999260608 0 0.02756125920035439 -0.00012397225031698754 0 0.030745214070590915 -0.00053796313705615942 0 0.027980828114432598 -0.00040572465775503148 0 0.033768816427982962 -0.000538628306603529 0 0.033788288113837092 -0.00052876980515065991 0 0.033796983540211503 -0.00050535389385848468 0 0.025445465640079087 -0.0023009187046719687 0 0.026364173460882608 -0.0028279030282939619 0 0.026602312872706264 -0.0011299812603655585 0 0.027052814524004664 -0.0027119808161865208 0 0.027980828114432598 -0.00040572465775503148 0 0.027052814524004664 -0.0027119808161865208 0 0.023961050162236538 -0.0022419423005892495 0 0.023961050162236538 -0.0022419423005892495 0 0.020966705520285137 -0.0037378249980717913 0 0.020624470437655175 -0.0037593782235602032 0 0.020691528210907875 -0.0034098416494400458 0 0.020443716215545336 -0.0036563999293185382 0 0.020691528210907875 -0.0034098416494400458 0 0.020443716215545336 -0.0036563999293185382 0 0.020470352459906901 -0.0030942848974912555 0 0.023961050162236538 -0.0022419423005892495 0 0.027980828114432598 -0.00040572465775503148 0 0.027000542162110848 -0.00052356826938104099 0 0.026998718989737571 -0.00056705744150128414 0 0.026942521309703652 -0.00053675189340133427 0 0.026790430685032361 -0.00049866147394825398 0 0.026901209913731561 -0.00057153226747483593 0 0.026879849222524684 -0.00045009886725996573 0 0.026942521309703652 -0.00053675189340133427 0 0.026901209913731561 -0.00057153226747483593 0 0.026879849222524684 -0.00045009886725996573 0 0.026998718989737571 -0.00056705744150128414 0 0.026942521309703652 -0.00053675189340133427 0 0.026901209913731561 -0.00057153226747483593 0 0.027000542162110848 -0.00052356826938104099 0 0.026942521309703652 -0.00053675189340133427 0 0.026879849222524684 -0.00045009886725996573 0 0.023961050162236538 -0.0022419423005892495 0 0.023780778789356631 -0.0021360093475014975 0 0.027052814524004664 -0.0027119808161865208 0 0.030966584957469775 -0.0018044494402635926 0 0.033768816427982962 -0.000538628306603529 0 0.033765311199673194 -0.00051423769124110241 0 0.033796983540211503 -0.00050535389385848468 0 0.027052814524004664 -0.0027119808161865208 0 0.023537997092016812 -0.0033607854232110281 0 0.026685003752280792 -0.0031251214888189296 0 0.026926021429493276 -0.0032547737232598421 0 0.026875410582583626 -0.0031101103754637735 0 0.026685003752280792 -0.0031251214888189296 0 0.026875410582583626 -0.0031101103754637735 0 0.026801231688129836 -0.0029971959241629157 0 0.020624470437655175 -0.0037593782235602032 0 0.020691528210907875 -0.0034098416494400458 0 0.021276170336407538 -0.0031153855196397735 0 0.026993219817909624 -0.0031524716036307673 0 0.026926021429493276 -0.0032547737232598421 0 0.026875410582583626 -0.0031101103754637735 0 0.026993219817909624 -0.0031524716036307673 0 0.026875410582583626 -0.0031101103754637735 0 0.026972624773342606 -0.003024486527376356 0 0.026875410582583626 -0.0031101103754637735 0 0.026801231688129836 -0.0029971959241629157 0 0.026972624773342606 -0.003024486527376356 0 0.026801231688129836 -0.0029971959241629157 0 0.026905889924511261 -0.0028553337333048863 0 0.026981337317639319 -0.0029324366945703002 0 0.023537997092016812 -0.0033607854232110281 0 0.024451267911931158 -0.0026238171271652905 0 0.026801231688129836 -0.0029971959241629157 0 0.026972624773342606 -0.003024486527376356 0 0.026981337317639319 -0.0029324366945703002 0 0.021276170336407538 -0.0031153855196397735 0 0.020470352459906901 -0.0030942848974912555 0 0.020598154217475365 -0.0026311424081220261 0 0.020691528210907875 -0.0034098416494400458 0 0.021276170336407538 -0.0031153855196397735 0 0.020470352459906901 -0.0030942848974912555 0 0.021276170336407538 -0.0031153855196397735 0 0.021007401049192784 -0.0025191076674197861 0 0.020598154217475365 -0.0026311424081220261 0 0.021276170336407538 -0.0031153855196397735 0 0.021007401049192784 -0.0025191076674197861 0 0.021377343774890648 -0.0022912101001124367 0 0.021007401049192784 -0.0025191076674197861 0 0.020858094099697428 -0.0020679212240485093 0 0.020598154217475365 -0.0026311424081220261 0 0.021007401049192784 -0.0025191076674197861 0 0.020858094099697428 -0.0020679212240485093 0 0.021377343774890648 -0.0022912101001124367 0 0.020858094099697428 -0.0020679212240485093 0 0.021377343774890648 -0.0022912101001124367 0 0.021313650681793923 -0.001764804196140542 0 0.021377343774890648 -0.0022912101001124367 0 0.021786357260597689 -0.0018976468246766575 0 0.021313650681793923 -0.001764804196140542 0 0.022020685625479517 -0.0024174500017433947 0 0.022183599623115013 -0.0016023873586816122 0 0.021786357260597689 -0.0018976468246766575 0 0.021377343774890648 -0.0022912101001124367 0 0.022020685625479517 -0.0024174500017433947 0 0.021786357260597689 -0.0018976468246766575 0 0.021276170336407538 -0.0031153855196397735 0 0.021377343774890648 -0.0022912101001124367 0 0.022020685625479517 -0.0024174500017433947 0 0.019598609279235974 -0.003272267518296409 0 0.019938995837793513 -0.0029029581390124792 0 0.020470352459906901 -0.0030942848974912555 0 0.018998400255654406 -0.0026049691586960766 0 0.019598609279235974 -0.003272267518296409 0 0.019634343936546748 -0.0027121493555684259 0 0.019938995837793513 -0.0029029581390124792 0 0.019634343936546748 -0.0027121493555684259 0 0.020052338512615377 -0.0025390666635401482 0 0.019598609279235974 -0.003272267518296409 0 0.019938995837793513 -0.0029029581390124792 0 0.019634343936546748 -0.0027121493555684259 0 0.020406560092509182 -0.0037211364556411345 0 0.019598609279235974 -0.003272267518296409 0 0.020470352459906901 -0.0030942848974912555 0 0.019938995837793513 -0.0029029581390124792 0 0.020470352459906901 -0.0030942848974912555 0 0.020052338512615377 -0.0025390666635401482 0 0.020470352459906901 -0.0030942848974912555 0 0.020598154217475365 -0.0026311424081220261 0 0.020052338512615377 -0.0025390666635401482 0 0.020858094099697428 -0.0020679212240485093 0 0.020598154217475365 -0.0026311424081220261 0 0.020360135489576221 -0.0021969625321604062 0 0.020858094099697428 -0.0020679212240485093 0 0.020360135489576221 -0.0021969625321604062 0 0.020447932562084246 -0.0017236317739790852 0 0.020360135489576221 -0.0021969625321604062 0 0.020052338512615377 -0.0025390666635401482 0 0.019905534733791586 -0.0021719617954956303 0 0.020360135489576221 -0.0021969625321604062 0 0.019905534733791586 -0.0021719617954956303 0 0.020099302810108466 -0.0019048533376582082 0 0.020598154217475365 -0.0026311424081220261 0 0.020360135489576221 -0.0021969625321604062 0 0.020052338512615377 -0.0025390666635401482 0 0.020052338512615377 -0.0025390666635401482 0 0.019630369969045873 -0.0024015587332702074 0 0.019905534733791586 -0.0021719617954956303 0 0.019634343936546748 -0.0027121493555684259 0 0.020052338512615377 -0.0025390666635401482 0 0.019630369969045873 -0.0024015587332702074 0 0.019630369969045873 -0.0024015587332702074 0 0.019905534733791586 -0.0021719617954956303 0 0.019556678714032601 -0.0019790285239963726 0 0.019905534733791586 -0.0021719617954956303 0 0.019556678714032601 -0.0019790285239963726 0 0.020099302810108466 -0.0019048533376582082 0 0.016429608215475656 -0.001241135048441199 0 0.015355412077313528 -0.0011141751547582438 0 0.018998400255654406 -0.0026049691586960766 0 0.019630369969045873 -0.0024015587332702074 0 0.019556678714032601 -0.0019790285239963726 0 0.018998400255654406 -0.0026049691586960766 0 0.019634343936546748 -0.0027121493555684259 0 0.019630369969045873 -0.0024015587332702074 0 0.012629981608620037 -0.00061254329176260117 0 0.010959988369339452 -0.00059509055566762611 0 0.011314343585581836 -0.0019344011246224533 0 0.012629981608620037 -0.00061254329176260117 0 0.011229032455728755 -0.00020839898571374494 0 0.010959988369339452 -0.00059509055566762611 0 0.010959988369339452 -0.00059509055566762611 0 0.010600867903596125 -0.0013378604634993129 0 0.011314343585581836 -0.0019344011246224533 0 0.019556678714032601 -0.0019790285239963726 0 0.019722461178592301 -0.0017839806536259193 0 0.020099302810108466 -0.0019048533376582082 0 0.015355412077313528 -0.0011141751547582438 0 0.015363270955392637 -0.0011997553454700526 0 0.015363270955392637 -0.0011997553454700526 0 0.015348290521411019 -0.0012899533131684837 0 0.020360135489576221 -0.0021969625321604062 0 0.020099302810108466 -0.0019048533376582082 0 0.020447932562084246 -0.0017236317739790852 0 0.019722461178592301 -0.0017839806536259193 0 0.020063022337536904 -0.0013303283234116304 0 0.020099302810108466 -0.0019048533376582082 0 0.020063022337536904 -0.0013303283234116304 0 0.020099302810108466 -0.0019048533376582082 0 0.020447932562084246 -0.0017236317739790852 0 0.020447932562084246 -0.0017236317739790852 0 0.020457725851753712 -0.001327570172607116 0 0.020904138760961481 -0.0015191581214796014 0 0.020063022337536904 -0.0013303283234116304 0 0.020447932562084246 -0.0017236317739790852 0 0.020457725851753712 -0.001327570172607116 0 0.010372887550636499 -0.0019533975751563192 0 0.011314343585581836 -0.0019344011246224533 0 0.010626991027524959 -0.0023490139586245539 0 0.010600867903596125 -0.0013378604634993129 0 0.010372887550636499 -0.0019533975751563192 0 0.011314343585581836 -0.0019344011246224533 0 0.020457725851753712 -0.001327570172607116 0 0.02034926328824143 -0.00087213521529641645 0 0.020715371325455093 -0.0011455591960271442 0 0.020063022337536904 -0.0013303283234116304 0 0.020457725851753712 -0.001327570172607116 0 0.02034926328824143 -0.00087213521529641645 0 0.015348290521411019 -0.0012899533131684837 0 0.015417047247681424 -0.0013456783392653171 0 0.021786357260597689 -0.0018976468246766575 0 0.021313650681793923 -0.001764804196140542 0 0.021677401155073328 -0.0010439561067503715 0 0.022183599623115013 -0.0016023873586816122 0 0.021677401155073328 -0.0010439561067503715 0 0.022625598410797199 -0.00097238418818135404 0 0.022183599623115013 -0.0016023873586816122 0 0.021786357260597689 -0.0018976468246766575 0 0.021677401155073328 -0.0010439561067503715 0 0.020904138760961481 -0.0015191581214796014 0 0.020715371325455093 -0.0011455591960271442 0 0.021677401155073328 -0.0010439561067503715 0 0.020858094099697428 -0.0020679212240485093 0 0.020447932562084246 -0.0017236317739790852 0 0.020904138760961481 -0.0015191581214796014 0 0.020858094099697428 -0.0020679212240485093 0 0.021313650681793923 -0.001764804196140542 0 0.020904138760961481 -0.0015191581214796014 0 0.020457725851753712 -0.001327570172607116 0 0.020904138760961481 -0.0015191581214796014 0 0.020715371325455093 -0.0011455591960271442 0 0.021313650681793923 -0.001764804196140542 0 0.020904138760961481 -0.0015191581214796014 0 0.021677401155073328 -0.0010439561067503715 0 0.020868777851392625 -0.0011449920041829223 0 0.021724653928984212 -0.0011139379767910109 0 0.02034926328824143 -0.00087213521529641645 0 0.021265082371844643 -0.00052607616409640302 0 0.021281085121705765 0.0004880386524239181 0 0.020715371325455093 -0.0011455591960271442 0 0.021265082371844643 -0.00052607616409640302 0 0.021972801051940657 -0.0011655451843672032 0 0.02034926328824143 -0.00087213521529641645 0 0.020715371325455093 -0.0011455591960271442 0 0.021265082371844643 -0.00052607616409640302 0 0.021724653928984212 -0.0011139379767910109 0 0.023520387367122426 -0.00092961559346804224 0 0.021972801051940657 -0.0011655451843672032 0 0.022306772501314721 -0.00037392673628244702 0 0.02344842243682593 -0.0011403681226380726 0 0.021265082371844643 -0.00052607616409640302 0 0.021972801051940657 -0.0011655451843672032 0 0.022306772501314721 -0.00037392673628244702 0 0.022306772501314721 -0.00037392673628244702 0 0.023256183042788831 -0.00036733322177144795 0 0.02344842243682593 -0.0011403681226380726 0 0.023359175145981976 -0.00061325058005724114 0 0.023520387367122426 -0.00092961559346804224 0 0.023256183042788831 -0.00036733322177144795 0 0.024022182439944258 -0.00060849726238006684 0 0.023505742491210308 -0.0013599965683961908 0 0.024682465152144097 -0.0010989069581516793 0 0.025769795450282341 -0.0010269152233918092 0 0.024900674480227255 -0.0019052979713080533 0 0.023520387367122426 -0.00092961559346804224 0 0.02605352755430862 -0.0010347424533662338 0 0.024022182439944258 -0.00060849726238006684 0 0.023505742491210308 -0.0013599965683961908 0 0.025270758730038263 -0.0012727010101446965 0 0.025270758730038263 -0.0012727010101446965 0 0.024536877168137055 -0.00016449390658270212 0 0.025229283603364846 0.00034569216101797232 0 0.024022182439944258 -0.00060849726238006684 0 0.025270758730038263 -0.0012727010101446965 0 0.024536877168137055 -0.00016449390658270212 0 0.027187197647582383 -0.001050033895516502 0 0.027172272574525577 -0.0014498531551296961 0 0.027450916755495172 -0.0013493877611594624 0 0.027187197647582383 -0.001050033895516502 0 0.027172272574525577 -0.0014498531551296961 0 0.026638577998399204 -0.0015572608103289964 0 0.02605352755430862 -0.0010347424533662338 0 0.025600188115909337 -0.0019776686398360649 0 0.027172272574525577 -0.0014498531551296961 0 0.02714742171006209 -0.0017493418419817399 0 0.026638577998399204 -0.0015572608103289964 0 0.027172272574525577 -0.0014498531551296961 0 0.02714742171006209 -0.0017493418419817399 0 0.027461527201368199 -0.0016691188186554549 0 0.022020685625479517 -0.0024174500017433947 0 0.022183599623115013 -0.0016023873586816122 0 0.022810469873376045 -0.0016614887236248242 0 0.022183599623115013 -0.0016023873586816122 0 0.022625598410797199 -0.00097238418818135404 0 0.022810469873376045 -0.0016614887236248242 0 0.023520387367122426 -0.00092961559346804224 0 0.025600188115909337 -0.0019776686398360649 0 0.024451267911931158 -0.0026238171271652905 0 0.025600188115909337 -0.0019776686398360649 0 0.027038889389275358 -0.0026595589154290765 0 0.026996931938797424 -0.0028410166601102742 0 0.027066528390926024 -0.0029001298035537192 0 0.026905889924511261 -0.0028553337333048863 0 0.027038889389275358 -0.0026595589154290765 0 0.026996931938797424 -0.0028410166601102742 0 0.027038889389275358 -0.0026595589154290765 0 0.027066528390926024 -0.0029001298035537192 0 0.027132869819936699 -0.0029716034452627977 0 0.026905889924511261 -0.0028553337333048863 0 0.026996931938797424 -0.0028410166601102742 0 0.026981337317639319 -0.0029324366945703002 0 0.026996931938797424 -0.0028410166601102742 0 0.027066528390926024 -0.0029001298035537192 0 0.026981337317639319 -0.0029324366945703002 0 0.025600188115909337 -0.0019776686398360649 0 0.027178009127886385 -0.0028091707332733866 0 0.026638577998399204 -0.0015572608103289964 0 0.027098486410181668 -0.0020766188400353344 0 0.026889912967901559 -0.0024997617694157525 0 0.02714742171006209 -0.0017493418419817399 0 0.026638577998399204 -0.0015572608103289964 0 0.027098486410181668 -0.0020766188400353344 0 0.02714742171006209 -0.0017493418419817399 0 0.027098486410181668 -0.0020766188400353344 0 0.027413039816478097 -0.0019780440281970471 0 0.027098486410181668 -0.0020766188400353344 0 0.027405665475126188 -0.0023127633169398761 0 0.027413039816478097 -0.0019780440281970471 0 0.027098486410181668 -0.0020766188400353344 0 0.027167337267741638 -0.0023697104687508482 0 0.027405665475126188 -0.0023127633169398761 0 0.027098486410181668 -0.0020766188400353344 0 0.027167337267741638 -0.0023697104687508482 0 0.026889912967901559 -0.0024997617694157525 0 0.027251258883200905 -0.0034749693958645964 0 0.026889912967901559 -0.0024997617694157525 0 0.027266565246899428 -0.0029340582427289049 0 0.027001541747795902 -0.0034259445273855851 0 0.027066528390926024 -0.0029001298035537192 0 0.027132869819936699 -0.0029716034452627977 0 0.027167337267741638 -0.0023697104687508482 0 0.026889912967901559 -0.0024997617694157525 0 0.0272696504528929 -0.0025949036398510176 0 0.027167337267741638 -0.0023697104687508482 0 0.0272696504528929 -0.0025949036398510176 0 0.027405665475126188 -0.0023127633169398761 0 0.0272696504528929 -0.0025949036398510176 0 0.027266565246899428 -0.0029340582427289049 0 0.027511324373368732 -0.0028624105050160456 0 0.026889912967901559 -0.0024997617694157525 0 0.0272696504528929 -0.0025949036398510176 0 0.027266565246899428 -0.0029340582427289049 0 0.027123045545923159 -0.0031389888134248077 0 0.027066528390926024 -0.0029001298035537192 0 0.026972624773342606 -0.003024486527376356 0 0.02664154214541628 -0.0036495326106108276 0 0.027171112509669335 -0.0027710866279971103 0 0.027066528390926024 -0.0029001298035537192 0 0.026972624773342606 -0.003024486527376356 0 0.026981337317639319 -0.0029324366945703002 0 0.028302250786596973 -0.002522342063020174 0 0.028100156087595082 -0.0027216448534828782 0 0.028067231271252619 -0.0023418213596578994 0 0.028100156087595082 -0.0027216448534828782 0 0.027800046026156121 -0.0025114420998039399 0 0.028067231271252619 -0.0023418213596578994 0 0.028581564931795245 -0.0026014792911040995 0 0.028302250786596973 -0.002522342063020174 0 0.028416053450879317 -0.0022340615230326379 0 0.028581564931795245 -0.0026014792911040995 0 0.028302250786596973 -0.002522342063020174 0 0.028379021483428152 -0.0027894006833878316 0 0.028302250786596973 -0.002522342063020174 0 0.028379021483428152 -0.0027894006833878316 0 0.028100156087595082 -0.0027216448534828782 0 0.028608810971404611 -0.0029494348449122217 0 0.028581564931795245 -0.0026014792911040995 0 0.028379021483428152 -0.0027894006833878316 0 0.028608810971404611 -0.0029494348449122217 0 0.028283419962889057 -0.0030566532156743168 0 0.028379021483428152 -0.0027894006833878316 0 0.028283419962889057 -0.0030566532156743168 0 0.028379021483428152 -0.0027894006833878316 0 0.028100156087595082 -0.0027216448534828782 0 0.027959442536915447 -0.0030896253744944367 0 0.028283419962889057 -0.0030566532156743168 0 0.028100156087595082 -0.0027216448534828782 0 0.028100156087595082 -0.0027216448534828782 0 0.027754762757700453 -0.0028141997666624695 0 0.027800046026156121 -0.0025114420998039399 0 0.027959442536915447 -0.0030896253744944367 0 0.028100156087595082 -0.0027216448534828782 0 0.027754762757700453 -0.0028141997666624695 0 0.0272696504528929 -0.0025949036398510176 0 0.027511324373368732 -0.0028624105050160456 0 0.027565154950506574 -0.0025820050695570711 0 0.027611118129438322 -0.0031472298709551601 0 0.027754762757700453 -0.0028141997666624695 0 0.027511324373368732 -0.0028624105050160456 0 0.027754762757700453 -0.0028141997666624695 0 0.027511324373368732 -0.0028624105050160456 0 0.027565154950506574 -0.0025820050695570711 0 0.0272696504528929 -0.0025949036398510176 0 0.027565154950506574 -0.0025820050695570711 0 0.027405665475126188 -0.0023127633169398761 0 0.027565154950506574 -0.0025820050695570711 0 0.027619708708673626 -0.0024035386148735919 0 0.027405665475126188 -0.0023127633169398761 0 0.027754762757700453 -0.0028141997666624695 0 0.027565154950506574 -0.0025820050695570711 0 0.027800046026156121 -0.0025114420998039399 0 0.027565154950506574 -0.0025820050695570711 0 0.027619708708673626 -0.0024035386148735919 0 0.027800046026156121 -0.0025114420998039399 0 0.027708723561248292 -0.0022086045828614261 0 0.027940878510079585 -0.0020548776033539398 0 0.028067231271252619 -0.0023418213596578994 0 0.027619708708673626 -0.0024035386148735919 0 0.027800046026156121 -0.0025114420998039399 0 0.027708723561248292 -0.0022086045828614261 0 0.027800046026156121 -0.0025114420998039399 0 0.027708723561248292 -0.0022086045828614261 0 0.028067231271252619 -0.0023418213596578994 0 0.027619708708673626 -0.0024035386148735919 0 0.027708723561248292 -0.0022086045828614261 0 0.027405665475126188 -0.0023127633169398761 0 0.027708723561248292 -0.0022086045828614261 0 0.027405665475126188 -0.0023127633169398761 0 0.027413039816478097 -0.0019780440281970471 0 0.02714742171006209 -0.0017493418419817399 0 0.027413039816478097 -0.0019780440281970471 0 0.027461527201368199 -0.0016691188186554549 0 0.027413039816478097 -0.0019780440281970471 0 0.027699348530137443 -0.0018640945216209591 0 0.027461527201368199 -0.0016691188186554549 0 0.027699348530137443 -0.0018640945216209591 0 0.027940878510079585 -0.0020548776033539398 0 0.027920035839266447 -0.0017177391996292856 0 0.027708723561248292 -0.0022086045828614261 0 0.027413039816478097 -0.0019780440281970471 0 0.027699348530137443 -0.0018640945216209591 0 0.027708723561248292 -0.0022086045828614261 0 0.027699348530137443 -0.0018640945216209591 0 0.027940878510079585 -0.0020548776033539398 0 0.028137989792687924 -0.001895245780108371 0 0.027940878510079585 -0.0020548776033539398 0 0.027920035839266447 -0.0017177391996292856 0 0.028137989792687924 -0.001895245780108371 0 0.027940878510079585 -0.0020548776033539398 0 0.028176165111393876 -0.0021240599304457159 0 0.027940878510079585 -0.0020548776033539398 0 0.028176165111393876 -0.0021240599304457159 0 0.028067231271252619 -0.0023418213596578994 0 0.028176165111393876 -0.0021240599304457159 0 0.028067231271252619 -0.0023418213596578994 0 0.028416053450879317 -0.0022340615230326379 0 0.028302250786596973 -0.002522342063020174 0 0.028067231271252619 -0.0023418213596578994 0 0.028416053450879317 -0.0022340615230326379 0 0.028176165111393876 -0.0021240599304457159 0 0.028416053450879317 -0.0022340615230326379 0 0.028447845856733014 -0.0019358170132082902 0 0.028137989792687924 -0.001895245780108371 0 0.028176165111393876 -0.0021240599304457159 0 0.028447845856733014 -0.0019358170132082902 0 0.028137989792687924 -0.001895245780108371 0 0.028447845856733014 -0.0019358170132082902 0 0.028237831864111752 -0.0016814377721298284 0 0.028237831864111752 -0.0016814377721298284 0 0.027997483619128061 -0.0014283882987120005 0 0.028397038519353594 -0.0014430018836578821 0 0.028552463032698351 -0.0016662095916158842 0 0.028447845856733014 -0.0019358170132082902 0 0.028237831864111752 -0.0016814377721298284 0 0.028552463032698351 -0.0016662095916158842 0 0.028237831864111752 -0.0016814377721298284 0 0.028397038519353594 -0.0014430018836578821 0 0.028137989792687924 -0.001895245780108371 0 0.028237831864111752 -0.0016814377721298284 0 0.027920035839266447 -0.0017177391996292856 0 0.028237831864111752 -0.0016814377721298284 0 0.027920035839266447 -0.0017177391996292856 0 0.027997483619128061 -0.0014283882987120005 0 0.027920035839266447 -0.0017177391996292856 0 0.027997483619128061 -0.0014283882987120005 0 0.02771394619205423 -0.00151584307341151 0 0.027997483619128061 -0.0014283882987120005 0 0.027697932846386338 -0.0012350032969805601 0 0.027962360240458336 -0.0011906751086816498 0 0.027997483619128061 -0.0014283882987120005 0 0.028245296648206273 -0.0011990818874776162 0 0.027962360240458336 -0.0011906751086816498 0 0.027997483619128061 -0.0014283882987120005 0 0.028245296648206273 -0.0011990818874776162 0 0.028397038519353594 -0.0014430018836578821 0 0.027461527201368199 -0.0016691188186554549 0 0.02771394619205423 -0.00151584307341151 0 0.027450916755495172 -0.0013493877611594624 0 0.027699348530137443 -0.0018640945216209591 0 0.027920035839266447 -0.0017177391996292856 0 0.02771394619205423 -0.00151584307341151 0 0.027699348530137443 -0.0018640945216209591 0 0.027461527201368199 -0.0016691188186554549 0 0.02771394619205423 -0.00151584307341151 0 0.02771394619205423 -0.00151584307341151 0 0.027697932846386338 -0.0012350032969805601 0 0.027450916755495172 -0.0013493877611594624 0 0.027997483619128061 -0.0014283882987120005 0 0.02771394619205423 -0.00151584307341151 0 0.027697932846386338 -0.0012350032969805601 0 0.027172272574525577 -0.0014498531551296961 0 0.027461527201368199 -0.0016691188186554549 0 0.027450916755495172 -0.0013493877611594624 0 0.027187197647582383 -0.001050033895516502 0 0.027697932846386338 -0.0012350032969805601 0 0.027921728022307003 -0.00096249295685443543 0 0.025323947429009518 -0.0012790281344669109 0 0.027921728022307003 -0.00096249295685443543 0 0.02648754373398491 -9.5639694010906954e-05 0 0.027187197647582383 -0.001050033895516502 0 0.027697932846386338 -0.0012350032969805601 0 0.027450916755495172 -0.0013493877611594624 0 0.02605352755430862 -0.0010347424533662338 0 0.027913155311740174 -0.0010124447110094485 0 0.02605352755430862 -0.0010347424533662338 0 0.026190433433461453 -0.0003870247987613661 0 0.028244149915610695 -0.00091616784671443041 0 0.027962360240458336 -0.0011906751086816498 0 0.027921728022307003 -0.00096249295685443543 0 0.028245296648206273 -0.0011990818874776162 0 0.028244149915610695 -0.00091616784671443041 0 0.027962360240458336 -0.0011906751086816498 0 0.027697932846386338 -0.0012350032969805601 0 0.027962360240458336 -0.0011906751086816498 0 0.027921728022307003 -0.00096249295685443543 0 0.027921728022307003 -0.00096249295685443543 0 0.027724829614701352 -0.00044054358670422839 0 0.02648754373398491 -9.5639694010906954e-05 0 0.027921728022307003 -0.00096249295685443543 0 0.027724829614701352 -0.00044054358670422839 0 0.028101955969378842 -0.00060593110336318822 0 0.027724829614701352 -0.00044054358670422839 0 0.028101955969378842 -0.00060593110336318822 0 0.028084476844649889 -0.00022664452120971007 0 0.028244149915610695 -0.00091616784671443041 0 0.027921728022307003 -0.00096249295685443543 0 0.028101955969378842 -0.00060593110336318822 0 0.028440720839806238 -0.00048755056234499496 0 0.028244149915610695 -0.00091616784671443041 0 0.028101955969378842 -0.00060593110336318822 0 0.028440720839806238 -0.00048755056234499496 0 0.028101955969378842 -0.00060593110336318822 0 0.028084476844649889 -0.00022664452120971007 0 0.027724829614701352 -0.00044054358670422839 0 0.027872859871402342 0.00010773634634745423 0 0.027346111387595989 0.00042034732945429675 0 0.028440720839806238 -0.00048755056234499496 0 0.028084476844649889 -0.00022664452120971007 0 0.028384528229141445 0.00018198561318678286 0 0.027724829614701352 -0.00044054358670422839 0 0.028084476844649889 -0.00022664452120971007 0 0.027872859871402342 0.00010773634634745423 0 0.027636308244508592 -0.00030631663547583775 0 0.027224199582219392 0.00070359906059590824 0 0.027872859871402342 0.00010773634634745423 0 0.027346111387595989 0.00042034732945429675 0 0.027827827542111654 0.00059454378175482559 0 0.028084476844649889 -0.00022664452120971007 0 0.027872859871402342 0.00010773634634745423 0 0.028384528229141445 0.00018198561318678286 0 0.027872859871402342 0.00010773634634745423 0 0.027827827542111654 0.00059454378175482559 0 0.028384528229141445 0.00018198561318678286 0 0.025270758730038263 -0.0012727010101446965 0 0.02648754373398491 -9.5639694010906954e-05 0 0.025229283603364846 0.00034569216101797232 0 0.027724829614701352 -0.00044054358670422839 0 0.02648754373398491 -9.5639694010906954e-05 0 0.026888912343604767 0.0011571159410338895 0 0.02648754373398491 -9.5639694010906954e-05 0 0.025953512762536969 0.0010091883574331066 0 0.026888912343604767 0.0011571159410338895 0 0.02648754373398491 -9.5639694010906954e-05 0 0.025953512762536969 0.0010091883574331066 0 0.025229283603364846 0.00034569216101797232 0 0.026215321678370661 0.0017351771350143947 0 0.026888912343604767 0.0011571159410338895 0 0.026102686695596827 0.0026992046943089222 0 0.027346111387595989 0.00042034732945429675 0 0.027496513286684548 0.0010575776024189009 0 0.026920836261892685 0.0013240398457210311 0 0.027224199582219392 0.00070359906059590824 0 0.02445165068383983 0.0016408785570858197 0 0.025953512762536969 0.0010091883574331066 0 0.025693498331161208 0.0015744550009192801 0 0.026215321678370661 0.0017351771350143947 0 0.025953512762536969 0.0010091883574331066 0 0.025693498331161208 0.0015744550009192801 0 0.02528950684738299 0.0012633203428843451 0 0.025953512762536969 0.0010091883574331066 0 0.026215321678370661 0.0017351771350143947 0 0.026888912343604767 0.0011571159410338895 0 0.026215321678370661 0.0017351771350143947 0 0.025951017837050033 0.0021693666935941758 0 0.02606262802246409 0.0025616274820494129 0 0.026215321678370661 0.0017351771350143947 0 0.02606262802246409 0.0025616274820494129 0 0.026102686695596827 0.0026992046943089222 0 0.026215321678370661 0.0017351771350143947 0 0.025951017837050033 0.0021693666935941758 0 0.025710530054149902 0.0020000873402527494 0 0.025951017837050033 0.0021693666935941758 0 0.025761004670183846 0.0023727394253118561 0 0.02606262802246409 0.0025616274820494129 0 0.025951017837050033 0.0021693666935941758 0 0.025761004670183846 0.0023727394253118561 0 0.025710530054149902 0.0020000873402527494 0 0.025761004670183846 0.0023727394253118561 0 0.025710530054149902 0.0020000873402527494 0 0.025464904359570394 0.0022771813735416252 0 0.025693498331161208 0.0015744550009192801 0 0.026215321678370661 0.0017351771350143947 0 0.025710530054149902 0.0020000873402527494 0 0.027827827542111654 0.00059454378175482559 0 0.028384528229141445 0.00018198561318678286 0 0.028348620157193742 0.0012863181161360854 0 0.027827827542111654 0.00059454378175482559 0 0.027496513286684548 0.0010575776024189009 0 0.028348620157193742 0.0012863181161360854 0 0.027346111387595989 0.00042034732945429675 0 0.027827827542111654 0.00059454378175482559 0 0.027496513286684548 0.0010575776024189009 0 0.021160266559488314 -0.0011225462254311478 0 0.021337398576317987 -0.001079124469763341 0 0.021036914304189084 -0.00099386252800254499 0 0.022868646926131993 0.000539557467273376 0 0.024976190166705978 7.9350214294581948e-05 0 0.027496513286684548 0.0010575776024189009 0 0.02703280515497555 0.0016696301809121577 0 0.028348620157193742 0.0012863181161360854 0 0.027496513286684548 0.0010575776024189009 0 0.026920836261892685 0.0013240398457210311 0 0.02703280515497555 0.0016696301809121577 0 0.026104256344056592 0.0026966174047426475 0 0.025770378793312385 0.0034243250497254536 0 0.025417867549014393 0.0028416167909896457 0 0.02445165068383983 0.0016408785570858197 0 0.021346559285227561 0.0011978141333050067 0 0.023073103486565289 0.0010099434543457974 0 0.023038773090533097 0.0010719972726309934 0 0.02308625498754107 0.0010590722023438239 0 0.025761004670183846 0.0023727394253118561 0 0.02606262802246409 0.0025616274820494129 0 0.025417867549014393 0.0028416167909896457 0 0.02606262802246409 0.0025616274820494129 0 0.026104256344056592 0.0026966174047426475 0 0.025417867549014393 0.0028416167909896457 0 0.024530217145280201 0.0017689682086090874 0 0.02445165068383983 0.0016408785570858197 0 0.02445165068383983 0.0016408785570858197 0 0.022868646926131993 0.000539557467273376 0 0.021346559285227561 0.0011978141333050067 0 0.022868646926131993 0.000539557467273376 0 0.017936279268684401 0.00053701001554910702 0 0.018419369084457994 0.00040199059397268372 0 0.018321311727154777 0.0010103217452093268 0 0.021160266559488314 -0.0011225462254311478 0 0.021337398576317987 -0.001079124469763341 0 0.021254468472460115 -0.0011747946001077344 0 0.022868646926131993 0.000539557467273376 0 0.016518794610787847 -0.00019456851584637383 0 0.018419369084457994 0.00040199059397268372 0 0.018788841084033611 0.001529636425872639 0 0.018321311727154777 0.0010103217452093268 0 0.021337398576317987 -0.001079124469763341 0 0.021263402256118894 -0.0012501192534839431 0 0.021254468472460115 -0.0011747946001077344 0 0.021346559285227561 0.0011978141333050067 0 0.014057145898138879 0.0028177172935670981 0 0.018788841084033611 0.001529636425872639 0 0.018321311727154777 0.0010103217452093268 0 0.017478909784475038 0.001589517887116989 0 0.017936279268684401 0.00053701001554910702 0 0.018321311727154777 0.0010103217452093268 0 0.017478909784475038 0.001589517887116989 0 0.016518794610787847 -0.00019456851584637383 0 0.014057145898138879 0.0028177172935670981 0 0.011107472890502481 0.002487367710374546 0 0.011394517054567283 0.0024875280975103831 0 0.011185882570361554 0.0022770900610416243 0 0.016764385996450727 -0.0010866995643552405 0 0.017972553860969735 -0.0011557192320974547 0 0.017654013628920346 -0.00087407563364053456 0 0.016518794610787847 -0.00019456851584637383 0 0.020001160246038433 -0.0013507026590730954 0 0.016518794610787847 -0.00019456851584637383 0 0.016013989275848437 -0.0011148039272646528 0 0.021160266559488314 -0.0011225462254311478 0 0.021263402256118894 -0.0012501192534839431 0 0.020907536049599211 -0.0012709607054125285 0 0.0139480184430355 -0.0013608216562043867 0 0.014333034615507168 -0.00095112620474063607 0 0.014875992072376323 -0.0011359003722512383 0 0.021160266559488314 -0.0011225462254311478 0 0.021263402256118894 -0.0012501192534839431 0 0.021254468472460115 -0.0011747946001077344 0 0.013896932278506562 0.0029714280456985846 0 0.0072114002437841844 0.001484163076238822 0 0.004641013270610045 0.0061768448608477394 0 0.0051342239066080042 0.0060243774003348486 0 0.0046806684284421904 0.0058743608289928001 0 0.004641013270610045 0.0061768448608477394 0 0.0043511861719596609 0.0059158305791890912 0 0.0046806684284421904 0.0058743608289928001 0 0.016462044701392092 0.0010569894988333392 0 0.012840815211124604 0.002089499424853934 0 0.014225708653918792 0.0033635035895325125 0 0.011439122878324893 0.0023627536069659107 0 0.011394517054567283 0.0024875280975103831 0 0.011185882570361554 0.0022770900610416243 0 0.014539644641716563 0.0030010103729573856 0 0.014057145898138879 0.0028177172935670981 0 0.014225708653918792 0.0033635035895325125 0 0.01496182716965627 0.0045155393798333009 0 0.015447952168752012 0.0033220879635450602 0 0.0087918628945863452 0.0044021102022902946 0 0.014057145898138879 0.0028177172935670981 0 0.016462044701392092 0.0010569894988333392 0 0.014225708653918792 0.0033635035895325125 0 0.015500392238911259 0.0033199552426483986 0 0.013896932278506562 0.0029714280456985846 0 0.0087918628945863452 0.0044021102022902946 0 0.012840815211124604 0.002089499424853934 0 0.014225708653918792 0.0033635035895325125 0 0.01496182716965627 0.0045155393798333009 0 0.021346559285227561 0.0011978141333050067 0 0.013896932278506562 0.0029714280456985846 0 0.023944548359537226 0.0039000386060046646 0 0.025417867549014393 0.0028416167909896457 0 0.024453742325641143 0.002516386421707211 0 0.025770378793312385 0.0034243250497254536 0 0.023944548359537226 0.0039000386060046646 0 0.025417867549014393 0.0028416167909896457 0 0.025417867549014393 0.0028416167909896457 0 0.024453742325641143 0.002516386421707211 0 0.02503517548030788 0.0022625758597288491 0 0.025761004670183846 0.0023727394253118561 0 0.025417867549014393 0.0028416167909896457 0 0.025464904359570394 0.0022771813735416252 0 0.025417867549014393 0.0028416167909896457 0 0.025464904359570394 0.0022771813735416252 0 0.02503517548030788 0.0022625758597288491 0 0.013896932278506562 0.0029714280456985846 0 0.017710140597029373 0.00047487142930005295 0 0.012705695213407527 -0.00014410092739859431 0 0.011626498631903008 -0.0013653815897801819 0 0.011150928431013033 0.00024857674345807378 0 0.023944548359537226 0.0039000386060046646 0 0.024453742325641143 0.002516386421707211 0 0.022529075094772501 0.0021699205555188359 0 0.024453742325641143 0.002516386421707211 0 0.023635500740623608 0.0015105116397945246 0 0.022529075094772501 0.0021699205555188359 0 0.023635500740623608 0.0015105116397945246 0 0.022770262870616318 0.00064900117754429 0 0.022529075094772501 0.0021699205555188359 0 0.023635500740623608 0.0015105116397945246 0 0.024537808172836854 0.0017547192061942894 0 0.02415977563641579 0.0010278120059931484 0 0.025693498331161208 0.0015744550009192801 0 0.025710530054149902 0.0020000873402527494 0 0.025345029332390499 0.001860202891819111 0 0.025710530054149902 0.0020000873402527494 0 0.025345029332390499 0.001860202891819111 0 0.025464904359570394 0.0022771813735416252 0 0.025345029332390499 0.001860202891819111 0 0.025464904359570394 0.0022771813735416252 0 0.02503517548030788 0.0022625758597288491 0 0.025345029332390499 0.001860202891819111 0 0.02503517548030788 0.0022625758597288491 0 0.024981292803686692 0.0016463304563638099 0 0.024453742325641143 0.002516386421707211 0 0.02503517548030788 0.0022625758597288491 0 0.024537808172836854 0.0017547192061942894 0 0.024453742325641143 0.002516386421707211 0 0.023635500740623608 0.0015105116397945246 0 0.024537808172836854 0.0017547192061942894 0 0.02503517548030788 0.0022625758597288491 0 0.024537808172836854 0.0017547192061942894 0 0.024981292803686692 0.0016463304563638099 0 0.024537808172836854 0.0017547192061942894 0 0.024698216747195502 0.0010889942326506878 0 0.02415977563641579 0.0010278120059931484 0 0.024537808172836854 0.0017547192061942894 0 0.024698216747195502 0.0010889942326506878 0 0.024981292803686692 0.0016463304563638099 0 0.025345029332390499 0.001860202891819111 0 0.024981292803686692 0.0016463304563638099 0 0.02528950684738299 0.0012633203428843451 0 0.024698216747195502 0.0010889942326506878 0 0.024981292803686692 0.0016463304563638099 0 0.02528950684738299 0.0012633203428843451 0 0.025693498331161208 0.0015744550009192801 0 0.025345029332390499 0.001860202891819111 0 0.02528950684738299 0.0012633203428843451 0 0.024698216747195502 0.0010889942326506878 0 0.02528950684738299 0.0012633203428843451 0 0.025229283603364846 0.00034569216101797232 0 0.025953512762536969 0.0010091883574331066 0 0.02528950684738299 0.0012633203428843451 0 0.025229283603364846 0.00034569216101797232 0 0.024698216747195502 0.0010889942326506878 0 0.024441358587573909 0.00053833155502869257 0 0.025229283603364846 0.00034569216101797232 0 0.024698216747195502 0.0010889942326506878 0 0.02415977563641579 0.0010278120059931484 0 0.024441358587573909 0.00053833155502869257 0 0.024441358587573909 0.00053833155502869257 0 0.024536877168137055 -0.00016449390658270212 0 0.023725043475704626 0.00055588454507747977 0 0.024441358587573909 0.00053833155502869257 0 0.024536877168137055 -0.00016449390658270212 0 0.025229283603364846 0.00034569216101797232 0 0.023635500740623608 0.0015105116397945246 0 0.023725043475704626 0.00055588454507747977 0 0.022770262870616318 0.00064900117754429 0 0.023635500740623608 0.0015105116397945246 0 0.02415977563641579 0.0010278120059931484 0 0.023725043475704626 0.00055588454507747977 0 0.02415977563641579 0.0010278120059931484 0 0.024441358587573909 0.00053833155502869257 0 0.023725043475704626 0.00055588454507747977 0 0.024022182439944258 -0.00060849726238006684 0 0.024536877168137055 -0.00016449390658270212 0 0.023725043475704626 0.00055588454507747977 0 0.023256183042788831 -0.00036733322177144795 0 0.024022182439944258 -0.00060849726238006684 0 0.023725043475704626 0.00055588454507747977 0 0.023256183042788831 -0.00036733322177144795 0 0.023725043475704626 0.00055588454507747977 0 0.022770262870616318 0.00064900117754429 0 0.022306772501314721 -0.00037392673628244702 0 0.023256183042788831 -0.00036733322177144795 0 0.022770262870616318 0.00064900117754429 0 0.022306772501314721 -0.00037392673628244702 0 0.022770262870616318 0.00064900117754429 0 0.021281085121705765 0.0004880386524239181 0 0.021265082371844643 -0.00052607616409640302 0 0.022306772501314721 -0.00037392673628244702 0 0.021281085121705765 0.0004880386524239181 0 0.010372887550636499 -0.0019533975751563192 0 0.010561343815506599 -0.002206642529158425 0 0.010686030756464878 -0.0021848843879899607 0 0.010561343815506599 -0.002206642529158425 0 0.010686030756464878 -0.0021848843879899607 0 0.010738725431404734 -0.0013231212254139473 0 0.015417047247681424 -0.0013456783392653171 0 0.015903303837093881 -0.0008576167981646797 0 0.010776569967763765 -0.0025068215969937836 0 0.010633496830981606 -0.002420678445397611 0 0.010631624381695749 -0.0025777012841128547 0 0.010519073660273765 -0.0020469556979739417 0 0.011155379207725922 -0.0022764484788340188 0 0.010561343815506599 -0.002206642529158425 0 0.010776569967763765 -0.0025068215969937836 0 0.010633496830981606 -0.002420678445397611 0 0.010686030756464878 -0.0021848843879899607 0 0.010738725431404734 -0.0013231212254139473 0 0.011626498631903008 -0.0013653815897801819 0 0.022770262870616318 0.00064900117754429 0 0.021281085121705765 0.0004880386524239181 0 0.022529075094772501 0.0021699205555188359 0 0.015903303837093881 -0.0008576167981646797 0 0.017710140597029373 0.00047487142930005295 0 0.011314343585581836 -0.0019344011246224533 0 0.010626991027524959 -0.0023490139586245539 0 0.010826080857951037 -0.0026974979986675702 0 0.010561343815506599 -0.002206642529158425 0 0.010633496830981606 -0.002420678445397611 0 0.010626991027524959 -0.0023490139586245539 0 0.010372887550636499 -0.0019533975751563192 0 0.010561343815506599 -0.002206642529158425 0 0.010626991027524959 -0.0023490139586245539 0 0.010626991027524959 -0.0023490139586245539 0 0.010631624381695749 -0.0025777012841128547 0 0.010826080857951037 -0.0026974979986675702 0 0.010633496830981606 -0.002420678445397611 0 0.010626991027524959 -0.0023490139586245539 0 0.010631624381695749 -0.0025777012841128547 0 0.010631624381695749 -0.0025777012841128547 0 0.010826080857951037 -0.0026974979986675702 0 0.010486908021911667 -0.0026514843121175535 0 0.010826080857951037 -0.0026974979986675702 0 0.010486908021911667 -0.0026514843121175535 0 0.0096297919173824551 -0.0029331494589275027 0 0.010486908021911667 -0.0026514843121175535 0 0.010452342739975978 -0.0021904576091218353 0 0.0096297919173824551 -0.0029331494589275027 0 0.010631624381695749 -0.0025777012841128547 0 0.010486908021911667 -0.0026514843121175535 0 0.010714885740679584 -0.0023884397319814368 0 0.010486908021911667 -0.0026514843121175535 0 0.010714885740679584 -0.0023884397319814368 0 0.010452342739975978 -0.0021904576091218353 0 0.010806463297507712 -0.0019206999956820642 0 0.010452342739975978 -0.0021904576091218353 0 0.010065325130742929 -0.0011588538390236405 0 0.010714885740679584 -0.0023884397319814368 0 0.010806463297507712 -0.0019206999956820642 0 0.010452342739975978 -0.0021904576091218353 0 0.010452342739975978 -0.0021904576091218353 0 0.010065325130742929 -0.0011588538390236405 0 0.0096297919173824551 -0.0029331494589275027 0 0.010738725431404734 -0.0013231212254139473 0 0.011626498631903008 -0.0013653815897801819 0 0.011150928431013033 0.00024857674345807378 0 0.011155379207725922 -0.0022764484788340188 0 0.0072114002437841844 0.001484163076238822 0 0.010776569967763765 -0.0025068215969937836 0 0.010714885740679584 -0.0023884397319814368 0 0.011035239976159499 -0.0021214495203825318 0 0.010776569967763765 -0.0025068215969937836 0 0.010631624381695749 -0.0025777012841128547 0 0.010714885740679584 -0.0023884397319814368 0 0.0082427156161072896 -0.00077264725023950306 0 0.0072114002437841844 0.001484163076238822 0 0.010714885740679584 -0.0023884397319814368 0 0.010806463297507712 -0.0019206999956820642 0 0.011035239976159499 -0.0021214495203825318 0 0.0072114002437841844 0.001484163076238822 0 0.0044765922451536315 0.003314239201031664 0 0.0051342239066080042 0.0060243774003348486 0 0.0049360085888484565 0.005512917360657189 0 0.0046806684284421904 0.0058743608289928001 0 0.0047314268893287811 0.00097612206745729046 0 0.0049497398651703875 0.00047994778553561918 0 0.0044774115063317714 0.00042267875325582589 0 0.0053191587584091602 0.0007666389038509324 0 0.0049497398651703875 0.00047994778553561918 0 0.0053739922788564598 0.00016840697122828292 0 0.0053191587584091602 0.0007666389038509324 0 0.0047314268893287811 0.00097612206745729046 0 0.0049497398651703875 0.00047994778553561918 0 0.0049497398651703875 0.00047994778553561918 0 0.0053739922788564598 0.00016840697122828292 0 0.0047694106772075912 1.8798468632448065e-05 0 0.0044774115063317714 0.00042267875325582589 0 0.0047694106772075912 1.8798468632448065e-05 0 0.0040843984963507222 -0.00014013652198976634 0 0.0049497398651703875 0.00047994778553561918 0 0.0044774115063317714 0.00042267875325582589 0 0.0047694106772075912 1.8798468632448065e-05 0 0.0059956108505873334 0.00038586747317454623 0 0.0057056973816205026 -0.00022030308917913769 0 0.0062314866207961424 -0.00028959844197217464 0 0.0059956108505873334 0.00038586747317454623 0 0.0053739922788564598 0.00016840697122828292 0 0.0057056973816205026 -0.00022030308917913769 0 0.0053191587584091602 0.0007666389038509324 0 0.0059956108505873334 0.00038586747317454623 0 0.0053739922788564598 0.00016840697122828292 0 0.0082427156161072896 -0.00077264725023950306 0 0.0079011299421610313 -0.00037116000647612773 0 0.0057056973816205026 -0.00022030308917913769 0 0.0053365552725110352 -0.00018666011764609364 0 0.0056215246663294423 -0.00017051085966976581 0 0.0057056973816205026 -0.00022030308917913769 0 0.0056285271936433942 -0.00023433779588675233 0 0.0056215246663294423 -0.00017051085966976581 0 0.0053739922788564598 0.00016840697122828292 0 0.0057056973816205026 -0.00022030308917913769 0 0.0053365552725110352 -0.00018666011764609364 0 0.0053365552725110352 -0.00018666011764609364 0 0.0051897176207163481 -0.00045151353043365898 0 0.0056215246663294423 -0.00017051085966976581 0 0.0047694106772075912 1.8798468632448065e-05 0 0.0040786499374308241 -0.00022249310537837444 0 0.0040843984963507222 -0.00014013652198976634 0 0.0053365552725110352 -0.00018666011764609364 0 0.0047694106772075912 1.8798468632448065e-05 0 0.0051897176207163481 -0.00045151353043365898 0 0.0053739922788564598 0.00016840697122828292 0 0.0053365552725110352 -0.00018666011764609364 0 0.0047694106772075912 1.8798468632448065e-05 0 0.0043145263473711171 -0.00017550115413679724 0 0.0040874627109882293 -0.00021401656014278681 0 0.0047694106772075912 1.8798468632448065e-05 0 0.0051897176207163481 -0.00045151353043365898 0 0.0040786499374308241 -0.00022249310537837444 0 0.0034460750236735434 5.9857149970742388e-05 0 0.0040786499374308241 -0.00022249310537837444 0 0.0037780453358963123 3.429570313079035e-05 0 0.0040786499374308241 -0.00022249310537837444 0 0.0039089169306717056 -3.7628079182619859e-05 0 0.0037780453358963123 3.429570313079035e-05 0 0.004427580250860914 0.002286992973480559 0 0.0042425805889873373 0.0019886068675215788 0 0.0040786499374308241 -0.00022249310537837444 0 0.0040843984963507222 -0.00014013652198976634 0 0.0039089169306717056 -3.7628079182619859e-05 0 0.0047296507931323594 0.0048582147739168625 0 0.0042821333748323479 0.0048176708446217428 0 0.0045801345741138368 0.0040381611841820752 0 0.0047296507931323594 0.0048582147739168625 0 0.0042821333748323479 0.0048176708446217428 0 0.0044245125747831241 0.0052596537862278922 0 0.0040687984051159982 0.0051227234677328117 0 0.0042821333748323479 0.0048176708446217428 0 0.0044245125747831241 0.0052596537862278922 0 0.0040687984051159982 0.0051227234677328117 0 0.0042821333748323479 0.0048176708446217428 0 0.0038052883466397143 0.0048263302718690587 0 0.0042821333748323479 0.0048176708446217428 0 0.0039889965315395423 0.0044659919437312129 0 0.0045801345741138368 0.0040381611841820752 0 0.0042821333748323479 0.0048176708446217428 0 0.0039889965315395423 0.0044659919437312129 0 0.0038052883466397143 0.0048263302718690587 0 0.0039889965315395423 0.0044659919437312129 0 0.0035326757993105165 0.0044071559780721426 0 0.0037075410042168733 0.0040439571029024643 0 0.0035326757993105165 0.0044071559780721426 0 0.0032222965020020557 0.0044877595483269611 0 0.0031871556384726911 0.0042325587654738067 0 0.0035326757993105165 0.0044071559780721426 0 0.0034337975483165885 0.0047021149898962044 0 0.0038052883466397143 0.0048263302718690587 0 0.0035326757993105165 0.0044071559780721426 0 0.0034337975483165885 0.0047021149898962044 0 0.0032222965020020557 0.0044877595483269611 0 0.0039889965315395423 0.0044659919437312129 0 0.0035326757993105165 0.0044071559780721426 0 0.0038052883466397143 0.0048263302718690587 0 0.002949178965631653 0.004470581045489916 0 0.0032222965020020557 0.0044877595483269611 0 0.0030673148088297846 0.0046382331291195244 0 0.002949178965631653 0.004470581045489916 0 0.0032222965020020557 0.0044877595483269611 0 0.0031871556384726911 0.0042325587654738067 0 0.0034337975483165885 0.0047021149898962044 0 0.0032222965020020557 0.0044877595483269611 0 0.0030673148088297846 0.0046382331291195244 0 0.0030673148088297846 0.0046382331291195244 0 0.0029237474872892029 0.004771364229350092 0 0.0028714939083545306 0.0045862993936442113 0 0.002949178965631653 0.004470581045489916 0 0.0030673148088297846 0.0046382331291195244 0 0.0028714939083545306 0.0045862993936442113 0 0.0032362352288910763 0.0048578790008784846 0 0.0030150696021631132 0.0049969260899760696 0 0.0035192323595362924 0.0051055521738796175 0 0.0030673148088297846 0.0046382331291195244 0 0.0032362352288910763 0.0048578790008784846 0 0.0029237474872892029 0.004771364229350092 0 0.0032362352288910763 0.0048578790008784846 0 0.0030150696021631132 0.0049969260899760696 0 0.0029237474872892029 0.004771364229350092 0 0.0082497163618299972 0.0029500820141530487 0 0.0058208846621885619 0.0038511986724639466 0 0.0034337975483165885 0.0047021149898962044 0 0.0030673148088297846 0.0046382331291195244 0 0.0032362352288910763 0.0048578790008784846 0 0.0040687984051159982 0.0051227234677328117 0 0.0038052883466397143 0.0048263302718690587 0 0.0035192323595362924 0.0051055521738796175 0 0.0034337975483165885 0.0047021149898962044 0 0.0038052883466397143 0.0048263302718690587 0 0.0035192323595362924 0.0051055521738796175 0 0.0034337975483165885 0.0047021149898962044 0 0.0032362352288910763 0.0048578790008784846 0 0.0035192323595362924 0.0051055521738796175 0 0.0040687984051159982 0.0051227234677328117 0 0.0035192323595362924 0.0051055521738796175 0 0.0040442269743189499 0.0054576561627063388 0 0.0035192323595362924 0.0051055521738796175 0 0.0036122291544326448 0.0055403957835744233 0 0.0040442269743189499 0.0054576561627063388 0 0.0082497163618299972 0.0029500820141530487 0 0.0069894107958762153 0.0036760630472451607 0 0.01069166847439337 0.0016264845876611132 0 0.01107878181448879 0.0019872997135320226 0 0.010903646053549517 0.002056421504434146 0 0.0082497163618299972 0.0029500820141530487 0 0.0125868911340758 0.00067559832965970765 0 0.014566439017739748 0.00074067277327444789 0 0.014256031952942621 -0.00034285216458613231 0 0.014879324307196441 0.00010672822499594406 0 0.0030150696021631132 0.0049969260899760696 0 0.0035192323595362924 0.0051055521738796175 0 0.0036122291544326448 0.0055403957835744233 0 0.014661101929069163 -0.00050587828439335486 0 0.014256031952942621 -0.00034285216458613231 0 0.014879324307196441 0.00010672822499594406 0 0.0139480184430355 -0.0013608216562043867 0 0.014256031952942621 -0.00034285216458613231 0 0.014333034615507168 -0.00095112620474063607 0 0.016518794610787847 -0.00019456851584637383 0 0.0125868911340758 0.00067559832965970765 0 0.014661101929069163 -0.00050587828439335486 0 0.014256031952942621 -0.00034285216458613231 0 0.014333034615507168 -0.00095112620474063607 0 0.014661101929069163 -0.00050587828439335486 0 0.014333034615507168 -0.00095112620474063607 0 0.014875992072376323 -0.0011359003722512383 0 0.011439122878324893 0.0023627536069659107 0 0.01107878181448879 0.0019872997135320226 0 0.011185882570361554 0.0022770900610416243 0 0.0042260211603646894 0.0060848064254649436 0 0.0036122291544326448 0.0055403957835744233 0 0.0040442269743189499 0.0054576561627063388 0 0.0087918628945863452 0.0044021102022902946 0 0.0069894107958762153 0.0036760630472451607 0 0.011107472890502481 0.002487367710374546 0 0.010903646053549517 0.002056421504434146 0 0.011185882570361554 0.0022770900610416243 0 0.01107878181448879 0.0019872997135320226 0 0.010903646053549517 0.002056421504434146 0 0.011185882570361554 0.0022770900610416243 0 0.0087918628945863452 0.0044021102022902946 0 0.004668213576714343 0.0067041016416854718 0 0.0042260211603646894 0.0060848064254649436 0 0.0043744818524884405 0.0056906200229672379 0 0.0040442269743189499 0.0054576561627063388 0 0.0043511861719596609 0.0059158305791890912 0 0.0043744818524884405 0.0056906200229672379 0 0.0046806684284421904 0.0058743608289928001 0 0.0049360085888484565 0.005512917360657189 0 0.0043744818524884405 0.0056906200229672379 0 0.0046806684284421904 0.0058743608289928001 0 0.0049360085888484565 0.005512917360657189 0 0.0043744818524884405 0.0056906200229672379 0 0.0044245125747831241 0.0052596537862278922 0 0.0044765922451536315 0.003314239201031664 0 0.004427580250860914 0.002286992973480559 0 0.0049360085888484565 0.005512917360657189 0 0.0047296507931323594 0.0048582147739168625 0 0.0044245125747831241 0.0052596537862278922 0 0.0043744818524884405 0.0056906200229672379 0 0.0044245125747831241 0.0052596537862278922 0 0.0040442269743189499 0.0054576561627063388 0 0.0040687984051159982 0.0051227234677328117 0 0.0044245125747831241 0.0052596537862278922 0 0.0040442269743189499 0.0054576561627063388 0 0.013994395819386966 -6.5417520147802516e-05 0 0.014375513746475291 -2.5788733260250819e-07 0 0.012449007691795532 -3.8339025733821701e-08 0 0.013994395819386966 -6.5417520147802516e-05 0 0.015310517628488262 -0.00018540537138423725 0 0.014727685474449706 -4.9482323276055581e-05 0 0.013994395819386966 -6.5417520147802516e-05 0 0.015310517628488262 -0.00018540537138423725 0 0.015310328818202724 -0.00011462668061731168 0 0.013994395819386966 -6.5417520147802516e-05 0 0.015310328818202724 -0.00011462668061731168 0 0.014375513746475291 -2.5788733260250819e-07 0 0.015310328818202724 -0.00011462668061731168 0 0.014375513746475291 -2.5788733260250819e-07 0 0.016302059503071783 -3.3101856134236106e-07 0 0.015310328818202724 -0.00011462668061731168 0 0.016302059503071783 -3.3101856134236106e-07 0 0.016162129034660664 -0.00018728206995868358 0 0.018228526609664678 -1.7789426822745731e-07 0 0.016302059503071783 -3.3101856134236106e-07 0 0.017194141519452491 -0.00013512579378308128 0 0.016302059503071783 -3.3101856134236106e-07 0 0.017194141519452491 -0.00013512579378308128 0 0.016162129034660664 -0.00018728206995868358 0 0.017194141519452491 -0.00013512579378308128 0 0.016788686607909019 -0.0001985847024787832 0 0.016162129034660664 -0.00018728206995868358 0 0.017457624321028566 -0.00014717673811407903 0 0.017194141519452491 -0.00013512579378308128 0 0.016788686607909019 -0.0001985847024787832 0 0.016162129034660664 -0.00018728206995868358 0 0.01586154175304175 -0.00021659073852613086 0 0.016291597481372169 -0.00023169365997484923 0 0.015310517628488262 -0.00018540537138423725 0 0.015310328818202724 -0.00011462668061731168 0 0.016162129034660664 -0.00018728206995868358 0 0.015310517628488262 -0.00018540537138423725 0 0.016162129034660664 -0.00018728206995868358 0 0.01586154175304175 -0.00021659073852613086 0 0.016788686607909019 -0.0001985847024787832 0 0.016162129034660664 -0.00018728206995868358 0 0.016291597481372169 -0.00023169365997484923 0 0.015898618397436493 -0.00024224778232240376 0 0.016291597481372169 -0.00023169365997484923 0 0.016796871864002832 -0.00019958194098247927 0 0.015310517628488262 -0.00018540537138423725 0 0.01586154175304175 -0.00021659073852613086 0 0.015898618397436493 -0.00024224778232240376 0 0.01586154175304175 -0.00021659073852613086 0 0.015898618397436493 -0.00024224778232240376 0 0.016291597481372169 -0.00023169365997484923 0 0.011883167824561948 -0.0022673057044465595 0 0.0185708666906985 -0.0014958166891675302 0 0.004340633033892983 -0.0032175670382464192 0 0.0046929755761051318 -0.0031360662815749642 0 0.0044133205211846901 -0.0028576862815325372 0 0.016788686607909019 -0.0001985847024787832 0 0.016291597481372169 -0.00023169365997484923 0 0.016796871864002832 -0.00019958194098247927 0 0.018843913783662399 -0.0038794946966754797 0 0.019167779654109016 -0.0030033696113047404 0 0.018669253708601039 -0.0031199673186257933 0 0.01902092088656054 -0.0024867609820436588 0 0.019167779654109016 -0.0030033696113047404 0 0.018669253708601039 -0.0031199673186257933 0 0.017457624321028566 -0.00014717673811407903 0 0.016788686607909019 -0.0001985847024787832 0 0.016796871864002832 -0.00019958194098247927 0 0.004810991856807334 -0.0043796791106020111 0 0.0053316015163693935 -0.0039828110052794194 0 0.0048510457000164216 -0.0036001866129381768 0 0.0053802871806484963 -0.0045584857310073737 0 0.004810991856807334 -0.0043796791106020111 0 0.0053316015163693935 -0.0039828110052794194 0 0.011883167824561948 -0.0022673057044465595 0 0.011645973923833437 -0.0041120479933006993 0 0.004340633033892983 -0.0032175670382464192 0 0.004810991856807334 -0.0043796791106020111 0 0.0048510457000164216 -0.0036001866129381768 0 0.0053316015163693935 -0.0039828110052794194 0 0.0048510457000164216 -0.0036001866129381768 0 0.0050671448471786163 -0.0032674960590723832 0 0.004340633033892983 -0.0032175670382464192 0 0.0048510457000164216 -0.0036001866129381768 0 0.0046929755761051318 -0.0031360662815749642 0 0.0048510457000164216 -0.0036001866129381768 0 0.0046929755761051318 -0.0031360662815749642 0 0.0050671448471786163 -0.0032674960590723832 0 0.0050671448471786163 -0.0032674960590723832 0 0.0048658168549968062 -0.0026811834879055967 0 0.0053680767118830285 -0.0028119847248200976 0 0.0048658168549968062 -0.0026811834879055967 0 0.0051606131366711159 -0.0021115070679161956 0 0.0046597915978945637 -0.0021186677949330632 0 0.0048658168549968062 -0.0026811834879055967 0 0.0051606131366711159 -0.0021115070679161956 0 0.0053680767118830285 -0.0028119847248200976 0 0.0048658168549968062 -0.0026811834879055967 0 0.0044133205211846901 -0.0028576862815325372 0 0.0046597915978945637 -0.0021186677949330632 0 0.0046929755761051318 -0.0031360662815749642 0 0.0050671448471786163 -0.0032674960590723832 0 0.0048658168549968062 -0.0026811834879055967 0 0.0046929755761051318 -0.0031360662815749642 0 0.0048658168549968062 -0.0026811834879055967 0 0.0044133205211846901 -0.0028576862815325372 0 0.015310517628488262 -0.00018540537138423725 0 0.015898618397436493 -0.00024224778232240376 0 0.014727685474449706 -4.9482323276055581e-05 0 0.0043335776858714672 -0.0031694593454525996 0 0.0044133205211846901 -0.0028576862815325372 0 0.0040691566983199999 -0.0017088396112752275 0 0.011883167824561948 -0.0022673057044465595 0 0.0091620576144164252 -0.00079610480141348967 0 0.0044133205211846901 -0.0028576862815325372 0 0.0040691566983199999 -0.0017088396112752275 0 0.0046597915978945637 -0.0021186677949330632 0 0.011883167824561948 -0.0022673057044465595 0 0.0097620188975875797 -0.0033228530139162368 0 0.0040691566983199999 -0.0017088396112752275 0 0.0048063871305094302 -0.0013663442992386003 0 0.0046597915978945637 -0.0021186677949330632 0 0.0048063871305094302 -0.0013663442992386003 0 0.0051606131366711159 -0.0021115070679161956 0 0.0055413476733557846 -0.0014293159375225626 0 0.0048063871305094302 -0.0013663442992386003 0 0.0051606131366711159 -0.0021115070679161956 0 0.0046597915978945637 -0.0021186677949330632 0 0.0060751475561462934 -0.0025445136502930807 0 0.0073376830678506403 -0.0039245788749416007 0 0.0067225334814899227 -0.0016014853634025719 0 0.0051606131366711159 -0.0021115070679161956 0 0.0055413476733557846 -0.0014293159375225626 0 0.0060751475561462934 -0.0025445136502930807 0 0.0055413476733557846 -0.0014293159375225626 0 0.0060751475561462934 -0.0025445136502930807 0 0.0067225334814899227 -0.0016014853634025719 0 0.0060751475561462934 -0.0025445136502930807 0 0.0053680767118830285 -0.0028119847248200976 0 0.0056755826453151019 -0.0034731955398580859 0 0.0060751475561462934 -0.0025445136502930807 0 0.0056755826453151019 -0.0034731955398580859 0 0.0063391100215696404 -0.0035975349733457355 0 0.0051606131366711159 -0.0021115070679161956 0 0.0060751475561462934 -0.0025445136502930807 0 0.0053680767118830285 -0.0028119847248200976 0 0.0056755826453151019 -0.0034731955398580859 0 0.0061318936988693515 -0.0045166069816209341 0 0.0063391100215696404 -0.0035975349733457355 0 0.0053316015163693935 -0.0039828110052794194 0 0.0056755826453151019 -0.0034731955398580859 0 0.0061318936988693515 -0.0045166069816209341 0 0.0050671448471786163 -0.0032674960590723832 0 0.0053680767118830285 -0.0028119847248200976 0 0.0056755826453151019 -0.0034731955398580859 0 0.0053316015163693935 -0.0039828110052794194 0 0.0050671448471786163 -0.0032674960590723832 0 0.0056755826453151019 -0.0034731955398580859 0 0.0053802871806484963 -0.0045584857310073737 0 0.0053316015163693935 -0.0039828110052794194 0 0.0061318936988693515 -0.0045166069816209341 0 0.010173566236652559 -0.003899926904777497 0 0.010139211621648695 -0.0034390581569355158 0 0.0060751475561462934 -0.0025445136502930807 0 0.0063391100215696404 -0.0035975349733457355 0 0.0073376830678506403 -0.0039245788749416007 0 0.0061318936988693515 -0.0045166069816209341 0 0.0063391100215696404 -0.0035975349733457355 0 0.0073376830678506403 -0.0039245788749416007 0 0.010826080857951037 -0.0026974979986675702 0 0.011901449814765005 -0.0026274713459027896 0 0.0096297919173824551 -0.0029331494589275027 0 0.012571147073068873 -0.003342181873218743 0 0.011901449814765005 -0.0026274713459027896 0 0.0096297919173824551 -0.0029331494589275027 0 0.015159116289681173 -0.0028208074332155045 0 0.012571147073068873 -0.003342181873218743 0 0.011901449814765005 -0.0026274713459027896 0 0.01316623831394164 -0.0017573621769477121 0 0.015159116289681173 -0.0028208074332155045 0 0.011901449814765005 -0.0026274713459027896 0 0.011314343585581836 -0.0019344011246224533 0 0.010826080857951037 -0.0026974979986675702 0 0.011901449814765005 -0.0026274713459027896 0 0.0073376830678506403 -0.0039245788749416007 0 0.0096297919173824551 -0.0029331494589275027 0 0.0067225334814899227 -0.0016014853634025719 0 0.010139211621648695 -0.0034390581569355158 0 0.0097711362348793154 -0.0029707688316915563 0 0.0096297919173824551 -0.0029331494589275027 0 0.0067225334814899227 -0.0016014853634025719 0 0.0071650831105281266 -0.00024860280404844534 0 0.010065325130742929 -0.0011588538390236405 0 0.0096297919173824551 -0.0029331494589275027 0 0.0071650831105281266 -0.00024860280404844534 0 0.0059956108505873334 0.00038586747317454623 0 0.0071650831105281266 -0.00024860280404844534 0 0.0062314866207961424 -0.00028959844197217464 0 0.0079011299421610313 -0.00037116000647612773 0 0.0072486214480316355 -0.00024538224755392852 0 0.0067225334814899227 -0.0016014853634025719 0 0.0071650831105281266 -0.00024860280404844534 0 0.0060085636735194925 -0.00082298494736807127 0 0.0071650831105281266 -0.00024860280404844534 0 0.0061112151874978008 -0.00021851499053432178 0 0.0060085636735194925 -0.00082298494736807127 0 0.0071650831105281266 -0.00024860280404844534 0 0.0061112151874978008 -0.00021851499053432178 0 0.0062314866207961424 -0.00028959844197217464 0 0.0056285271936433942 -0.00023433779588675233 0 0.0054575988986006914 -9.2838167331466399e-05 0 0.0044205063138425711 0.00024807528487216741 0 0.0057056973816205026 -0.00022030308917913769 0 0.0062314866207961424 -0.00028959844197217464 0 0.0056285271936433942 -0.00023433779588675233 0 0.0062314866207961424 -0.00028959844197217464 0 0.0056285271936433942 -0.00023433779588675233 0 0.0054575988986006914 -9.2838167331466399e-05 0 0.0061112151874978008 -0.00021851499053432178 0 0.0054575988986006914 -9.2838167331466399e-05 0 0.0053529334441817745 -4.0552425263500854e-05 0 0.0061112151874978008 -0.00021851499053432178 0 0.0062314866207961424 -0.00028959844197217464 0 0.0054575988986006914 -9.2838167331466399e-05 0 0.0061112151874978008 -0.00021851499053432178 0 0.0053529334441817745 -4.0552425263500854e-05 0 0.0055763675852578314 -0.00033414525072189875 0 0.0054575988986006914 -9.2838167331466399e-05 0 0.0053529334441817745 -4.0552425263500854e-05 0 0.0048506555749377499 0.00015179589907815861 0 0.0053529334441817745 -4.0552425263500854e-05 0 0.0048981664287422776 0.00011603337965807869 0 0.0048506555749377499 0.00015179589907815861 0 0.0048981664287422776 0.00011603337965807869 0 0.0045620324769172476 0.0002354307123713234 0 0.0048506555749377499 0.00015179589907815861 0 0.0053529334441817745 -4.0552425263500854e-05 0 0.0048981664287422776 0.00011603337965807869 0 0.0051275752097516558 -0.00017394895017184539 0 0.0053529334441817745 -4.0552425263500854e-05 0 0.0051275752097516558 -0.00017394895017184539 0 0.0055763675852578314 -0.00033414525072189875 0 0.0055763675852578314 -0.00033414525072189875 0 0.0060085636735194925 -0.00082298494736807127 0 0.0050135371591619295 -0.00056713688309817422 0 0.0051275752097516558 -0.00017394895017184539 0 0.0055763675852578314 -0.00033414525072189875 0 0.0050135371591619295 -0.00056713688309817422 0 0.0061112151874978008 -0.00021851499053432178 0 0.0055763675852578314 -0.00033414525072189875 0 0.0060085636735194925 -0.00082298494736807127 0 0.0055413476733557846 -0.0014293159375225626 0 0.0067225334814899227 -0.0016014853634025719 0 0.0060085636735194925 -0.00082298494736807127 0 0.0055413476733557846 -0.0014293159375225626 0 0.0060085636735194925 -0.00082298494736807127 0 0.0050135371591619295 -0.00056713688309817422 0 0.0048063871305094302 -0.0013663442992386003 0 0.0045457945809574685 -0.00077362756366752198 0 0.0050135371591619295 -0.00056713688309817422 0 0.0048063871305094302 -0.0013663442992386003 0 0.0055413476733557846 -0.0014293159375225626 0 0.0050135371591619295 -0.00056713688309817422 0 0.0040691566983199999 -0.0017088396112752275 0 0.0045457945809574685 -0.00077362756366752198 0 0.0041241926256287672 -0.00056833096895186669 0 0.0040691566983199999 -0.0017088396112752275 0 0.0048063871305094302 -0.0013663442992386003 0 0.0045457945809574685 -0.00077362756366752198 0 0.0045457945809574685 -0.00077362756366752198 0 0.0046511645932358955 -5.6498233089519176e-06 0 0.0041241926256287672 -0.00056833096895186669 0 0.0045457945809574685 -0.00077362756366752198 0 0.0050135371591619295 -0.00056713688309817422 0 0.0046511645932358955 -5.6498233089519176e-06 0 0.0051275752097516558 -0.00017394895017184539 0 0.0050135371591619295 -0.00056713688309817422 0 0.0046511645932358955 -5.6498233089519176e-06 0 0.0048981664287422776 0.00011603337965807869 0 0.0051275752097516558 -0.00017394895017184539 0 0.0046511645932358955 -5.6498233089519176e-06 0 0.0048981664287422776 0.00011603337965807869 0 0.0046222657025844762 0.00027810249094255485 0 0.0046511645932358955 -5.6498233089519176e-06 0 0.0048981664287422776 0.00011603337965807869 0 0.0046222657025844762 0.00027810249094255485 0 0.0045620324769172476 0.0002354307123713234 0 0.0046222657025844762 0.00027810249094255485 0 0.0045973506140934237 0.00029257080435221192 0 0.0046511645932358955 -5.6498233089519176e-06 0 0.0045973506140934237 0.00029257080435221192 0 0.0046647166620528251 0.00045200028578431254 0 0.0045736042121243929 0.00036644138194647636 0 0.0046222657025844762 0.00027810249094255485 0 0.0045973506140934237 0.00029257080435221192 0 0.0045736042121243929 0.00036644138194647636 0 0.0045973506140934237 0.00029257080435221192 0 0.0046511645932358955 -5.6498233089519176e-06 0 0.0043553571274234206 0.00020870706400084028 0 0.0046511645932358955 -5.6498233089519176e-06 0 0.0043553571274234206 0.00020870706400084028 0 0.0041241926256287672 -0.00056833096895186669 0 0.0043553571274234206 0.00020870706400084028 0 0.0046647166620528251 0.00045200028578431254 0 0.0051534405204606299 0.00063479398263350292 0 0.0045973506140934237 0.00029257080435221192 0 0.0043553571274234206 0.00020870706400084028 0 0.0046647166620528251 0.00045200028578431254 0 0.010982683323521666 0.00011571125381080178 0 0.0085958550813536958 2.2193701213727548e-07 0 0.0088465443359841012 7.1827612283232106e-05 0 0.010982683323521666 0.00011571125381080178 0 0.010522496951200234 1.5161916607391463e-07 0 0.0085958550813536958 2.2193701213727548e-07 0 0.0077104748079344452 6.5593108153510907e-05 0 0.0070760055028025884 0.00016717065139186795 0 0.010982683323521666 0.00011571125381080178 0 0.010522496951200234 1.5161916607391463e-07 0 0.011807045800537165 4.2888204765456313e-05 0 0.011807045800537165 4.2888204765456313e-05 0 0.012956107255967979 8.8165508893777047e-05 0 0.012449007691795532 -3.8339025733821701e-08 0 0.010522496951200234 1.5161916607391463e-07 0 0.011807045800537165 4.2888204765456313e-05 0 0.012449007691795532 -3.8339025733821701e-08 0 0.010982683323521666 0.00011571125381080178 0 0.011807045800537165 4.2888204765456313e-05 0 0.012956107255967979 8.8165508893777047e-05 0 0.0077104748079344452 6.5593108153510907e-05 0 0.0086073003881777105 -0.00038893662405383112 0 0.013994395819386966 -6.5417520147802516e-05 0 0.014727685474449706 -4.9482323276055581e-05 0 0.012956107255967979 8.8165508893777047e-05 0 0.0091620576144164252 -0.00079610480141348967 0 0.0086073003881777105 -0.00038893662405383112 0 0.013994395819386966 -6.5417520147802516e-05 0 0.012956107255967979 8.8165508893777047e-05 0 0.012449007691795532 -3.8339025733821701e-08 0 0.0045899148569948619 -1.0650840528248074e-06 0 0.0041172253812886556 -0.00020288021235827475 0 0.0049206223503594293 -0.00017841519785192413 0 0.0041172253812886556 -0.00020288021235827475 0 0.0049206223503594293 -0.00017841519785192413 0 0.0042734789023588429 -0.0001306003593182781 0 0.0049206223503594293 -0.00017841519785192413 0 0.0046344435216508521 0.00012433520922689018 0 0.0042734789023588429 -0.0001306003593182781 0 0.0045899148569948619 -1.0650840528248074e-06 0 0.0049206223503594293 -0.00017841519785192413 0 0.0066629088777496875 1.0897880524109171e-06 0 0.0049206223503594293 -0.00017841519785192413 0 0.0066629088777496875 1.0897880524109171e-06 0 0.0046344435216508521 0.00012433520922689018 0 0.0066687973523091868 -3.8451230342412653e-07 0 0.0070760055028025884 0.00016717065139186795 0 0.0066629088777496875 1.0897880524109171e-06 0 0.0051534405204606299 0.00063479398263350292 0 0.0047785859936563813 0.00048339326440667319 0 0.0066691718357294542 2.2908524380445448e-07 0 0.0085958550813536958 2.2193701213727548e-07 0 0.0088465443359841012 7.1827612283232106e-05 0 0.0046647166620528251 0.00045200028578431254 0 0.0047785859936563813 0.00048339326440667319 0 0.0045736042121243929 0.00036644138194647636 0 0.0046647166620528251 0.00045200028578431254 0 0.0051534405204606299 0.00063479398263350292 0 0.0047785859936563813 0.00048339326440667319 0 0.0066629088777496875 1.0897880524109171e-06 0 0.0047785859936563813 0.00048339326440667319 0 0.0046344435216508521 0.00012433520922689018 0 0.0047785859936563813 0.00048339326440667319 0 0.0046344435216508521 0.00012433520922689018 0 0.0045398458377370124 0.00030963499754181698 0 0.0046344435216508521 0.00012433520922689018 0 0.0045398458377370124 0.00030963499754181698 0 0.0042410604341441447 4.989633626499872e-05 0 0.0045398458377370124 0.00030963499754181698 0 0.0044341364085784636 0.00025640043349698717 0 0.0042410604341441447 4.989633626499872e-05 0 0.0047785859936563813 0.00048339326440667319 0 0.0045398458377370124 0.00030963499754181698 0 0.0045736042121243929 0.00036644138194647636 0 0.0046222657025844762 0.00027810249094255485 0 0.0045736042121243929 0.00036644138194647636 0 0.0044341364085784636 0.00025640043349698717 0 0.0045398458377370124 0.00030963499754181698 0 0.0045736042121243929 0.00036644138194647636 0 0.0044341364085784636 0.00025640043349698717 0 0.0046222657025844762 0.00027810249094255485 0 0.0044341364085784636 0.00025640043349698717 0 0.0045620324769172476 0.0002354307123713234 0 0.0044341364085784636 0.00025640043349698717 0 0.0042516790769149635 0.00014118574732312222 0 0.0045620324769172476 0.0002354307123713234 0 0.0044341364085784636 0.00025640043349698717 0 0.0042410604341441447 4.989633626499872e-05 0 0.0042516790769149635 0.00014118574732312222 0 0.0042410604341441447 4.989633626499872e-05 0 0.0040432375633710944 -0.00016033140946223503 0 0.0039440109537637784 -0.00019429162859741951 0 0.0042410604341441447 4.989633626499872e-05 0 0.0039440109537637784 -0.00019429162859741951 0 0.0042516790769149635 0.00014118574732312222 0 0.0046344435216508521 0.00012433520922689018 0 0.0042410604341441447 4.989633626499872e-05 0 0.0042734789023588429 -0.0001306003593182781 0 0.0042410604341441447 4.989633626499872e-05 0 0.0042734789023588429 -0.0001306003593182781 0 0.0040432375633710944 -0.00016033140946223503 0 0.0042734789023588429 -0.0001306003593182781 0 0.0040432375633710944 -0.00016033140946223503 0 0.0037808368747408718 -0.00030034426766090708 0 0.0041172253812886556 -0.00020288021235827475 0 0.0042734789023588429 -0.0001306003593182781 0 0.0037808368747408718 -0.00030034426766090708 0 0.0040432375633710944 -0.00016033140946223503 0 0.0039440109537637784 -0.00019429162859741951 0 0.0037808368747408718 -0.00030034426766090708 0 0.0039440109537637784 -0.00019429162859741951 0 0.003979861826338753 6.3535914138255578e-05 0 0.0031453000826936325 -0.00039933338253998692 0 0.003979861826338753 6.3535914138255578e-05 0 0.0037189715738304629 -3.7076928632533035e-05 0 0.0031453000826936325 -0.00039933338253998692 0 0.0039440109537637784 -0.00019429162859741951 0 0.003979861826338753 6.3535914138255578e-05 0 0.0042516790769149635 0.00014118574732312222 0 0.0042516790769149635 0.00014118574732312222 0 0.0045620324769172476 0.0002354307123713234 0 0.0044077829579083879 0.00019985044351780943 0 0.003979861826338753 6.3535914138255578e-05 0 0.0042516790769149635 0.00014118574732312222 0 0.0044077829579083879 0.00019985044351780943 0 0.0045620324769172476 0.0002354307123713234 0 0.0048506555749377499 0.00015179589907815861 0 0.0044077829579083879 0.00019985044351780943 0 0.0048506555749377499 0.00015179589907815861 0 0.0044077829579083879 0.00019985044351780943 0 0.0044205063138425711 0.00024807528487216741 0 0.003979861826338753 6.3535914138255578e-05 0 0.0044077829579083879 0.00019985044351780943 0 0.0044205063138425711 0.00024807528487216741 0 0.0054575988986006914 -9.2838167331466399e-05 0 0.0048506555749377499 0.00015179589907815861 0 0.0044205063138425711 0.00024807528487216741 0 0.0044423126458344037 0.00022749010000976445 0 0.0045425813796167065 6.3563953764522493e-05 0 0.0056285271936433942 -0.00023433779588675233 0 0.0044205063138425711 0.00024807528487216741 0 0.0056215246663294423 -0.00017051085966976581 0 0.0044205063138425711 0.00024807528487216741 0 0.0035881220325591581 4.928620293356162e-05 0 0.0034875172488055524 0.0003261841997613176 0 0.0044205063138425711 0.00024807528487216741 0 0.0035881220325591581 4.928620293356162e-05 0 0.0037189715738304629 -3.7076928632533035e-05 0 0.0035881220325591581 4.928620293356162e-05 0 0.0037189715738304629 -3.7076928632533035e-05 0 0.0033544894464823402 -7.292545599341677e-05 0 0.003979861826338753 6.3535914138255578e-05 0 0.0044205063138425711 0.00024807528487216741 0 0.0037189715738304629 -3.7076928632533035e-05 0 0.0037189715738304629 -3.7076928632533035e-05 0 0.0033544894464823402 -7.292545599341677e-05 0 0.0031453000826936325 -0.00039933338253998692 0 0.0033544894464823402 -7.292545599341677e-05 0 0.0031738835805447349 8.697541328029604e-05 0 0.003003417056442346 3.5478923873213272e-05 0 0.0033544894464823402 -7.292545599341677e-05 0 0.003003417056442346 3.5478923873213272e-05 0 0.0031453000826936325 -0.00039933338253998692 0 0.003003417056442346 3.5478923873213272e-05 0 0.0018696600308093195 0.00013149723753598709 0 0.0031453000826936325 -0.00039933338253998692 0 0.0031738835805447349 8.697541328029604e-05 0 0.003003417056442346 3.5478923873213272e-05 0 0.0030652706019299635 0.00025250698520279472 0 0.003003417056442346 3.5478923873213272e-05 0 0.0029454361252797406 0.00044158950501802842 0 0.0030652706019299635 0.00025250698520279472 0 0.0029454361252797406 0.00044158950501802842 0 0.0030392054792134767 0.00038347832394894588 0 0.0029423972813420528 0.00037945636905918574 0 0.0029454361252797406 0.00044158950501802842 0 0.0030652706019299635 0.00025250698520279472 0 0.0029423972813420528 0.00037945636905918574 0 0.00039845831753989989 0.00024589175324523028 0 -0.00019637954778204146 0.00019109600338660548 0 0.00064529553089447101 -0.00032143328967838754 0 0.0011959335322737226 9.6124774856690614e-05 0 0.00039845831753989989 0.00024589175324523028 0 0.00064529553089447101 -0.00032143328967838754 0 0.0018277401374529139 7.8293726038198899e-05 0 0.0010687421927172687 0.00037279382919518805 0 -0.00019637954778204146 0.00019109600338660548 0 0.00064529553089447101 -0.00032143328967838754 0 -0.0002995956036597319 -9.8724381570648693e-05 0 0.003003417056442346 3.5478923873213272e-05 0 0.0029454361252797406 0.00044158950501802842 0 0.0024709969284915033 0.00089132295838177645 0 0.003003417056442346 3.5478923873213272e-05 0 0.0024709969284915033 0.00089132295838177645 0 0.0018696600308093195 0.00013149723753598709 0 0.0029454361252797406 0.00044158950501802842 0 0.0030392054792134767 0.00038347832394894588 0 0.0024709969284915033 0.00089132295838177645 0 -0.0002995956036597319 -9.8724381570648693e-05 0 5.902680174308124e-05 0.0004487548210448617 0 -0.00052762538014229177 0.00025387022328247227 0 0.0024709969284915033 0.00089132295838177645 0 5.902680174308124e-05 0.0004487548210448617 0 0.0018696600308093195 0.00013149723753598709 0 0.0010687421927172687 0.00037279382919518805 0 0.00013552161637108055 0.00041563429813223901 0 -0.000772255401324523 0.00021467448667442422 0 -0.0002995956036597319 -9.8724381570648693e-05 0 -0.00052762538014229177 0.00025387022328247227 0 -0.00019637954778204146 0.00019109600338660548 0 -0.000772255401324523 0.00021467448667442422 0 -0.0002995956036597319 -9.8724381570648693e-05 0 5.902680174308124e-05 0.0004487548210448617 0 0.00051590323646981753 -0.00038915501325542413 0 0.0018696600308093195 0.00013149723753598709 0 0.00051590323646981753 -0.00038915501325542413 0 0.0018696600308093195 0.00013149723753598709 0 0.0031453000826936325 -0.00039933338253998692 0 0.0021532112240971045 -0.00030080687896925641 0 0.0029764974958577887 -0.00041441301707098208 0 0.0039440109537637784 -0.00019429162859741951 0 0.0037770461433044929 -0.00038340104780886414 0 0.0031453000826936325 -0.00039933338253998692 0 0.0039440109537637784 -0.00019429162859741951 0 0.0037808368747408718 -0.00030034426766090708 0 0.0036298158808307978 -0.00027740412211367126 0 0.0039440109537637784 -0.00019429162859741951 0 0.0037770461433044929 -0.00038340104780886414 0 0.0036298158808307978 -0.00027740412211367126 0 0.0037808368747408718 -0.00030034426766090708 0 0.0036298158808307978 -0.00027740412211367126 0 0.003015837864479939 -0.00028191388994756595 0 0.0036298158808307978 -0.00027740412211367126 0 0.0032949731847261234 6.5886687464186298e-05 0 0.003015837864479939 -0.00028191388994756595 0 0.0021532112240971045 -0.00030080687896925641 0 0.0013767945013983154 0.00020587933370157675 0 0.0037770461433044929 -0.00038340104780886414 0 0.0036298158808307978 -0.00027740412211367126 0 0.0032949731847261234 6.5886687464186298e-05 0 5.902680174308124e-05 0.0004487548210448617 0 0.00051590323646981753 -0.00038915501325542413 0 -0.00055821695213015472 0.00050618096915448427 0 5.902680174308124e-05 0.0004487548210448617 0 -0.00052762538014229177 0.00025387022328247227 0 -0.00055821695213015472 0.00050618096915448427 0 -0.000772255401324523 0.00021467448667442422 0 -0.00052762538014229177 0.00025387022328247227 0 -0.00095415422314204068 0.00014059142368120329 0 -0.00052762538014229177 0.00025387022328247227 0 -0.00095415422314204068 0.00014059142368120329 0 -0.00055821695213015472 0.00050618096915448427 0 -0.00095415422314204068 0.00014059142368120329 0 -0.00055821695213015472 0.00050618096915448427 0 0.00066848946514167125 0.0002708541800803352 0 0.0013767945013983154 0.00020587933370157675 0 0.00080698621335695308 0.0002753005007010721 0 0.0032949731847261234 6.5886687464186298e-05 0 0.00066848946514167125 0.0002708541800803352 0 0.003015837864479939 -0.00028191388994756595 0 -0.0010669064579171888 5.1532453097003406e-05 0 -0.00095415422314204068 0.00014059142368120329 0 0.00066848946514167125 0.0002708541800803352 0 -0.0010669064579171888 5.1532453097003406e-05 0 0.00066848946514167125 0.0002708541800803352 0 0.00043052556525724093 4.3629135159443833e-07 0 0.00066848946514167125 0.0002708541800803352 0 0.00043052556525724093 4.3629135159443833e-07 0 0.0025092459937766792 1.5258199123001036e-08 0 0.00066848946514167125 0.0002708541800803352 0 0.0025092459937766792 1.5258199123001036e-08 0 0.003015837864479939 -0.00028191388994756595 0 0.0045899148569948619 -1.0650840528248074e-06 0 0.0041172253812886556 -0.00020288021235827475 0 0.003015837864479939 -0.00028191388994756595 0 0.0041172253812886556 -0.00020288021235827475 0 0.0037808368747408718 -0.00030034426766090708 0 0.003015837864479939 -0.00028191388994756595 0 0.0045899148569948619 -1.0650840528248074e-06 0 0.0025092459937766792 1.5258199123001036e-08 0 0.003015837864479939 -0.00028191388994756595 0 0.0036023684919521126 0.00042044608714105505 0 0.003620708265132892 0.00047154119742032544 0 0.0037751641092472941 0.00060267840836338374 0 0.0038253276107896856 0.00088215782865017761 0 0.0037971391158646145 0.00024016741983728606 0 0.0038253276107896856 0.00088215782865017761 0 0.0035886581360089916 0.0017604820195684112 0 0.004353805183378183 0.0026180533629381756 0 0.0037751641092472941 0.00060267840836338374 0 0.0036008841688762749 0.00036215467213628565 0 0.0038874057737044083 0.00084884324415359291 0 0.0038482998402937477 0.00090439352426827904 0 0.0040588843953078433 0.0014088926900837672 0 0.0035886581360089916 0.0017604820195684112 0 0.0036552378910078187 0.0025341492415328283 0 0.004353805183378183 0.0026180533629381756 0 0.0037751641092472941 0.00060267840836338374 0 0.0036008841688762749 0.00036215467213628565 0 0.0037971391158646145 0.00024016741983728606 0 0.0036008841688762749 0.00036215467213628565 0 0.0035226769632835577 0.0003370393635150531 0 0.0034509722686353471 0.00035454321722366768 0 0.0036008841688762749 0.00036215467213628565 0 0.0035226769632835577 0.0003370393635150531 0 0.0035967320732121556 0.00026161712197724424 0 0.0035226769632835577 0.0003370393635150531 0 0.0035967320732121556 0.00026161712197724424 0 0.0034904970611124402 0.0002930363673697492 0 0.0035226769632835577 0.0003370393635150531 0 0.00343290649891993 0.00034796013227465024 0 0.0034904970611124402 0.0002930363673697492 0 0.00343290649891993 0.00034796013227465024 0 0.0033830715374287904 0.00037542797987829668 0 0.0034509722686353471 0.00035454321722366768 0 0.0035226769632835577 0.0003370393635150531 0 0.00343290649891993 0.00034796013227465024 0 0.0034509722686353471 0.00035454321722366768 0 0.00343290649891993 0.00034796013227465024 0 0.0033830715374287904 0.00037542797987829668 0 0.0033238820017682689 0.00039436347801167398 0 0.00343290649891993 0.00034796013227465024 0 0.0033950169050778996 0.00032225149786625247 0 0.0033238820017682689 0.00039436347801167398 0 0.0033830715374287904 0.00037542797987829668 0 0.0033833599440862019 0.00037568438331820535 0 0.0034509722686353471 0.00035454321722366768 0 0.0033833599440862019 0.00037568438331820535 0 0.0034509722686353471 0.00035454321722366768 0 0.0033914541157718287 0.00035647582878384676 0 0.0036008841688762749 0.00036215467213628565 0 0.0034509722686353471 0.00035454321722366768 0 0.0033914541157718287 0.00035647582878384676 0 0.0037751641092472941 0.00060267840836338374 0 0.0038253276107896856 0.00088215782865017761 0 0.0038874057737044083 0.00084884324415359291 0 0.0033833599440862019 0.00037568438331820535 0 0.0033914541157718287 0.00035647582878384676 0 0.0033671730109517428 0.00041847462086481345 0 0.0031099705598728461 0.0020519141856123772 0 0.0028393896093837313 0.0019025640799709754 0 0.0030404650937105549 0.0025734084435707553 0 0.0038253276107896856 0.00088215782865017761 0 0.0038874057737044083 0.00084884324415359291 0 0.0033742489731451606 -9.4578082668128407e-05 0 0.0038253276107896856 0.00088215782865017761 0 0.0032062638358882041 0.00078817894365676867 0 0.0033742489731451606 -9.4578082668128407e-05 0 0.0038253276107896856 0.00088215782865017761 0 0.0032062638358882041 0.00078817894365676867 0 0.0035886581360089916 0.0017604820195684112 0 0.0029737778845086468 0.0024732281667737845 0 0.0031625009591874881 0.0028392843244415739 0 0.0030340206749796326 0.0029527951720029213 0 0.0032291332522577355 0.0037343746106436437 0 0.0026166453923965132 0.0033900086373210886 0 0.0030340206749796326 0.0029527951720029213 0 0.00239355614842192 0.0026636815297717267 0 0.0026166453923965132 0.0033900086373210886 0 0.0027464552980080038 0.0038495336998537709 0 0.0032291332522577355 0.0037343746106436437 0 0.0026166453923965132 0.0033900086373210886 0 0.0032062638358882041 0.00078817894365676867 0 0.0035886581360089916 0.0017604820195684112 0 0.0029601377653151973 0.0020460250630347848 0 0.0031598885778088806 0.0013376030242124044 0 0.0031625009591874881 0.0028392843244415739 0 0.0035886581360089916 0.0017604820195684112 0 0.0029601377653151973 0.0020460250630347848 0 0.0036552378910078187 0.0025341492415328283 0 0.003345756972049199 0.0029145419399879057 0 0.0032634999151391971 0.0035314379113331597 0 0.0035290033140953862 0.003519767704899882 0 0.0036552378910078187 0.0025341492415328283 0 0.0033093371774404606 0.0031067213284613642 0 0.0038284715801469886 0.0029136884438453986 0 0.0029601377653151973 0.0020460250630347848 0 0.0036552378910078187 0.0025341492415328283 0 0.0033093371774404606 0.0031067213284613642 0 0.0031625009591874881 0.0028392843244415739 0 0.003193243429628366 0.0039048931300026098 0 0.0031625009591874881 0.0028392843244415739 0 0.0034107653272373957 0.0032603372998905342 0 0.0032634999151391971 0.0035314379113331597 0 0.0035290033140953862 0.003519767704899882 0 0.0034359217694941279 0.0038722319437895759 0 0.0033093371774404606 0.0031067213284613642 0 0.0039974989754532246 0.0033888274332188419 0 0.0038284715801469886 0.0029136884438453986 0 0.0027464552980080038 0.0038495336998537709 0 0.0032291332522577355 0.0037343746106436437 0 0.0029273418973649002 0.0040717331651493804 0 0.0032291332522577355 0.0037343746106436437 0 0.0031237232179509721 0.0041177378706706456 0 0.0029273418973649002 0.0040717331651493804 0 0.0027464552980080038 0.0038495336998537709 0 0.0029273418973649002 0.0040717331651493804 0 0.0026894000868401932 0.0041398721111709962 0 0.0031237232179509721 0.0041177378706706456 0 0.0029273418973649002 0.0040717331651493804 0 0.0030354312645882609 0.0041717457268067755 0 0.0029273418973649002 0.0040717331651493804 0 0.0028817580335401831 0.0042267286035664493 0 0.0026894000868401932 0.0041398721111709962 0 0.0029273418973649002 0.0040717331651493804 0 0.0028817580335401831 0.0042267286035664493 0 0.0030354312645882609 0.0041717457268067755 0 0.0031237232179509721 0.0041177378706706456 0 0.0030354312645882609 0.0041717457268067755 0 0.0031871556384726911 0.0042325587654738067 0 0.0028817580335401831 0.0042267286035664493 0 0.0028551191183058488 0.0043468838332515339 0 0.0027043568063667297 0.0043078301411061913 0 0.0028817580335401831 0.0042267286035664493 0 0.0030354312645882609 0.0041717457268067755 0 0.0031871556384726911 0.0042325587654738067 0 0.002949178965631653 0.004470581045489916 0 0.0031871556384726911 0.0042325587654738067 0 0.0028551191183058488 0.0043468838332515339 0 0.0028817580335401831 0.0042267286035664493 0 0.0031871556384726911 0.0042325587654738067 0 0.0028551191183058488 0.0043468838332515339 0 0.0032634999151391971 0.0035314379113331597 0 0.0031871556384726911 0.0042325587654738067 0 0.0034359217694941279 0.0038722319437895759 0 0.0034107653272373957 0.0032603372998905342 0 0.0036612124526628747 0.0039684146337046287 0 0.003193243429628366 0.0039048931300026098 0 0.0031798055598781382 0.0041630918088475174 0 0.0033093371774404606 0.0031067213284613642 0 0.0037075410042168733 0.0040439571029024643 0 0.0039974989754532246 0.0033888274332188419 0 0.0035290033140953862 0.003519767704899882 0 0.0034359217694941279 0.0038722319437895759 0 0.0037075410042168733 0.0040439571029024643 0 0.0031871556384726911 0.0042325587654738067 0 0.0034359217694941279 0.0038722319437895759 0 0.0037075410042168733 0.0040439571029024643 0 0.0035326757993105165 0.0044071559780721426 0 0.0031871556384726911 0.0042325587654738067 0 0.0037075410042168733 0.0040439571029024643 0 0.0037075410042168733 0.0040439571029024643 0 0.0039974989754532246 0.0033888274332188419 0 0.0045801345741138368 0.0040381611841820752 0 0.0039889965315395423 0.0044659919437312129 0 0.0037075410042168733 0.0040439571029024643 0 0.0045801345741138368 0.0040381611841820752 0 0.0037971391158646145 0.00024016741983728606 0 0.0037226178451760083 0.00018392827145885217 0 0.0039089169306717056 -3.7628079182619859e-05 0 0.0039974989754532246 0.0033888274332188419 0 0.004353805183378183 0.0026180533629381756 0 0.0038284715801469886 0.0029136884438453986 0 0.0039974989754532246 0.0033888274332188419 0 0.004353805183378183 0.0026180533629381756 0 0.0045801345741138368 0.0040381611841820752 0 0.0040588843953078433 0.0014088926900837672 0 0.0042425805889873373 0.0019886068675215788 0 0.0036008841688762749 0.00036215467213628565 0 0.0037971391158646145 0.00024016741983728606 0 0.0037226178451760083 0.00018392827145885217 0 0.0036552378910078187 0.0025341492415328283 0 0.004353805183378183 0.0026180533629381756 0 0.0038284715801469886 0.0029136884438453986 0 0.0036008841688762749 0.00036215467213628565 0 0.0035967320732121556 0.00026161712197724424 0 0.0037226178451760083 0.00018392827145885217 0 0.0035967320732121556 0.00026161712197724424 0 0.0037101661556926519 0.00013034287893337333 0 0.0035823951179992787 0.00017757292627393757 0 0.0035967320732121556 0.00026161712197724424 0 0.0037226178451760083 0.00018392827145885217 0 0.0037101661556926519 0.00013034287893337333 0 0.0037226178451760083 0.00018392827145885217 0 0.0037101661556926519 0.00013034287893337333 0 0.0039089169306717056 -3.7628079182619859e-05 0 0.0037101661556926519 0.00013034287893337333 0 0.0039089169306717056 -3.7628079182619859e-05 0 0.0037780453358963123 3.429570313079035e-05 0 0.0034460750236735434 5.9857149970742388e-05 0 0.0037780453358963123 3.429570313079035e-05 0 0.0035823951179992787 0.00017757292627393757 0 0.0037101661556926519 0.00013034287893337333 0 0.0037780453358963123 3.429570313079035e-05 0 0.0035823951179992787 0.00017757292627393757 0 0.0034460750236735434 5.9857149970742388e-05 0 0.0035823951179992787 0.00017757292627393757 0 0.0033761653085402758 0.00019419276697581387 0 0.0035823951179992787 0.00017757292627393757 0 0.0033761653085402758 0.00019419276697581387 0 0.0034552210975105015 0.00022799300586925851 0 0.0035823951179992787 0.00017757292627393757 0 0.0034904970611124402 0.0002930363673697492 0 0.0034552210975105015 0.00022799300586925851 0 0.0035967320732121556 0.00026161712197724424 0 0.0035823951179992787 0.00017757292627393757 0 0.0034904970611124402 0.0002930363673697492 0 0.0043145263473711171 -0.00017550115413679724 0 0.0045425813796167065 6.3563953764522493e-05 0 0.0034460750236735434 5.9857149970742388e-05 0 0.0034875172488055524 0.0003261841997613176 0 0.0033761653085402758 0.00019419276697581387 0 0.0035881220325591581 4.928620293356162e-05 0 0.0034875172488055524 0.0003261841997613176 0 0.0033761653085402758 0.00019419276697581387 0 0.0035881220325591581 4.928620293356162e-05 0 0.0033544894464823402 -7.292545599341677e-05 0 0.0033505653824138335 9.9717063778412369e-05 0 0.0035881220325591581 4.928620293356162e-05 0 0.0033761653085402758 0.00019419276697581387 0 0.0033505653824138335 9.9717063778412369e-05 0 0.0033761653085402758 0.00019419276697581387 0 0.0033505653824138335 9.9717063778412369e-05 0 0.0033645674271363568 0.00024666281165545094 0 0.0033505653824138335 9.9717063778412369e-05 0 0.0033645674271363568 0.00024666281165545094 0 0.0032874720826248844 0.00024971884265282725 0 0.0033505653824138335 9.9717063778412369e-05 0 0.0032874720826248844 0.00024971884265282725 0 0.0031748340398068385 0.00020719222520792274 0 0.0033544894464823402 -7.292545599341677e-05 0 0.0033505653824138335 9.9717063778412369e-05 0 0.0031748340398068385 0.00020719222520792274 0 0.0034904970611124402 0.0002930363673697492 0 0.0033645674271363568 0.00024666281165545094 0 0.0033950169050778996 0.00032225149786625247 0 0.0034904970611124402 0.0002930363673697492 0 0.0034552210975105015 0.00022799300586925851 0 0.0033645674271363568 0.00024666281165545094 0 0.0033761653085402758 0.00019419276697581387 0 0.0034552210975105015 0.00022799300586925851 0 0.0033645674271363568 0.00024666281165545094 0 0.0033645674271363568 0.00024666281165545094 0 0.0032874720826248844 0.00024971884265282725 0 0.0033114329603565929 0.00034495955047883606 0 0.0033645674271363568 0.00024666281165545094 0 0.0033950169050778996 0.00032225149786625247 0 0.0033114329603565929 0.00034495955047883606 0 0.00343290649891993 0.00034796013227465024 0 0.0034904970611124402 0.0002930363673697492 0 0.0033950169050778996 0.00032225149786625247 0 0.0033950169050778996 0.00032225149786625247 0 0.0033114329603565929 0.00034495955047883606 0 0.0033238820017682689 0.00039436347801167398 0 0.0033114329603565929 0.00034495955047883606 0 0.0032385562005434795 0.00040057935691726156 0 0.0032155334779919182 0.00047834038528051648 0 0.0033114329603565929 0.00034495955047883606 0 0.0032155334779919182 0.00047834038528051648 0 0.0033238820017682689 0.00039436347801167398 0 0.0032874720826248844 0.00024971884265282725 0 0.0033114329603565929 0.00034495955047883606 0 0.0032385562005434795 0.00040057935691726156 0 0.0032385562005434795 0.00040057935691726156 0 0.0031727521190540436 0.0004734369547249202 0 0.0031520280969279646 0.00054041023554066603 0 0.0032155334779919182 0.00047834038528051648 0 0.0031520280969279646 0.00054041023554066603 0 0.0030984256611810016 0.00059301233379597347 0 0.0032385562005434795 0.00040057935691726156 0 0.0032155334779919182 0.00047834038528051648 0 0.0031520280969279646 0.00054041023554066603 0 0.0033544894464823402 -7.292545599341677e-05 0 0.0031738835805447349 8.697541328029604e-05 0 0.0031748340398068385 0.00020719222520792274 0 0.0032874720826248844 0.00024971884265282725 0 0.0032385562005434795 0.00040057935691726156 0 0.0031748340398068385 0.00020719222520792274 0 0.0032385562005434795 0.00040057935691726156 0 0.0031748340398068385 0.00020719222520792274 0 0.0031727521190540436 0.0004734369547249202 0 0.0031748340398068385 0.00020719222520792274 0 0.0028700801024830656 0.00029354165038733457 0 0.0029133772614450258 0.00029092939050300194 0 0.0031316697547985593 0.0002350648680327937 0 0.0030333391262097756 0.00036709136878041311 0 0.0031738835805447349 8.697541328029604e-05 0 0.0031748340398068385 0.00020719222520792274 0 0.0030652706019299635 0.00025250698520279472 0 0.0031748340398068385 0.00020719222520792274 0 0.0030652706019299635 0.00025250698520279472 0 0.0029133772614450258 0.00029092939050300194 0 0.0029423972813420528 0.00037945636905918574 0 0.0029133772614450258 0.00029092939050300194 0 0.0026379749098355623 0.00030667923695678614 0 0.0030652706019299635 0.00025250698520279472 0 0.0029423972813420528 0.00037945636905918574 0 0.0029133772614450258 0.00029092939050300194 0 0.0029133772614450258 0.00029092939050300194 0 0.0027896273716246809 0.00027959466411463989 0 0.0026379749098355623 0.00030667923695678614 0 0.0028700801024830656 0.00029354165038733457 0 0.0029133772614450258 0.00029092939050300194 0 0.0027896273716246809 0.00027959466411463989 0 0.0023139888040861526 0.00019881547253853974 0 0.0025953335489025666 0.00030114486749977025 0 0.0018296661471069013 0.00016677706287362247 0 0.0022475820815784156 0.00014006626953176707 0 0.0026379749098355623 0.00030667923695678614 0 0.0027941136074354418 0.00025993034189535953 0 0.0027896273716246809 0.00027959466411463989 0 0.0026379749098355623 0.00030667923695678614 0 0.0018277401374529139 7.8293726038198899e-05 0 0.0022340249415497698 0.0001256552930593021 0 0.0011959335322737226 9.6124774856690614e-05 0 0.00064529553089447101 -0.00032143328967838754 0 0.0022475820815784156 0.00014006626953176707 0 0.0030392054792134767 0.00038347832394894588 0 0.0022475820815784156 0.00014006626953176707 0 0.0026379749098355623 0.00030667923695678614 0 0.0030392054792134767 0.00038347832394894588 0 0.0029423972813420528 0.00037945636905918574 0 0.0026379749098355623 0.00030667923695678614 0 0.0031520280969279646 0.00054041023554066603 0 0.002967113558528522 0.00060902728645078252 0 0.0030984256611810016 0.00059301233379597347 0 0.0031520280969279646 0.00054041023554066603 0 0.0031377986374387236 0.0005418294247403209 0 0.002967113558528522 0.00060902728645078252 0 0.0028700801024830656 0.00029354165038733457 0 0.0027896273716246809 0.00027959466411463989 0 0.0027480897314988281 0.00031453360634607072 0 0.0031727521190540436 0.0004734369547249202 0 0.0031520280969279646 0.00054041023554066603 0 0.0031377986374387236 0.0005418294247403209 0 0.0030333391262097756 0.00036709136878041311 0 0.0029375170952965226 0.00042351201298390857 0 0.0027941136074354418 0.00025993034189535953 0 0.0027896273716246809 0.00027959466411463989 0 0.0027480897314988281 0.00031453360634607072 0 0.0026608868344705724 0.00027106038524458612 0 0.0029375170952965226 0.00042351201298390857 0 0.002557609856383692 0.00024017812681158959 0 0.0027941136074354418 0.00025993034189535953 0 0.0027480897314988281 0.00031453360634607072 0 0.002808796168188547 0.00028895816671949007 0 0.0031377986374387236 0.0005418294247403209 0 0.002967113558528522 0.00060902728645078252 0 0.0028583083002913512 0.00041511621058711159 0 0.002967113558528522 0.00060902728645078252 0 0.0029831999227641882 0.00060113808796540479 0 0.0024484800157414275 0.00040652521863962521 0 0.0029085134684161511 0.00060057584706117251 0 0.0023438751399004762 0.00024639295800513676 0 0.0020288178258338375 0.00042541126808450907 0 0.002967113558528522 0.00060902728645078252 0 0.0028583083002913512 0.00041511621058711159 0 0.0028031739099171724 0.00062378325302655938 0 0.0026715972054996971 0.00053421950924078176 0 0.0028583083002913512 0.00041511621058711159 0 0.0028031739099171724 0.00062378325302655938 0 0.0029831999227641882 0.00060113808796540479 0 0.0028031739099171724 0.00062378325302655938 0 0.0029831999227641882 0.00060113808796540479 0 0.0031127475375474643 0.00068140436752748179 0 0.0028031739099171724 0.00062378325302655938 0 0.0031127475375474643 0.00068140436752748179 0 0.0027632677646450689 0.00076821628959441947 0 0.002967113558528522 0.00060902728645078252 0 0.0029831999227641882 0.00060113808796540479 0 0.0030984256611810016 0.00059301233379597347 0 0.0029831999227641882 0.00060113808796540479 0 0.0030984256611810016 0.00059301233379597347 0 0.0031127475375474643 0.00068140436752748179 0 0.0032155334779919182 0.00047834038528051648 0 0.0030984256611810016 0.00059301233379597347 0 0.0032022863612139619 0.0005194858699600288 0 0.0030984256611810016 0.00059301233379597347 0 0.0032022863612139619 0.0005194858699600288 0 0.0031127475375474643 0.00068140436752748179 0 0.0031127475375474643 0.00068140436752748179 0 0.0033002270053165603 0.00050349065506189784 0 0.0034508176088490924 0.00063813251908116794 0 0.0031127475375474643 0.00068140436752748179 0 0.0026611946729263422 0.00095503525785681773 0 0.0027632677646450689 0.00076821628959441947 0 0.0031052208460861687 0.00071517235520055693 0 0.003022486942714083 0.00079753176066054755 0 0.0032022863612139619 0.0005194858699600288 0 0.0031127475375474643 0.00068140436752748179 0 0.0033002270053165603 0.00050349065506189784 0 0.0033914541157718287 0.00035647582878384676 0 0.0033671730109517428 0.00041847462086481345 0 0.0034557984879131911 0.00045763091823965564 0 0.0033002270053165603 0.00050349065506189784 0 0.0033671730109517428 0.00041847462086481345 0 0.0033225566342638007 0.00042523051458009394 0 0.0032022863612139619 0.0005194858699600288 0 0.0033002270053165603 0.00050349065506189784 0 0.0033225566342638007 0.00042523051458009394 0 0.0033002270053165603 0.00050349065506189784 0 0.0033671730109517428 0.00041847462086481345 0 0.0034557984879131911 0.00045763091823965564 0 0.0033833599440862019 0.00037568438331820535 0 0.0033671730109517428 0.00041847462086481345 0 0.0033225566342638007 0.00042523051458009394 0 0.0033830715374287904 0.00037542797987829668 0 0.0033833599440862019 0.00037568438331820535 0 0.0033225566342638007 0.00042523051458009394 0 0.0032022863612139619 0.0005194858699600288 0 0.0033225566342638007 0.00042523051458009394 0 0.0033238820017682689 0.00039436347801167398 0 0.0033830715374287904 0.00037542797987829668 0 0.0033225566342638007 0.00042523051458009394 0 0.0033238820017682689 0.00039436347801167398 0 0.0032155334779919182 0.00047834038528051648 0 0.0032022863612139619 0.0005194858699600288 0 0.0033238820017682689 0.00039436347801167398 0 0.0030340206749796326 0.0029527951720029213 0 0.0027819180989556895 0.0020428756595559385 0 0.00239355614842192 0.0026636815297717267 0 0.0028393896093837313 0.0019025640799709754 0 0.0031749460380880732 0.0015379022103053223 0 0.002638819014018422 0.001245614440884643 0 0.0029737778845086468 0.0024732281667737845 0 0.0024023460455055243 0.0017539985072698163 0 0.0031598885778088806 0.0013376030242124044 0 0.0032481611089019589 0.00074989804766813445 0 0.0031099705598728461 0.0020519141856123772 0 0.0028393896093837313 0.0019025640799709754 0 0.0031749460380880732 0.0015379022103053223 0 0.003620708265132892 0.00047154119742032544 0 0.0032481611089019589 0.00074989804766813445 0 0.0030030498085448277 0.00086857037271665131 0 0.0029977854938899274 0.00090096050233941152 0 0.00301850599694004 0.00089803771394559001 0 0.0032481611089019589 0.00074989804766813445 0 0.0027332524814787846 0.0011027267367775101 0 0.0032481611089019589 0.00074989804766813445 0 0.003022486942714083 0.00079753176066054755 0 0.0033002270053165603 0.00050349065506189784 0 0.0034557984879131911 0.00045763091823965564 0 0.0034508176088490924 0.00063813251908116794 0 0.0026569465761282765 0.00094323135308617943 0 0.0026668871048896601 0.00089636289215894974 0 0.002579729747423409 0.0008787878631760298 0 0.0026668871048896601 0.00089636289215894974 0 0.002579729747423409 0.0008787878631760298 0 0.0026242208350740247 0.0008022298361229183 0 0.003022486942714083 0.00079753176066054755 0 0.0030015099291857326 0.00082441690179266356 0 0.0026611946729263422 0.00095503525785681773 0 0.0026668871048896601 0.00089636289215894974 0 0.0027632677646450689 0.00076821628959441947 0 0.0024767256366760608 0.00097114324894006772 0 0.002579729747423409 0.0008787878631760298 0 0.0024887080235603629 0.00078619005789532718 0 0.003022486942714083 0.00079753176066054755 0 0.0027332524814787846 0.0011027267367775101 0 0.0026569465761282765 0.00094323135308617943 0 0.0024767256366760608 0.00097114324894006772 0 0.002579729747423409 0.0008787878631760298 0 0.0031749460380880732 0.0015379022103053223 0 0.0029634147072393263 0.0011910906150168019 0 0.002638819014018422 0.001245614440884643 0 0.0027332524814787846 0.0011027267367775101 0 0.0024023460455055243 0.0017539985072698163 0 0.0024664128024021324 0.0012299024457137642 0 0.0022035998144940595 0.0012723656155696089 0 0.0022536547842355271 0.00088151913052549621 0 0.0027332524814787846 0.0011027267367775101 0 0.0022383304480633579 0.00079055228641953937 0 0.0024767256366760608 0.00097114324894006772 0 0.0022856216925326977 0.00074626135610950019 0 0.0024887080235603629 0.00078619005789532718 0 0.0024023460455055243 0.0017539985072698163 0 0.0019440254886390789 0.0012167944492941659 0 0.0022035998144940595 0.0012723656155696089 0 0.0022536547842355271 0.00088151913052549621 0 0.0020685125963403827 0.00081859085016103446 0 0.0024036581164398473 0.00069504980967587105 0 0.0022856216925326977 0.00074626135610950019 0 0.0024887080235603629 0.00078619005789532718 0 0.0024036581164398473 0.00069504980967587105 0 0.0022856216925326977 0.00074626135610950019 0 0.0023024934239431493 0.00059843936941428235 0 0.0026668871048896601 0.00089636289215894974 0 0.0027632677646450689 0.00076821628959441947 0 0.0026242208350740247 0.0008022298361229183 0 0.0027632677646450689 0.00076821628959441947 0 0.0026242208350740247 0.0008022298361229183 0 0.0026420118927784858 0.00072136486788920695 0 0.0026242208350740247 0.0008022298361229183 0 0.0024887080235603629 0.00078619005789532718 0 0.0026420118927784858 0.00072136486788920695 0 0.002579729747423409 0.0008787878631760298 0 0.0026242208350740247 0.0008022298361229183 0 0.0024887080235603629 0.00078619005789532718 0 0.0024036581164398473 0.00069504980967587105 0 0.0024887080235603629 0.00078619005789532718 0 0.0025372913490568786 0.00063205416461276575 0 0.0024887080235603629 0.00078619005789532718 0 0.0026420118927784858 0.00072136486788920695 0 0.0025372913490568786 0.00063205416461276575 0 0.0028031739099171724 0.00062378325302655938 0 0.0027632677646450689 0.00076821628959441947 0 0.0026420118927784858 0.00072136486788920695 0 0.0028031739099171724 0.00062378325302655938 0 0.0026420118927784858 0.00072136486788920695 0 0.0025372913490568786 0.00063205416461276575 0 0.0028583083002913512 0.00041511621058711159 0 0.0026715972054996971 0.00053421950924078176 0 0.0024764207876287578 0.00046517010533291583 0 0.0028031739099171724 0.00062378325302655938 0 0.0026715972054996971 0.00053421950924078176 0 0.0025372913490568786 0.00063205416461276575 0 0.0026715972054996971 0.00053421950924078176 0 0.0025372913490568786 0.00063205416461276575 0 0.0024764207876287578 0.00046517010533291583 0 0.0025372913490568786 0.00063205416461276575 0 0.0024764207876287578 0.00046517010533291583 0 0.0023024934239431493 0.00059843936941428235 0 0.0022856216925326977 0.00074626135610950019 0 0.0023024934239431493 0.00059843936941428235 0 0.0020315987957976156 0.00057257649182825552 0 0.0022536547842355271 0.00088151913052549621 0 0.0020315987957976156 0.00057257649182825552 0 0.0020685125963403827 0.00081859085016103446 0 0.0022383304480633579 0.00079055228641953937 0 0.0020709777398532051 0.00059047146262881055 0 0.0024036581164398473 0.00069504980967587105 0 0.0025372913490568786 0.00063205416461276575 0 0.0023024934239431493 0.00059843936941428235 0 0.0021589845416879324 0.00042037127695196955 0 0.0024764207876287578 0.00046517010533291583 0 0.0023024934239431493 0.00059843936941428235 0 0.0021589845416879324 0.00042037127695196955 0 0.0023024934239431493 0.00059843936941428235 0 0.0020315987957976156 0.00057257649182825552 0 0.0017148210425631575 0.00085367404465641887 0 0.0015948275524154934 0.0012767920629864035 0 0.0018635594409688629 0.0016202158069029975 0 0.001894288300000591 0.00043778274938083381 0 0.0020315987957976156 0.00057257649182825552 0 0.0020685125963403827 0.00081859085016103446 0 0.0017937737070965012 0.00063472154958024577 0 0.0019440254886390789 0.0012167944492941659 0 0.0015948275524154934 0.0012767920629864035 0 0.0014883514653495911 0.0015243623549052946 0 0.0018635594409688629 0.0016202158069029975 0 0.0015948275524154934 0.0012767920629864035 0 0.0014883514653495911 0.0015243623549052946 0 0.0013032817734391191 0.0011059559204685814 0 0.0017148210425631575 0.00085367404465641887 0 0.0015948275524154934 0.0012767920629864035 0 0.0013032817734391191 0.0011059559204685814 0 0.0013032817734391191 0.0011059559204685814 0 0.00107978311386441 0.0017950919872610084 0 0.00041513186991227709 0.0014328905279140337 0 0.0014883514653495911 0.0015243623549052946 0 0.0013032817734391191 0.0011059559204685814 0 0.00107978311386441 0.0017950919872610084 0 0.00107978311386441 0.0017950919872610084 0 0.00036962964235507018 0.00192101221920918 0 0.0011709584533256478 0.0024429229772609242 0 0.0020545129637889064 0.0023400820724497058 0 0.0015882910909515114 0.002032534647824991 0 0.0018635594409688629 0.0016202158069029975 0 0.0014883514653495911 0.0015243623549052946 0 0.00107978311386441 0.0017950919872610084 0 0.0015882910909515114 0.002032534647824991 0 0.0014883514653495911 0.0015243623549052946 0 0.0015882910909515114 0.002032534647824991 0 0.0018635594409688629 0.0016202158069029975 0 -0.00027865968407609086 0.00065289021415017344 0 -0.00011526488377330654 0.0013625772178667485 0 0.00041513186991227709 0.0014328905279140337 0 -0.00011526488377330654 0.0013625772178667485 0 0.00041513186991227709 0.0014328905279140337 0 0.00036962964235507018 0.00192101221920918 0 0.00107978311386441 0.0017950919872610084 0 0.00041513186991227709 0.0014328905279140337 0 0.00036962964235507018 0.00192101221920918 0 0.00036962964235507018 0.00192101221920918 0 -0.00031942325260047027 0.0022784012265814977 0 -0.00043511907818937222 0.0016534311949387519 0 -0.00011526488377330654 0.0013625772178667485 0 0.00036962964235507018 0.00192101221920918 0 -0.00043511907818937222 0.0016534311949387519 0 0.00053960928615354598 0.0024714329237399521 0 0.0010529858852169653 0.0031896223721609414 0 -0.00042292809543664431 0.003029823212234206 0 0.00036962964235507018 0.00192101221920918 0 0.00053960928615354598 0.0024714329237399521 0 -0.00031942325260047027 0.0022784012265814977 0 0.00060434246008268767 0.0024481911038805467 0 0.0014676913561295483 0.0023752268645055945 0 0.00036962964235507018 0.00192101221920918 0 0.00053960928615354598 0.0024714329237399521 0 0.0011709584533256478 0.0024429229772609242 0 0.00053960928615354598 0.0024714329237399521 0 0.0017862082742163719 0.0021949762960593463 0 0.0010529858852169653 0.0031896223721609414 0 0.0020545129637889064 0.0023400820724497058 0 0.0015882910909515114 0.002032534647824991 0 0.0011709584533256478 0.0024429229772609242 0 0.0027819180989556895 0.0020428756595559385 0 0.0017862082742163719 0.0021949762960593463 0 0.00239355614842192 0.0026636815297717267 0 0.0024023460455055243 0.0017539985072698163 0 0.0014676913561295483 0.0023752268645055945 0 0.00107978311386441 0.0017950919872610084 0 0.0015882910909515114 0.002032534647824991 0 0.0011709584533256478 0.0024429229772609242 0 0.0017862082742163719 0.0021949762960593463 0 0.0019374433839604787 0.0032148267695102663 0 0.0010529858852169653 0.0031896223721609414 0 0.0017862082742163719 0.0021949762960593463 0 0.00239355614842192 0.0026636815297717267 0 0.0019374433839604787 0.0032148267695102663 0 0.00239355614842192 0.0026636815297717267 0 0.0026166453923965132 0.0033900086373210886 0 0.0019374433839604787 0.0032148267695102663 0 0.0026166453923965132 0.0033900086373210886 0 0.002197167782287486 0.0038853237563425728 0 0.0019374433839604787 0.0032148267695102663 0 0.0027464552980080038 0.0038495336998537709 0 0.0026166453923965132 0.0033900086373210886 0 0.002197167782287486 0.0038853237563425728 0 0.002197167782287486 0.0038853237563425728 0 0.0019374433839604787 0.0032148267695102663 0 0.0014324205996700129 0.0036942142450127383 0 0.002197167782287486 0.0038853237563425728 0 0.0014324205996700129 0.0036942142450127383 0 0.0013420835015747912 0.004280422993138599 0 0.0019374433839604787 0.0032148267695102663 0 0.0010529858852169653 0.0031896223721609414 0 0.0014324205996700129 0.0036942142450127383 0 0.0010529858852169653 0.0031896223721609414 0 0.00046954219785921402 0.0036903963438544877 0 -0.00042292809543664431 0.003029823212234206 0 0.0092920738064007618 0.0017292583704056085 0 0.0098431005318282434 0.0019099222289615471 0 0.00046954219785921402 0.0036903963438544877 0 0.0014324205996700129 0.0036942142450127383 0 0.0013420835015747912 0.004280422993138599 0 0.0010529858852169653 0.0031896223721609414 0 0.00046954219785921402 0.0036903963438544877 0 0.0014324205996700129 0.0036942142450127383 0 0.018240823858812396 -0.00015914800165806397 0 0.017790110185001335 -0.00035594884346317422 0 0.018175255100695838 -0.00052813391140028182 0 0.018175255100695838 -0.00052813391140028182 0 0.017728679121341906 -0.00069102895209891446 0 0.017965812764860353 -0.00093158166966264653 0 0.017790110185001335 -0.00035594884346317422 0 0.017728679121341906 -0.00069102895209891446 0 0.017281936163398293 -0.00074182006806797012 0 0.017790110185001335 -0.00035594884346317422 0 0.018175255100695838 -0.00052813391140028182 0 0.017728679121341906 -0.00069102895209891446 0 0.0013420835015747912 0.004280422993138599 0 0.0021529383452622113 0.004947340403126969 0 0.002471419852977027 0.0043225423565829363 0 0.0098431005318282434 0.0019099222289615471 0 0.007835800859813143 0.0027986275275293194 0 0.007835800859813143 0.0027986275275293194 0 0.0017014278357098589 0.0056267642916423399 0 0.0025591424670191633 0.0044265392654571582 0 0.002655730291394382 0.004402313470918952 0 0.002471419852977027 0.0043225423565829363 0 0.0028551191183058488 0.0043468838332515339 0 0.002655730291394382 0.004402313470918952 0 0.0027043568063667297 0.0043078301411061913 0 0.0028551191183058488 0.0043468838332515339 0 0.002655730291394382 0.004402313470918952 0 0.0027535155478118829 0.0044883871235600389 0 0.0028817580335401831 0.0042267286035664493 0 0.0027043568063667297 0.0043078301411061913 0 0.0026894000868401932 0.0041398721111709962 0 0.002655730291394382 0.004402313470918952 0 0.0027043568063667297 0.0043078301411061913 0 0.002471419852977027 0.0043225423565829363 0 0.002197167782287486 0.0038853237563425728 0 0.002471419852977027 0.0043225423565829363 0 0.0026894000868401932 0.0041398721111709962 0 0.0027464552980080038 0.0038495336998537709 0 0.002197167782287486 0.0038853237563425728 0 0.0026894000868401932 0.0041398721111709962 0 0.0027043568063667297 0.0043078301411061913 0 0.002471419852977027 0.0043225423565829363 0 0.0026894000868401932 0.0041398721111709962 0 0.002197167782287486 0.0038853237563425728 0 0.0013420835015747912 0.004280422993138599 0 0.002471419852977027 0.0043225423565829363 0 0.019133438756545777 -0.00044951297655185902 0 0.018885748809869582 -0.00048178072097395302 0 0.01859554618949405 -0.00021161469966644636 0 0.017140191415557157 0.00085614190407809433 0 0.017471176256793824 0.00023932844364305935 0 0.016602813692105648 0.00025143171461659283 0 0.01807319755880419 0.0002868354239470032 0 0.018052000390964346 -6.5240629355201992e-05 0 0.017140191415557157 0.00085614190407809433 0 0.016602813692105648 0.00025143171461659283 0 0.016325646609061713 0.00089766391481665075 0 0.017140191415557157 0.00085614190407809433 0 0.016325646609061713 0.00089766391481665075 0 0.016879846192586177 0.0015068112755116476 0 0.01807319755880419 0.0002868354239470032 0 0.018649510085605305 9.5386031388577502e-06 0 0.019133438756545777 -0.00044951297655185902 0 0.019209390859825724 -0.00059531442671337937 0 0.019463205536748057 -0.00065502692139556918 0 0.019133438756545777 -0.00044951297655185902 0 0.019209390859825724 -0.00059531442671337937 0 0.018885748809869582 -0.00048178072097395302 0 0.019209390859825724 -0.00059531442671337937 0 0.018885748809869582 -0.00048178072097395302 0 0.019137126017033868 -0.00073292313892667986 0 0.018885748809869582 -0.00048178072097395302 0 0.018454405503638333 -0.00084799214890577616 0 0.019137126017033868 -0.00073292313892667986 0 0.018175255100695838 -0.00052813391140028182 0 0.018455786337222647 -0.00032743958865193466 0 0.018454405503638333 -0.00084799214890577616 0 0.018885748809869582 -0.00048178072097395302 0 0.018455786337222647 -0.00032743958865193466 0 0.018454405503638333 -0.00084799214890577616 0 0.018240823858812396 -0.00015914800165806397 0 0.018175255100695838 -0.00052813391140028182 0 0.018455786337222647 -0.00032743958865193466 0 0.018885748809869582 -0.00048178072097395302 0 0.018455786337222647 -0.00032743958865193466 0 0.01859554618949405 -0.00021161469966644636 0 0.018310263329732721 -0.00024529523911399258 0 0.017951299867314349 -0.00044682222357563168 0 0.01859554618949405 -0.00021161469966644636 0 0.018005877178523082 -0.00043599929143174469 0 0.018052000390964346 -6.5240629355201992e-05 0 0.018455786337222647 -0.00032743958865193466 0 0.018310263329732721 -0.00024529523911399258 0 0.01859554618949405 -0.00021161469966644636 0 0.018240823858812396 -0.00015914800165806397 0 0.018455786337222647 -0.00032743958865193466 0 0.018310263329732721 -0.00024529523911399258 0 0.018240823858812396 -0.00015914800165806397 0 0.018310263329732721 -0.00024529523911399258 0 0.018315423928044989 -0.00059829100909253828 0 0.0092920738064007618 0.0017292583704056085 0 0.0089259517022210692 0.0012032094413898015 0 0.018310263329732721 -0.00024529523911399258 0 0.017951299867314349 -0.00044682222357563168 0 0.018315423928044989 -0.00059829100909253828 0 0.017951299867314349 -0.00044682222357563168 0 0.017471176256793824 0.00023932844364305935 0 0.01688610126456843 -0.00039525452907260001 0 0.017951299867314349 -0.00044682222357563168 0 0.01688610126456843 -0.00039525452907260001 0 0.017138080832327502 -0.00096171347190769239 0 0.017471176256793824 0.00023932844364305935 0 0.016602813692105648 0.00025143171461659283 0 0.01688610126456843 -0.00039525452907260001 0 0.016602813692105648 0.00025143171461659283 0 0.01688610126456843 -0.00039525452907260001 0 0.016014961815482013 -0.00047752100004465456 0 0.017575923672880141 -0.0015591902459585068 0 0.016743983950771011 -0.0023674578918250334 0 0.016205073157931595 -0.0014010493035175827 0 0.017138080832327502 -0.00096171347190769239 0 0.017575923672880141 -0.0015591902459585068 0 0.016205073157931595 -0.0014010493035175827 0 0.01688610126456843 -0.00039525452907260001 0 0.017138080832327502 -0.00096171347190769239 0 0.016205073157931595 -0.0014010493035175827 0 0.017951299867314349 -0.00044682222357563168 0 0.017138080832327502 -0.00096171347190769239 0 0.017575923672880141 -0.0015591902459585068 0 0.00053960928615354598 0.0024714329237399521 0 -0.00042292809543664431 0.003029823212234206 0 -0.00031942325260047027 0.0022784012265814977 0 -0.0012642994236866348 0.0024074473073806882 0 -0.00042292809543664431 0.003029823212234206 0 -0.00031942325260047027 0.0022784012265814977 0 0.017951299867314349 -0.00044682222357563168 0 0.017575923672880141 -0.0015591902459585068 0 0.018315423928044989 -0.00059829100909253828 0 0.0081520271046822308 0.00042388477742960368 0 0.0089259517022210692 0.0012032094413898015 0 -0.0012642994236866348 0.0024074473073806882 0 -0.00031942325260047027 0.0022784012265814977 0 -0.0012076347647057908 0.0016182216685460397 0 -0.00031942325260047027 0.0022784012265814977 0 -0.00043511907818937222 0.0016534311949387519 0 -0.0012076347647057908 0.0016182216685460397 0 -0.0014143556342144797 0.00093566141665548731 0 -0.0012076347647057908 0.0016182216685460397 0 -0.00074451148382834187 0.0011367186301535646 0 -0.00027865968407609086 0.00065289021415017344 0 -0.00011526488377330654 0.0013625772178667485 0 -0.00074451148382834187 0.0011367186301535646 0 -0.00043511907818937222 0.0016534311949387519 0 -0.0012076347647057908 0.0016182216685460397 0 -0.00074451148382834187 0.0011367186301535646 0 -0.00011526488377330654 0.0013625772178667485 0 -0.00043511907818937222 0.0016534311949387519 0 -0.00074451148382834187 0.0011367186301535646 0 -0.0012642994236866348 0.0024074473073806882 0 -0.0012076347647057908 0.0016182216685460397 0 -0.0021389580638051515 0.0017165432082265235 0 0.0081520271046822308 0.00042388477742960368 0 0.0072699465513946489 -0.0003326769714541817 0 -0.0021608484386774307 0.00087369961604781901 0 -0.0014143556342144797 0.00093566141665548731 0 -0.0012076347647057908 0.0016182216685460397 0 -0.0021608484386774307 0.00087369961604781901 0 -0.0012076347647057908 0.0016182216685460397 0 -0.0021389580638051515 0.0017165432082265235 0 0.016036786428206343 -0.003053011362034389 0 0.016743983950771011 -0.0023674578918250334 0 0.016116272709429717 -0.0024895220189306258 0 -0.0029251867956085142 0.0009361430248013931 0 -0.0021608484386774307 0.00087369961604781901 0 -0.0021389580638051515 0.0017165432082265235 0 0.0067854631786530683 -0.0010997479347308458 0 0.0072699465513946489 -0.0003326769714541817 0 0.016036786428206343 -0.003053011362034389 0 0.015646588322082159 -0.00286897641971698 0 0.016116272709429717 -0.0024895220189306258 0 0.015646588322082159 -0.00286897641971698 0 0.016116272709429717 -0.0024895220189306258 0 0.015540775929963132 -0.0025197759682071236 0 0.016743983950771011 -0.0023674578918250334 0 0.016116272709429717 -0.0024895220189306258 0 0.01586763246149267 -0.0019939467698160385 0 0.016116272709429717 -0.0024895220189306258 0 0.01586763246149267 -0.0019939467698160385 0 0.015540775929963132 -0.0025197759682071236 0 0.015396936701338119 -0.0021628196399214547 0 0.015540775929963132 -0.0025197759682071236 0 0.014996746325885707 -0.0024577382781614419 0 0.01586763246149267 -0.0019939467698160385 0 0.015396936701338119 -0.0021628196399214547 0 0.015540775929963132 -0.0025197759682071236 0 0.015540775929963132 -0.0025197759682071236 0 0.015152490593535942 -0.0029975305260941452 0 0.014996746325885707 -0.0024577382781614419 0 0.015646588322082159 -0.00286897641971698 0 0.015540775929963132 -0.0025197759682071236 0 0.015152490593535942 -0.0029975305260941452 0 0.015152490593535942 -0.0029975305260941452 0 0.014682879928847608 -0.0029147398898332596 0 0.014996746325885707 -0.0024577382781614419 0 0.014682879928847608 -0.0029147398898332596 0 0.014505362263785987 -0.0025242009993313675 0 0.014996746325885707 -0.0024577382781614419 0 0.014682879928847608 -0.0029147398898332596 0 0.014505362263785987 -0.0025242009993313675 0 0.014031911355721297 -0.002936178333730746 0 0.014505362263785987 -0.0025242009993313675 0 0.014031911355721297 -0.002936178333730746 0 0.014067008616821839 -0.0024894892395304715 0 0.014505362263785987 -0.0025242009993313675 0 0.014298841650442201 -0.0022163337238964333 0 0.014763050696858054 -0.0019807582234226502 0 0.014505362263785987 -0.0025242009993313675 0 0.014298841650442201 -0.0022163337238964333 0 0.014067008616821839 -0.0024894892395304715 0 0.014298841650442201 -0.0022163337238964333 0 0.014763050696858054 -0.0019807582234226502 0 0.014280765901718019 -0.0017544134508543185 0 0.015396936701338119 -0.0021628196399214547 0 0.014996746325885707 -0.0024577382781614419 0 0.014763050696858054 -0.0019807582234226502 0 0.014505362263785987 -0.0025242009993313675 0 0.014996746325885707 -0.0024577382781614419 0 0.014763050696858054 -0.0019807582234226502 0 0.015396936701338119 -0.0021628196399214547 0 0.014763050696858054 -0.0019807582234226502 0 0.015371820547501023 -0.0016546499237835362 0 0.014763050696858054 -0.0019807582234226502 0 0.014698293183417062 -0.0013984677679483959 0 0.015371820547501023 -0.0016546499237835362 0 0.014280765901718019 -0.0017544134508543185 0 0.014698293183417062 -0.0013984677679483959 0 0.014160191726734075 -0.0012434075080226671 0 0.014763050696858054 -0.0019807582234226502 0 0.014280765901718019 -0.0017544134508543185 0 0.014698293183417062 -0.0013984677679483959 0 0.014698293183417062 -0.0013984677679483959 0 0.014160191726734075 -0.0012434075080226671 0 0.014474145766168756 -0.00087513956292990499 0 0.014698293183417062 -0.0013984677679483959 0 0.015118759922630842 -0.00091174924744305021 0 0.015371820547501023 -0.0016546499237835362 0 0.014698293183417062 -0.0013984677679483959 0 0.015118759922630842 -0.00091174924744305021 0 0.014474145766168756 -0.00087513956292990499 0 0.015118759922630842 -0.00091174924744305021 0 0.015651109793215327 -0.0011493619541757345 0 0.015371820547501023 -0.0016546499237835362 0 0.015118759922630842 -0.00091174924744305021 0 0.015651109793215327 -0.0011493619541757345 0 0.01591447199391785 -0.00065402093619578209 0 0.015651109793215327 -0.0011493619541757345 0 0.016205073157931595 -0.0014010493035175827 0 0.01591447199391785 -0.00065402093619578209 0 0.016198920316086076 -0.0013545509786661934 0 0.015970990175679677 -0.00058573953336887332 0 0.01688610126456843 -0.00039525452907260001 0 0.016205073157931595 -0.0014010493035175827 0 0.016014961815482013 -0.00047752100004465456 0 0.016743983950771011 -0.0023674578918250334 0 0.01586763246149267 -0.0019939467698160385 0 0.016205073157931595 -0.0014010493035175827 0 0.01586763246149267 -0.0019939467698160385 0 0.016205073157931595 -0.0014010493035175827 0 0.015371820547501023 -0.0016546499237835362 0 0.015651109793215327 -0.0011493619541757345 0 0.016205073157931595 -0.0014010493035175827 0 0.015371820547501023 -0.0016546499237835362 0 0.01586763246149267 -0.0019939467698160385 0 0.015396936701338119 -0.0021628196399214547 0 0.015371820547501023 -0.0016546499237835362 0 0.012433888512623262 -0.0019733284199972721 0 0.012997615508494228 -0.0020996217267466918 0 0.012685359067821268 -0.0014931745726636553 0 0.012267940820778115 -0.002370931158086436 0 0.012433888512623262 -0.0019733284199972721 0 0.012997615508494228 -0.0020996217267466918 0 0.012500552011363885 -0.0029200426583732616 0 0.012267940820778115 -0.002370931158086436 0 0.012997615508494228 -0.0020996217267466918 0 0.012320475392817713 -0.002774338238733074 0 0.012203367136885733 -0.0024406234421933339 0 0.012406517221762765 -0.0025604921246276625 0 0.012320475392817713 -0.002774338238733074 0 0.012599765130620017 -0.0027287597869415721 0 0.012406517221762765 -0.0025604921246276625 0 0.012203367136885733 -0.0024406234421933339 0 0.012406517221762765 -0.0025604921246276625 0 0.012503238528167255 -0.0022936991237514949 0 0.01258161076605608 -0.0022747107499214016 0 0.012987463661613151 -0.0014918089043219624 0 0.012203367136885733 -0.0024406234421933339 0 0.012503238528167255 -0.0022936991237514949 0 0.012393647808853912 -0.0018421743665246848 0 0.012997615508494228 -0.0020996217267466918 0 0.013355340631513953 -0.0012341844900228608 0 0.012685359067821268 -0.0014931745726636553 0 0.012853847091558648 -0.0023447534123589874 0 0.012987463661613151 -0.0014918089043219624 0 0.013195263063139447 -0.002370053859845604 0 0.013650996207643871 -0.0025506623116688448 0 0.013468825293237974 -0.0019349252158524131 0 0.013195263063139447 -0.002370053859845604 0 0.013468825293237974 -0.0019349252158524131 0 0.01303063942113545 -0.001684181076522953 0 0.012599765130620017 -0.0027287597869415721 0 0.012406517221762765 -0.0025604921246276625 0 0.012503238528167255 -0.0022936991237514949 0 0.012665256792676051 -0.0030849402671545216 0 0.012853847091558648 -0.0023447534123589874 0 0.013359970618996778 -0.0030330482419404729 0 0.013195263063139447 -0.002370053859845604 0 0.013650996207643871 -0.0025506623116688448 0 0.012665256792676051 -0.0030849402671545216 0 0.013685828768764785 -0.0024962001827505153 0 0.013332258795068525 -0.0030580906909259673 0 0.013650996207643871 -0.0025506623116688448 0 0.014031911355721297 -0.002936178333730746 0 0.013650996207643871 -0.0025506623116688448 0 0.014031911355721297 -0.002936178333730746 0 0.014067008616821839 -0.0024894892395304715 0 0.014298841650442201 -0.0022163337238964333 0 0.014067008616821839 -0.0024894892395304715 0 0.013905209877792001 -0.0021127546830662556 0 0.013650996207643871 -0.0025506623116688448 0 0.013905209877792001 -0.0021127546830662556 0 0.013468825293237974 -0.0019349252158524131 0 0.013650996207643871 -0.0025506623116688448 0 0.014067008616821839 -0.0024894892395304715 0 0.013905209877792001 -0.0021127546830662556 0 0.014298841650442201 -0.0022163337238964333 0 0.014280765901718019 -0.0017544134508543185 0 0.013905209877792001 -0.0021127546830662556 0 0.013905209877792001 -0.0021127546830662556 0 0.013836707500746991 -0.0015647577708266212 0 0.013468825293237974 -0.0019349252158524131 0 0.014280765901718019 -0.0017544134508543185 0 0.013905209877792001 -0.0021127546830662556 0 0.013836707500746991 -0.0015647577708266212 0 0.014280765901718019 -0.0017544134508543185 0 0.013836707500746991 -0.0015647577708266212 0 0.014160191726734075 -0.0012434075080226671 0 0.014160191726734075 -0.0012434075080226671 0 0.013987127222641555 -0.00078631842070842029 0 0.014474145766168756 -0.00087513956292990499 0 0.014160191726734075 -0.0012434075080226671 0 0.013680079621647962 -0.0010820378459902454 0 0.013987127222641555 -0.00078631842070842029 0 0.013836707500746991 -0.0015647577708266212 0 0.014160191726734075 -0.0012434075080226671 0 0.013680079621647962 -0.0010820378459902454 0 0.013265087265320961 -0.0010068340321259678 0 0.013450821919401324 -0.0014585223195227809 0 0.01303063942113545 -0.001684181076522953 0 0.013680079621647962 -0.0010820378459902454 0 0.013265087265320961 -0.0010068340321259678 0 0.013450821919401324 -0.0014585223195227809 0 0.013836707500746991 -0.0015647577708266212 0 0.013680079621647962 -0.0010820378459902454 0 0.013450821919401324 -0.0014585223195227809 0 0.013450821919401324 -0.0014585223195227809 0 0.013468825293237974 -0.0019349252158524131 0 0.01303063942113545 -0.001684181076522953 0 0.013836707500746991 -0.0015647577708266212 0 0.013450821919401324 -0.0014585223195227809 0 0.013468825293237974 -0.0019349252158524131 0 0.013355340631513953 -0.0012341844900228608 0 0.013246537800671374 -0.00083319871209777761 0 0.012932282616438702 -0.0010810661544907033 0 0.012987463661613151 -0.0014918089043219624 0 0.013194280340734046 -0.00084697912452245732 0 0.013456293678694555 -0.00069804815786175139 0 0.013323029876403771 -0.0011344969461699315 0 0.013246537800671374 -0.00083319871209777761 0 0.013246537800671374 -0.00083319871209777761 0 0.012935627513614607 -0.00067568660403148964 0 0.013263936114181521 -0.0005606423925441417 0 0.013378546259647395 -0.00083425144103131698 0 0.012987463661613151 -0.0014918089043219624 0 0.013456293678694555 -0.00069804815786175139 0 0.013246537800671374 -0.00083319871209777761 0 0.013263936114181521 -0.0005606423925441417 0 0.013246537800671374 -0.00083319871209777761 0 0.012935627513614607 -0.00067568660403148964 0 0.012932282616438702 -0.0010810661544907033 0 0.012248525862645231 -0.0010355390591833009 0 0.012935627513614607 -0.00067568660403148964 0 0.012932282616438702 -0.0010810661544907033 0 0.013355340631513953 -0.0012341844900228608 0 0.012685359067821268 -0.0014931745726636553 0 0.012932282616438702 -0.0010810661544907033 0 0.012248525862645231 -0.0010355390591833009 0 0.012685359067821268 -0.0014931745726636553 0 0.012932282616438702 -0.0010810661544907033 0 0.012883358625143735 -0.0003901904799050371 0 0.012990269550713768 -2.2557722407473225e-05 0 0.013119532082690847 -0.00032129799023529725 0 0.012883358625143735 -0.0003901904799050371 0 0.012935627513614607 -0.00067568660403148964 0 0.013119532082690847 -0.00032129799023529725 0 0.013119532082690847 -0.00032129799023529725 0 0.013263936114181521 -0.0005606423925441417 0 0.013600753111694485 -0.00025747086218604151 0 0.012935627513614607 -0.00067568660403148964 0 0.013119532082690847 -0.00032129799023529725 0 0.013263936114181521 -0.0005606423925441417 0 0.012990269550713768 -2.2557722407473225e-05 0 0.013119532082690847 -0.00032129799023529725 0 0.01336562981294203 4.1897226782428451e-05 0 0.013119532082690847 -0.00032129799023529725 0 0.01336562981294203 4.1897226782428451e-05 0 0.013600753111694485 -0.00025747086218604151 0 0.013563645876750069 -0.00029296405428091786 0 0.013761570409095975 0.00025226646376866791 0 0.01336562981294203 4.1897226782428451e-05 0 0.013600753111694485 -0.00025747086218604151 0 0.013787088977855673 0.00030228064438455005 0 0.013378546259647395 -0.00083425144103131698 0 0.013563645876750069 -0.00029296405428091786 0 0.013680079621647962 -0.0010820378459902454 0 0.013265087265320961 -0.0010068340321259678 0 0.013521371502906521 -0.00033623168346523795 0 0.013680079621647962 -0.0010820378459902454 0 0.013521371502906521 -0.00033623168346523795 0 0.013987127222641555 -0.00078631842070842029 0 0.013456293678694555 -0.00069804815786175139 0 0.013263936114181521 -0.0005606423925441417 0 0.013600753111694485 -0.00025747086218604151 0 0.013987127222641555 -0.00078631842070842029 0 0.014111478018405085 -0.00030873850123742919 0 0.014474145766168756 -0.00087513956292990499 0 0.013521371502906521 -0.00033623168346523795 0 0.013987127222641555 -0.00078631842070842029 0 0.014111478018405085 -0.00030873850123742919 0 0.014111478018405085 -0.00030873850123742919 0 0.013787088977855673 0.00030228064438455005 0 0.014331582794193521 0.00018249311343919092 0 0.013521371502906521 -0.00033623168346523795 0 0.014111478018405085 -0.00030873850123742919 0 0.013787088977855673 0.00030228064438455005 0 0.014125677187440842 0.00054772910159142836 0 0.013787088977855673 0.00030228064438455005 0 0.014331582794193521 0.00018249311343919092 0 0.014125677187440842 0.00054772910159142836 0 0.013826508598518965 0.00065156050808305266 0 0.013787088977855673 0.00030228064438455005 0 0.014125677187440842 0.00054772910159142836 0 0.014331582794193521 0.00018249311343919092 0 0.014481284863841575 0.00064906104786057557 0 0.014125677187440842 0.00054772910159142836 0 0.014088618635772994 0.00087871842860845375 0 0.014481284863841575 0.00064906104786057557 0 0.014088618635772994 0.00087871842860845375 0 0.014481284863841575 0.00064906104786057557 0 0.014379814371373445 0.00110005805233628 0 0.014088618635772994 0.00087871842860845375 0 0.014379814371373445 0.00110005805233628 0 0.014095246471376947 0.001126027092874983 0 0.014088618635772994 0.00087871842860845375 0 0.01377295912269734 0.00087471588081347508 0 0.013892087188839842 0.0011252123090287577 0 0.014088618635772994 0.00087871842860845375 0 0.014095246471376947 0.001126027092874983 0 0.013892087188839842 0.0011252123090287577 0 0.014125677187440842 0.00054772910159142836 0 0.014088618635772994 0.00087871842860845375 0 0.013826508598518965 0.00065156050808305266 0 0.014088618635772994 0.00087871842860845375 0 0.013826508598518965 0.00065156050808305266 0 0.01377295912269734 0.00087471588081347508 0 0.013826508598518965 0.00065156050808305266 0 0.01377295912269734 0.00087471588081347508 0 0.013316424049063726 0.00052985432116977487 0 0.012560418915933633 -8.0262486553477207e-05 0 0.015011428506647263 -0.00032193208794031034 0 0.01377295912269734 0.00087471588081347508 0 0.013316424049063726 0.00052985432116977487 0 0.013766548953433565 0.0011219343643856289 0 0.01377295912269734 0.00087471588081347508 0 0.013766548953433565 0.0011219343643856289 0 0.013892087188839842 0.0011252123090287577 0 0.013826508598518965 0.00065156050808305266 0 0.013787088977855673 0.00030228064438455005 0 0.013316424049063726 0.00052985432116977487 0 0.01336562981294203 4.1897226782428451e-05 0 0.013787088977855673 0.00030228064438455005 0 0.013316424049063726 0.00052985432116977487 0 0.013042811049331464 5.1881857087671763e-05 0 0.012560418915933633 -8.0262486553477207e-05 0 0.012990269550713768 -2.2557722407473225e-05 0 0.01233359679832554 -0.00050650557815460425 0 0.012943374559757534 -0.00045515391255374527 0 0.012990269550713768 -2.2557722407473225e-05 0 0.01336562981294203 4.1897226782428451e-05 0 0.013316424049063726 0.00052985432116977487 0 0.01233359679832554 -0.00050650557815460425 0 0.012943374559757534 -0.00045515391255374527 0 0.012601660095612463 -0.0011106163233912515 0 0.01233359679832554 -0.00050650557815460425 0 0.012601660095612463 -0.0011106163233912515 0 0.011917917210145318 -0.001009968341979247 0 0.013325006348653377 -0.00076076619344475724 0 0.013740778134195351 -0.0016548895182502763 0 0.012601660095612463 -0.0011106163233912515 0 0.013325006348653377 -0.00076076619344475724 0 0.012943374559757534 -0.00045515391255374527 0 0.012601660095612463 -0.0011106163233912515 0 0.013411921461687832 6.9986669241494176e-05 0 0.012990269550713768 -2.2557722407473225e-05 0 0.012943374559757534 -0.00045515391255374527 0 0.015694424211418558 0.00011805420706169158 0 0.01591447199391785 -0.00065402093619578209 0 0.015213821826529273 -0.00030778720964554931 0 0.015740611968025051 0.00021877647772997047 0 0.015970990175679677 -0.00058573953336887332 0 0.016602813692105648 0.00025143171461659283 0 0.015803404212592315 0.00028650065306151028 0 0.016014961815482013 -0.00047752100004465456 0 0.015118759922630842 -0.00091174924744305021 0 0.01591447199391785 -0.00065402093619578209 0 0.015213821826529273 -0.00030778720964554931 0 0.015118759922630842 -0.00091174924744305021 0 0.014581844496325908 -0.00037228579753145101 0 0.015213821826529273 -0.00030778720964554931 0 0.015118759922630842 -0.00091174924744305021 0 0.014474145766168756 -0.00087513956292990499 0 0.014581844496325908 -0.00037228579753145101 0 0.014111478018405085 -0.00030873850123742919 0 0.014474145766168756 -0.00087513956292990499 0 0.014581844496325908 -0.00037228579753145101 0 0.014111478018405085 -0.00030873850123742919 0 0.014581844496325908 -0.00037228579753145101 0 0.014331582794193521 0.00018249311343919092 0 0.014581844496325908 -0.00037228579753145101 0 0.014946320263677716 0.0002937464257829188 0 0.014331582794193521 0.00018249311343919092 0 0.014581844496325908 -0.00037228579753145101 0 0.015213821826529273 -0.00030778720964554931 0 0.014946320263677716 0.0002937464257829188 0 0.015694424211418558 0.00011805420706169158 0 0.015213821826529273 -0.00030778720964554931 0 0.014946320263677716 0.0002937464257829188 0 0.014946320263677716 0.0002937464257829188 0 0.014481284863841575 0.00064906104786057557 0 0.014914113709166874 0.0009271223454767485 0 0.014946320263677716 0.0002937464257829188 0 0.014331582794193521 0.00018249311343919092 0 0.014481284863841575 0.00064906104786057557 0 0.014481284863841575 0.00064906104786057557 0 0.014379814371373445 0.00110005805233628 0 0.014914113709166874 0.0009271223454767485 0 0.014379814371373445 0.00110005805233628 0 0.014914113709166874 0.0009271223454767485 0 0.01496101147361663 0.001454303864021437 0 0.014946320263677716 0.0002937464257829188 0 0.014914113709166874 0.0009271223454767485 0 0.015503798274889362 0.00096400025979130404 0 0.014914113709166874 0.0009271223454767485 0 0.015503798274889362 0.00096400025979130404 0 0.01496101147361663 0.001454303864021437 0 0.015503798274889362 0.00096400025979130404 0 0.016325646609061713 0.00089766391481665075 0 0.015947267325363265 0.0014989793366507074 0 0.015803404212592315 0.00028650065306151028 0 0.015503798274889362 0.00096400025979130404 0 0.016325646609061713 0.00089766391481665075 0 0.015694424211418558 0.00011805420706169158 0 0.014946320263677716 0.0002937464257829188 0 0.015503798274889362 0.00096400025979130404 0 0.015740611968025051 0.00021877647772997047 0 0.015514009062736162 0.0009244409701004879 0 0.016602813692105648 0.00025143171461659283 0 0.015803404212592315 0.00028650065306151028 0 0.016325646609061713 0.00089766391481665075 0 0.016325646609061713 0.00089766391481665075 0 0.015947267325363265 0.0014989793366507074 0 0.016879846192586177 0.0015068112755116476 0 0.017983932518832724 0.00028720862533757562 0 0.018649510085605305 9.5386031388577502e-06 0 0.020027741161028029 -0.00091630063122282465 0 0.01999374025807546 -0.00095500057506713834 0 0.020047197903432158 -0.00092187730939720597 0 0.020018447452143609 -0.00089273111852436081 0 0.020010523764335889 -0.00080379635957106852 0 0.020046635410910257 -0.00089434668459575949 0 0.020027741161028029 -0.00091630063122282465 0 0.020018447452143609 -0.00089273111852436081 0 0.01999374025807546 -0.00095500057506713834 0 0.020027741161028029 -0.00091630063122282465 0 0.020018447452143609 -0.00089273111852436081 0 0.020046635410910257 -0.00089434668459575949 0 0.020018447452143609 -0.00089273111852436081 0 0.019975698320353574 -0.00096156934915367332 0 0.020023758236204323 -0.0008914949375737857 0 0.020018447452143609 -0.00089273111852436081 0 0.019975698320353574 -0.00096156934915367332 0 0.01999374025807546 -0.00095500057506713834 0 0.019975698320353574 -0.00096156934915367332 0 0.01999374025807546 -0.00095500057506713834 0 0.019924304265504626 -0.0010104675170050713 0 0.017983932518832724 0.00028720862533757562 0 0.017188069255973989 0.00037011637953488353 0 0.015503798274889362 0.00096400025979130404 0 0.015947267325363265 0.0014989793366507074 0 0.01496101147361663 0.001454303864021437 0 0.014379814371373445 0.00110005805233628 0 0.01496101147361663 0.001454303864021437 0 0.014021238019509222 0.0013986033540177929 0 0.019924304265504626 -0.0010104675170050713 0 0.019933552492164698 -0.001056968130259282 0 0.019911844588564421 -0.0010263864197467872 0 0.017188069255973989 0.00037011637953488353 0 0.018138203855111893 -0.00094211274883847901 0 0.019975698320353574 -0.00096156934915367332 0 0.019924304265504626 -0.0010104675170050713 0 0.019933552492164698 -0.001056968130259282 0 0.019975698320353574 -0.00096156934915367332 0 0.019933552492164698 -0.001056968130259282 0 0.020023758236204323 -0.0008914949375737857 0 0.019983279570218164 -0.00087651537765192429 0 0.020060578112160662 -0.00081244180028282288 0 0.020023758236204323 -0.0008914949375737857 0 0.019933552492164698 -0.001056968130259282 0 0.019983279570218164 -0.00087651537765192429 0 0.020023758236204323 -0.0008914949375737857 0 0.019933552492164698 -0.001056968130259282 0 0.019983279570218164 -0.00087651537765192429 0 0.019758524453109674 -0.00084548277421183748 0 0.019758524453109674 -0.00084548277421183748 0 0.019820674741428953 -0.00064944306302062733 0 0.019982691804475428 -0.00071334250044541975 0 0.019983279570218164 -0.00087651537765192429 0 0.019758524453109674 -0.00084548277421183748 0 0.019982691804475428 -0.00071334250044541975 0 0.020060578112160662 -0.00081244180028282288 0 0.020103496977173417 -0.0007113762464136602 0 0.019982691804475428 -0.00071334250044541975 0 0.019983279570218164 -0.00087651537765192429 0 0.020060578112160662 -0.00081244180028282288 0 0.019982691804475428 -0.00071334250044541975 0 0.020060578112160662 -0.00081244180028282288 0 0.020097383024584251 -0.00079125875255991107 0 0.020052307041501103 -0.00083601763259956365 0 0.020060578112160662 -0.00081244180028282288 0 0.020097383024584251 -0.00079125875255991107 0 0.020103496977173417 -0.0007113762464136602 0 0.020097383024584251 -0.00079125875255991107 0 0.020010523764335889 -0.00080379635957106852 0 0.020048240211652708 -0.00080575041601805425 0 0.020097383024584251 -0.00079125875255991107 0 0.020052307041501103 -0.00083601763259956365 0 0.020010523764335889 -0.00080379635957106852 0 0.020018447452143609 -0.00089273111852436081 0 0.020052307041501103 -0.00083601763259956365 0 0.020010523764335889 -0.00080379635957106852 0 0.020018447452143609 -0.00089273111852436081 0 0.020052307041501103 -0.00083601763259956365 0 0.020023758236204323 -0.0008914949375737857 0 0.020060578112160662 -0.00081244180028282288 0 0.020052307041501103 -0.00083601763259956365 0 0.020023758236204323 -0.0008914949375737857 0 0.018736957421271242 -0.0015674363705446954 0 0.018988863719519744 -0.0013684188309449048 0 0.018569012432866041 -0.0012336452574009825 0 0.018736957421271242 -0.0015674363705446954 0 0.018444185527352684 -0.0016361830623514166 0 0.018569012432866041 -0.0012336452574009825 0 0.018092744701815204 -0.0014690633163465488 0 0.018444185527352684 -0.0016361830623514166 0 0.018569012432866041 -0.0012336452574009825 0 0.018736957421271242 -0.0015674363705446954 0 0.018444185527352684 -0.0016361830623514166 0 0.018681187062344545 -0.0017943593616085987 0 0.018046133041755005 -0.002141633379723791 0 0.018681187062344545 -0.0017943593616085987 0 0.018832919225302298 -0.0019961327243855301 0 0.018046133041755005 -0.002141633379723791 0 0.018444185527352684 -0.0016361830623514166 0 0.018681187062344545 -0.0017943593616085987 0 0.015921835748722541 -0.0018524990971481821 0 0.01582036359595038 -0.0017124369420985174 0 0.018832919225302298 -0.0019961327243855301 0 0.018916936183940875 -0.0018558455801014153 0 0.019028626239903184 -0.0018905846413914912 0 0.018681187062344545 -0.0017943593616085987 0 0.018916936183940875 -0.0018558455801014153 0 0.018958111031268651 -0.0016037465762456394 0 0.018681187062344545 -0.0017943593616085987 0 0.018832919225302298 -0.0019961327243855301 0 0.018916936183940875 -0.0018558455801014153 0 0.018916936183940875 -0.0018558455801014153 0 0.018958111031268651 -0.0016037465762456394 0 0.01918331073198987 -0.0015326144552355123 0 0.018958111031268651 -0.0016037465762456394 0 0.018988863719519744 -0.0013684188309449048 0 0.01918331073198987 -0.0015326144552355123 0 0.018736957421271242 -0.0015674363705446954 0 0.018681187062344545 -0.0017943593616085987 0 0.018958111031268651 -0.0016037465762456394 0 0.018736957421271242 -0.0015674363705446954 0 0.018958111031268651 -0.0016037465762456394 0 0.018988863719519744 -0.0013684188309449048 0 0.019446808154131918 -0.0014371115691114939 0 0.01918331073198987 -0.0015326144552355123 0 0.019642611942421152 -0.001716360267798965 0 0.018988863719519744 -0.0013684188309449048 0 0.019346163526466249 -0.0012377008214464636 0 0.01918331073198987 -0.0015326144552355123 0 0.019346163526466249 -0.0012377008214464636 0 0.019446808154131918 -0.0014371115691114939 0 0.01918331073198987 -0.0015326144552355123 0 0.019346163526466249 -0.0012377008214464636 0 0.019446808154131918 -0.0014371115691114939 0 0.019622834408419169 -0.0012928167204397112 0 0.018916936183940875 -0.0018558455801014153 0 0.01918331073198987 -0.0015326144552355123 0 0.019642611942421152 -0.001716360267798965 0 0.01582036359595038 -0.0017124369420985174 0 0.015011428506647263 -0.00032193208794031034 0 0.019455105242226291 -0.002065707562856625 0 0.018138203855111893 -0.00094211274883847901 0 0.018916936183940875 -0.0018558455801014153 0 0.019028626239903184 -0.0018905846413914912 0 0.019062338271966291 -0.0018439055630194864 0 0.015011428506647263 -0.00032193208794031034 0 0.014551489284583614 -0.00013745900912701882 0 0.014021238019509222 0.0013986033540177929 0 0.014095246471376947 0.001126027092874983 0 0.013892087188839842 0.0011252123090287577 0 0.013775075204147304 0.0011262352784896406 0 0.014021238019509222 0.0013986033540177929 0 0.013892087188839842 0.0011252123090287577 0 0.015011428506647263 -0.00032193208794031034 0 0.018138203855111893 -0.00094211274883847901 0 0.014379814371373445 0.00110005805233628 0 0.014021238019509222 0.0013986033540177929 0 0.014095246471376947 0.001126027092874983 0 0.019446808154131918 -0.0014371115691114939 0 0.019642611942421152 -0.001716360267798965 0 0.019622834408419169 -0.0012928167204397112 0 0.019933552492164698 -0.001056968130259282 0 0.019622834408419169 -0.0012928167204397112 0 0.019600093082850479 -0.0010554788568870629 0 0.019933552492164698 -0.001056968130259282 0 0.019642611942421152 -0.001716360267798965 0 0.019622834408419169 -0.0012928167204397112 0 0.020457215912864746 -0.0011112941594605859 0 0.018138203855111893 -0.00094211274883847901 0 0.019600093082850479 -0.0010554788568870629 0 0.019758524453109674 -0.00084548277421183748 0 0.019433784776826737 -0.00090397192868079464 0 0.019933552492164698 -0.001056968130259282 0 0.019600093082850479 -0.0010554788568870629 0 0.019758524453109674 -0.00084548277421183748 0 0.019758524453109674 -0.00084548277421183748 0 0.019433784776826737 -0.00090397192868079464 0 0.019624528065929455 -0.00054606289877266224 0 0.019433784776826737 -0.00090397192868079464 0 0.019237325884600229 -0.0006566346673140866 0 0.019624528065929455 -0.00054606289877266224 0 0.019346163526466249 -0.0012377008214464636 0 0.019433784776826737 -0.00090397192868079464 0 0.0190662920296354 -0.00103241381317645 0 0.019346163526466249 -0.0012377008214464636 0 0.019600093082850479 -0.0010554788568870629 0 0.019433784776826737 -0.00090397192868079464 0 0.019346163526466249 -0.0012377008214464636 0 0.019622834408419169 -0.0012928167204397112 0 0.019600093082850479 -0.0010554788568870629 0 0.018988863719519744 -0.0013684188309449048 0 0.0190662920296354 -0.00103241381317645 0 0.018569012432866041 -0.0012336452574009825 0 0.018988863719519744 -0.0013684188309449048 0 0.019346163526466249 -0.0012377008214464636 0 0.0190662920296354 -0.00103241381317645 0 0.0190662920296354 -0.00103241381317645 0 0.019237325884600229 -0.0006566346673140866 0 0.018775761662205209 -0.00081996163594609311 0 0.019433784776826737 -0.00090397192868079464 0 0.0190662920296354 -0.00103241381317645 0 0.019237325884600229 -0.0006566346673140866 0 0.019237325884600229 -0.0006566346673140866 0 0.018775761662205209 -0.00081996163594609311 0 0.018845406145834097 -0.00052074171425168852 0 0.018464952146026357 -0.00064640838492793654 0 0.018775761662205209 -0.00081996163594609311 0 0.018845406145834097 -0.00052074171425168852 0 0.018369403599512332 -0.00089412831273293135 0 0.018464952146026357 -0.00064640838492793654 0 0.018775761662205209 -0.00081996163594609311 0 0.018369403599512332 -0.00089412831273293135 0 0.018775761662205209 -0.00081996163594609311 0 0.018569012432866041 -0.0012336452574009825 0 0.0190662920296354 -0.00103241381317645 0 0.018775761662205209 -0.00081996163594609311 0 0.018569012432866041 -0.0012336452574009825 0 0.018676978379077037 8.6685046821888798e-06 0 0.018493758255468919 -0.00037986940207301336 0 0.018867192478115191 -0.00027835469276687964 0 0.018676978379077037 8.6685046821888798e-06 0 0.019188608799255498 -0.00016722928228403425 0 0.018867192478115191 -0.00027835469276687964 0 0.019188608799255498 -0.00016722928228403425 0 0.018867192478115191 -0.00027835469276687964 0 0.019180512498899124 -0.00034673663215022132 0 0.018493758255468919 -0.00037986940207301336 0 0.018867192478115191 -0.00027835469276687964 0 0.018845406145834097 -0.00052074171425168852 0 0.018493758255468919 -0.00037986940207301336 0 0.018464952146026357 -0.00064640838492793654 0 0.018845406145834097 -0.00052074171425168852 0 0.018867192478115191 -0.00027835469276687964 0 0.018845406145834097 -0.00052074171425168852 0 0.019180512498899124 -0.00034673663215022132 0 0.019237325884600229 -0.0006566346673140866 0 0.019180512498899124 -0.00034673663215022132 0 0.0194358274493324 -0.00039643354002447974 0 0.019237325884600229 -0.0006566346673140866 0 0.018845406145834097 -0.00052074171425168852 0 0.019180512498899124 -0.00034673663215022132 0 0.019180512498899124 -0.00034673663215022132 0 0.019424613534960378 -0.00017972912012640202 0 0.0194358274493324 -0.00039643354002447974 0 0.019188608799255498 -0.00016722928228403425 0 0.019180512498899124 -0.00034673663215022132 0 0.019424613534960378 -0.00017972912012640202 0 0.019593657539322053 -0.00027454968838443199 0 0.0194358274493324 -0.00039643354002447974 0 0.019624528065929455 -0.00054606289877266224 0 0.019424613534960378 -0.00017972912012640202 0 0.019593657539322053 -0.00027454968838443199 0 0.0194358274493324 -0.00039643354002447974 0 0.019237325884600229 -0.0006566346673140866 0 0.0194358274493324 -0.00039643354002447974 0 0.019624528065929455 -0.00054606289877266224 0 0.019758524453109674 -0.00084548277421183748 0 0.019624528065929455 -0.00054606289877266224 0 0.019820674741428953 -0.00064944306302062733 0 0.019624528065929455 -0.00054606289877266224 0 0.019820674741428953 -0.00064944306302062733 0 0.01990167040529393 -0.00048937146112998332 0 0.019593657539322053 -0.00027454968838443199 0 0.019624528065929455 -0.00054606289877266224 0 0.019824078843029124 -0.00032245266519067813 0 0.019624528065929455 -0.00054606289877266224 0 0.019824078843029124 -0.00032245266519067813 0 0.01990167040529393 -0.00048937146112998332 0 0.019593657539322053 -0.00027454968838443199 0 0.019824078843029124 -0.00032245266519067813 0 0.019890448638190211 -0.00018980912960176667 0 0.019824078843029124 -0.00032245266519067813 0 0.019890448638190211 -0.00018980912960176667 0 0.02007211618717181 -0.00029795393458164883 0 0.019890448638190211 -0.00018980912960176667 0 0.019517923005476917 -5.9329535871151151e-05 0 0.02043465294064346 0.0001201121355783809 0 0.021200534199351848 7.9760394366408936e-05 0 0.020483622572334659 0.00013076152456437308 0 0.021778223322165401 -0.00035094702457716756 0 0.022918806372518488 0.00033721237701973936 0 0.02043465294064346 0.0001201121355783809 0 0.019890448638190211 -0.00018980912960176667 0 0.019517923005476917 -5.9329535871151151e-05 0 0.019480791241708664 -0.00010176378379084461 0 0.019593657539322053 -0.00027454968838443199 0 0.019890448638190211 -0.00018980912960176667 0 0.019480791241708664 -0.00010176378379084461 0 0.019424613534960378 -0.00017972912012640202 0 0.019593657539322053 -0.00027454968838443199 0 0.019480791241708664 -0.00010176378379084461 0 0.019480791241708664 -0.00010176378379084461 0 0.019606041028557165 -3.7750860789505053e-05 0 0.019914062998037458 -0.00065857085139535171 0 0.019424613534960378 -0.00017972912012640202 0 0.019480791241708664 -0.00010176378379084461 0 0.019606041028557165 -3.7750860789505053e-05 0 0.019188608799255498 -0.00016722928228403425 0 0.019424613534960378 -0.00017972912012640202 0 0.019606041028557165 -3.7750860789505053e-05 0 0.023591476802145798 -0.00028291555718262882 0 0.022918806372518488 0.00033721237701973936 0 0.023739595924085363 -0.00034355434106108734 0 0.021200534199351848 7.9760394366408936e-05 0 0.021848379622670583 -0.00045644504105172629 0 0.019517923005476917 -5.9329535871151151e-05 0 0.019480791241708664 -0.00010176378379084461 0 0.019914062998037458 -0.00065857085139535171 0 0.023591476802145798 -0.00028291555718262882 0 0.023661469613820554 -0.0003628314426450141 0 0.023739595924085363 -0.00034355434106108734 0 0.022819967591936437 -0.00060090738338500085 0 0.021848379622670583 -0.00045644504105172629 0 0.023388997867244066 -0.00044430147712411591 0 0.023661469613820554 -0.0003628314426450141 0 0.023739595924085363 -0.00034355434106108734 0 0.020232724049509754 0.00057048698492295335 0 0.019527940427325578 -2.2840677698590362e-05 0 0.021761477034525158 -9.1072952516039552e-05 0 0.019914062998037458 -0.00065857085139535171 0 0.020893526363120359 6.0055623238983168e-05 0 0.021492931409282334 0.00096476572515709032 0 0.019606041028557165 -3.7750860789505053e-05 0 0.020893526363120359 6.0055623238983168e-05 0 0.018676978379077037 8.6685046821888798e-06 0 0.019188608799255498 -0.00016722928228403425 0 0.019606041028557165 -3.7750860789505053e-05 0 0.019606041028557165 -3.7750860789505053e-05 0 0.019914062998037458 -0.00065857085139535171 0 0.020893526363120359 6.0055623238983168e-05 0 0.021608152449435165 0.0003102955348293248 0 0.021492931409282334 0.00096476572515709032 0 0.020893526363120359 6.0055623238983168e-05 0 0.020186567996927137 -0.0005880528077418615 0 0.02014206514569182 -0.0006220248268451389 0 0.020146994481613414 -0.00048809466925292517 0 0.020186567996927137 -0.0005880528077418615 0 0.020146994481613414 -0.00048809466925292517 0 0.020194927317606255 -0.00039797565232092765 0 0.020186567996927137 -0.0005880528077418615 0 0.020160197960670992 -0.00073526037826205553 0 0.02014206514569182 -0.0006220248268451389 0 0.020186567996927137 -0.0005880528077418615 0 0.020160197960670992 -0.00073526037826205553 0 0.020274699945645892 -0.00072923131008522778 0 0.020186567996927137 -0.0005880528077418615 0 0.020201428063035813 -0.00034204883775387594 0 0.020274699945645892 -0.00072923131008522778 0 0.020097383024584251 -0.00079125875255991107 0 0.020160197960670992 -0.00073526037826205553 0 0.020048240211652708 -0.00080575041601805425 0 0.020160197960670992 -0.00073526037826205553 0 0.020274699945645892 -0.00072923131008522778 0 0.020137957924078267 -0.00078066682184304008 0 0.020097383024584251 -0.00079125875255991107 0 0.020160197960670992 -0.00073526037826205553 0 0.020103496977173417 -0.0007113762464136602 0 0.020103496977173417 -0.0007113762464136602 0 0.02014206514569182 -0.0006220248268451389 0 0.020068662123584203 -0.0005754930116209175 0 0.020160197960670992 -0.00073526037826205553 0 0.020103496977173417 -0.0007113762464136602 0 0.02014206514569182 -0.0006220248268451389 0 0.020103496977173417 -0.0007113762464136602 0 0.020068662123584203 -0.0005754930116209175 0 0.019982691804475428 -0.00071334250044541975 0 0.019820674741428953 -0.00064944306302062733 0 0.019982691804475428 -0.00071334250044541975 0 0.01990167040529393 -0.00048937146112998332 0 0.020068662123584203 -0.0005754930116209175 0 0.019982691804475428 -0.00071334250044541975 0 0.01990167040529393 -0.00048937146112998332 0 0.020068662123584203 -0.0005754930116209175 0 0.01990167040529393 -0.00048937146112998332 0 0.020087516488552885 -0.0004325730597473696 0 0.01990167040529393 -0.00048937146112998332 0 0.020087516488552885 -0.0004325730597473696 0 0.02007211618717181 -0.00029795393458164883 0 0.019824078843029124 -0.00032245266519067813 0 0.01990167040529393 -0.00048937146112998332 0 0.02007211618717181 -0.00029795393458164883 0 0.02014206514569182 -0.0006220248268451389 0 0.020068662123584203 -0.0005754930116209175 0 0.020146994481613414 -0.00048809466925292517 0 0.020068662123584203 -0.0005754930116209175 0 0.020087516488552885 -0.0004325730597473696 0 0.020146994481613414 -0.00048809466925292517 0 0.020087516488552885 -0.0004325730597473696 0 0.020146994481613414 -0.00048809466925292517 0 0.020186939538305335 -0.00034496972050686699 0 0.020186939538305335 -0.00034496972050686699 0 0.020284105785212496 -0.00030382077195296282 0 0.020194927317606255 -0.00039797565232092765 0 0.020146994481613414 -0.00048809466925292517 0 0.020186939538305335 -0.00034496972050686699 0 0.020194927317606255 -0.00039797565232092765 0 0.020087516488552885 -0.0004325730597473696 0 0.020186939538305335 -0.00034496972050686699 0 0.02007211618717181 -0.00029795393458164883 0 0.020186939538305335 -0.00034496972050686699 0 0.02007211618717181 -0.00029795393458164883 0 0.020228018311104837 -0.00013969963372195227 0 0.020186939538305335 -0.00034496972050686699 0 0.020228018311104837 -0.00013969963372195227 0 0.020284105785212496 -0.00030382077195296282 0 0.02007211618717181 -0.00029795393458164883 0 0.020184320032400838 -0.00013444218211081785 0 0.020228018311104837 -0.00013969963372195227 0 0.019890448638190211 -0.00018980912960176667 0 0.02007211618717181 -0.00029795393458164883 0 0.020184320032400838 -0.00013444218211081785 0 0.019890448638190211 -0.00018980912960176667 0 0.020184320032400838 -0.00013444218211081785 0 0.02043465294064346 0.0001201121355783809 0 0.020184320032400838 -0.00013444218211081785 0 0.02043465294064346 0.0001201121355783809 0 0.020228018311104837 -0.00013969963372195227 0 0.020191749814488649 -5.4873872085297099e-05 0 0.02043465294064346 0.0001201121355783809 0 0.020228018311104837 -0.00013969963372195227 0 0.020572662678765934 -0.00048347327283236965 0 0.020389102320475617 -0.00043249393859812657 0 0.020284105785212496 -0.00030382077195296282 0 0.020092969980289466 -0.00016696050817133421 0 0.02038805046445891 -0.00035698435207545096 0 0.020191749814488649 -5.4873872085297099e-05 0 0.020228018311104837 -0.00013969963372195227 0 0.020284105785212496 -0.00030382077195296282 0 0.020389102320475617 -0.00043249393859812657 0 0.020284105785212496 -0.00030382077195296282 0 0.020201428063035813 -0.00034204883775387594 0 0.021505574161277251 -0.0018703388299434992 0 0.021104028817777173 -0.0011210361544626325 0 0.020827191417301407 -0.0016590547332002935 0 0.020826424945123576 -0.0011484768969568834 0 0.020750707500095153 -0.00079119834437466692 0 0.02171927660960871 -0.0025954822113114541 0 0.021505574161277251 -0.0018703388299434992 0 0.020827191417301407 -0.0016590547332002935 0 0.022278655673479992 -0.0019603101298730032 0 0.021505574161277251 -0.0018703388299434992 0 0.021104028817777173 -0.0011210361544626325 0 0.022017701754463746 -0.0023108083515104268 0 0.022278655673479992 -0.0019603101298730032 0 0.021505574161277251 -0.0018703388299434992 0 0.020284105785212496 -0.00030382077195296282 0 0.020201428063035813 -0.00034204883775387594 0 0.020194927317606255 -0.00039797565232092765 0 0.020186567996927137 -0.0005880528077418615 0 0.020201428063035813 -0.00034204883775387594 0 0.020194927317606255 -0.00039797565232092765 0 0.021104028817777173 -0.0011210361544626325 0 0.020827191417301407 -0.0016590547332002935 0 0.020268646528005224 -0.0010259971884029788 0 0.021104028817777173 -0.0011210361544626325 0 0.020268646528005224 -0.0010259971884029788 0 0.020274699945645892 -0.00072923131008522778 0 0.020137052556998904 -0.0013020239867996301 0 0.020598692533050331 -0.0011998740809870928 0 0.020750707500095153 -0.00079119834437466692 0 0.020279023308916906 -0.000681688176847846 0 0.020706929946430645 -0.0017278476612135392 0 0.021016232468103635 -0.0013173285705142055 0 0.0203999101590688 -0.0012822864177860546 0 0.026653146375650437 -0.0013178912710549013 0 0.026251985095249189 -0.00093010358682041523 0 0.020706929946430645 -0.0017278476612135392 0 0.0203999101590688 -0.0012822864177860546 0 0.020073750058903016 -0.0013102894496634339 0 0.021016232468103635 -0.0013173285705142055 0 0.0203999101590688 -0.0012822864177860546 0 0.020268646528005224 -0.0010259971884029788 0 0.0203999101590688 -0.0012822864177860546 0 0.020073750058903016 -0.0013102894496634339 0 0.020138100455951484 -0.0010958022554076342 0 0.020073750058903016 -0.0013102894496634339 0 0.020138100455951484 -0.0010958022554076342 0 0.019986335365185046 -0.0010524162513702697 0 0.020138100455951484 -0.0010958022554076342 0 0.020026473039807511 -0.00099332508117988788 0 0.020119241365420121 -0.0009090516936268797 0 0.020138100455951484 -0.0010958022554076342 0 0.020026473039807511 -0.00099332508117988788 0 0.019986335365185046 -0.0010524162513702697 0 0.020026473039807511 -0.00099332508117988788 0 0.019946799814149915 -0.0009956845173129808 0 0.019986335365185046 -0.0010524162513702697 0 0.0203999101590688 -0.0012822864177860546 0 0.020138100455951484 -0.0010958022554076342 0 0.020268646528005224 -0.0010259971884029788 0 0.020138100455951484 -0.0010958022554076342 0 0.020268646528005224 -0.0010259971884029788 0 0.020119241365420121 -0.0009090516936268797 0 0.020274699945645892 -0.00072923131008522778 0 0.02007984281507089 -0.0008307880458569794 0 0.020137957924078267 -0.00078066682184304008 0 0.020274699945645892 -0.00072923131008522778 0 0.02007984281507089 -0.0008307880458569794 0 0.020119241365420121 -0.0009090516936268797 0 0.020268646528005224 -0.0010259971884029788 0 0.020274699945645892 -0.00072923131008522778 0 0.020119241365420121 -0.0009090516936268797 0 0.020026473039807511 -0.00099332508117988788 0 0.020119241365420121 -0.0009090516936268797 0 0.019993396688827551 -0.00093291315449057035 0 0.020026473039807511 -0.00099332508117988788 0 0.019993396688827551 -0.00093291315449057035 0 0.019946799814149915 -0.0009956845173129808 0 0.019993396688827551 -0.00093291315449057035 0 0.019935816568828753 -0.00089362930979626813 0 0.01989904966146927 -0.0009810908142935653 0 0.02007984281507089 -0.0008307880458569794 0 0.020119241365420121 -0.0009090516936268797 0 0.019993396688827551 -0.00093291315449057035 0 0.02007984281507089 -0.0008307880458569794 0 0.019993396688827551 -0.00093291315449057035 0 0.019935816568828753 -0.00089362930979626813 0 0.02007984281507089 -0.0008307880458569794 0 0.019935816568828753 -0.00089362930979626813 0 0.020006086786174219 -0.00082475397218227816 0 0.019935816568828753 -0.00089362930979626813 0 0.01988481994859595 -0.00084349276252440879 0 0.019853977740873063 -0.00088412841493315812 0 0.01988481994859595 -0.00084349276252440879 0 0.019853977740873063 -0.00088412841493315812 0 0.019800786826288625 -0.00083870505900211507 0 0.01988481994859595 -0.00084349276252440879 0 0.020006086786174219 -0.00082475397218227816 0 0.019920052801456558 -0.00081502600777026886 0 0.019935816568828753 -0.00089362930979626813 0 0.01988481994859595 -0.00084349276252440879 0 0.020006086786174219 -0.00082475397218227816 0 0.020006086786174219 -0.00082475397218227816 0 0.020137957924078267 -0.00078066682184304008 0 0.020048240211652708 -0.00080575041601805425 0 0.020160197960670992 -0.00073526037826205553 0 0.020137957924078267 -0.00078066682184304008 0 0.020048240211652708 -0.00080575041601805425 0 0.02007984281507089 -0.0008307880458569794 0 0.020006086786174219 -0.00082475397218227816 0 0.020137957924078267 -0.00078066682184304008 0 0.019506502120238592 -0.0010703466552300566 0 0.019681984970835238 -0.0009711755169921944 0 0.019816196826473811 -0.0010309092546521737 0 0.019909056690346077 -0.0011223665171404601 0 0.019728647418883423 -0.0010506926820158793 0 0.019909056690346077 -0.0011223665171404601 0 0.019881881120213624 -0.0010835699000634068 0 0.019846472969427063 -0.0010521373927830878 0 0.019816196826473811 -0.0010309092546521737 0 0.019851071669907346 -0.0010521805572662084 0 0.019506502120238592 -0.0010703466552300566 0 0.019473055088111077 -0.0008934128760118477 0 0.019582701061424745 -0.00092755885449722145 0 0.019506502120238592 -0.0010703466552300566 0 0.019582701061424745 -0.00092755885449722145 0 0.019681984970835238 -0.0009711755169921944 0 0.019473055088111077 -0.0008934128760118477 0 0.019582701061424745 -0.00092755885449722145 0 0.019567935031648814 -0.00084925991556121787 0 0.019582701061424745 -0.00092755885449722145 0 0.019664394977258762 -0.00089153940661218284 0 0.019567935031648814 -0.00084925991556121787 0 0.019582701061424745 -0.00092755885449722145 0 0.019681984970835238 -0.0009711755169921944 0 0.019664394977258762 -0.00089153940661218284 0 0.019681984970835238 -0.0009711755169921944 0 0.019664394977258762 -0.00089153940661218284 0 0.019777185439279373 -0.00093684255108838414 0 0.019664394977258762 -0.00089153940661218284 0 0.019777185439279373 -0.00093684255108838414 0 0.019705964762027909 -0.00085686224470512477 0 0.019777185439279373 -0.00093684255108838414 0 0.019784491289938172 -0.00087519378666350628 0 0.019853039075291245 -0.00094838754347964353 0 0.019777185439279373 -0.00093684255108838414 0 0.019784491289938172 -0.00087519378666350628 0 0.019705964762027909 -0.00085686224470512477 0 0.019784491289938172 -0.00087519378666350628 0 0.019853977740873063 -0.00088412841493315812 0 0.019853039075291245 -0.00094838754347964353 0 0.019784491289938172 -0.00087519378666350628 0 0.019853977740873063 -0.00088412841493315812 0 0.019800786826288625 -0.00083870505900211507 0 0.019935816568828753 -0.00089362930979626813 0 0.019853039075291245 -0.00094838754347964353 0 0.01989904966146927 -0.0009810908142935653 0 0.019935816568828753 -0.00089362930979626813 0 0.019853977740873063 -0.00088412841493315812 0 0.019853039075291245 -0.00094838754347964353 0 0.019853039075291245 -0.00094838754347964353 0 0.019862201895937216 -0.0010049498879839149 0 0.01989904966146927 -0.0009810908142935653 0 0.019681984970835238 -0.0009711755169921944 0 0.019777185439279373 -0.00093684255108838414 0 0.019816196826473811 -0.0010309092546521737 0 0.019777185439279373 -0.00093684255108838414 0 0.019830749136880217 -0.00098674981999811746 0 0.019816196826473811 -0.0010309092546521737 0 0.019777185439279373 -0.00093684255108838414 0 0.019853039075291245 -0.00094838754347964353 0 0.019830749136880217 -0.00098674981999811746 0 0.019830749136880217 -0.00098674981999811746 0 0.019816196826473811 -0.0010309092546521737 0 0.019862201895937216 -0.0010049498879839149 0 0.019853039075291245 -0.00094838754347964353 0 0.019830749136880217 -0.00098674981999811746 0 0.019862201895937216 -0.0010049498879839149 0 0.019816196826473811 -0.0010309092546521737 0 0.019862201895937216 -0.0010049498879839149 0 0.019851071669907346 -0.0010521805572662084 0 0.01987919587484005 -0.0010247448257190168 0 0.01989904966146927 -0.0009810908142935653 0 0.019907378571865361 -0.0010117503722174956 0 0.01987919587484005 -0.0010247448257190168 0 0.019862201895937216 -0.0010049498879839149 0 0.01989904966146927 -0.0009810908142935653 0 0.01987919587484005 -0.0010247448257190168 0 0.019907378571865361 -0.0010117503722174956 0 0.019937760369317162 -0.0010409269282982295 0 0.01987919587484005 -0.0010247448257190168 0 0.019862201895937216 -0.0010049498879839149 0 0.019851071669907346 -0.0010521805572662084 0 0.01989904966146927 -0.0009810908142935653 0 0.019946799814149915 -0.0009956845173129808 0 0.019907378571865361 -0.0010117503722174956 0 0.019993396688827551 -0.00093291315449057035 0 0.01989904966146927 -0.0009810908142935653 0 0.019946799814149915 -0.0009956845173129808 0 0.019907378571865361 -0.0010117503722174956 0 0.019937760369317162 -0.0010409269282982295 0 0.019944412708683273 -0.0010041010735602467 0 0.019946799814149915 -0.0009956845173129808 0 0.019907378571865361 -0.0010117503722174956 0 0.019944412708683273 -0.0010041010735602467 0 0.020053330562804856 -0.0012012274646760474 0 0.019937760369317162 -0.0010409269282982295 0 0.020045690942184224 -0.00099514077680857541 0 0.019937760369317162 -0.0010409269282982295 0 0.020045690942184224 -0.00099514077680857541 0 0.019944412708683273 -0.0010041010735602467 0 0.020053330562804856 -0.0012012274646760474 0 0.019937760369317162 -0.0010409269282982295 0 0.019851071669907346 -0.0010521805572662084 0 0.01987919587484005 -0.0010247448257190168 0 0.019937760369317162 -0.0010409269282982295 0 0.019851071669907346 -0.0010521805572662084 0 0.020045690942184224 -0.00099514077680857541 0 0.019976467251064375 -0.00098541533986128572 0 0.020257852916679031 -0.00084901694035160622 0 0.02590548999512959 -0.00049984194075589636 0 0.025528534002178149 -0.00019332961186922058 0 0.020045690942184224 -0.00099514077680857541 0 0.019944412708683273 -0.0010041010735602467 0 0.019976467251064375 -0.00098541533986128572 0 0.019944412708683273 -0.0010041010735602467 0 0.019986335365185046 -0.0010524162513702697 0 0.019976467251064375 -0.00098541533986128572 0 0.019946799814149915 -0.0009956845173129808 0 0.019944412708683273 -0.0010041010735602467 0 0.019986335365185046 -0.0010524162513702697 0 0.020073750058903016 -0.0013102894496634339 0 0.019986335365185046 -0.0010524162513702697 0 0.019976467251064375 -0.00098541533986128572 0 0.032189399291561671 -0.00063113054666996357 0 0.032452909131116175 -0.00056412610086300097 0 0.031847889401223843 8.5961697957450796e-06 0 0.026251985095249189 -0.00093010358682041523 0 0.02590548999512959 -0.00049984194075589636 0 0.031253299801953842 -0.00050303360382389221 0 0.031847889401223843 8.5961697957450796e-06 0 0.030770831451486059 0.00048978437034259334 0 0.031253299801953842 -0.00050303360382389221 0 0.032189399291561671 -0.00063113054666996357 0 0.031847889401223843 8.5961697957450796e-06 0 0.031253299801953842 -0.00050303360382389221 0 0.030370943262440279 -0.00035459903848603135 0 0.030770831451486059 0.00048978437034259334 0 0.029769377037650337 -0.00069098628962028033 0 0.030370943262440279 -0.00035459903848603135 0 0.029690564191528854 3.5008856570689779e-05 0 0.030370943262440279 -0.00035459903848603135 0 0.030770831451486059 0.00048978437034259334 0 0.029690564191528854 3.5008856570689779e-05 0 0.025528534002178149 -0.00019332961186922058 0 0.025061481945584305 1.2178939639230262e-05 0 0.030770831451486059 0.00048978437034259334 0 0.029690564191528854 3.5008856570689779e-05 0 0.029586403080735655 0.0008907160334935513 0 0.020257852916679031 -0.00084901694035160622 0 0.020668034036071387 -0.00089490543309052263 0 0.020281339144951727 -0.0010641953986667968 0 0.020045690942184224 -0.00099514077680857541 0 0.020257852916679031 -0.00084901694035160622 0 0.020281339144951727 -0.0010641953986667968 0 0.028440720839806238 -0.00048755056234499496 0 0.028384528229141445 0.00018198561318678286 0 0.029095166990598036 -0.00035160935854464088 0 0.028384528229141445 0.00018198561318678286 0 0.029095166990598036 -0.00035160935854464088 0 0.029025998867908017 0.00040490203841595743 0 0.029769377037650337 -0.00069098628962028033 0 0.029095166990598036 -0.00035160935854464088 0 0.029690564191528854 3.5008856570689779e-05 0 0.029095166990598036 -0.00035160935854464088 0 0.029690564191528854 3.5008856570689779e-05 0 0.029025998867908017 0.00040490203841595743 0 0.029690564191528854 3.5008856570689779e-05 0 0.029586403080735655 0.0008907160334935513 0 0.029025998867908017 0.00040490203841595743 0 0.028384528229141445 0.00018198561318678286 0 0.029025998867908017 0.00040490203841595743 0 0.028348620157193742 0.0012863181161360854 0 0.029586403080735655 0.0008907160334935513 0 0.029025998867908017 0.00040490203841595743 0 0.028348620157193742 0.0012863181161360854 0 0.025061481945584305 1.2178939639230262e-05 0 0.024976190166705978 7.9350214294581948e-05 0 0.020668034036071387 -0.00089490543309052263 0 0.021036914304189084 -0.00099386252800254499 0 0.020907536049599211 -0.0012709607054125285 0 0.021160266559488314 -0.0011225462254311478 0 0.021036914304189084 -0.00099386252800254499 0 0.020907536049599211 -0.0012709607054125285 0 0.020668034036071387 -0.00089490543309052263 0 0.020907536049599211 -0.0012709607054125285 0 0.020476046529761947 -0.0012736924690783728 0 0.020001160246038433 -0.0013507026590730954 0 0.019732288836775122 -0.0012279635895464027 0 0.017972553860969735 -0.0011557192320974547 0 0.019125136360764367 -0.0012015008131370654 0 0.018504301209558104 -0.00065506104774157878 0 0.016013989275848437 -0.0011148039272646528 0 0.017183589620810492 -0.00082714596989363833 0 0.017972553860969735 -0.0011557192320974547 0 0.017654013628920346 -0.00087407563364053456 0 0.018504301209558104 -0.00065506104774157878 0 0.020053330562804856 -0.0012012274646760474 0 0.020045690942184224 -0.00099514077680857541 0 0.020281339144951727 -0.0010641953986667968 0 0.020668034036071387 -0.00089490543309052263 0 0.020281339144951727 -0.0010641953986667968 0 0.020476046529761947 -0.0012736924690783728 0 0.019520504055966875 -0.0010178858188897659 0 0.017183589620810492 -0.00082714596989363833 0 0.019125136360764367 -0.0012015008131370654 0 0.019386350623766122 -0.0009542979691922641 0 0.018504301209558104 -0.00065506104774157878 0 0.020243710354258152 -0.0012370083500512585 0 0.019125136360764367 -0.0012015008131370654 0 0.019386350623766122 -0.0009542979691922641 0 0.019909056690346077 -0.0011223665171404601 0 0.019520504055966875 -0.0010178858188897659 0 0.019506502120238592 -0.0010703466552300566 0 0.019147547692870505 -0.00099604434607743837 0 0.019346372663208843 -0.00091197246806755503 0 0.019909056690346077 -0.0011223665171404601 0 0.019732288836775122 -0.0012279635895464027 0 0.020053330562804856 -0.0012012274646760474 0 0.020281339144951727 -0.0010641953986667968 0 0.020476046529761947 -0.0012736924690783728 0 0.019506502120238592 -0.0010703466552300566 0 0.019473055088111077 -0.0008934128760118477 0 0.019346372663208843 -0.00091197246806755503 0 0.019346372663208843 -0.00091197246806755503 0 0.019400303758923067 -0.00081578657620320612 0 0.019303112352535165 -0.00076053411988160789 0 0.019473055088111077 -0.0008934128760118477 0 0.019400303758923067 -0.00081578657620320612 0 0.019485246652363133 -0.00079149940473326435 0 0.019473055088111077 -0.0008934128760118477 0 0.019346372663208843 -0.00091197246806755503 0 0.019400303758923067 -0.00081578657620320612 0 0.019416662650627567 -0.00074447275155690605 0 0.019385615276006626 -0.00075317141946272699 0 0.019423247905377205 -0.00070396612150406537 0 0.019400303758923067 -0.00081578657620320612 0 0.019416662650627567 -0.00074447275155690605 0 0.019485246652363133 -0.00079149940473326435 0 0.019400303758923067 -0.00081578657620320612 0 0.019416662650627567 -0.00074447275155690605 0 0.019303112352535165 -0.00076053411988160789 0 0.019296321911866962 -0.00065902358397749831 0 0.01862085039184181 -0.00076198895343130083 0 0.019416662650627567 -0.00074447275155690605 0 0.019289527553401669 -0.00073805943454673963 0 0.019303112352535165 -0.00076053411988160789 0 0.01862085039184181 -0.00076198895343130083 0 0.01865681533705732 -0.00078665239436961746 0 0.019147547692870505 -0.00099604434607743837 0 0.019285038167235535 -0.00072929202419647814 0 0.019303112352535165 -0.00076053411988160789 0 0.019147547692870505 -0.00099604434607743837 0 0.019346372663208843 -0.00091197246806755503 0 0.019303112352535165 -0.00076053411988160789 0 0.019147547692870505 -0.00099604434607743837 0 0.019285038167235535 -0.00072929202419647814 0 0.018709083596757568 -0.00085543527650358022 0 0.017255689415576515 -0.00057147080010713758 0 0.016266242945434113 -0.00024079855759470429 0 0.015843628915564144 -0.00093870938431115704 0 0.01862085039184181 -0.00076198895343130083 0 0.017183589620810492 -0.00082714596989363833 0 0.017255689415576515 -0.00057147080010713758 0 0.016266242945434113 -0.00024079855759470429 0 0.016609258029995872 0.00049854509206504003 0 0.01862085039184181 -0.00076198895343130083 0 0.018063225482881733 -3.2430410581611278e-05 0 0.019385615276006626 -0.00075317141946272699 0 0.019423247905377205 -0.00070396612150406537 0 0.0193279162333246 -0.00068166381749191205 0 0.014661101929069163 -0.00050587828439335486 0 0.015385565703572749 -0.00030352413388658764 0 0.015843628915564144 -0.00093870938431115704 0 0.01419811758493229 -0.00047078119922323343 0 0.017183589620810492 -0.00082714596989363833 0 0.014661101929069163 -0.00050587828439335486 0 0.014875992072376323 -0.0011359003722512383 0 0.015858631428170525 -0.00087401646860356787 0 0.016266242945434113 -0.00024079855759470429 0 0.015385565703572749 -0.00030352413388658764 0 0.015843628915564144 -0.00093870938431115704 0 0.016266242945434113 -0.00024079855759470429 0 0.015385565703572749 -0.00030352413388658764 0 0.015658172173924349 0.00016447531696987529 0 0.016266242945434113 -0.00024079855759470429 0 0.015658172173924349 0.00016447531696987529 0 0.016609258029995872 0.00049854509206504003 0 0.015658172173924349 0.00016447531696987529 0 0.014879324307196441 0.00010672822499594406 0 0.015589884817695947 0.00083011158989302551 0 0.015385565703572749 -0.00030352413388658764 0 0.015658172173924349 0.00016447531696987529 0 0.014879324307196441 0.00010672822499594406 0 0.014661101929069163 -0.00050587828439335486 0 0.015385565703572749 -0.00030352413388658764 0 0.014879324307196441 0.00010672822499594406 0 0.014566439017739748 0.00074067277327444789 0 0.015589884817695947 0.00083011158989302551 0 0.015232184341710293 0.0015146424006167356 0 0.0030017057195239555 0.0049442768213342472 0 0.0029237474872892029 0.004771364229350092 0 0.0026601259420432192 0.0045773741180320723 0 0.014566439017739748 0.00074067277327444789 0 0.014879324307196441 0.00010672822499594406 0 0.015589884817695947 0.00083011158989302551 0 0.0082497163618299972 0.0029500820141530487 0 0.0088784336426095001 0.0028109204420639898 0 0.015589884817695947 0.00083011158989302551 0 0.015958047014239762 0.0015600479141562595 0 0.016609258029995872 0.00049854509206504003 0 0.015658172173924349 0.00016447531696987529 0 0.015589884817695947 0.00083011158989302551 0 0.016609258029995872 0.00049854509206504003 0 0.017728679121341906 -0.00069102895209891446 0 0.017281936163398293 -0.00074182006806797012 0 0.017429373005841707 -0.00097483687312090888 0 0.007835800859813143 0.0027986275275293194 0 0.016403147553850909 4.1733227961695915e-05 0 0.011026945154913701 0.0031697374883053759 0 0.011967132176320894 0.0015829858064466483 0 0.0094823041277656665 0.0014243018071120989 0 0.007835800859813143 0.0027986275275293194 0 0.0088784336426095001 0.0028109204420639898 0 0.015589884817695947 0.00083011158989302551 0 0.015958047014239762 0.0015600479141562595 0 0.015232184341710293 0.0015146424006167356 0 0.016403147553850909 4.1733227961695915e-05 0 0.0088784336426095001 0.0028109204420639898 0 0.0081399867079967013 0.0028309727864057541 0 0.0088784336426095001 0.0028109204420639898 0 0.002655730291394382 0.004402313470918952 0 0.0026701995127991983 0.0045713914713203501 0 0.0027535155478118829 0.0044883871235600389 0 0.0025591424670191633 0.0044265392654571582 0 0.002655730291394382 0.004402313470918952 0 0.0026701995127991983 0.0045713914713203501 0 0.0026998445376548333 0.0045805804099369463 0 0.0026701995127991983 0.0045713914713203501 0 0.0027535155478118829 0.0044883871235600389 0 0.002949178965631653 0.004470581045489916 0 0.0028551191183058488 0.0043468838332515339 0 0.0027535155478118829 0.0044883871235600389 0 0.0026998445376548333 0.0045805804099369463 0 0.0027535155478118829 0.0044883871235600389 0 0.0028714939083545306 0.0045862993936442113 0 0.002949178965631653 0.004470581045489916 0 0.0027535155478118829 0.0044883871235600389 0 0.0028714939083545306 0.0045862993936442113 0 0.0029237474872892029 0.004771364229350092 0 0.0026998445376548333 0.0045805804099369463 0 0.0026601259420432192 0.0045773741180320723 0 0.0029237474872892029 0.004771364229350092 0 0.0026998445376548333 0.0045805804099369463 0 0.0028714939083545306 0.0045862993936442113 0 0.019427061378644417 -0.00065630038314314684 0 0.0193279162333246 -0.00068166381749191205 0 0.01936895030316001 -0.00060796641801403456 0 0.019423247905377205 -0.00070396612150406537 0 0.019427061378644417 -0.00065630038314314684 0 0.0193279162333246 -0.00068166381749191205 0 0.016403147553850909 4.1733227961695915e-05 0 0.018063225482881733 -3.2430410581611278e-05 0 0.017728679121341906 -0.00069102895209891446 0 0.017429373005841707 -0.00097483687312090888 0 0.017965812764860353 -0.00093158166966264653 0 0.016403147553850909 4.1733227961695915e-05 0 0.019044288698485349 -0.00081105969662004901 0 0.019242084977326174 -0.00059435067088512805 0 0.0193279162333246 -0.00068166381749191205 0 0.01936895030316001 -0.00060796641801403456 0 0.019044288698485349 -0.00081105969662004901 0 0.018855677374621349 -0.00076031802561576261 0 0.019427061378644417 -0.00065630038314314684 0 0.01936895030316001 -0.00060796641801403456 0 0.019431351033833387 -0.00067744559481614181 0 0.018175255100695838 -0.00052813391140028182 0 0.017965812764860353 -0.00093158166966264653 0 0.018454405503638333 -0.00084799214890577616 0 0.019427061378644417 -0.00065630038314314684 0 0.019431351033833387 -0.00067744559481614181 0 0.019410678021468526 -0.00064432941509946491 0 0.019427061378644417 -0.00065630038314314684 0 0.019410678021468526 -0.00064432941509946491 0 0.019479497190859209 -0.0006801159779409973 0 0.019450385769142237 -0.00067601726777479128 0 0.019579374822854583 -0.00070765554707833225 0 0.019528080465342712 -0.00068940235745040628 0 0.019410678021468526 -0.00064432941509946491 0 0.019450385769142237 -0.00067601726777479128 0 0.019528080465342712 -0.00068940235745040628 0 0.019410678021468526 -0.00064432941509946491 0 0.019479497190859209 -0.0006801159779409973 0 0.019528080465342712 -0.00068940235745040628 0 0.019410678021468526 -0.00064432941509946491 0 0.019450385769142237 -0.00067601726777479128 0 0.019318657454888741 -0.00068650115405529018 0 0.019410678021468526 -0.00064432941509946491 0 0.019318657454888741 -0.00068650115405529018 0 0.019137126017033868 -0.00073292313892667986 0 0.018855677374621349 -0.00076031802561576261 0 0.019148620175507725 -0.00073724713506855119 0 0.019431351033833387 -0.00067744559481614181 0 0.019410678021468526 -0.00064432941509946491 0 0.019137126017033868 -0.00073292313892667986 0 0.019209390859825724 -0.00059531442671337937 0 0.019137126017033868 -0.00073292313892667986 0 0.019280549521377949 -0.00067676009023085923 0 0.019209390859825724 -0.00059531442671337937 0 0.019404173664274774 -0.00064539459765538599 0 0.019463205536748057 -0.00065502692139556918 0 0.019209390859825724 -0.00059531442671337937 0 0.019280549521377949 -0.00067676009023085923 0 0.019404173664274774 -0.00064539459765538599 0 0.019280549521377949 -0.00067676009023085923 0 0.019404173664274774 -0.00064539459765538599 0 0.019418645770386669 -0.00067965945618793605 0 0.019404173664274774 -0.00064539459765538599 0 0.01954794635255324 -0.00067007145359144972 0 0.019418645770386669 -0.00067965945618793605 0 0.019318657454888741 -0.00068650115405529018 0 0.019137126017033868 -0.00073292313892667986 0 0.019280549521377949 -0.00067676009023085923 0 0.019318657454888741 -0.00068650115405529018 0 0.019280549521377949 -0.00067676009023085923 0 0.019418645770386669 -0.00067965945618793605 0 0.019200534014336294 -0.00016746560166131335 0 0.018649510085605305 9.5386031388577502e-06 0 0.019404173664274774 -0.00064539459765538599 0 0.019509673142223495 -0.00061833774737160248 0 0.01954794635255324 -0.00067007145359144972 0 0.018649510085605305 9.5386031388577502e-06 0 0.019989741037781214 -0.00099423514876746861 0 0.020027741161028029 -0.00091630063122282465 0 0.020047197903432158 -0.00092187730939720597 0 0.020046635410910257 -0.00089434668459575949 0 0.019509673142223495 -0.00061833774737160248 0 0.01954794635255324 -0.00067007145359144972 0 0.019747351950252734 -0.00068045662993109694 0 0.01954794635255324 -0.00067007145359144972 0 0.019747351950252734 -0.00068045662993109694 0 0.019595581736382182 -0.00069941889518231927 0 0.019747351950252734 -0.00068045662993109694 0 0.019595581736382182 -0.00069941889518231927 0 0.019791980544322001 -0.00074968154583759255 0 0.019450385769142237 -0.00067601726777479128 0 0.019418645770386669 -0.00067965945618793605 0 0.019595581736382182 -0.00069941889518231927 0 0.019450385769142237 -0.00067601726777479128 0 0.019318657454888741 -0.00068650115405529018 0 0.019418645770386669 -0.00067965945618793605 0 0.01954794635255324 -0.00067007145359144972 0 0.019418645770386669 -0.00067965945618793605 0 0.019595581736382182 -0.00069941889518231927 0 0.019450385769142237 -0.00067601726777479128 0 0.019595581736382182 -0.00069941889518231927 0 0.019579374822854583 -0.00070765554707833225 0 0.019595581736382182 -0.00069941889518231927 0 0.019579374822854583 -0.00070765554707833225 0 0.019701513649472341 -0.00074061850855935095 0 0.019579374822854583 -0.00070765554707833225 0 0.019701513649472341 -0.00074061850855935095 0 0.019671144335575548 -0.0007458848421341744 0 0.019595581736382182 -0.00069941889518231927 0 0.019701513649472341 -0.00074061850855935095 0 0.019791980544322001 -0.00074968154583759255 0 0.019701513649472341 -0.00074061850855935095 0 0.019791980544322001 -0.00074968154583759255 0 0.019853360955271526 -0.00079129982071754143 0 0.019701513649472341 -0.00074061850855935095 0 0.019671144335575548 -0.0007458848421341744 0 0.019853360955271526 -0.00079129982071754143 0 0.020010523764335889 -0.00080379635957106852 0 0.019747351950252734 -0.00068045662993109694 0 0.019791980544322001 -0.00074968154583759255 0 0.020010523764335889 -0.00080379635957106852 0 0.019791980544322001 -0.00074968154583759255 0 0.019853360955271526 -0.00079129982071754143 0 0.019957800517582443 -0.00075352478577810794 0 0.019989741037781214 -0.00099423514876746861 0 0.020010523764335889 -0.00080379635957106852 0 0.020048240211652708 -0.00080575041601805425 0 0.019853360955271526 -0.00079129982071754143 0 0.020006086786174219 -0.00082475397218227816 0 0.020048240211652708 -0.00080575041601805425 0 0.019920052801456558 -0.00081502600777026886 0 0.020048240211652708 -0.00080575041601805425 0 0.019853360955271526 -0.00079129982071754143 0 0.019920052801456558 -0.00081502600777026886 0 0.019671144335575548 -0.0007458848421341744 0 0.01980600252594153 -0.00080695746513831845 0 0.019853360955271526 -0.00079129982071754143 0 0.01980600252594153 -0.00080695746513831845 0 0.019853360955271526 -0.00079129982071754143 0 0.019920052801456558 -0.00081502600777026886 0 0.01988481994859595 -0.00084349276252440879 0 0.01980600252594153 -0.00080695746513831845 0 0.019920052801456558 -0.00081502600777026886 0 0.01988481994859595 -0.00084349276252440879 0 0.01980600252594153 -0.00080695746513831845 0 0.019800786826288625 -0.00083870505900211507 0 0.01980600252594153 -0.00080695746513831845 0 0.019800786826288625 -0.00083870505900211507 0 0.019713650324951225 -0.00080192316363704127 0 0.019784491289938172 -0.00087519378666350628 0 0.019800786826288625 -0.00083870505900211507 0 0.019713650324951225 -0.00080192316363704127 0 0.019671144335575548 -0.0007458848421341744 0 0.019713650324951225 -0.00080192316363704127 0 0.01958696874002366 -0.00073787440926603026 0 0.019671144335575548 -0.0007458848421341744 0 0.01980600252594153 -0.00080695746513831845 0 0.019713650324951225 -0.00080192316363704127 0 0.019713650324951225 -0.00080192316363704127 0 0.019627955056035182 -0.00080600438272545043 0 0.01958696874002366 -0.00073787440926603026 0 0.019713650324951225 -0.00080192316363704127 0 0.019705964762027909 -0.00085686224470512477 0 0.019627955056035182 -0.00080600438272545043 0 0.019784491289938172 -0.00087519378666350628 0 0.019713650324951225 -0.00080192316363704127 0 0.019705964762027909 -0.00085686224470512477 0 0.019664394977258762 -0.00089153940661218284 0 0.019567935031648814 -0.00084925991556121787 0 0.019627955056035182 -0.00080600438272545043 0 0.019664394977258762 -0.00089153940661218284 0 0.019705964762027909 -0.00085686224470512477 0 0.019627955056035182 -0.00080600438272545043 0 0.019567935031648814 -0.00084925991556121787 0 0.019627955056035182 -0.00080600438272545043 0 0.019552613447925488 -0.00078593904353969489 0 0.019473055088111077 -0.0008934128760118477 0 0.019567935031648814 -0.00084925991556121787 0 0.019485246652363133 -0.00079149940473326435 0 0.019567935031648814 -0.00084925991556121787 0 0.019485246652363133 -0.00079149940473326435 0 0.019552613447925488 -0.00078593904353969489 0 0.019416662650627567 -0.00074447275155690605 0 0.019485246652363133 -0.00079149940473326435 0 0.019507618534153805 -0.00073759355858245951 0 0.019485246652363133 -0.00079149940473326435 0 0.019552613447925488 -0.00078593904353969489 0 0.019507618534153805 -0.00073759355858245951 0 0.019627955056035182 -0.00080600438272545043 0 0.019568971920103005 -0.00076531192829201711 0 0.01958696874002366 -0.00073787440926603026 0 0.019568971920103005 -0.00076531192829201711 0 0.019507618534153805 -0.00073759355858245951 0 0.01958696874002366 -0.00073787440926603026 0 0.019627955056035182 -0.00080600438272545043 0 0.019552613447925488 -0.00078593904353969489 0 0.019568971920103005 -0.00076531192829201711 0 0.019552613447925488 -0.00078593904353969489 0 0.019568971920103005 -0.00076531192829201711 0 0.019507618534153805 -0.00073759355858245951 0 0.019507618534153805 -0.00073759355858245951 0 0.019479497190859209 -0.0006801159779409973 0 0.01958696874002366 -0.00073787440926603026 0 0.019423247905377205 -0.00070396612150406537 0 0.019427061378644417 -0.00065630038314314684 0 0.019479497190859209 -0.0006801159779409973 0 0.019416662650627567 -0.00074447275155690605 0 0.019423247905377205 -0.00070396612150406537 0 0.019507618534153805 -0.00073759355858245951 0 0.019423247905377205 -0.00070396612150406537 0 0.019507618534153805 -0.00073759355858245951 0 0.019479497190859209 -0.0006801159779409973 0 0.019479497190859209 -0.0006801159779409973 0 0.019528080465342712 -0.00068940235745040628 0 0.01958696874002366 -0.00073787440926603026 0 0.019579374822854583 -0.00070765554707833225 0 0.019671144335575548 -0.0007458848421341744 0 0.019528080465342712 -0.00068940235745040628 0 0.019671144335575548 -0.0007458848421341744 0 0.019528080465342712 -0.00068940235745040628 0 0.01958696874002366 -0.00073787440926603026 0 
</DataArray>
</PointData>
<CellData Scalars="region_id,cross_section_updated," Vectors="" Tensors="stress,">
<DataArray type="Float64" Name="region_id" format="ascii">
5 5 5 5 5 5 6 5 5 5 5 5 6 5 5 5 6 5 5 5 6 5 5 5 5 5 6 6 5 5 5 5 6 5 5 5 6 5 5 5 5 5 5 5 5 5 5 5 5 5 5 5 5 5 5 5 5 5 5 5 5 5 6 5 5 5 5 5 5 5 5 6 5 5 5 5 5 6 5 5 5 5 5 5 5 5 5 5 5 5 5 5 5 5 5 5 5 5 5 5 5 5 5 5 5 5 5 5 6 6 5 5 6 5 5 5 5 5 5 5 6 5 5 5 5 5 5 5 5 5 5 5 5 5 5 6 5 5 6 5 5 5 5 5 5 5 5 5 5 5 5 5 5 5 5 5 6 5 6 5 5 5 5 5 5 5 5 5 5 5 5 5 5 5 5 5 6 5 5 5 5 5 5 5 5 5 5 5 5 5 5 5 5 5 6 5 5 6 5 5 5 6 5 5 5 5 5 5 5 5 5 5 5 5 6 5 5 6 5 6 5 6 5 5 5 5 5 5 5 5 6 6 5 5 6 5 5 5 6 5 6 6 6 5 5 5 5 5 5 5 5 5 5 5 5 5 5 5 6 5 5 5 5 6 5 5 5 5 5 5 5 5 5 5 5 5 5 5 6 5 5 5 5 5 5 5 5 6 5 5 5 5 6 5 6 5 6 5 5 5 5 5 5 5 5 5 5 5 5 5 5 5 5 5 5 5 5 5 5 5 5 5 5 6 5 5 5 5 5 6 5 5 5 5 5 5 5 5 5 6 5 5 5 6 6 6 5 5 5 6 6 6 5 5 5 5 5 5 5 5 5 5 5 5 6 5 5 5 5 5 5 5 5 5 5 5 5 5 5 5 5 5 5 5 5 5 5 5 5 5 5 5 5 5 5 5 5 5 5 5 5 5 5 6 5 5 6 5 5 5 6 5 5 6 5 5 5 6 5 5 6 5 6 5 5 5 5 5 5 6 5 5 5 5 6 5 5 6 5 5 5 5 5 5 5 6 5 5 5 5 5 5 6 5 5 5 5 5 6 5 5 5 5 5 5 5 5 5 5 5 5 5 5 5 6 5 6 5 5 5 5 5 5 5 5 5 5 5 5 5 5 6 5 5 5 5 5 5 5 5 5 5 5 5 5 5 5 5 5 5 6 5 5 5 5 5 5 5 5 5 5 5 5 5 5 5 5 5 5 5 5 5 5 5 6 5 5 5 5 6 5 5 5 5 5 5 5 5 5 6 5 5 5 5 6 5 5 5 5 5 5 5 5 5 5 5 5 5 5 5 5 5 5 5 5 5 5 5 5 5 6 5 5 5 5 5 5 5 5 5 5 5 5 5 5 5 5 5 5 6 5 5 6 5 5 5 5 5 5 6 5 5 5 5 5 5 5 5 5 5 5 5 5 6 5 5 6 5 5 5 5 6 5 5 5 5 5 5 5 5 5 5 5 5 5 6 6 5 5 5 5 5 5 5 5 6 5 5 5 6 5 5 5 5 5 5 6 5 5 5 5 6 6 5 5 5 5 5 5 5 5 5 5 5 5 5 5 5 5 5 5 5 5 6 5 5 5 5 5 5 6 5 6 5 5 5 5 5 5 6 5 5 5 5 5 5 5 5 5 5 5 5 5 5 6 5 5 5 6 5 5 5 5 5 5 6 5 5 5 5 5 5 6 5 5 5 6 6 5 5 6 5 5 5 5 5 5 6 5 5 5 6 5 5 6 5 5 5 6 5 5 5 6 5 5 5 5 6 5 5 5 6 5 5 5 5 5 6 5 5 5 5 5 5 5 5 5 6 5 5 5 5 5 5 5 5 5 5 5 6 6 5 5 5 5 5 5 5 5 5 5 5 5 5 5 5 6 5 6 5 6 5 5 5 5 5 5 5 5 6 5 5 5 5 5 5 5 5 5 5 6 5 5 5 5 6 5 5 5 5 5 5 5 5 5 5 5 5 6 5 5 5 5 5 5 5 5 5 5 5 5 5 5 5 6 5 5 5 5 5 5 5 5 5 5 5 5 5 5 5 5 5 5 5 5 6 6 5 5 5 6 5 5 5 5 5 5 5 5 5 5 5 5 5 5 5 5 5 5 5 5 5 5 5 5 5 5 5 5 5 5 5 5 5 5 5 5 5 5 5 5 5 5 5 5 6 5 5 5 5 5 5 5 5 5 6 5 5 5 5 5 5 5 5 5 6 5 5 5 5 5 5 5 6 6 5 5 5 6 6 5 5 6 5 5 5 6 5 5 5 5 5 5 5 5 5 6 5 5 5 5 5 5 5 6 5 5 5 6 5 5 5 5 5 5 5 5 5 5 5 5 5 5 5 5 5 5 5 5 5 5 5 6 5 6 5 5 5 5 5 6 5 5 5 5 5 6 5 5 5 5 5 6 6 5 6 5 5 5 5 5 5 5 5 5 5 5 5 5 5 5 5 6 5 5 5 5 5 6 5 5 6 5 5 5 5 5 5 5 5 5 5 5 5 5 6 5 5 5 6 5 6 5 5 5 5 5 5 5 5 5 5 5 5 5 5 5 5 5 5 6 5 5 5 5 5 5 5 5 5 5 6 5 5 5 5 5 5 5 5 5 5 5 5 5 5 5 5 5 5 5 6 5 5 5 5 5 5 5 5 5 5 5 5 6 5 5 5 5 5 5 5 5 5 5 5 6 5 5 5 5 6 5 5 6 5 6 5 6 5 5 5 5 5 5 5 5 5 6 6 5 5 5 6 5 5 5 5 5 6 5 5 5 5 6 5 5 5 5 5 5 5 5 5 5 5 5 5 5 5 5 5 6 5 5 6 5 5 5 5 5 6 5 5 6 5 5 5 5 5 5 5 5 5 5 6 5 5 5 5 5 5 5 6 5 6 5 6 5 6 5 5 6 5 5 5 6 5 5 5 5 5 5 6 5 5 5 5 5 5 5 5 6 5 5 5 6 5 5 5 6 5 5 6 5 5 6 5 5 6 6 5 5 5 6 5 5 5 5 5 5 6 6 5 5 6 5 5 5 5 6 5 5 5 5 6 5 6 6 5 5 5 5 5 5 6 5 5 6 5 5 5 5 5 6 5 5 5 5 6 6 5 5 5 5 5 5 5 6 5 5 5 5 5 5 5 5 5 5 5 5 6 5 5 5 5 5 5 6 5 5 5 5 5 5 5 6 5 5 5 5 6 5 5 5 6 5 5 5 5 5 5 6 5 5 6 5 5 5 6 5 6 5 6 5 5 5 6 5 5 5 5 5 6 5 5 5 5 5 5 6 5 5 5 5 5 5 5 5 6 5 5 5 6 5 5 5 5 5 5 5 5 5 5 6 5 6 5 5 5 5 6 5 5 5 5 5 5 5 5 5 5 5 5 5 6 5 5 6 5 5 6 5 5 5 5 5 5 5 5 5 5 5 5 5 5 5 5 5 5 5 5 5 5 5 5 5 5 5 5 5 5 6 5 5 5 5 5 5 5 5 5 5 5 5 5 5 5 5 5 5 5 5 6 5 5 5 5 5 5 5 5 5 5 5 6 5 5 5 5 5 5 5 5 5 5 5 5 5 5 5 5 5 5 5 5 5 5 5 5 6 5 5 5 6 5 5 6 5 5 5 5 5 5 6 5 6 5 5 5 6 5 5 5 5 5 6 6 5 5 6 5 5 5 5 5 5 5 5 5 5 5 5 5 5 6 5 6 5 5 6 6 5 5 6 5 5 5 6 5 5 5 5 6 5 6 5 6 5 5 5 5 5 5 5 5 5 5 5 5 5 5 6 6 5 5 5 5 5 5 5 5 5 5 5 5 6 5 6 5 5 5 5 5 5 5 6 6 5 5 5 5 5 5 5 5 5 5 5 5 5 5 6 5 5 5 5 5 5 5 5 5 5 5 6 5 5 5 5 5 5 5 5 6 5 5 5 5 5 6 5 5 5 5 6 5 5 5 5 5 5 6 5 5 5 5 5 5 5 5 5 5 5 5 5 5 5 6 5 6 5 5 5 5 5 5 5 5 5 6 5 5 5 5 6 5 5 5 5 5 5 6 5 5 6 5 6 5 5 6 5 5 5 5 5 5 6 5 5 6 5 5 5 6 5 5 5 5 6 6 5 5 6 5 5 5 5 5 5 5 5 5 5 5 5 5 5 5 5 5 6 5 5 5 5 5 5 5 5 5 5 5 6 5 5 5 6 5 5 5 5 5 5 5 5 6 5 5 5 5 5 5 5 5 5 5 5 5 5 5 5 5 5 5 5 5 5 5 5 5 5 5 5 5 5 5 5 5 5 5 5 5 5 5 5 5 5 5 5 5 5 5 5 5 5 5 5 5 5 5 5 5 5 5 5 5 5 5 5 5 5 5 5 5 5 5 5 5 5 5 5 5 5 5 5 5 5 5 5 5 5 5 5 5 5 6 5 5 5 5 6 5 5 6 5 5 5 5 5 5 5 5 5 5 6 5 5 5 5 5 5 5 5 5 5 5 5 5 5 5 5 5 6 5 5 6 5 5 6 5 6 5 5 5 5 5 5 5 6 5 6 5 5 5 5 5 5 5 5 5 5 5 5 5 5 5 5 5 6 5 5 5 6 5 5 6 5 5 5 6 5 5 5 5 5 5 6 5 5 5 6 5 6 5 6 5 5 5 6 5 5 6 5 5 6 5 6 5 5 5 5 6 5 5 5 5 5 5 5 5 5 6 5 5 5 5 5 5 6 5 5 6 5 5 5 5 5 5 5 5 5 5 5 5 5 5 5 5 5 5 5 6 5 5 5 5 5 5 5 5 5 5 5 5 6 5 5 6 5 5 6 5 6 5 6 5 5 5 5 5 5 5 5 5 5 5 5 5 5 5 5 5 5 5 5 5 5 5 5 5 5 5 5 6 5 5 5 5 6 5 5 5 5 5 5 5 5 5 5 5 5 5 5 5 5 5 5 5 6 5 5 5 5 6 5 5 5 5 5 6 5 5 5 5 5 5 5 5 5 5 5 6 5 5 5 6 5 6 5 5 5 5 5 6 6 5 5 5 5 6 5 5 6 5 6 5 5 6 5 6 5 5 5 5 6 5 5 5 5 5 5 5 5 5 5 5 5 5 5 5 5 5 5 6 5 5 5 5 5 5 5 5 5 5 6 5 5 5 5 5 6 5 5 5 5 5 5 6 5 5 5 5 6 5 6 5 5 5 5 5 5 5 6 5 5 5 6 5 5 5 5 5 5 5 6 5 6 5 5 5 5 6 5 5 5 5 5 6 5 5 5 5 5 5 5 5 5 5 5 5 5 5 5 5 5 5 5 5 5 5 5 5 5 5 6 5 5 5 5 5 6 5 5 5 5 5 5 5 5 5 5 5 5 6 5 5 5 5 5 5 5 5 5 5 5 5 5 5 5 5 5 5 5 5 5 5 5 5 5 5 5 5 5 5 6 5 6 5 6 5 5 5 5 6 5 5 5 5 5 5 6 5 5 6 5 5 6 6 5 5 5 5 6 6 5 5 5 5 6 6 5 5 5 5 5 5 5 6 5 6 5 5 5 5 5 5 5 5 5 6 5 5 6 5 5 6 5 6 5 6 6 5 6 5 5 5 5 5 5 5 6 6 6 5 5 5 5 5 5 5 5 6 5 5 6 6 6 5 6 5 5 5 5 5 5 5 6 5 5 5 6 5 5 6 5 5 5 5 5 5 6 5 5 5 5 5 6 5 5 5 5 6 5 6 5 5 5 6 6 5 5 5 6 5 5 5 5 5 5 5 5 5 5 6 5 5 5 5 5 5 5 6 5 5 5 6 5 5 5 5 5 5 6 5 5 5 5 5 5 5 5 5 5 5 5 6 5 5 5 5 6 5 5 5 5 5 5 5 5 5 5 5 5 5 5 5 5 5 5 6 5 5 5 6 5 6 5 5 5 5 6 5 5 5 5 6 6 5 5 6 5 5 6 5 5 5 6 5 5 6 5 5 5 5 5 5 5 5 6 5 6 5 5 6 5 5 5 5 5 5 6 6 5 5 5 5 5 5 5 5 5 5 5 5 5 5 6 5 5 5 5 5 5 5 5 5 5 5 5 5 5 5 5 5 5 5 5 5 5 5 5 5 5 5 5 5 5 5 5 5 5 5 5 5 5 5 5 5 5 5 5 5 5 5 5 5 5 5 5 5 5 5 5 5 5 5 5 5 5 5 5 5 5 5 5 5 5 5 5 5 5 5 5 5 5 5 5 5 5 5 5 5 5 5 5 5 5 5 5 5 5 5 5 5 5 5 6 6 5 5 5 5 5 5 5 5 5 5 5 5 5 5 5 5 5 5 5 5 5 5 5 5 5 5 5 5 5 5 5 5 5 5 5 5 5 5 5 5 5 5 5 5 5 5 5 5 5 5 5 5 5 5 5 5 5 5 5 5 5 5 5 5 5 5 5 5 5 5 5 5 5 5 5 5 5 5 5 5 5 5 5 5 5 5 5 6 5 5 5 5 5 5 6 5 5 6 5 5 6 5 5 5 5 6 6 5 5 6 5 5 5 6 5 6 5 5 5 5 5 5 6 5 5 5 6 6 5 5 5 5 5 6 5 6 5 6 5 5 5 6 5 5 5 5 6 5 6 5 6 5 5 5 5 5 5 5 6 5 5 5 5 5 5 5 5 5 5 5 5 5 5 5 5 5 5 5 5 5 5 5 5 5 5 5 5 5 5 5 5 5 5 5 5 5 5 5 5 5 6 5 5 5 5 5 5 5 5 6 5 6 5 5 5 5 6 6 5 5 5 5 5 5 5 5 5 5 5 5 5 5 5 5 5 5 6 5 6 5 5 5 5 5 5 5 5 6 5 5 5 5 5 6 5 6 5 6 5 6 5 5 5 5 5 6 5 5 5 5 5 5 5 5 5 5 5 5 5 6 5 6 5 5 6 5 6 5 5 5 5 5 5 5 5 5 5 5 5 5 5 5 5 5 5 5 5 6 5 5 6 5 5 5 6 6 6 6 5 5 5 6 5 5 5 6 6 5 6 5 5 6 5 5 5 6 6 5 5 6 5 5 5 6 5 5 5 6 5 5 5 6 5 5 5 5 6 5 5 6 5 5 5 6 6 5 5 5 5 5 5 5 5 5 5 5 5 6 5 5 6 5 5 5 5 5 6 5 5 6 5 5 5 5 5 5 5 5 5 5 5 5 5 5 5 5 6 5 5 5 6 5 6 5 5 5 5 5 5 5 6 5 5 5 5 5 6 5 6 5 5 5 5 5 5 5 5 5 5 5 6 5 6 6 5 5 6 5 5 5 5 6 5 5 5 5 6 5 5 5 6 5 5 6 5 5 6 5 6 5 5 6 5 5 5 5 6 5 5 5 5 5 5 6 5 5 5 5 6 5 5 5 5 5 6 5 5 5 5 5 5 5 5 5 5 5 5 5 5 5 5 5 5 5 5 5 5 5 5 6 5 5 5 6 5 5 6 5 5 5 5 5 5 6 5 5 5 5 5 5 5 5 5 6 5 5 5 5 5 6 5 5 5 5 5 5 5 5 5 5 6 5 5 5 5 5 5 5 5 6 5 5 5 5 5 5 5 5 5 6 6 5 5 5 5 5 5 5 5 5 6 5 5 6 5 5 5 5 5 5 6 5 5 5 5 5 5 5 5 6 5 5 5 5 5 5 5 6 5 6 5 5 5 5 5 5 5 5 5 5 5 5 5 5 5 5 5 5 5 5 5 5 5 5 5 5 5 5 5 5 5 5 5 5 5 5 5 5 5 5 5 5 5 5 5 5 6 5 5 6 5 5 5 6 5 5 6 5 5 5 5 5 5 5 5 5 5 5 5 5 5 5 5 6 5 5 6 5 5 5 6 5 5 6 6 5 5 6 5 5 5 5 5 5 5 5 5 5 5 5 5 5 5 5 5 5 5 5 5 5 5 6 5 5 5 5 5 5 5 5 5 5 5 5 5 5 5 5 5 5 5 5 5 5 5 5 5 5 6 5 5 5 5 5 5 6 5 5 5 5 5 5 6 6 5 5 5 5 5 6 5 6 5 5 5 5 5 5 6 5 5 5 5 6 5 5 5 5 5 5 5 6 5 5 5 6 5 5 5 6 5 5 5 5 5 5 5 5 5 5 6 5 5 6 6 5 5 5 5 6 5 5 5 6 5 5 5 6 5 5 5 5 5 5 5 5 5 5 5 5 5 5 5 5 6 5 5 5 5 5 5 5 5 6 5 6 5 5 6 5 5 6 5 5 5 5 5 5 5 5 5 6 5 5 5 5 5 5 5 5 5 5 5 5 5 5 5 5 6 5 5 6 6 5 5 5 6 5 5 5 5 6 5 5 6 5 5 5 5 5 5 5 6 5 5 5 5 5 5 5 5 6 6 5 5 5 6 5 5 5 5 5 5 6 5 5 5 5 5 5 5 5 5 6 5 5 5 5 5 6 5 5 5 5 5 5 5 5 5 5 5 5 5 6 5 5 5 5 5 5 5 5 6 5 5 5 5 5 5 6 5 6 5 6 5 5 5 5 5 5 5 5 5 6 5 5 5 5 5 5 5 5 5 5 5 6 5 5 5 5 5 5 6 5 5 5 5 5 5 5 5 5 5 5 5 5 5 5 6 5 5 5 5 5 5 5 5 5 5 5 5 5 5 5 6 5 5 5 5 5 5 5 5 5 5 6 5 5 5 5 5 6 5 5 5 5 5 5 5 5 5 5 5 5 5 5 5 5 5 5 6 5 5 5 5 5 5 5 6 5 5 5 5 5 5 6 5 5 5 5 5 5 5 5 5 5 5 5 5 5 5 5 5 5 5 5 5 5 5 6 5 5 5 5 5 5 5 5 5 5 5 5 5 5 5 5 5 5 5 5 5 5 5 5 5 5 5 5 5 5 6 5 5 5 5 6 5 5 5 6 5 5 6 5 6 5 6 5 5 6 5 6 5 5 5 5 6 6 5 5 5 6 6 5 5 5 5 5 5 5 5 5 5 5 5 5 5 5 5 6 5 5 5 5 6 5 6 5 5 5 5 5 5 5 5 5 5 5 5 5 5 6 5 5 5 6 5 5 5 5 5 5 5 5 5 5 5 5 5 5 5 5 5 5 5 5 5 5 5 5 5 5 5 5 5 5 5 5 5 6 5 5 5 5 5 5 5 5 5 5 6 5 5 5 5 5 5 5 5 5 5 5 5 5 5 5 5 5 5 5 5 5 5 5 5 5 5 5 5 5 5 5 5 5 5 5 5 5 5 5 5 6 5 5 5 6 5 5 6 5 5 5 5 6 6 6 5 5 5 5 5 6 5 5 5 6 6 5 6 5 5 5 5 5 5 5 5 5 6 5 5 5 5 5 5 5 5 5 5 6 5 5 5 5 5 5 5 5 5 5 5 5 5 6 5 5 5 6 5 6 5 5 6 5 5 5 5 5 5 5 5 5 6 5 5 5 5 5 5 5 5 5 5 5 5 5 5 5 5 5 5 5 5 5 5 5 6 5 6 5 5 5 6 6 5 5 5 5 5 5 6 5 5 5 5 6 5 5 5 5 6 5 5 5 5 5 5 5 5 5 5 5 5 6 5 6 5 6 5 5 5 5 5 5 6 5 5 5 5 5 5 5 6 5 5 5 6 5 6 5 5 5 6 5 5 5 5 5 5 5 5 5 5 5 5 6 5 6 5 5 5 5 5 5 5 6 5 5 5 5 5 5 5 5 5 5 5 5 5 6 5 5 5 5 6 5 5 5 5 5 6 5 6 5 5 6 5 5 5 5 6 6 5 5 5 6 5 5 5 5 6 5 6 5 5 5 6 5 5 6 5 5 5 5 6 5 6 5 5 5 5 5 5 5 5 5 5 5 5 5 5 5 5 5 5 5 5 5 5 5 5 6 5 6 5 5 5 5 5 5 6 5 5 5 5 6 6 5 5 5 5 5 5 5 5 5 5 5 5 5 5 5 5 5 5 5 5 5 5 5 5 5 5 5 5 5 5 5 5 5 5 5 5 5 6 6 5 5 5 5 5 5 5 5 5 5 5 5 5 5 6 5 5 6 5 5 5 5 5 5 5 5 5 5 5 5 5 5 5 5 5 5 5 5 5 5 5 6 5 5 5 5 5 5 5 5 5 5 5 5 5 5 5 5 5 5 5 5 5 6 5 5 5 5 6 5 5 5 5 5 5 5 5 5 5 6 5 5 5 5 5 5 5 5 5 5 5 5 5 5 5 5 5 5 5 5 5 6 5 6 5 5 5 5 5 5 5 5 5 5 6 5 5 5 5 5 5 5 5 5 5 5 5 5 5 5 5 5 5 5 5 5 5 5 5 5 5 5 5 5 5 6 5 5 5 5 5 6 5 5 5 5 6 6 6 5 5 5 5 5 5 5 5 5 6 5 6 5 5 6 5 5 5 5 6 5 5 5 5 5 5 5 5 5 5 6 6 6 5 5 5 5 5 5 6 5 5 5 5 5 5 5 5 5 5 5 6 6 5 5 5 5 5 6 5 5 5 5 5 5 5 5 5 5 5 5 5 5 5 6 5 5 5 5 6 5 5 5 5 5 5 5 5 5 5 5 5 5 5 5 5 6 5 5 5 5 5 5 5 5 5 5 5 5 5 5 5 5 5 6 5 5 5 5 5 5 5 6 5 5 5 5 6 5 5 5 5 6 5 6 5 5 5 5 6 6 5 6 5 5 6 5 5 5 5 5 5 5 5 5 5 5 5 5 5 5 5 5 5 5 5 5 5 5 6 5 5 5 5 6 5 5 6 5 5 5 5 5 5 5 6 5 5 5 5 6 6 5 5 5 6 6 6 6 6 5 5 5 5 5 5 5 5 5 5 6 5 5 6 5 5 5 6 5 5 5 5 5 5 5 5 5 6 6 5 5 5 5 5 5 6 6 5 5 6 5 6 5 6 5 5 5 5 5 6 5 6 5 6 5 5 5 5 5 5 5 5 6 5 5 5 5 6 5 6 5 5 5 5 5 5 5 5 5 6 5 5 5 5 5 6 5 5 5 6 5 5 6 6 5 5 5 5 6 5 6 5 5 5 5 5 5 5 5 5 5 5 5 5 5 5 6 5 6 5 5 6 6 5 6 6 5 5 6 5 5 5 5 6 5 5 6 5 6 5 6 5 6 5 5 5 6 5 6 5 6 5 5 5 6 5 5 6 5 5 5 5 5 5 5 5 5 5 5 5 5 5 5 6 6 5 5 5 5 5 5 5 5 6 5 5 5 5 5 5 5 5 5 5 5 5 5 5 5 6 5 5 5 5 6 5 5 5 5 5 5 6 5 5 5 5 6 5 5 6 5 5 5 5 5 6 5 5 5 5 5 5 5 6 5 5 5 5 6 5 5 5 5 5 5 5 5 6 5 6 5 5 5 6 5 5 5 5 5 6 5 6 5 6 5 5 5 5 5 5 5 5 5 5 5 5 5 5 5 5 5 5 5 5 5 5 5 5 5 5 5 5 5 6 5 6 5 5 5 5 5 6 5 5 5 5 5 5 5 5 5 5 5 5 5 5 5 5 5 5 5 5 5 5 5 5 5 5 5 5 5 5 5 5 5 5 5 5 6 5 5 5 5 5 5 5 5 5 5 5 5 5 5 5 5 5 5 5 5 5 5 5 5 5 5 5 5 5 5 5 5 5 5 5 5 5 5 5 5 5 5 5 5 5 5 5 5 5 5 5 5 5 5 5 5 5 5 5 5 5 5 5 6 6 5 5 5 5 5 5 5 5 5 5 5 5 5 5 5 5 5 5 5 5 5 5 6 5 5 5 5 5 5 5 6 5 5 5 6 5 5 5 5 5 6 6 6 5 5 5 5 5 5 5 5 6 5 5 6 6 5 5 5 6 5 5 6 5 5 5 5 5 5 5 6 5 6 5 5 5 6 5 5 5 5 5 5 5 5 5 5 5 5 5 5 5 6 5 6 5 5 5 5 5 5 5 5 5 5 5 5 5 5 5 5 5 5 5 6 5 5 5 6 5 5 5 5 5 5 5 5 5 5 5 5 5 5 5 5 5 5 5 5 5 5 5 5 5 5 5 5 5 5 5 5 5 5 6 5 5 5 5 5 5 5 5 5 5 5 6 5 5 5 5 5 5 5 5 5 5 5 5 5 5 5 5 6 5 6 5 5 5 5 5 5 5 5 5 5 5 5 5 6 5 5 5 5 5 5 6 5 5 5 5 5 5 5 6 5 5 5 5 6 5 6 5 5 5 5 5 5 5 6 5 5 6 5 6 5 5 5 6 5 5 5 5 5 5 5 5 5 5 6 6 6 5 5 6 5 5 6 5 5 5 5 5 6 5 5 5 6 5 5 6 5 6 5 5 5 5 5 5 5 5 5 5 5 5 5 5 5 5 5 5 5 5 6 5 6 5 6 6 5 5 5 5 5 5 5 5 5 5 5 5 5 5 5 5 5 5 5 5 5 5 5 5 5 5 5 5 5 6 5 5 5 5 5 5 5 5 5 5 5 5 5 5 6 5 5 5 5 5 6 5 5 5 5 5 5 5 5 5 6 5 5 5 5 6 5 5 5 5 5 5 6 6 5 5 6 5 5 5 5 5 5 5 5 5 5 5 5 5 5 5 5 5 5 5 5 5 6 5 5 5 5 6 5 5 5 5 5 5 6 5 5 5 5 5 5 5 5 5 5 5 5 5 5 5 5 5 5 5 5 5 5 5 5 5 5 5 5 5 5 5 5 5 5 5 5 5 5 5 5 5 5 5 5 5 5 5 5 5 5 5 5 5 5 5 5 5 5 5 6 5 5 5 5 5 5 5 5 6 5 6 5 5 5 5 5 5 5 6 5 5 5 5 5 5 5 5 5 5 6 5 5 5 5 5 5 5 5 5 5 5 5 5 5 5 5 5 5 5 5 6 5 5 5 5 6 5 5 5 5 6 5 5 5 5 5 5 5 5 6 5 5 5 5 5 5 5 5 5 5 5 5 6 5 5 5 6 5 5 5 5 5 6 5 5 5 5 6 5 5 5 6 5 5 5 5 5 5 5 5 6 5 5 5 5 5 6 5 5 5 6 5 5 6 5 5 6 5 5 5 5 5 6 5 5 5 5 5 5 5 5 5 5 5 5 5 5 5 5 6 5 6 5 5 5 5 5 6 5 5 5 5 5 5 6 5 5 5 5 5 5 5 5 6 6 5 5 5 6 5 5 5 5 6 5 5 6 5 6 5 5 5 6 5 6 6 5 5 6 5 5 6 5 5 5 5 6 5 5 6 5 6 6 5 5 5 5 5 5 5 5 5 5 5 5 5 5 5 5 5 6 5 6 5 5 5 6 5 5 6 5 6 6 5 5 6 5 5 6 6 5 6 6 5 5 5 5 5 5 5 5 5 5 6 5 5 5 5 5 5 5 5 5 6 5 5 5 5 5 5 5 5 5 5 5 5 5 5 5 5 5 5 5 5 5 5 5 5 5 5 5 5 5 5 5 5 5 5 5 5 5 5 5 5 5 5 5 5 5 5 6 5 5 5 5 6 5 5 5 5 5 5 6 5 5 5 5 6 5 5 5 6 6 5 5 5 5 5 5 5 5 5 6 5 6 5 5 5 5 5 5 5 5 5 5 5 5 5 5 5 5 5 5 5 5 5 5 5 5 5 5 5 5 5 5 5 5 5 5 5 5 5 6 5 5 6 5 5 5 5 5 5 5 5 5 5 5 5 5 6 6 6 5 5 5 6 6 6 5 5 5 5 5 5 5 5 5 5 5 5 5 5 5 5 6 5 5 6 5 5 5 5 5 5 5 6 5 5 5 5 5 5 5 5 5 5 5 5 5 5 5 5 5 5 5 5 5 5 5 5 5 5 5 5 5 5 5 5 6 5 5 5 5 5 5 5 5 5 5 6 5 5 5 6 5 5 5 5 5 5 6 6 5 5 5 5 6 5 6 5 5 5 5 5 5 5 5 5 5 5 5 6 5 5 5 5 5 5 5 5 5 5 5 5 6 5 5 5 5 5 5 5 5 5 5 5 5 5 5 6 5 5 5 6 6 5 5 5 5 5 5 6 5 5 5 5 5 5 5 5 5 5 5 5 5 5 5 5 5 5 5 6 5 5 5 5 5 5 5 5 5 5 5 5 5 5 5 5 5 5 5 5 5 5 6 5 5 5 5 5 5 5 5 6 5 5 5 5 5 5 5 5 5 5 5 5 5 5 5 5 5 5 5 5 5 6 5 5 6 5 5 5 5 5 5 5 5 5 5 5 5 5 5 5 5 5 5 5 5 5 5 5 5 5 5 5 5 5 6 5 5 5 5 5 5 5 5 6 5 5 5 6 5 5 5 6 5 5 5 5 5 6 5 5 5 5 5 5 6 6 5 6 6 5 5 6 5 5 5 5 5 5 5 5 5 5 5 5 5 5 5 5 5 5 5 5 5 5 5 5 5 5 5 5 5 5 5 5 5 5 5 5 5 5 5 5 5 5 5 5 5 5 5 5 5 5 5 5 5 5 5 5 5 5 5 5 5 5 5 5 5 5 5 5 5 5 5 5 5 5 5 5 5 5 5 5 5 5 5 5 5 5 5 5 5 5 5 5 5 5 6 5 5 5 5 5 5 5 5 5 5 5 5 5 5 5 5 5 5 5 5 5 5 5 5 5 5 5 5 5 5 5 5 5 5 5 5 5 5 6 5 5 5 5 5 5 5 5 5 5 5 5 5 5 5 5 6 5 5 5 5 5 5 6 6 5 5 6 5 5 6 5 5 5 5 6 5 5 5 5 5 5 5 5 5 5 5 5 5 5 5 5 5 5 5 5 5 5 5 5 5 5 5 5 5 5 5 5 5 6 5 5 5 5 6 5 5 5 6 5 5 5 5 5 5 6 5 5 5 5 5 5 5 5 5 6 5 5 5 5 5 5 5 5 5 5 6 5 5 5 6 5 6 5 5 6 6 6 5 5 5 5 6 5 5 5 5 5 5 5 5 5 5 5 5 5 5 6 5 5 5 5 5 6 5 6 5 5 6 5 5 5 5 5 5 6 5 5 5 5 6 5 5 5 5 5 6 6 5 5 6 5 5 5 5 5 5 5 6 6 5 6 5 5 5 6 5 5 5 6 5 5 5 6 5 5 5 5 5 5 6 6 5 5 5 5 5 6 5 6 5 5 6 6 5 5 6 5 6 6 5 5 6 5 6 5 5 6 6 5 5 5 5 5 5 5 6 5 6 5 6 5 5 5 5 6 5 5 5 5 5 5 5 5 5 6 5 5 5 5 5 5 5 6 5 5 5 6 5 6 5 5 5 5 6 5 6 5 6 5 6 5 5 5 6 5 5 5 5 6 5 5 5 5 5 5 6 5 6 5 5 6 5 5 5 5 5 5 6 5 5 5 5 5 5 5 5 5 5 5 6 5 6 5 5 6 6 5 5 5 5 6 5 6 6 5 6 5 5 6 5 5 5 5 6 5 5 5 5 5 5 6 5 5 5 5 5 5 5 5 5 6 5 5 5 6 5 5 5 5 5 5 5 5 5 5 5 5 5 5 5 5 5 5 6 5 5 5 5 5 6 6 5 5 5 6 5 5 5 6 5 5 5 5 5 5 5 5 5 5 5 5 5 5 5 5 5 5 5 5 5 5 5 5 5 5 5 5 5 5 5 6 5 5 5 5 5 6 5 5 5 5 5 5 5 5 5 5 5 5 5 5 5 6 5 5 5 6 5 5 5 5 5 5 5 5 5 5 5 5 5 5 5 5 5 5 5 5 5 5 5 5 5 5 5 6 5 5 5 5 5 5 6 5 5 6 5 5 5 5 6 5 5 6 6 5 5 5 6 5 5 5 6 5 5 5 5 5 5 5 5 5 5 5 5 5 6 5 5 5 5 5 5 5 5 5 5 5 5 5 5 5 5 5 5 5 5 6 5 5 5 5 5 5 5 5 6 5 5 5 6 5 5 5 5 5 5 5 5 5 5 6 5 5 5 5 5 5 5 5 5 6 5 5 6 5 6 5 5 5 5 5 5 5 5 5 6 6 5 5 5 5 5 6 5 5 6 6 6 5 5 5 5 5 5 6 5 6 5 5 6 6 5 5 6 5 5 5 5 5 6 5 5 5 5 5 5 5 5 5 5 5 6 5 5 5 6 6 5 5 5 5 5 5 5 5 5 5 6 5 5 6 5 6 6 5 6 5 6 5 6 5 5 5 5 5 5 6 6 5 5 5 5 5 5 5 6 5 6 5 5 5 5 5 5 5 6 5 5 5 5 5 5 6 5 5 5 5 5 5 5 5 5 6 5 5 5 5 6 5 5 5 5 5 5 5 5 5 5 5 5 5 5 5 5 5 5 5 5 5 5 5 5 5 5 5 5 5 5 5 5 6 5 5 5 5 5 5 5 5 5 5 6 5 6 5 5 6 5 5 5 5 5 5 5 5 5 5 5 5 6 5 6 5 5 5 5 5 5 5 5 5 5 5 5 5 5 5 6 5 5 5 5 5 6 6 5 5 6 5 5 5 5 5 5 5 5 5 5 5 6 5 5 5 5 6 5 5 5 5 5 5 6 6 6 5 6 5 6 6 5 6 6 6 5 5 5 6 5 6 5 5 6 5 5 5 5 5 5 6 5 6 5 5 5 5 5 5 6 5 5 5 6 5 5 5 6 5 6 5 5 5 6 5 5 5 5 5 6 5 5 5 5 5 5 5 5 5 5 5 5 6 6 5 5 5 5 5 5 6 5 6 5 5 6 5 5 5 5 5 5 5 5 5 5 5 5 6 5 5 5 5 5 5 5 5 6 5 6 5 6 5 5 6 5 5 5 5 5 5 5 5 5 5 5 5 6 5 5 5 5 5 6 5 5 5 5 5 5 6 5 5 5 5 5 5 5 5 5 5 5 5 5 6 5 6 5 5 5 6 5 5 5 5 5 6 5 5 5 5 6 5 6 5 5 5 5 6 5 5 5 5 6 5 5 5 5 5 5 6 5 6 6 6 5 5 6 6 5 5 5 5 6 5 6 5 5 5 6 5 5 5 5 5 5 5 5 5 5 5 5 5 5 5 5 5 5 5 5 5 5 5 5 5 5 5 5 5 6 5 5 6 6 5 5 5 5 6 6 6 5 5 5 5 6 5 6 5 5 6 6 5 5 5 5 6 5 6 6 5 5 5 5 5 5 5 5 5 5 6 5 5 6 5 5 5 5 5 6 5 5 5 5 5 5 5 6 5 6 5 5 6 5 5 5 5 5 5 5 5 5 5 6 5 5 5 5 5 5 5 5 5 6 5 6 5 5 5 5 5 5 5 5 5 5 5 5 5 5 5 6 5 5 5 5 5 5 5 5 5 5 5 5 5 5 6 5 5 5 6 5 5 5 5 5 5 5 6 5 5 5 5 5 5 5 5 5 5 6 5 5 5 5 5 5 5 5 5 5 5 5 5 5 6 5 5 5 6 5 5 5 5 5 6 5 5 5 5 5 5 5 5 5 5 5 5 5 5 5 5 5 5 6 5 5 5 5 5 5 5 5 5 5 5 5 5 5 5 6 5 5 5 5 5 5 5 5 6 5 5 5 6 5 5 5 5 6 5 5 5 5 5 5 5 5 5 5 6 6 5 5 5 6 5 5 5 6 5 5 5 5 5 6 5 5 5 5 5 5 5 5 5 6 5 5 6 5 5 5 5 5 5 5 6 5 6 5 5 6 5 6 5 6 5 5 5 5 5 5 6 5 5 5 5 5 5 6 5 5 6 5 5 5 6 5 6 5 6 5 6 5 5 6 5 6 5 5 6 6 6 5 5 5 5 5 5 6 5 5 6 5 5 6 5 6 5 5 5 5 5 5 5 5 6 5 5 6 5 6 5 5 5 5 5 5 5 5 5 5 5 5 5 5 5 5 6 5 6 5 5 5 5 6 5 6 5 5 5 5 5 6 5 6 5 5 5 5 5 5 5 6 5 5 5 5 5 5 6 5 6 5 6 5 5 5 5 6 5 5 5 5 5 5 5 6 5 6 5 6 5 5 5 6 5 5 5 5 5 5 5 5 5 5 5 5 5 6 5 5 5 5 5 5 5 5 5 6 5 5 6 5 5 5 6 5 5 6 5 5 6 5 6 5 5 5 5 5 5 5 5 5 5 5 5 5 6 5 6 5 5 5 5 5 6 5 5 6 5 5 5 5 6 5 5 5 5 5 6 5 5 6 5 6 5 6 6 5 5 5 6 5 5 5 5 6 5 6 5 5 5 5 5 5 5 5 5 5 5 5 5 5 5 5 5 5 5 5 6 5 5 5 6 5 5 5 5 5 5 5 5 5 5 5 5 5 5 6 5 5 5 5 5 5 5 5 5 5 5 5 5 5 5 5 5 5 5 5 5 5 5 5 5 6 5 5 5 5 5 5 5 5 5 5 5 5 5 5 5 5 5 5 5 5 5 5 6 6 5 5 5 5 6 5 5 5 5 5 5 5 5 5 5 5 5 5 5 5 5 6 6 5 5 6 6 5 6 5 5 5 6 5 5 6 5 5 5 6 5 5 5 6 5 5 5 5 6 5 6 5 5 5 5 6 6 5 5 5 5 5 5 6 5 5 5 6 5 5 5 5 5 5 5 5 6 5 5 5 6 6 5 5 6 5 5 5 6 5 5 5 5 5 5 5 6 5 5 5 5 6 5 5 5 6 6 5 5 6 6 5 5 5 5 5 5 5 5 5 5 5 5 5 5 5 5 5 5 5 5 6 5 5 6 5 5 5 6 5 5 5 5 6 5 6 5 6 6 5 5 6 5 5 6 6 5 5 5 5 5 5 5 5 5 5 5 6 5 5 6 5 6 5 5 6 5 5 6 5 5 5 5 6 5 5 5 6 5 5 5 6 5 5 5 5 5 5 5 5 6 5 5 5 5 5 5 5 5 5 5 6 5 5 5 5 5 5 5 5 6 5 5 5 5 5 5 6 5 5 5 5 5 5 5 6 5 5 5 5 5 5 5 5 5 5 5 5 5 6 5 5 5 5 5 6 5 5 5 5 5 5 5 5 5 5 5 5 5 5 5 5 5 5 5 5 5 5 5 5 5 6 5 5 5 5 5 5 5 5 5 6 5 5 5 5 5 5 6 5 5 5 5 5 5 5 5 5 5 5 5 5 5 5 5 5 5 5 5 5 5 5 5 6 6 5 5 5 6 5 5 5 6 5 5 5 5 5 5 5 5 5 5 5 5 5 5 5 5 5 5 6 5 5 5 5 5 5 5 5 5 5 5 5 5 5 5 5 6 5 5 5 5 5 5 5 5 5 5 5 5 5 6 6 5 5 5 5 5 5 5 5 5 6 5 5 5 5 5 5 6 5 5 5 5 6 5 5 5 5 5 5 6 5 5 5 5 5 5 5 5 5 5 5 5 5 5 5 5 5 6 5 5 6 5 5 5 5 6 6 5 5 5 5 5 5 6 6 5 5 5 6 5 6 5 5 5 6 5 5 5 5 5 5 5 5 5 5 6 5 6 5 5 5 6 5 5 5 5 5 5 5 5 5 5 5 5 5 5 5 5 5 5 5 5 5 5 5 5 5 5 5 5 5 5 5 5 5 6 6 5 5 6 5 5 5 5 5 5 6 6 5 5 5 5 5 5 5 5 5 5 5 5 5 6 5 5 5 5 5 5 5 5 5 5 5 5 5 5 5 5 5 5 5 5 5 5 5 5 5 5 5 5 5 5 5 5 5 5 5 5 5 5 5 5 5 5 5 5 5 5 5 5 5 5 5 5 5 5 5 5 5 5 5 5 5 5 5 5 5 5 5 5 5 5 6 5 5 5 6 5 5 5 5 5 5 5 5 5 5 5 5 5 5 5 5 6 5 5 5 5 5 5 5 5 5 5 5 5 5 5 5 5 5 5 5 5 6 5 5 5 5 5 5 5 6 5 5 6 5 5 5 5 5 5 6 5 5 5 5 5 5 5 5 5 5 5 6 5 5 5 5 5 5 5 6 5 5 5 5 6 5 5 6 5 5 5 5 5 5 5 5 5 5 5 5 6 5 5 5 6 5 5 5 5 5 5 5 5 5 5 6 5 5 5 5 5 5 5 5 5 6 5 5 5 5 5 5 5 5 5 5 5 5 5 5 5 6 5 5 6 6 5 5 5 5 6 5 5 5 5 5 6 5 5 6 5 5 5 5 5 5 5 5 5 5 5 5 5 5 5 5 5 5 5 5 6 5 5 5 5 5 5 5 5 5 5 6 5 5 6 5 5 5 6 5 5 6 5 5 5 5 5 6 5 5 5 6 5 5 5 6 5 6 5 5 5 5 5 5 5 6 5 5 5 5 6 5 5 6 5 5 5 5 5 6 5 5 5 6 6 5 5 5 5 5 6 5 5 5 5 5 5 6 5 5 5 5 5 5 5 5 5 5 5 5 6 5 6 5 5 5 5 6 5 5 5 5 6 5 5 6 5 5 5 6 5 5 5 5 5 5 5 5 6 5 5 5 5 5 5 5 5 5 5 5 5 5 5 5 5 5 5 5 6 5 5 5 5 5 5 6 5 5 5 5 5 5 5 5 5 5 5 6 5 5 5 5 5 5 5 5 5 5 5 6 5 5 5 5 5 6 5 5 5 5 6 6 5 5 6 5 6 5 6 6 6 6 5 5 5 5 5 5 6 6 5 5 5 5 6 5 5 5 5 5 6 5 5 5 5 5 6 5 5 5 5 6 5 5 6 5 5 5 6 5 6 5 5 6 5 5 5 5 5 5 5 5 5 5 5 5 5 5 5 5 5 5 5 5 5 6 5 5 5 5 5 5 5 6 5 5 5 6 5 5 5 5 6 5 5 5 5 5 6 5 5 5 5 5 5 5 5 5 5 5 5 5 5 5 5 5 5 5 5 5 5 6 5 5 5 5 5 6 5 5 5 6 5 6 5 5 5 6 5 6 5 5 5 5 5 5 5 5 5 5 5 5 5 5 5 5 5 5 6 5 5 5 5 6 5 5 6 5 5 5 5 5 5 5 5 5 5 5 5 5 6 5 5 5 5 5 6 5 5 5 5 5 6 5 5 5 6 5 6 6 5 5 5 5 5 5 5 5 5 5 5 5 5 5 5 5 6 5 5 6 5 6 5 5 5 5 5 5 5 5 5 5 5 5 5 5 6 5 5 5 6 5 5 6 5 5 6 5 6 5 5 5 5 5 5 5 5 5 5 5 5 5 5 6 5 5 6 5 5 5 5 6 5 5 5 5 5 5 5 5 5 5 5 5 5 5 5 5 5 5 5 5 5 5 5 6 5 6 5 5 6 5 5 5 5 5 6 5 5 5 5 5 5 5 5 5 5 5 5 5 5 6 5 5 5 5 5 6 5 5 5 5 5 5 5 5 5 5 5 5 5 5 5 5 5 5 5 5 5 5 5 5 6 6 6 5 6 5 5 5 5 5 5 6 5 5 6 6 5 5 5 5 5 5 5 5 5 5 5 6 5 5 5 5 6 6 5 5 5 5 5 5 6 5 5 5 5 5 6 5 5 6 6 6 5 5 6 5 5 5 5 5 6 6 5 6 5 5 5 5 5 5 5 6 5 5 5 5 5 5 5 5 5 5 5 5 5 5 5 5 5 5 5 5 5 5 5 5 5 5 5 5 6 5 5 5 5 5 5 6 6 5 5 5 5 5 5 5 5 5 6 5 5 5 5 5 5 5 5 6 5 5 5 6 5 5 5 6 5 5 6 5 5 5 5 5 6 5 5 5 5 6 6 5 5 5 5 5 6 5 5 5 5 5 5 5 5 5 5 5 5 5 6 5 5 5 5 5 5 5 5 5 5 5 5 5 5 5 5 5 5 5 5 5 5 5 5 5 5 5 5 5 5 5 5 5 5 5 5 5 5 5 5 5 5 5 5 5 5 5 5 5 5 5 5 5 5 5 6 6 5 5 5 5 5 5 5 5 5 5 5 5 6 5 5 5 5 5 5 5 5 5 6 5 5 5 5 5 5 5 5 5 5 5 5 5 5 6 5 5 5 6 5 5 5 6 6 6 5 5 6 5 5 6 5 5 6 5 5 6 6 5 5 5 6 5 5 5 5 6 5 6 5 6 5 6 5 5 5 5 5 6 5 5 5 5 5 5 5 5 5 5 5 5 5 5 5 5 5 5 5 5 5 5 5 5 5 5 5 5 5 5 5 5 5 5 6 5 6 5 5 5 6 5 5 5 5 5 5 5 5 5 5 5 5 5 5 6 5 5 6 5 6 5 5 5 5 5 5 5 5 5 5 6 5 5 5 5 5 5 5 6 5 5 5 6 5 5 5 5 5 5 5 5 5 5 5 5 5 5 5 5 5 5 5 5 6 5 5 5 5 5 5 6 5 6 5 5 5 5 6 5 5 5 5 6 5 5 6 5 5 5 5 6 5 5 5 5 5 5 5 5 5 5 5 5 5 5 5 5 5 5 5 5 6 5 5 5 5 5 5 5 6 5 5 5 5 5 5 5 5 5 5 5 5 6 5 6 5 5 5 5 5 5 5 5 5 5 5 5 5 5 6 5 5 5 5 5 5 5 5 6 5 5 5 6 5 5 5 5 5 5 5 5 5 5 5 5 5 5 5 5 5 5 5 5 5 5 5 5 5 5 5 5 5 5 5 5 5 5 5 5 5 5 6 5 5 5 5 6 5 6 5 5 5 5 5 5 6 5 5 5 5 5 5 5 5 5 5 5 5 5 5 5 5 5 5 5 5 5 5 5 5 5 5 5 5 5 5 6 5 5 5 5 5 5 5 5 5 5 5 5 5 5 5 6 5 5 5 5 5 5 6 5 5 5 5 6 5 5 5 5 5 6 5 5 5 5 5 5 6 5 5 5 5 5 5 5 5 6 5 5 5 6 5 5 5 5 5 5 5 5 5 5 5 5 5 5 5 5 5 5 5 6 5 5 5 5 6 5 5 5 5 6 6 5 5 5 5 5 5 5 5 5 5 5 5 5 5 6 6 5 5 5 5 5 5 5 5 5 6 5 5 5 5 5 5 5 5 5 5 5 5 5 6 5 5 5 5 5 5 5 5 5 5 5 5 5 5 5 5 5 5 5 5 5 5 5 5 5 6 5 5 5 5 5 5 6 5 5 6 5 5 5 5 5 5 5 6 5 6 5 5 5 6 5 5 5 5 5 5 5 5 5 5 5 6 5 5 5 5 5 5 5 5 5 5 5 5 6 6 5 6 5 6 6 5 5 5 6 5 5 6 5 5 6 5 6 5 6 5 5 5 5 5 5 5 5 5 5 5 5 5 5 5 5 5 6 5 5 5 5 5 6 5 5 5 5 5 5 5 5 5 5 5 5 5 5 5 5 6 5 5 5 5 6 5 5 5 5 5 5 5 5 5 5 6 5 5 5 5 5 5 5 6 6 5 5 5 5 5 5 5 5 5 5 5 6 5 5 6 5 5 5 5 5 5 5 5 5 6 5 5 5 6 5 5 5 5 5 5 5 5 5 5 5 5 6 5 5 5 5 5 5 5 6 5 5 5 5 6 5 5 5 5 5 5 5 5 5 5 5 5 5 5 5 5 5 5 5 5 5 5 5 5 5 5 5 6 5 5 5 5 5 5 5 5 5 5 5 6 5 5 6 5 5 5 6 5 6 5 5 5 5 5 5 5 5 5 5 5 5 5 5 5 5 5 5 6 5 5 6 5 5 5 5 5 5 5 5 5 5 5 6 5 6 5 5 5 5 5 5 5 5 5 5 5 5 5 5 5 5 5 5 6 5 5 5 5 6 5 5 5 5 5 5 5 5 6 5 5 5 5 5 5 5 5 5 5 5 5 5 5 5 5 5 5 6 5 5 6 5 5 5 5 5 5 5 6 5 5 5 6 5 5 5 5 5 5 5 5 5 5 5 5 5 5 5 5 5 5 5 5 5 5 6 5 5 5 5 5 5 5 5 5 5 5 5 6 6 5 6 5 5 6 5 5 5 5 6 5 5 5 5 5 5 5 5 5 5 5 5 5 5 5 5 5 5 5 5 5 5 5 5 5 5 5 5 5 5 5 5 5 5 5 5 6 5 5 5 5 5 5 5 5 6 5 5 6 5 6 5 5 5 5 5 5 5 5 5 5 5 5 5 5 5 5 5 5 5 5 5 5 5 5 5 5 5 5 5 5 5 5 5 5 5 6 5 5 5 6 5 5 5 5 5 5 5 6 6 5 6 5 5 5 5 5 5 5 5 5 5 5 5 5 5 5 5 5 5 5 5 5 5 5 5 5 5 6 6 5 5 5 5 5 5 5 5 5 5 5 5 5 5 5 5 5 5 5 5 5 5 5 5 5 5 5 5 5 5 5 5 5 5 6 5 5 5 5 5 6 5 5 5 5 5 6 5 5 5 5 5 5 5 5 5 5 6 5 5 5 6 5 6 5 5 5 6 5 5 6 5 6 5 5 5 5 5 5 5 5 6 5 6 5 5 5 5 6 5 6 5 5 6 5 5 5 5 5 5 5 5 5 5 6 5 5 5 6 5 6 5 6 6 5 5 5 5 5 5 5 5 5 5 6 5 6 5 6 5 5 5 5 5 5 5 5 5 6 5 5 5 5 5 5 5 5 6 5 6 5 5 5 5 5 5 5 5 5 5 5 5 5 5 5 6 5 5 5 5 5 5 5 5 5 5 5 5 5 5 5 5 5 5 5 5 5 5 5 5 5 5 5 5 5 5 5 5 
</DataArray>
<DataArray type="Float64" Name="stress" NumberOfComponents="9" format="ascii">
765.6127491179941 -1.7309314730067626 0 -1.7309314730067626 -93.913144347779621 0 0 0 0 1782.7893012069035 -269.51034917592523 0 -269.51034917592523 -204.79101076971097 0 0 0 0 3489.1240963554919 -1845.3334685411689 0 -1845.3334685411689 129.33348774293825 0 0 0 0 -92.66793675601366 -98.959736612120537 0 -98.959736612120537 1364.310488774446 0 0 0 0 -1726.8480255389441 -670.69789115563549 0 -670.69789115563549 2760.824013235801 0 0 0 0 1378.1394731570181 -1097.2023779366223 0 -1097.2023779366223 1980.5529298493916 0 0 0 0 20.098060159246359 4.7378295736403544 0 4.7378295736403544 3.1956670055338439 0 0 0 0 689.93019600409752 604.62227748471673 0 604.62227748471673 1692.2717248766987 0 0 0 0 -497.51393325808385 1044.8974318112141 0 1044.8974318112141 1612.8949837721104 0 0 0 0 3475.3897581409401 702.16674343417856 0 702.16674343417856 455.37426297048006 0 0 0 0 139.62424934854789 362.41230414878328 0 362.41230414878328 768.45185774327047 0 0 0 0 138.26586127176415 358.66492210243132 0 358.66492210243132 1435.479272521703 0 0 0 0 25.83030590385107 -0.26950345631928485 0 -0.26950345631928485 0.9174944915809351 0 0 0 0 321.34093127022788 847.34212924980625 0 847.34212924980625 2128.9335672895181 0 0 0 0 1431.0245726177091 868.88152955374096 0 868.88152955374096 1132.0384745092065 0 0 0 0 2411.5886962490549 -231.01039622416764 0 -231.01039622416764 -1175.4537622798932 0 0 0 0 32.671306474181733 5.0221177532758219 0 5.0221177532758219 -0.48266982962191274 0 0 0 0 87.139894423584337 -716.68881788708507 0 -716.68881788708507 -55.687496832252037 0 0 0 0 -0.098420828551752493 -1180.5484325631621 0 -1180.5484325631621 1216.179203822209 0 0 0 0 -264.11162090693688 -147.43176876194113 0 -147.43176876194113 337.50395881958616 0 0 0 0 12.726016310656235 -0.39227012827378616 0 -0.39227012827378616 -0.64789085900820254 0 0 0 0 657.92223393067979 -124.41768162627039 0 -124.41768162627039 0.68951326118077727 0 0 0 0 -18.18287736120692 80.282540326644295 0 80.282540326644295 -154.40670694665968 0 0 0 0 -127.30942408674309 -104.59312391949679 0 -104.59312391949679 243.50539023476472 0 0 0 0 -51.310781254804169 -249.03123251314241 0 -249.03123251314241 -365.56524364100471 0 0 0 0 -96.933282488666009 -321.85417467575758 0 -321.85417467575758 -884.90946329099381 0 0 0 0 18.318791155939152 -1.8856613504070197 0 -1.8856613504070197 -5.1350001378910601 0 0 0 0 -3.0759086956442729 -9.9003180180715979 0 -9.9003180180715979 0.24456517287393426 0 0 0 0 159.88633420589758 -156.70118388863332 0 -156.70118388863332 -808.39520728806519 0 0 0 0 -84.522546098509338 405.07222706237155 0 405.07222706237155 -287.75442870769882 0 0 0 0 870.95250628262147 -1000.9059393224817 0 -1000.9059393224817 -317.84629078928401 0 0 0 0 676.03196370287333 282.37063132101275 0 282.37063132101275 -979.41225598092046 0 0 0 0 104.17850728210112 -4.3919669560828964 0 -4.3919669560828964 -8.6886176829469406 0 0 0 0 53.606476976619888 190.34224217304791 0 190.34224217304791 -990.6385280158288 0 0 0 0 373.67899934366869 130.03212936692557 0 130.03212936692557 17.730352609016279 0 0 0 0 131.64895273145521 347.34235482496865 0 347.34235482496865 636.42297298141239 0 0 0 0 72.281173616860826 3.6597429278622009 0 3.6597429278622009 -1.2839114586103813 0 0 0 0 170.16156532155583 388.58504170212063 0 388.58504170212063 680.38625887931948 0 0 0 0 829.68825499502418 -362.24033810579317 0 -362.24033810579317 -1649.1931390360987 0 0 0 0 267.95079112588792 612.64325228192638 0 612.64325228192638 595.65134606847221 0 0 0 0 299.8581241240754 524.22297115193669 0 524.22297115193669 523.52261352119513 0 0 0 0 320.98296694504097 523.2951600491092 0 523.2951600491092 468.84583211545055 0 0 0 0 155.78472883201175 136.51847076931989 0 136.51847076931989 293.11616203800804 0 0 0 0 395.10950040541502 373.77267297964136 0 373.77267297964136 373.69877245856134 0 0 0 0 495.05805708415573 425.94058990945456 0 425.94058990945456 298.6765837919487 0 0 0 0 462.04354368391796 564.63676416898147 0 564.63676416898147 697.52499754462679 0 0 0 0 678.62960043732892 672.11219866771989 0 672.11219866771989 634.9698235199171 0 0 0 0 676.8000693427457 479.54224265562334 0 479.54224265562334 308.16692926994244 0 0 0 0 747.70759730049758 930.22741591376644 0 930.22741591376644 1174.4525981399456 0 0 0 0 624.93799746228615 488.35287875508038 0 488.35287875508038 809.15610940443958 0 0 0 0 554.13574777930626 345.36947921634737 0 345.36947921634737 1116.3626950318403 0 0 0 0 631.17108338194384 686.59136675055584 0 686.59136675055584 742.2433600472923 0 0 0 0 543.63501914273365 514.30546897303611 0 514.30546897303611 731.25546360825979 0 0 0 0 321.80588647654804 602.24699245427564 0 602.24699245427564 768.74235275479532 0 0 0 0 338.24476724966371 634.75671330696014 0 634.75671330696014 599.69819839670618 0 0 0 0 241.37773839596775 610.63902956953552 0 610.63902956953552 598.4273377837626 0 0 0 0 523.25580248134065 626.10064366380152 0 626.10064366380152 536.4982217585607 0 0 0 0 321.4581367547944 606.94683058913051 0 606.94683058913051 759.84381817027077 0 0 0 0 22.950331336163799 -156.16443904545918 0 -156.16443904545918 -48.697201773856023 0 0 0 0 652.26930973629351 98.767497596312225 0 98.767497596312225 -94.643827756755229 0 0 0 0 140.42780998217495 15.114354273480878 0 15.114354273480878 159.20082143692568 0 0 0 0 -5.9254380714264698 -106.91020192727683 0 -106.91020192727683 97.484265471902006 0 0 0 0 56.136165634297313 -54.623754610775748 0 -54.623754610775748 -12.542343387710529 0 0 0 0 257.6126093064122 92.204860558562928 0 92.204860558562928 452.03867700556884 0 0 0 0 693.19319411688775 562.14010307606372 0 562.14010307606372 93.841586527614595 0 0 0 0 674.71589673075607 358.43272152490573 0 358.43272152490573 507.80829947603479 0 0 0 0 658.03346543205407 661.11246971464982 0 661.11246971464982 770.41447675261588 0 0 0 0 962.47157768782927 679.20832484167295 0 679.20832484167295 505.06242020991874 0 0 0 0 102.69461398337444 -48.907105379674704 0 -48.907105379674704 -54.165605723213503 0 0 0 0 78.174847263835545 -82.313117316573653 0 -82.313117316573653 -58.701294043105008 0 0 0 0 58.060032924870029 -56.454272956749719 0 -56.454272956749719 -26.876407882005822 0 0 0 0 45.396742003669289 -62.255189249132727 0 -62.255189249132727 0.0068816900166712713 0 0 0 0 60.862196800593665 -27.123475033345755 0 -27.123475033345755 -33.504425637723443 0 0 0 0 1387.3445707416977 757.82452131672107 0 757.82452131672107 -374.42974824135308 0 0 0 0 517.62124671592028 795.85111206209331 0 795.85111206209331 -62.03616223399149 0 0 0 0 -363.15864540907933 56.374741478152146 0 56.374741478152146 507.39958226290582 0 0 0 0 456.30935761114233 -226.52132837837053 0 -226.52132837837053 90.364983392372324 0 0 0 0 57.354884445881908 -20.262066589576236 0 -20.262066589576236 0.20116403178844777 0 0 0 0 1536.7625676318421 346.62868698762395 0 346.62868698762395 -86.043505481561851 0 0 0 0 896.8679074252359 -115.22874961498442 0 -115.22874961498442 -1955.1861979194875 0 0 0 0 1419.6862616431317 2131.9729838804687 0 2131.9729838804687 1813.9818731468868 0 0 0 0 2245.6501140897162 1068.9653505554579 0 1068.9653505554579 221.75222596052663 0 0 0 0 2341.5756020870176 604.20432025511036 0 604.20432025511036 -59.272924651300855 0 0 0 0 2795.024216122285 788.8304748318551 0 788.8304748318551 345.31082779247845 0 0 0 0 2821.0245930140372 1354.551556938326 0 1354.551556938326 118.76568500573376 0 0 0 0 2296.3175785117201 1387.697961995962 0 1387.697961995962 273.28220410050017 0 0 0 0 1891.3910420269822 1077.6577019495126 0 1077.6577019495126 136.973894122807 0 0 0 0 2059.5637023902673 999.38392725594167 0 999.38392725594167 133.38463169354509 0 0 0 0 2326.3542811463158 881.25264458746369 0 881.25264458746369 -47.923047599437268 0 0 0 0 2131.203391592775 958.42689935526232 0 958.42689935526232 -50.25874854151516 0 0 0 0 1620.7891615004046 538.74059026480063 0 538.74059026480063 -206.25754281151967 0 0 0 0 1631.1936600134941 521.81001675427433 0 521.81001675427433 -418.47053193687111 0 0 0 0 1201.8783245766535 -26.28570143955767 0 -26.28570143955767 -133.94671770932382 0 0 0 0 1301.490532100026 421.77972548929938 0 421.77972548929938 6.7665331748685276 0 0 0 0 2207.6893988208467 1718.798932176908 0 1718.798932176908 646.18324941807987 0 0 0 0 1698.7469616697636 1289.7623367885196 0 1289.7623367885196 870.31700443634509 0 0 0 0 1078.5328874035622 782.09699244862441 0 782.09699244862441 662.17725065085688 0 0 0 0 1073.3947289227508 360.67875730090077 0 360.67875730090077 -1252.2760343084055 0 0 0 0 371.5565820364136 145.25721309359551 0 145.25721309359551 -559.07685387306901 0 0 0 0 956.72788813963416 50.083923049632631 0 50.083923049632631 -545.87131742380222 0 0 0 0 965.75823745597154 108.61362778516559 0 108.61362778516559 -310.7422323538907 0 0 0 0 1540.9677211980015 498.01588574101288 0 498.01588574101288 -353.55346933360215 0 0 0 0 1952.4336295366957 351.29156687368777 0 351.29156687368777 -484.37419407118432 0 0 0 0 1177.8909909009235 83.02302055239943 0 83.02302055239943 -588.1365136187469 0 0 0 0 1457.7679208948102 854.93696401223042 0 854.93696401223042 -1451.7570765176965 0 0 0 0 1451.3209598043522 742.79839185430706 0 742.79839185430706 1699.9269030444393 0 0 0 0 1553.6551132622408 905.65133450204576 0 905.65133450204576 1583.7142045424989 0 0 0 0 875.54526632979105 362.22378738517273 0 362.22378738517273 -31.527816466763852 0 0 0 0 10.30505169629464 5.0611063334610407 0 5.0611063334610407 -7.6791740466520366 0 0 0 0 1.6462980691860025 -7.0014541511529362 0 -7.0014541511529362 0.50611471687875498 0 0 0 0 1606.0451141889862 1149.8970628713896 0 1149.8970628713896 816.59874056153785 0 0 0 0 1970.3146190727639 141.41319156171198 0 141.41319156171198 -609.73890961437428 0 0 0 0 29.606501718373494 8.1389604037423666 0 8.1389604037423666 -8.1948516738960464 0 0 0 0 1597.8006073285942 867.87197584596106 0 867.87197584596106 330.96406773509455 0 0 0 0 14.215168050708598 1188.4930769533912 0 1188.4930769533912 427.66509955237115 0 0 0 0 956.00476384041394 591.27218916844117 0 591.27218916844117 -802.46364734300323 0 0 0 0 725.30611558162491 313.25725113424522 0 313.25725113424522 -966.35444225140691 0 0 0 0 311.577282357699 -328.82058337319995 0 -328.82058337319995 -1458.6614457922415 0 0 0 0 470.60360077590667 1125.6833576859556 0 1125.6833576859556 2069.6311320797504 0 0 0 0 615.17687793282676 1490.3716536488541 0 1490.3716536488541 2081.7295541202634 0 0 0 0 13.729115725182538 4.6710195885069581 0 4.6710195885069581 -4.0713001675068323 0 0 0 0 373.2074661879451 465.17796255950725 0 465.17796255950725 1662.7279177729833 0 0 0 0 301.60525415409938 231.3328548830732 0 231.3328548830732 -649.71725126033584 0 0 0 0 49.550185994972708 -326.65498492135339 0 -326.65498492135339 -1231.8598647832773 0 0 0 0 -642.90379817622306 164.80011469866326 0 164.80011469866326 -276.87214797180195 0 0 0 0 434.68644962174585 259.6821783602345 0 259.6821783602345 -644.11348204601018 0 0 0 0 350.3517447704362 397.54157053881022 0 397.54157053881022 -600.66895928887652 0 0 0 0 200.3262814192567 409.1826409242492 0 409.1826409242492 -586.03159430309006 0 0 0 0 476.80763744180149 275.96301429774826 0 275.96301429774826 -562.99513772138675 0 0 0 0 380.81707851524698 427.3724600725061 0 427.3724600725061 -751.01301487842773 0 0 0 0 357.88747546698141 417.93370363459167 0 417.93370363459167 -547.10492898686505 0 0 0 0 300.2779089271271 369.01228616062377 0 369.01228616062377 -350.81639267963828 0 0 0 0 278.7651229599287 74.402867332181302 0 74.402867332181302 -766.87646403900305 0 0 0 0 505.62339875145699 -158.70764850156479 0 -158.70764850156479 -1366.8913443441375 0 0 0 0 -241.45033833765774 335.30471359321314 0 335.30471359321314 1848.70486338675 0 0 0 0 9.6330741349160576 5.6034120322858989 0 5.6034120322858989 -1.9093127254613156 0 0 0 0 -187.97171166598855 -187.21762459988142 0 -187.21762459988142 -570.49266667758184 0 0 0 0 594.98959145297704 473.35415672024351 0 473.35415672024351 -331.15344340269712 0 0 0 0 23.142845365827156 9.6606657489514163 0 9.6606657489514163 -3.2357994723292505 0 0 0 0 27.064126192432013 505.43093083015629 0 505.43093083015629 -133.29271455439039 0 0 0 0 588.55774621589808 476.21821908431809 0 476.21821908431809 -274.95271605923915 0 0 0 0 765.85503259401594 976.14877158874697 0 976.14877158874697 17.219528164799499 0 0 0 0 434.97525428974768 379.86259689169935 0 379.86259689169935 -439.79792212695065 0 0 0 0 1292.0267232358383 837.79873780069897 0 837.79873780069897 -446.28921284259354 0 0 0 0 2031.7152638253756 1470.7195679430088 0 1470.7195679430088 -139.79436763352118 0 0 0 0 2052.2054863528901 1347.6802528019125 0 1347.6802528019125 -445.02862110740358 0 0 0 0 3092.6678951687427 1786.7287865798144 0 1786.7287865798144 -261.73858088143362 0 0 0 0 1866.3092638367452 2548.0371362113497 0 2548.0371362113497 2768.222403164039 0 0 0 0 3495.261243031935 2374.5013189310976 0 2374.5013189310976 595.62129135461407 0 0 0 0 399.98503027798142 420.81250202243677 0 420.81250202243677 21.881208611478087 0 0 0 0 722.78506233911321 1400.0221170268417 0 1400.0221170268417 1681.130617202494 0 0 0 0 775.13268777252233 1034.6247559218375 0 1034.6247559218375 445.58244574484894 0 0 0 0 10.950061731109599 1013.5852505236198 0 1013.5852505236198 753.92054695782497 0 0 0 0 -634.56358968892528 -226.60264011994229 0 -226.60264011994229 1423.8527967978534 0 0 0 0 1929.7384433992556 -313.08806904587072 0 -313.08806904587072 -548.35793067736688 0 0 0 0 3479.798480980302 882.65417812854025 0 882.65417812854025 164.41923925038461 0 0 0 0 14.602865856337814 7.1182977219680126 0 7.1182977219680126 -0.13918944033587383 0 0 0 0 1362.001584912723 1134.1426384042586 0 1134.1426384042586 2006.7638821881055 0 0 0 0 12.089448980776069 2.9209138519908535 0 2.9209138519908535 -1.5527449142651153 0 0 0 0 1232.0599611392827 -239.22323554585765 0 -239.22323554585765 76.421893492385863 0 0 0 0 253.79660410241922 -861.78379916845768 0 -861.78379916845768 96.735188395398524 0 0 0 0 -570.51630416547414 -10.838938919348493 0 -10.838938919348493 1349.7436705283287 0 0 0 0 -512.38543724579358 920.59670626047409 0 920.59670626047409 168.44801022855199 0 0 0 0 955.95309297645872 136.93066286523268 0 136.93066286523268 557.98547267314234 0 0 0 0 303.56917448250169 709.39800919673553 0 709.39800919673553 629.18608572517314 0 0 0 0 578.32862924250367 413.42517211905886 0 413.42517211905886 -11.447754145835688 0 0 0 0 538.63484362934832 372.43428961046641 0 372.43428961046641 915.35595302489719 0 0 0 0 313.00020674489497 590.02799360290646 0 590.02799360290646 537.29205471829209 0 0 0 0 396.53201313999671 886.30173935931487 0 886.30173935931487 919.97240635501748 0 0 0 0 225.83668596026837 645.20160763141291 0 645.20160763141291 772.36868936938549 0 0 0 0 162.46443280903623 584.72246254052448 0 584.72246254052448 567.00495536765038 0 0 0 0 -94.324092594761169 416.55341531731347 0 416.55341531731347 639.16831237952965 0 0 0 0 48.107949798431946 100.50261378139021 0 100.50261378139021 280.55068562346651 0 0 0 0 279.10825805147761 551.36888701151611 0 551.36888701151611 490.40855384717815 0 0 0 0 133.09819975971186 589.98340787307961 0 589.98340787307961 767.95121888356607 0 0 0 0 247.43465351530176 289.10279510702992 0 289.10279510702992 1141.7595497552484 0 0 0 0 27.962990122250403 6.1604927916019676 0 6.1604927916019676 -7.1097021687566135 0 0 0 0 194.89967174647609 662.56583062004404 0 662.56583062004404 599.45479928535792 0 0 0 0 665.35968834553205 169.34285125872202 0 169.34285125872202 -471.83980625209767 0 0 0 0 12.276945584104396 805.9516650385691 0 805.9516650385691 1138.6371550273511 0 0 0 0 416.12652717888705 -158.4532468607828 0 -158.4532468607828 43.088852397599453 0 0 0 0 227.77984249351721 -33.789454286693115 0 -33.789454286693115 7.6065861718876491 0 0 0 0 261.6082797217241 -66.21946690564711 0 -66.21946690564711 60.555838439584875 0 0 0 0 273.05294445276741 -90.911253956255578 0 -90.911253956255578 11.841027234529065 0 0 0 0 146.30484968386008 -195.17947114008905 0 -195.17947114008905 0.16850610247486231 0 0 0 0 102.14755456133571 -115.65359393650522 0 -115.65359393650522 89.119742651384627 0 0 0 0 134.30130052254754 -121.70274914845508 0 -121.70274914845508 4.3227956673597419 0 0 0 0 124.18247680414788 -85.981702091357704 0 -85.981702091357704 44.175473466529411 0 0 0 0 222.4338302955889 -99.185073540231798 0 -99.185073540231798 -59.967849904839113 0 0 0 0 47.049552444397705 20.65658553758151 0 20.65658553758151 -0.152119029232794 0 0 0 0 107.06125415899442 -117.32212519115694 0 -117.32212519115694 20.270242976647296 0 0 0 0 132.21325824208907 -74.194342374391738 0 -74.194342374391738 -69.917651759254966 0 0 0 0 149.14815515457303 -47.608567100347273 0 -47.608567100347273 -143.89775470686436 0 0 0 0 145.80044961156091 -122.8090198047766 0 -122.8090198047766 19.271493169369982 0 0 0 0 -0.23668984497598444 -1.2705591032259633 0 -1.2705591032259633 -1.9149746920080317 0 0 0 0 53.027796118258266 7.4109956856723969 0 7.4109956856723969 -16.778859671726622 0 0 0 0 113.34377355888137 -93.46222795705151 0 -93.46222795705151 79.549454553997123 0 0 0 0 -0.1148087958482904 -0.54098502668065862 0 -0.54098502668065862 -0.67279578235495807 0 0 0 0 171.65099421489867 -60.050789461830547 0 -60.050789461830547 -16.364897284968517 0 0 0 0 -18.407582936444669 53.567201388624852 0 53.567201388624852 -14.656041631298862 0 0 0 0 131.07216422216516 32.362707089480352 0 32.362707089480352 -132.01754467166793 0 0 0 0 -0.22248514301995215 -0.803340348060118 0 -0.803340348060118 -1.0723764934510931 0 0 0 0 150.56609459417086 -57.042317331746005 0 -57.042317331746005 -359.40245188766551 0 0 0 0 79.714023886059294 -210.01074774184295 0 -210.01074774184295 31.510089325456619 0 0 0 0 56.832941932014364 -120.82613248277357 0 -120.82613248277357 -315.70157217005942 0 0 0 0 16.172894832474412 -129.31768737757943 0 -129.31768737757943 -119.83787446285214 0 0 0 0 32.160247118498773 -213.93759780572293 0 -213.93759780572293 -238.55092220409222 0 0 0 0 50.672509806001472 -224.34809385290851 0 -224.34809385290851 -258.65703208578589 0 0 0 0 137.94227076541574 -143.05061361982484 0 -143.05061361982484 -187.41295273427261 0 0 0 0 77.26193121855249 -133.46088187110192 0 -133.46088187110192 -181.45069533936589 0 0 0 0 57.013546582660638 -89.451444291930898 0 -89.451444291930898 -78.81509122701641 0 0 0 0 58.761574764343095 -116.69652562217937 0 -116.69652562217937 -129.46829829240198 0 0 0 0 20.03855468067195 -95.025547281793706 0 -95.025547281793706 -39.562465971289157 0 0 0 0 79.676755076172412 -55.769961078658412 0 -55.769961078658412 -95.375126979019115 0 0 0 0 70.931872712922512 -22.50261524359415 0 -22.50261524359415 0.13031435696950133 0 0 0 0 53.783824415921117 -45.487110694454259 0 -45.487110694454259 -17.156959054537651 0 0 0 0 94.606662259095174 11.45342918230881 0 11.45342918230881 -50.444080838643231 0 0 0 0 68.421024783952902 -9.6990651324778945 0 -9.6990651324778945 -0.24891311824054352 0 0 0 0 84.11083377795876 -59.7527974530135 0 -59.7527974530135 -39.046432766407861 0 0 0 0 65.14283808336512 -15.737431412710492 0 -15.737431412710492 0.028118578273583772 0 0 0 0 54.796567859968491 -9.2870633051441018 0 -9.2870633051441018 -95.121445378812496 0 0 0 0 86.035694206266925 -7.3734829837116536 0 -7.3734829837116536 -2.651885399822191 0 0 0 0 115.16281805533799 -63.749457991049439 0 -63.749457991049439 -76.151194329428563 0 0 0 0 77.859576680239115 -60.247738405689972 0 -60.247738405689972 -105.84859884907655 0 0 0 0 117.26939273587777 16.516166386447367 0 16.516166386447367 -29.668519858874561 0 0 0 0 156.31569669701275 -67.861930986984476 0 -67.861930986984476 -134.74711765103893 0 0 0 0 148.71017371152993 -98.158246965435865 0 -98.158246965435865 -208.82082329834668 0 0 0 0 220.17859676924127 23.446494797340165 0 23.446494797340165 -196.53143456926605 0 0 0 0 183.21308073456748 -63.182836306934405 0 -63.182836306934405 -8.0039025047040013 0 0 0 0 177.87725123959535 -109.45721836242603 0 -109.45721836242603 46.008151491371791 0 0 0 0 24.37921782958415 11.954669840581829 0 11.954669840581829 -16.840647415096868 0 0 0 0 168.60079091142288 -28.748549665696117 0 -28.748549665696117 -6.3458101263034123 0 0 0 0 128.12905115567264 160.94828600846523 0 160.94828600846523 12.019259979599155 0 0 0 0 177.91226259176619 91.571360282966452 0 91.571360282966452 -123.03424739177626 0 0 0 0 190.55672326723712 15.972378879248925 0 15.972378879248925 -58.310383827654434 0 0 0 0 111.86371820114437 -138.94673005911318 0 -138.94673005911318 -35.901756769236272 0 0 0 0 132.52344550722046 -25.521527067554416 0 -25.521527067554416 42.449058971410977 0 0 0 0 107.95842554132105 -46.046450653965394 0 -46.046450653965394 43.130941844486188 0 0 0 0 109.30245102811188 -37.574124543119169 0 -37.574124543119169 -15.114709648478611 0 0 0 0 57.656783982820343 -25.121468320179702 0 -25.121468320179702 -34.29044280173639 0 0 0 0 84.377875702006406 -18.134548564793739 0 -18.134548564793739 1.2335213849388751 0 0 0 0 38.535463635903568 -20.552231843606457 0 -20.552231843606457 -0.029538336815480903 0 0 0 0 17.412292931391391 -7.6013453584612023 0 -7.6013453584612023 0.5654520625506354 0 0 0 0 140.2546839385177 14.223202551414516 0 14.223202551414516 -252.34993646656631 0 0 0 0 119.57939819146122 -154.3999770984135 0 -154.3999770984135 -243.19276217279594 0 0 0 0 166.9343588448537 -158.08061709478545 0 -158.08061709478545 -315.77482224883983 0 0 0 0 137.05972866922093 -161.1698201277884 0 -161.1698201277884 -246.18541484168395 0 0 0 0 180.0647487073511 -115.25148168029742 0 -115.25148168029742 -214.43666668450805 0 0 0 0 160.11523809808932 -167.07539481971844 0 -167.07539481971844 -253.65370559603389 0 0 0 0 174.35585540331522 -133.39374271831849 0 -133.39374271831849 -235.85085452343083 0 0 0 0 108.51598036338692 -157.38893687043787 0 -157.38893687043787 -100.64882800794436 0 0 0 0 133.08156998500635 -182.29484366622296 0 -182.29484366622296 -212.25275960241447 0 0 0 0 116.12958427022568 -96.095696294635971 0 -96.095696294635971 -144.81053594786385 0 0 0 0 163.14119910233421 -165.64644330979786 0 -165.64644330979786 -57.539880477607767 0 0 0 0 104.13530148981954 -267.86658224438213 0 -267.86658224438213 -298.44497802830506 0 0 0 0 138.98076530164508 -95.791965653632076 0 -95.791965653632076 -327.6894466733861 0 0 0 0 143.55618306370161 -70.128361326772165 0 -70.128361326772165 -291.8888385492553 0 0 0 0 126.45977113537629 -169.28402031624532 0 -169.28402031624532 -168.20192857683878 0 0 0 0 14.852157532533511 -24.976660556745159 0 -24.976660556745159 3.6040540513697401 0 0 0 0 117.53006560413633 -53.704239664387387 0 -53.704239664387387 -143.47557100431982 0 0 0 0 114.15638271308126 -142.56197191499223 0 -142.56197191499223 -15.195287093233674 0 0 0 0 15.012358946914901 -52.60248402659272 0 -52.60248402659272 76.603327603374964 0 0 0 0 129.78215483411077 25.705357080732369 0 25.705357080732369 -683.31151275434604 0 0 0 0 -6.4506061275379238 -1.2096856156817921 0 -1.2096856156817921 -1.6733755722660923 0 0 0 0 7.1876266813778784 -178.49436309774046 0 -178.49436309774046 146.44200148491382 0 0 0 0 -2.5804114008496981 -229.25114302904058 0 -229.25114302904058 45.668954270463473 0 0 0 0 429.95144941857143 -405.40898748830773 0 -405.40898748830773 -347.60459305693348 0 0 0 0 333.19949269680365 -203.64668488471398 0 -203.64668488471398 -9.6957596993797779 0 0 0 0 114.17982359314919 27.177204008229637 0 27.177204008229637 -248.76016131155484 0 0 0 0 1005.614327912459 -474.39759053810144 0 -474.39759053810144 897.72461605490025 0 0 0 0 1344.8572445681493 -219.64388924712421 0 -219.64388924712421 -156.29902065578517 0 0 0 0 338.07900496399816 -166.19978695374073 0 -166.19978695374073 144.8899672878506 0 0 0 0 1091.0207984962617 -99.618326178540883 0 -99.618326178540883 -217.3853988410342 0 0 0 0 837.56292194391426 -69.237922954621581 0 -69.237922954621581 -541.96870459126671 0 0 0 0 95.054864386635018 9.9168403018161371 0 9.9168403018161371 -191.33291793625699 0 0 0 0 153.23672698426526 -103.77990573004172 0 -103.77990573004172 11.714648232178106 0 0 0 0 482.601247447059 -11.04873223099662 0 -11.04873223099662 -202.84867524948891 0 0 0 0 605.59343016998901 -204.65431964654005 0 -204.65431964654005 -45.618848057856212 0 0 0 0 91.986301693921462 14.222920358156856 0 14.222920358156856 -1.6560775287760272 0 0 0 0 112.01947481343814 -62.71381870496225 0 -62.71381870496225 -246.98047630094243 0 0 0 0 2409.6903276120283 1139.0945558741478 0 1139.0945558741478 -2017.4437891527541 0 0 0 0 2103.5725644545309 -2352.607792864198 0 -2352.607792864198 1368.9523617906598 0 0 0 0 227.17343715051538 -2411.0980414311744 0 -2411.0980414311744 1634.9714637657271 0 0 0 0 1383.1259189273987 1395.9798875664892 0 1395.9798875664892 -517.28087355211392 0 0 0 0 -38.136614021001151 -296.1408972196341 0 -296.1408972196341 -132.244973770863 0 0 0 0 1300.7034743888071 -3372.4103514519052 0 -3372.4103514519052 2485.8159421667488 0 0 0 0 777.45888765560812 543.56963436451406 0 543.56963436451406 -102.16724509377036 0 0 0 0 40.952468302536971 0.099188460490026387 0 0.099188460490026387 -1.4048701217965567 0 0 0 0 1995.1803043238469 -3703.248582736006 0 -3703.248582736006 1244.8230459741562 0 0 0 0 1699.6325101041584 -2875.0867723785486 0 -2875.0867723785486 1154.7383223521433 0 0 0 0 35.653169306140626 -169.86575635518602 0 -169.86575635518602 -21.508071917648635 0 0 0 0 1393.8159171996522 -1978.9102858094448 0 -1978.9102858094448 1835.0225998260466 0 0 0 0 -11.916628308243304 -29.750513997237633 0 -29.750513997237633 -15.249812856338409 0 0 0 0 50.471310488172094 -150.08183347292561 0 -150.08183347292561 -20.141314192705977 0 0 0 0 30.542858749664504 -4.4753500049060477 0 -4.4753500049060477 -3.5313243894162483 0 0 0 0 316.13243924779817 1026.2721088573744 0 1026.2721088573744 213.90051363255043 0 0 0 0 0.68736449781289366 -9.0009204103058238 0 -9.0009204103058238 3.5470372397363121 0 0 0 0 7721.4660531983245 -4274.6131448610395 0 -4274.6131448610395 2439.1587768378595 0 0 0 0 307.78601711355441 -2333.9552978159754 0 -2333.9552978159754 6671.7602639671022 0 0 0 0 4391.7657620838145 -3919.7446450919015 0 -3919.7446450919015 2143.4679859068201 0 0 0 0 3051.5697672777897 1225.4754514234673 0 1225.4754514234673 -1097.1502401296311 0 0 0 0 4222.8620049509336 -1008.4696671339989 0 -1008.4696671339989 158.04662303825262 0 0 0 0 4351.0252346367342 -3700.2428968819804 0 -3700.2428968819804 5597.4834334790939 0 0 0 0 5006.1039755449092 108.78095679835974 0 108.78095679835974 1468.4405478090848 0 0 0 0 3937.8554569861735 -2011.0011087009898 0 -2011.0011087009898 358.03139176081822 0 0 0 0 3537.9106764207245 -1721.6948709213357 0 -1721.6948709213357 1198.4425500345824 0 0 0 0 5325.4420957748953 -4311.9139762742379 0 -4311.9139762742379 2715.6169209774616 0 0 0 0 5578.6575430799858 -3990.9837097156087 0 -3990.9837097156087 2449.2649698261762 0 0 0 0 1288.4764054406551 1476.3150366422087 0 1476.3150366422087 158.14314443318244 0 0 0 0 2835.8327306630672 1494.0173655860817 0 1494.0173655860817 -1004.4583503690665 0 0 0 0 -146.29867867313442 503.51230791188027 0 503.51230791188027 232.14159195262619 0 0 0 0 841.11273446731502 455.50713218964393 0 455.50713218964393 -486.89923958699364 0 0 0 0 1397.1429012089502 -334.98480950492012 0 -334.98480950492012 -225.5944365065825 0 0 0 0 924.67240686601144 -134.33918588113556 0 -134.33918588113556 -155.65038342877233 0 0 0 0 1796.4704064444522 332.35173525350183 0 332.35173525350183 -524.75455831217641 0 0 0 0 1123.4463262277131 -70.45665984466541 0 -70.45665984466541 -170.59863929673156 0 0 0 0 1771.4518542331789 516.62308665937599 0 516.62308665937599 -1553.2767341879808 0 0 0 0 3524.0892711885972 -521.30712539128945 0 -521.30712539128945 -976.60520328121129 0 0 0 0 3057.5469204510955 -958.89891180936547 0 -958.89891180936547 5.4524079846451059 0 0 0 0 2487.570172145337 -1442.3389092115563 0 -1442.3389092115563 765.74925437701677 0 0 0 0 987.68642770551378 -542.00757150183563 0 -542.00757150183563 326.57446297435581 0 0 0 0 1110.2746623910643 -402.13420745270332 0 -402.13420745270332 220.12929052018444 0 0 0 0 194.02197405090556 -225.8808446999119 0 -225.8808446999119 289.00791730020137 0 0 0 0 -4.1378729822800437 -0.53309117669491002 0 -0.53309117669491002 8.7274825144744064 0 0 0 0 311.18599662021734 -120.51319466663335 0 -120.51319466663335 383.76538595421152 0 0 0 0 337.02110345393885 -443.67834559867879 0 -443.67834559867879 308.35118625835275 0 0 0 0 425.0291845969914 -65.255177809307497 0 -65.255177809307497 239.20797915181538 0 0 0 0 235.51900896403822 -192.33212369220018 0 -192.33212369220018 398.0623523032682 0 0 0 0 217.79894385395164 -120.53949259033288 0 -120.53949259033288 184.2028367117382 0 0 0 0 109.5603199547204 -35.570789309164425 0 -35.570789309164425 -5.9494933343915051 0 0 0 0 328.43705943280656 -518.27002939340673 0 -518.27002939340673 -518.64944887760794 0 0 0 0 351.69549672005815 -15.31090587749668 0 -15.31090587749668 -469.49291985794844 0 0 0 0 -274.82804458445753 -38.003698437850289 0 -38.003698437850289 170.60663239325004 0 0 0 0 390.98279504213133 -158.83840257645352 0 -158.83840257645352 45.648902690085379 0 0 0 0 793.49338665511459 -332.05092001200319 0 -332.05092001200319 109.25711334249172 0 0 0 0 897.3178987709689 -73.592361829827496 0 -73.592361829827496 -290.31451418132201 0 0 0 0 -31.106959603377618 -329.5382677592147 0 -329.5382677592147 -98.197412456713209 0 0 0 0 -173.52970211645697 -454.05677419825815 0 -454.05677419825815 35.489319500873535 0 0 0 0 78.207023274211679 -155.02425582149226 0 -155.02425582149226 -150.58074471509099 0 0 0 0 116.76623259355046 -57.560594556250237 0 -57.560594556250237 14.575250645765056 0 0 0 0 105.35398772815824 -126.79040461538898 0 -126.79040461538898 -148.84203376633218 0 0 0 0 -11.000896830770216 -240.69916656381724 0 -240.69916656381724 -12.364091367568108 0 0 0 0 -96.042241479153745 -130.02260800888507 0 -130.02260800888507 664.11422995481189 0 0 0 0 -24.977298880186368 -38.107406646255285 0 -38.107406646255285 16.72314273006441 0 0 0 0 0.27121571332372696 0.4814317670880861 0 0.4814317670880861 5.6749021532004127 0 0 0 0 61.904180924873231 -38.651767216463732 0 -38.651767216463732 10.220594447584446 0 0 0 0 67.211622495873598 -50.958461826272469 0 -50.958461826272469 8.3423762650327262 0 0 0 0 78.897647133242572 -54.063330253229651 0 -54.063330253229651 -0.06173305562697351 0 0 0 0 280.69398489617743 -223.81770132674137 0 -223.81770132674137 -10.531457975448575 0 0 0 0 272.52840263771856 -34.966881397288986 0 -34.966881397288986 -71.092987105378597 0 0 0 0 -122.26710994401091 -0.3547095026528595 0 -0.3547095026528595 37.93821579900083 0 0 0 0 155.862984868696 -114.46836163700348 0 -114.46836163700348 15.271634511885008 0 0 0 0 55.118744448765938 -134.25456859073438 0 -134.25456859073438 -123.81022188901989 0 0 0 0 106.07111266427182 18.047821841563973 0 18.047821841563973 -285.04803549031203 0 0 0 0 241.03138181040413 -13.33632663424396 0 -13.33632663424396 -114.06607446666749 0 0 0 0 290.07371970295935 -102.8872112311301 0 -102.8872112311301 -43.071840374206658 0 0 0 0 206.63551218017528 -162.34065480771005 0 -162.34065480771005 136.43081771745346 0 0 0 0 211.16165817958245 -183.90221241207291 0 -183.90221241207291 -35.407279908152304 0 0 0 0 157.2623012256372 -71.157723306823755 0 -71.157723306823755 31.245295915734459 0 0 0 0 80.113568079279503 -99.796195295663892 0 -99.796195295663892 -80.5068357495893 0 0 0 0 25.988092169733136 -149.6086249519185 0 -149.6086249519185 0.79005530334325158 0 0 0 0 57.40800663886148 -124.21124351167555 0 -124.21124351167555 5.7083029192981485 0 0 0 0 54.935558377794223 -157.99527141183717 0 -157.99527141183717 90.471518975395156 0 0 0 0 59.913365531356249 -138.92390921093011 0 -138.92390921093011 142.74950522831932 0 0 0 0 1.5214259113680839 -1.685130876548115 0 -1.685130876548115 -3.4039588752972634 0 0 0 0 2430.5970087866081 1216.5874495749454 0 1216.5874495749454 755.00750204947326 0 0 0 0 -51.166732432626304 48.851072587118324 0 48.851072587118324 183.5526079554229 0 0 0 0 2884.0966098891513 2038.6195431672768 0 2038.6195431672768 2243.4574747158513 0 0 0 0 -187.44263482035603 28.118621018786143 0 28.118621018786143 549.89591344314431 0 0 0 0 -194.39962483596173 -143.10754553408151 0 -143.10754553408151 799.37582910132915 0 0 0 0 335.74792479613097 8.6644777802184763 0 8.6644777802184763 -89.536844163550995 0 0 0 0 189.86855298429145 -63.86111679610076 0 -63.86111679610076 606.94460243359208 0 0 0 0 495.29619683911733 -41.875393918155169 0 -41.875393918155169 174.81521550471007 0 0 0 0 193.05268703131878 -205.23983413458154 0 -205.23983413458154 173.00277426596222 0 0 0 0 290.08300349132332 -416.10643916187291 0 -416.10643916187291 456.19593222651747 0 0 0 0 217.25380839932768 -312.32481127206302 0 -312.32481127206302 557.22097682412618 0 0 0 0 175.33206090790918 -84.721196763569424 0 -84.721196763569424 54.827291830944887 0 0 0 0 148.04057137171185 -47.192415728184187 0 -47.192415728184187 250.63391127830619 0 0 0 0 213.08601143014675 -151.98908763184045 0 -151.98908763184045 176.88686175314797 0 0 0 0 214.56446330843028 -83.392817873571403 0 -83.392817873571403 296.3594094064938 0 0 0 0 182.9015409888234 -224.95083961336422 0 -224.95083961336422 479.75721571920803 0 0 0 0 298.40388285327936 -300.43637887986188 0 -300.43637887986188 396.21039541513528 0 0 0 0 208.58525480842218 -209.59200624685036 0 -209.59200624685036 373.16868915596569 0 0 0 0 240.40977271612792 -142.88430730807704 0 -142.88430730807704 304.59615275230317 0 0 0 0 240.47201937262435 -180.79223280100632 0 -180.79223280100632 245.22954893145652 0 0 0 0 154.14605213506729 -168.46337212138678 0 -168.46337212138678 327.80372873035958 0 0 0 0 254.64312971493928 -146.05497246344021 0 -146.05497246344021 317.3083005689914 0 0 0 0 176.52665263629751 -78.765346339594998 0 -78.765346339594998 268.28441556358302 0 0 0 0 149.00767273285601 -135.90639954407561 0 -135.90639954407561 186.77133319308268 0 0 0 0 77.188805655154283 -38.246394051237985 0 -38.246394051237985 184.77937065081642 0 0 0 0 121.93381129023328 -61.673708723970776 0 -61.673708723970776 41.721276265197957 0 0 0 0 42.589198860892793 -75.800660370136029 0 -75.800660370136029 138.82378833411349 0 0 0 0 20.320454372500535 37.586925040757706 0 37.586925040757706 64.085736894474394 0 0 0 0 68.701488746679388 7.644006747421372 0 7.644006747421372 146.94266492720044 0 0 0 0 112.30794878660527 5.9266385131722927 0 5.9266385131722927 -53.341381873324281 0 0 0 0 77.70153884364845 88.055220298144377 0 88.055220298144377 -211.85860294606755 0 0 0 0 -123.82202526653418 227.35654724088272 0 227.35654724088272 -140.15817738424994 0 0 0 0 7.9346007120311697 192.84807213247063 0 192.84807213247063 -183.19206450779893 0 0 0 0 -29.192933134851046 81.849499454632678 0 81.849499454632678 -17.907016149126321 0 0 0 0 -129.19482515301934 58.980445210430844 0 58.980445210430844 -86.102970480309978 0 0 0 0 18.015084847123944 66.59138165225886 0 66.59138165225886 40.220464793523206 0 0 0 0 151.59313413034397 -58.21299840242682 0 -58.21299840242682 -50.93143748613511 0 0 0 0 161.34868526623177 1.4820778100765892 0 1.4820778100765892 127.86526255436911 0 0 0 0 -72.653507742118762 -11.752760380773296 0 -11.752760380773296 27.725785493310614 0 0 0 0 -303.78075924859877 591.51079570592992 0 591.51079570592992 -507.69293810499948 0 0 0 0 95.220678905723616 -99.631848710570011 0 -99.631848710570011 -161.06125973888447 0 0 0 0 114.54136558319973 -27.831388349258638 0 -27.831388349258638 -5.4169952932729757 0 0 0 0 55.052043934934773 -64.01389511666639 0 -64.01389511666639 -154.71943878632919 0 0 0 0 -959.99504905642607 324.54191723704025 0 324.54191723704025 -213.94362201381227 0 0 0 0 -651.09557176515227 376.72299763350748 0 376.72299763350748 -438.45518387391348 0 0 0 0 17.418259900095293 -13.070831396443211 0 -13.070831396443211 10.453278201685578 0 0 0 0 312.59890950156841 -224.93608765524186 0 -224.93608765524186 73.118475985522309 0 0 0 0 117.58736990817124 -43.398092283077858 0 -43.398092283077858 -101.92286850626806 0 0 0 0 115.40761186349843 19.284561904204843 0 19.284561904204843 -38.610960345146225 0 0 0 0 85.180168092840177 -83.485743202562844 0 -83.485743202562844 -17.034134298668505 0 0 0 0 148.6727098771953 -29.070762480958138 0 -29.070762480958138 -50.037442767771608 0 0 0 0 378.78214390228823 -83.484955445770538 0 -83.484955445770538 -191.79894931537274 0 0 0 0 65.132561073850582 -8.4871598826342733 0 -8.4871598826342733 -55.922932874907062 0 0 0 0 -9.650183144462062 237.78732656420107 0 237.78732656420107 -371.83747758812751 0 0 0 0 -86.874799049837748 362.43961181745908 0 362.43961181745908 -397.09556589948261 0 0 0 0 -51.663312037031119 32.502233891315171 0 32.502233891315171 17.558026803303093 0 0 0 0 351.58210510859499 -46.451749972082325 0 -46.451749972082325 -883.84148084659682 0 0 0 0 21.759133514126233 -1.7174552676371206 0 -1.7174552676371206 -80.301591229493368 0 0 0 0 314.5836282872333 -88.407110813885993 0 -88.407110813885993 -107.76069883441323 0 0 0 0 467.47615145907912 -262.59037992670892 0 -262.59037992670892 13.243299623864004 0 0 0 0 108.31360774835048 -37.604439226081922 0 -37.604439226081922 -17.304527322542071 0 0 0 0 153.7024434903833 32.257403896065625 0 32.257403896065625 -12.844861505248446 0 0 0 0 60.021437798266561 16.127385330781635 0 16.127385330781635 -14.252452988100231 0 0 0 0 65.381863694143249 102.57703261487859 0 102.57703261487859 -68.567891926671109 0 0 0 0 -0.57592514959833352 1.0983980422992516 0 1.0983980422992516 -2.830723369786508 0 0 0 0 317.92137244550395 47.4887752718314 0 47.4887752718314 -228.77794979381179 0 0 0 0 412.35762494441587 -258.55215296347978 0 -258.55215296347978 1.0966975152146006 0 0 0 0 373.10099271045965 11.066550986969503 0 11.066550986969503 7.7093275820589042 0 0 0 0 -205.07528820650623 99.112515197108223 0 99.112515197108223 -200.50328293360053 0 0 0 0 5.5022807100052944 8.5053863750813292 0 8.5053863750813292 -25.743621120842253 0 0 0 0 436.8728397218656 -220.7115736794949 0 -220.7115736794949 57.310927839594115 0 0 0 0 -312.56646035820449 383.04689573579412 0 383.04689573579412 -205.1362088675487 0 0 0 0 -2.2206383662683606 4.8157473470000411 0 4.8157473470000411 -9.1023025240536981 0 0 0 0 -20.365891941870359 143.30679577675664 0 143.30679577675664 -375.52276794534919 0 0 0 0 62.885998367535649 12.698284338480335 0 12.698284338480335 -145.87519282968424 0 0 0 0 116.83066680637421 79.884898699114274 0 79.884898699114274 -45.855549419058661 0 0 0 0 -98.468253662496863 73.370583539979634 0 73.370583539979634 21.713543553718409 0 0 0 0 -159.77836016219226 -33.079404517344301 0 -33.079404517344301 7.4505450500055304 0 0 0 0 -361.39341671695001 489.81658167654427 0 489.81658167654427 -246.1020860989247 0 0 0 0 190.39443024438515 -161.49410285575414 0 -161.49410285575414 -143.95582568510144 0 0 0 0 7.9102870490618642 2.1892693574388886 0 2.1892693574388886 -7.8278122061967181 0 0 0 0 -99.848793154953455 55.635209494335868 0 55.635209494335868 135.49440519767086 0 0 0 0 227.46014878198912 -64.479723879734593 0 -64.479723879734593 -4.9092543231495256 0 0 0 0 463.17858178328606 -8.1559658399455657 0 -8.1559658399455657 70.065836366767144 0 0 0 0 -62.010106229950907 -63.429583456600085 0 -63.429583456600085 463.65476035771098 0 0 0 0 -8.9057539370587619 14.802921841923308 0 14.802921841923308 71.179477217603562 0 0 0 0 285.82502484146244 -785.76592485952006 0 -785.76592485952006 443.08449744605991 0 0 0 0 2.3874075050629813 0.29589401106160551 0 0.29589401106160551 0.39175061623170038 0 0 0 0 527.01675543242163 -587.01984038617684 0 -587.01984038617684 172.70092492369622 0 0 0 0 -60.460789842421946 -163.82883009299076 0 -163.82883009299076 -130.57067063561044 0 0 0 0 -39.617151203405228 -69.815558047590457 0 -69.815558047590457 -126.53760993906144 0 0 0 0 -60.832310836646883 -117.82006995146618 0 -117.82006995146618 -47.383543294406991 0 0 0 0 446.58013266555645 -442.27009407636888 0 -442.27009407636888 178.13499844934813 0 0 0 0 0.66124318738538079 8.2162347989300457 0 8.2162347989300457 27.085110490923558 0 0 0 0 374.18496637373755 -354.1094294516156 0 -354.1094294516156 318.1889828360238 0 0 0 0 452.38707867058474 -311.36896190976449 0 -311.36896190976449 7.5123299732222222 0 0 0 0 438.94195616604702 -354.73652469435274 0 -354.73652469435274 316.1309085399306 0 0 0 0 611.71120498619712 -383.21958156904589 0 -383.21958156904589 292.90180655038557 0 0 0 0 573.64006838065688 -433.43836173158479 0 -433.43836173158479 314.80714088381205 0 0 0 0 423.49030023588421 -475.37905339140389 0 -475.37905339140389 298.64752278801279 0 0 0 0 425.01301510054327 -308.9608804992331 0 -308.9608804992331 329.56829845334323 0 0 0 0 543.26950974628926 -288.29081986730921 0 -288.29081986730921 209.12064202442161 0 0 0 0 -22.208495443075662 21.303876117117397 0 21.303876117117397 473.06018083071649 0 0 0 0 585.94681695218605 -411.03366483871696 0 -411.03366483871696 407.78041805197063 0 0 0 0 479.47992804848764 -293.25339725113281 0 -293.25339725113281 409.80764636824188 0 0 0 0 486.69418863601277 -251.17194093260582 0 -251.17194093260582 366.23940954937461 0 0 0 0 332.74665889129483 -89.607077337016051 0 -89.607077337016051 88.487507452469799 0 0 0 0 309.38778451936378 -264.31544907739772 0 -264.31544907739772 419.61462541501078 0 0 0 0 69.871635539289855 11.924626790696948 0 11.924626790696948 28.658039233563613 0 0 0 0 -2.8189025746767697 0.23484972777946211 0 0.23484972777946211 13.799299272205378 0 0 0 0 189.3214969295077 -447.582862103347 0 -447.582862103347 511.148348195773 0 0 0 0 12.437829405292291 2.368995718677624 0 2.368995718677624 0.73494081835862346 0 0 0 0 394.09047344584269 -454.5399213215328 0 -454.5399213215328 297.20439371121029 0 0 0 0 133.87114102533087 -215.2180405711224 0 -215.2180405711224 238.24913607736744 0 0 0 0 192.80461556529553 -219.93049980840715 0 -219.93049980840715 207.44092782169901 0 0 0 0 128.27381049213 -179.08068728018043 0 -179.08068728018043 236.01866849020098 0 0 0 0 111.19770758692175 -84.814148367953749 0 -84.814148367953749 114.89215861729463 0 0 0 0 124.71872746152803 -313.23674820343876 0 -313.23674820343876 565.58957968487812 0 0 0 0 124.71872746211011 -313.23674820329325 0 -313.23674820329325 565.58957968483446 0 0 0 0 124.71872746243025 -313.23674820353335 0 -313.23674820353335 565.58957968487812 0 0 0 0 209.60726107755909 -306.02162667398443 0 -306.02162667398443 342.21974389390016 0 0 0 0 137.71428392111557 -135.61395603010533 0 -135.61395603010533 295.75016867733575 0 0 0 0 179.64892278698971 -176.85729751767212 0 -176.85729751767212 455.22255302668782 0 0 0 0 192.81206063737045 -220.64415105690205 0 -220.64415105690205 299.9752714191527 0 0 0 0 196.18262467969907 -209.83917115270015 0 -209.83917115270015 369.86455571964689 0 0 0 0 135.23588851786917 -250.38299908487534 0 -250.38299908487534 615.54301615559962 0 0 0 0 7.5012150600400673 -0.35573580488072309 0 -0.35573580488072309 0.8582244390559417 0 0 0 0 233.85011005838169 -156.98946023536701 0 -156.98946023536701 442.78364182161749 0 0 0 0 231.64558667403253 -180.3447728342353 0 -180.3447728342353 470.14673543698154 0 0 0 0 185.03044996355311 -203.08504462884594 0 -203.08504462884594 437.19890372261943 0 0 0 0 197.93549275171245 -191.80066244941918 0 -191.80066244941918 562.02019039602601 0 0 0 0 186.44830288738012 -214.03887099827989 0 -214.03887099827989 519.58000981406803 0 0 0 0 246.3353156890953 -130.92885984681197 0 -130.92885984681197 618.48438759825217 0 0 0 0 402.74913103543804 -181.66489252742213 0 -181.66489252742213 435.87263923461433 0 0 0 0 293.04798561858479 -183.54355095215578 0 -183.54355095215578 477.31085666361105 0 0 0 0 307.22286642709514 -145.03941892199509 0 -145.03941892199509 486.53263304360735 0 0 0 0 414.89108476968249 -134.99084624126408 0 -134.99084624126408 479.94692636713444 0 0 0 0 276.58275451869122 -215.89018050227241 0 -215.89018050227241 409.94581742479932 0 0 0 0 305.72890898754122 -208.15137633149425 0 -208.15137633149425 357.5935160567351 0 0 0 0 399.07669309095945 -191.24579763389556 0 -191.24579763389556 412.27337668385007 0 0 0 0 340.1409034464159 -275.98495635337167 0 -275.98495635337167 400.84028739135829 0 0 0 0 472.60405470472324 -216.34915665497738 0 -216.34915665497738 -447.47314885610831 0 0 0 0 -102.09212051766372 -352.8582996606558 0 -352.8582996606558 946.34947113907401 0 0 0 0 416.27076773767476 -38.90157397254734 0 -38.90157397254734 -362.22622746162961 0 0 0 0 -76.707017815439031 -270.55422882592302 0 -270.55422882592302 616.09484109256061 0 0 0 0 5.8930958767178652 1.3192544640941151 0 1.3192544640941151 -0.41055777382847225 0 0 0 0 406.96145678218454 -190.56997742425301 0 -190.56997742425301 -220.82296018626221 0 0 0 0 -544.90190277248257 -1259.592016410031 0 -1259.592016410031 813.92965487462789 0 0 0 0 1191.3416985656804 -2043.6295943648129 0 -2043.6295943648129 256.86456461617456 0 0 0 0 1481.9247095943465 -502.2922180062485 0 -502.2922180062485 -340.9842216817724 0 0 0 0 3747.8937770721022 -1108.0114375784119 0 -1108.0114375784119 -188.09694534929713 0 0 0 0 1414.6341434375354 -1225.0749895848166 0 -1225.0749895848166 3001.5962992651857 0 0 0 0 1295.6106902969768 -1257.6625405493337 0 -1257.6625405493337 585.19763966256278 0 0 0 0 1716.800333680927 -782.72891576500388 0 -782.72891576500388 -155.04121004997978 0 0 0 0 1348.4300514755378 -562.18943766042617 0 -562.18943766042617 -116.67495637625507 0 0 0 0 1350.2281245903578 -543.61039984612671 0 -543.61039984612671 -33.31125266627032 0 0 0 0 990.77357850290718 -541.136447061745 0 -541.136447061745 313.86108570511396 0 0 0 0 431.14769360682112 -569.36271799363112 0 -569.36271799363112 312.76237024061265 0 0 0 0 540.14224426745204 -381.09774239946728 0 -381.09774239946728 628.10274167308467 0 0 0 0 740.19641217781464 -538.53985249358766 0 -538.53985249358766 375.38618451079822 0 0 0 0 696.16466016483901 -320.96594729915 0 -320.96594729915 303.78489102204639 0 0 0 0 853.99422667894396 -338.71200094040148 0 -338.71200094040148 568.51873793563118 0 0 0 0 1251.4673687994582 -579.36996504231968 0 -579.36996504231968 200.71565078529375 0 0 0 0 1504.5260070752629 -408.93107309379775 0 -408.93107309379775 -53.911529990225063 0 0 0 0 1359.5776571790193 -190.87714556326409 0 -190.87714556326409 275.01300622873259 0 0 0 0 1084.905314824493 -395.58069047787603 0 -395.58069047787603 131.86627820064314 0 0 0 0 446.91893838083342 -103.59724301545202 0 -103.59724301545202 79.181341871743825 0 0 0 0 954.40070714612375 -763.07484332078502 0 -763.07484332078502 254.41412550579207 0 0 0 0 1314.5176094646231 207.36362989136842 0 207.36362989136842 -82.774166250555027 0 0 0 0 4.1015539833597643 -3.5271850803836529 0 -3.5271850803836529 3.2454007679377472 0 0 0 0 28.527544102122192 -445.50686947271538 0 -445.50686947271538 422.24594511431701 0 0 0 0 84.06374997900366 134.5966747846139 0 134.5966747846139 0.82836109096933797 0 0 0 0 46.587232029225561 -62.002684789217483 0 -62.002684789217483 -217.82909046448174 0 0 0 0 -0.18972758499876363 89.432659690110086 0 89.432659690110086 -27.680616278166326 0 0 0 0 11.553246480689126 -8.7800935330521526 0 -8.7800935330521526 4.2413439161596163 0 0 0 0 90.811157499728324 50.5906126587453 0 50.5906126587453 -41.456773057110695 0 0 0 0 60.949057891251869 -89.77399042383604 0 -89.77399042383604 250.58693568740864 0 0 0 0 254.50258577300883 -158.74946100958169 0 -158.74946100958169 123.14247623466781 0 0 0 0 13.688923242898454 -127.73904641476543 0 -127.73904641476543 35.985214341212668 0 0 0 0 201.98793068177201 28.825187982886803 0 28.825187982886803 11.351741962363121 0 0 0 0 1199.2388768884121 -83.426501847696272 0 -83.426501847696272 -123.19626419202632 0 0 0 0 1060.0041591410991 -442.99351701969226 0 -442.99351701969226 -81.57281766890992 0 0 0 0 807.0837764196549 -164.1694120313914 0 -164.1694120313914 311.42814747329066 0 0 0 0 1514.7116810237058 523.98953602162555 0 523.98953602162555 -136.50698343942531 0 0 0 0 0.053923264323231024 -0.75320492430841313 0 -0.75320492430841313 -0.56869397576878811 0 0 0 0 197.15860916436941 210.44406312017145 0 210.44406312017145 -152.1185274343843 0 0 0 0 -296.34679839659657 -57.86854319381564 0 -57.86854319381564 320.580886481579 0 0 0 0 1685.3345190706459 570.40154048118802 0 570.40154048118802 -609.44590951900409 0 0 0 0 392.75003923177792 734.15678841935062 0 734.15678841935062 -363.86478322124913 0 0 0 0 0.90226523460368924 -0.94633223959810664 0 -0.94633223959810664 -6.9810005760784684 0 0 0 0 1794.3756677717611 10.038265195164456 0 10.038265195164456 -182.11248624077018 0 0 0 0 695.28851037115965 -80.194174670691609 0 -80.194174670691609 72.292569255583658 0 0 0 0 1459.0713978995227 -118.88194778067032 0 -118.88194778067032 -191.23096706954584 0 0 0 0 2651.9672077520154 52.354734316760243 0 52.354734316760243 -441.95109016310744 0 0 0 0 2586.7198946075951 476.00911545673301 0 476.00911545673301 -930.50128842748052 0 0 0 0 3499.2694846932282 518.41387830335441 0 518.41387830335441 -1073.5563731860677 0 0 0 0 2463.8355960495319 499.58318493213278 0 499.58318493213278 -865.70508508177784 0 0 0 0 2492.6020327785682 972.72774700447758 0 972.72774700447758 -1021.8268681756884 0 0 0 0 2431.1803517568915 931.03541979526779 0 931.03541979526779 -1019.3313892248841 0 0 0 0 3500.148233334507 1503.8946371906729 0 1503.8946371906729 -887.78062400219073 0 0 0 0 2428.6922467239119 978.41191545391621 0 978.41191545391621 -850.00853236528656 0 0 0 0 1413.481271073455 1072.6316582367131 0 1072.6316582367131 -351.5500124781214 0 0 0 0 1111.8181463164328 540.64290474792517 0 540.64290474792517 -722.83334995754922 0 0 0 0 1228.2468883053516 870.4132903024921 0 870.4132903024921 -582.65860353995413 0 0 0 0 1516.1406452240772 643.53340296486181 0 643.53340296486181 -836.44548211028689 0 0 0 0 1012.9300242733152 421.16679814702593 0 421.16679814702593 -1063.1313568297314 0 0 0 0 266.7768163508008 511.48828629172573 0 511.48828629172573 -392.77038720731866 0 0 0 0 581.82545274838048 626.07214423825621 0 626.07214423825621 -288.71656843645962 0 0 0 0 432.42352048843168 363.82546424500947 0 363.82546424500947 -532.3183098464815 0 0 0 0 318.99726422860113 574.75573489983503 0 574.75573489983503 -656.70069478932328 0 0 0 0 413.84804500002065 417.7260851045553 0 417.7260851045553 -601.58502709611867 0 0 0 0 1018.6375488824924 14.363846611964277 0 14.363846611964277 -500.19233245555506 0 0 0 0 382.04565175860625 281.47111264971488 0 281.47111264971488 -476.53740240918069 0 0 0 0 1126.8005785587593 -165.6887823248253 0 -165.6887823248253 -217.7204742817903 0 0 0 0 367.7556165953938 546.27930193731504 0 546.27930193731504 -730.72255818023791 0 0 0 0 1.0435191964712587 -0.5400487352331993 0 -0.5400487352331993 -2.1112813915389488 0 0 0 0 824.56516062911396 24.949578088820545 0 24.949578088820545 -170.47178727477348 0 0 0 0 1231.1895290661996 322.82346427144512 0 322.82346427144512 -201.21728515414907 0 0 0 0 877.57462938470417 28.95942102239087 0 28.95942102239087 -178.77977210346216 0 0 0 0 910.26664911664557 -34.834383837120868 0 -34.834383837120868 -192.04255572730835 0 0 0 0 750.90142626548186 -34.375378352684265 0 -34.375378352684265 -197.59553472703192 0 0 0 0 751.02587915287586 70.692600902430513 0 70.692600902430513 -238.29891512597555 0 0 0 0 913.59652300872403 21.178048140803185 0 21.178048140803185 -162.24410403582652 0 0 0 0 820.68792438990567 -26.649438164071626 0 -26.649438164071626 -157.72268121310117 0 0 0 0 895.96393252405687 0.94614157801015608 0 0.94614157801015608 -140.40589147447008 0 0 0 0 1018.9873605864632 -9.8325762568670143 0 -9.8325762568670143 -55.86971268703428 0 0 0 0 873.42834812718138 49.362161808611063 0 49.362161808611063 -76.894575394007006 0 0 0 0 686.0348663021432 -160.24013343775232 0 -160.24013343775232 71.471305836889769 0 0 0 0 1113.2129855148305 -260.05727660552202 0 -260.05727660552202 34.390153062116269 0 0 0 0 917.23617101850505 -98.548846565561689 0 -98.548846565561689 -17.119591207932899 0 0 0 0 899.26145137679123 23.085019438271047 0 23.085019438271047 5.1460418957276488 0 0 0 0 796.48372507587192 103.80194099146092 0 103.80194099146092 -51.685952622303375 0 0 0 0 936.80916865306062 130.61722075145781 0 130.61722075145781 -81.168170488922442 0 0 0 0 936.8931668130972 -104.00557307482677 0 -104.00557307482677 -35.384960423145003 0 0 0 0 1.7404692132471027 -0.086770700259322098 0 -0.086770700259322098 -3.1705318904058437 0 0 0 0 272.30515217958236 194.13587377977638 0 194.13587377977638 110.06577155677223 0 0 0 0 954.90617356416533 -115.27233000858575 0 -115.27233000858575 -95.701171512684596 0 0 0 0 0.73968906986644356 -1.1313056779053312 0 -1.1313056779053312 -0.63995768788731766 0 0 0 0 447.67765315788711 52.013827266062435 0 52.013827266062435 53.263445118889649 0 0 0 0 841.2850932570218 -30.695582442102022 0 -30.695582442102022 -46.811476694742851 0 0 0 0 610.50248624628875 252.86048687712901 0 252.86048687712901 -127.91814268061171 0 0 0 0 922.95735993443668 -47.929180250202762 0 -47.929180250202762 -47.60983035033496 0 0 0 0 2085.1102855511999 -504.3415515749266 0 -504.3415515749266 17.45237103292834 0 0 0 0 1141.0340943765004 382.10434304990986 0 382.10434304990986 -197.49413655827084 0 0 0 0 3.0148823946037595 1.2404673972762197 0 1.2404673972762197 -1.8722687266455864 0 0 0 0 609.41004691273974 262.4426760334245 0 262.4426760334245 -521.29196034454435 0 0 0 0 -765.61737134674331 535.87856565414086 0 535.87856565414086 -115.97551783944982 0 0 0 0 1406.5656186808774 -269.81252950008093 0 -269.81252950008093 -227.06201675466946 0 0 0 0 1607.984033693705 202.08556698575148 0 202.08556698575148 -217.95079023020116 0 0 0 0 2454.3136052639456 836.45758366834343 0 836.45758366834343 -398.51311545210228 0 0 0 0 746.96308751484321 -153.21899477984698 0 -153.21899477984698 -54.948343770258361 0 0 0 0 2549.0210228598953 -1339.6031880790233 0 -1339.6031880790233 707.75348630227563 0 0 0 0 397.24393264053833 98.199205110282492 0 98.199205110282492 -10.493618369180695 0 0 0 0 517.68012284068391 630.98329982165797 0 630.98329982165797 -185.18560160274865 0 0 0 0 492.09257247504866 67.868947965200277 0 67.868947965200277 -113.6363134644107 0 0 0 0 452.32122795694158 140.01122222713275 0 140.01122222713275 -198.46310148869634 0 0 0 0 431.31044012424536 -60.653464425432503 0 -60.653464425432503 -119.2730261426459 0 0 0 0 219.63996717705231 4.0025646086778579 0 4.0025646086778579 -27.214782954352813 0 0 0 0 -5.3085936892286583 -19.411886008568374 0 -19.411886008568374 -50.712143133972695 0 0 0 0 2166.8505230407536 -690.41089775271291 0 -690.41089775271291 6.3815382772744442 0 0 0 0 470.25859322727047 -51.77381173768913 0 -51.77381173768913 -18.168768435043603 0 0 0 0 0.10026996814328726 -11.545705905957931 0 -11.545705905957931 -36.316006397246554 0 0 0 0 513.88912555888237 -30.254825212605283 0 -30.254825212605283 -8.5282545921554629 0 0 0 0 2618.3822625419489 -294.60719487205176 0 -294.60719487205176 -167.82095021520507 0 0 0 0 2270.580542956106 -381.3688753141181 0 -381.3688753141181 -121.8305812381077 0 0 0 0 1847.9660374556261 -8.0876867695562282 0 -8.0876867695562282 -265.60441908037399 0 0 0 0 1.4865340160420004 -4.4197419257629207 0 -4.4197419257629207 -21.449049952803978 0 0 0 0 3499.4109242292834 6.8982770007577585 0 6.8982770007577585 -713.40462872043156 0 0 0 0 2626.8069156556739 -144.76243957133534 0 -144.76243957133534 -579.22420697834502 0 0 0 0 3499.3164308557098 -479.28234062624233 0 -479.28234062624233 -465.30439095761221 0 0 0 0 2664.4830677243153 -538.62818483658384 0 -538.62818483658384 -59.066275059924351 0 0 0 0 2638.4748874449228 -765.44324922828901 0 -765.44324922828901 -366.84727675759223 0 0 0 0 2358.1166291216005 -1359.0847232101817 0 -1359.0847232101817 134.13785174082608 0 0 0 0 3499.7279694479439 -998.11121356877379 0 -998.11121356877379 -317.93795517084106 0 0 0 0 2401.1277721652673 -644.28762298564493 0 -644.28762298564493 -99.890548271880817 0 0 0 0 1199.9981889575065 -746.40062790463048 0 -746.40062790463048 389.16167767640309 0 0 0 0 1617.5094593442227 -967.43772132819493 0 -967.43772132819493 402.06139449789885 0 0 0 0 1834.0642131833119 -1502.8339570355161 0 -1502.8339570355161 809.21881194710943 0 0 0 0 2319.7393783405787 -1272.4567638434846 0 -1272.4567638434846 124.79163204203516 0 0 0 0 105.5432523261552 0.087445699221461837 0 0.087445699221461837 -31.073467285905281 0 0 0 0 114.28205432251806 35.903167058089245 0 35.903167058089245 -2.3101412931317853 0 0 0 0 11.936609412568792 -27.981299866021644 0 -27.981299866021644 -65.603157262311925 0 0 0 0 273.22054563823622 23.839499423513189 0 23.839499423513189 -185.63191756006927 0 0 0 0 156.56497273678724 64.254759461356798 0 64.254759461356798 -122.632893664324 0 0 0 0 95.31920502261346 43.710508488677078 0 43.710508488677078 -68.07832706642148 0 0 0 0 161.34238286441541 15.644535825713319 0 15.644535825713319 -69.824760901663808 0 0 0 0 242.65587501397022 52.477926891627021 0 52.477926891627021 -60.514347259957049 0 0 0 0 237.73492421605476 -90.476633111883217 0 -90.476633111883217 -4.8791844129254969 0 0 0 0 3496.5711931038641 -2253.7915059448778 0 -2253.7915059448778 824.87004811618078 0 0 0 0 1646.2900257998954 -2508.41516885488 0 -2508.41516885488 2888.5896119272898 0 0 0 0 11.021637886152519 7.4723708314364679 0 7.4723708314364679 -4.252159517857673 0 0 0 0 515.51481424206577 -862.75830883334106 0 -862.75830883334106 1102.9006101926079 0 0 0 0 1370.1591419792821 -511.74694034188838 0 -511.74694034188838 232.74935809702538 0 0 0 0 101.65822572979869 87.342416819612197 0 87.342416819612197 -116.32702141115442 0 0 0 0 93.636337264237653 -6.6566286403552155 0 -6.6566286403552155 -32.807968463404031 0 0 0 0 57.704558446232113 48.496677051230108 0 48.496677051230108 -87.214565106428381 0 0 0 0 8.0486698544937099 81.040293500402413 0 81.040293500402413 -40.531444768559595 0 0 0 0 113.17327959466274 90.523089187511914 0 90.523089187511914 -56.88773399801903 0 0 0 0 75.89371261492488 53.788570369323679 0 53.788570369323679 -36.073477185270804 0 0 0 0 64.960986233367294 95.870464877482846 0 95.870464877482846 -59.528765705849764 0 0 0 0 3445.5478194475036 -200.29064104133275 0 -200.29064104133275 -1100.6788432744911 0 0 0 0 21.136428617199492 26.40429571193048 0 26.40429571193048 -29.884357839041979 0 0 0 0 930.94017784314929 759.80679720110106 0 759.80679720110106 555.10735259459284 0 0 0 0 3495.1171172196337 -668.45692223630829 0 -668.45692223630829 -129.49175439102291 0 0 0 0 -107.68063611611797 84.289897938296292 0 84.289897938296292 46.164396080884217 0 0 0 0 460.23517303477274 -410.79212433799046 0 -410.79212433799046 493.1446375177095 0 0 0 0 12.355037186743449 34.189661355509244 0 34.189661355509244 -16.687823219637082 0 0 0 0 20.001435952734624 1.4277525109352567 0 1.4277525109352567 4.1285396349893242 0 0 0 0 3501.2102134414745 343.80476144540199 0 343.80476144540199 -17.339244057942686 0 0 0 0 3972.3441706224257 93.013569080548976 0 93.013569080548976 -46.852770805743567 0 0 0 0 53.894143951802107 58.056285265633505 0 58.056285265633505 -64.01991379088031 0 0 0 0 56.860396221399697 25.874517644442086 0 25.874517644442086 140.66896835906346 0 0 0 0 53.11942078751872 61.469940124745335 0 61.469940124745335 21.453394360258244 0 0 0 0 44.537820062585524 25.881481322358468 0 25.881481322358468 -50.665828905061062 0 0 0 0 174.12033714249992 78.093230126603885 0 78.093230126603885 -48.269223895052164 0 0 0 0 163.68605565683538 28.096663577579307 0 28.096663577579307 24.975596825406683 0 0 0 0 277.02600386011545 -37.870761206042403 0 -37.870761206042403 10.78656917897743 0 0 0 0 477.94259937368588 -374.65410594409002 0 -374.65410594409002 352.33483758049624 0 0 0 0 361.95540674555104 37.928215679018592 0 37.928215679018592 69.648048957123819 0 0 0 0 220.7106369766916 96.695084529771293 0 96.695084529771293 7.0157377109518393 0 0 0 0 413.02610429542801 112.01179456910279 0 112.01179456910279 22.265954081013206 0 0 0 0 711.43733942891777 -288.8162276066771 0 -288.8162276066771 130.58730064690076 0 0 0 0 282.69742474182203 -73.452360031645298 0 -73.452360031645298 7.3782104994280644 0 0 0 0 708.25553068254158 -279.05061043395813 0 -279.05061043395813 204.06488427030604 0 0 0 0 1252.3991423765547 -498.61579318598433 0 -498.61579318598433 -74.628304637881229 0 0 0 0 1389.5971540368628 -520.65251429021112 0 -520.65251429021112 -113.91469081334196 0 0 0 0 244.46890330932547 -143.36760474529638 0 -143.36760474529638 164.05598048756883 0 0 0 0 1156.6822300885542 232.37097455129128 0 232.37097455129128 -147.69740124482178 0 0 0 0 7.9823815773169642 -7.4100239330902582 0 -7.4100239330902582 -6.1147858229631336 0 0 0 0 249.33910388450022 -124.00043070368042 0 -124.00043070368042 -78.01379839126821 0 0 0 0 116.13807446850387 -113.96761331861228 0 -113.96761331861228 -231.94965185244564 0 0 0 0 -94.230722940701526 -178.9215491324112 0 -178.9215491324112 -248.52752007274012 0 0 0 0 -345.76570141669799 -44.437745822191346 0 -44.437745822191346 60.427987597861829 0 0 0 0 3499.4275443403603 -632.08191957949964 0 -632.08191957949964 66.777104540599112 0 0 0 0 112.59778081642071 -137.28377482570249 0 -137.28377482570249 -340.69663600554304 0 0 0 0 14.109478553115405 8.4074667973316757 0 8.4074667973316757 -24.470692524460873 0 0 0 0 -0.99888666400465809 152.11337616149046 0 152.11337616149046 -32.487779336066524 0 0 0 0 9.4856335550227122 20.998530431047946 0 20.998530431047946 27.744602810436675 0 0 0 0 2989.5877410423782 -207.10687559692394 0 -207.10687559692394 31.334538790960728 0 0 0 0 -102.87011098559742 -91.451051442524545 0 -91.451051442524545 45.449803197299275 0 0 0 0 28.196023862359652 115.38629800774754 0 115.38629800774754 60.286858773666609 0 0 0 0 1324.7190509777029 -708.50969642823247 0 -708.50969642823247 550.22328719093093 0 0 0 0 2195.438898783359 -241.22501422970032 0 -241.22501422970032 667.08350902807922 0 0 0 0 229.99527088605464 -808.46012479056458 0 -808.46012479056458 679.61126977036633 0 0 0 0 7.3894990138118146 -3.4951769329067588 0 -3.4951769329067588 1.4843321165303385 0 0 0 0 223.06458513888356 -49.954248539560467 0 -49.954248539560467 -365.38193256477689 0 0 0 0 533.06665003403577 319.60150923073104 0 319.60150923073104 49.85192422194973 0 0 0 0 1379.2744610663212 -785.79466047736412 0 -785.79466047736412 -58.70826421873835 0 0 0 0 1465.4714926303786 -764.83792760158985 0 -764.83792760158985 -205.7208294564241 0 0 0 0 1745.9669626192845 -1022.1369243720969 0 -1022.1369243720969 -74.117581704267423 0 0 0 0 1513.4469996936532 -964.30295322611073 0 -964.30295322611073 -145.55673021535722 0 0 0 0 1396.7318433159344 -848.00884589687769 0 -848.00884589687769 58.972793930456646 0 0 0 0 1426.7016203204039 -884.01841645231661 0 -884.01841645231661 91.322575532150609 0 0 0 0 1414.5724572772215 -847.82795978549132 0 -847.82795978549132 476.09308403261844 0 0 0 0 1936.7529642670997 -1074.6010238971887 0 -1074.6010238971887 557.19752987775621 0 0 0 0 2131.2504463669611 -249.28956861754159 0 -249.28956861754159 524.78214085740342 0 0 0 0 1162.0132571886752 -746.56449993612478 0 -746.56449993612478 987.16878410885943 0 0 0 0 1025.4805298946812 -507.32041054681042 0 -507.32041054681042 132.52202512291979 0 0 0 0 990.88923703352702 -488.36644198772274 0 -488.36644198772274 618.77165232639879 0 0 0 0 2.3437261403198875 0.85557480488804316 0 0.85557480488804316 -1.3133052631457787 0 0 0 0 2027.336926470969 -476.35552380919535 0 -476.35552380919535 249.54837530290661 0 0 0 0 105.51581805528622 -46.094474461015579 0 -46.094474461015579 78.582703497370858 0 0 0 0 2256.3936093352095 -601.5239610631038 0 -601.5239610631038 206.67704413989213 0 0 0 0 9.3124034907464477 6.3449114547931629 0 6.3449114547931629 5.4841344475355065 0 0 0 0 1318.9997190752583 -531.38317515220524 0 -531.38317515220524 531.35247263791905 0 0 0 0 859.16325383312142 -431.67223659666092 0 -431.67223659666092 792.37847125729218 0 0 0 0 1490.9216205384218 -17.172306846017761 0 -17.172306846017761 921.83605848968079 0 0 0 0 831.16632344348909 -814.94921898170708 0 -814.94921898170708 641.81395917894156 0 0 0 0 567.30547153908265 -519.48210008372973 0 -519.48210008372973 447.64730267147985 0 0 0 0 778.42615651839878 -431.77271208771276 0 -431.77271208771276 376.46580748491624 0 0 0 0 15.407382257923544 16.417981226807711 0 16.417981226807711 19.527449682550895 0 0 0 0 1601.4664371285617 -743.68517352762865 0 -743.68517352762865 175.85273355189452 0 0 0 0 988.84277376915634 -95.875904353953729 0 -95.875904353953729 -62.06812894986524 0 0 0 0 1660.03862871202 -483.60226067829626 0 -483.60226067829626 -310.71659687304327 0 0 0 0 1950.8858528629899 -322.92658877487088 0 -322.92658877487088 48.060856252708618 0 0 0 0 1953.2745601870301 -497.32852728489706 0 -497.32852728489706 -131.93863990767386 0 0 0 0 1618.5208071034394 -544.6147794021872 0 -544.6147794021872 118.44020359655224 0 0 0 0 -0.46527569843181737 -3.8167858461907969 0 -3.8167858461907969 -1.180265500621509 0 0 0 0 107.58623075240121 -13.459584093711328 0 -13.459584093711328 -2.7540701168090891 0 0 0 0 186.83905865034831 -43.539465893205488 0 -43.539465893205488 -41.960015279370054 0 0 0 0 153.88508347596508 7.0603705309713405 0 7.0603705309713405 -45.514482696794403 0 0 0 0 87.599925525338833 20.546961010526019 0 20.546961010526019 2.1317384446359355 0 0 0 0 12.643613671105399 -8.0876177989726159 0 -8.0876177989726159 -0.11909638797003907 0 0 0 0 1380.5105715547406 -626.1507324635254 0 -626.1507324635254 94.368409674245413 0 0 0 0 217.53032321392675 291.55681122740498 0 291.55681122740498 566.72653755843385 0 0 0 0 18.436564326314425 -3.78998346701988 0 -3.78998346701988 -5.1861798705683384 0 0 0 0 167.77579844627326 181.37844404775501 0 181.37844404775501 -213.41553974323506 0 0 0 0 -150.14153723086201 229.49904958773732 0 229.49904958773732 -141.19012672569488 0 0 0 0 409.50756359936076 879.89897342045447 0 879.89897342045447 -128.84044032052043 0 0 0 0 720.50553732419212 -321.31647248665161 0 -321.31647248665161 80.624269633266522 0 0 0 0 2912.9501874384878 -124.4682657468702 0 -124.4682657468702 -300.60264692846158 0 0 0 0 2253.9542843983763 -1462.5110858976686 0 -1462.5110858976686 873.17697942971427 0 0 0 0 26.759751609382874 6.1702055589764129 0 6.1702055589764129 2.9475340210074101 0 0 0 0 566.52930782906697 -435.64614095888146 0 -435.64614095888146 -44.700093780689713 0 0 0 0 1014.6921165921667 509.44053364615911 0 509.44053364615911 1543.0951119767815 0 0 0 0 -612.97447482597636 338.85646223419917 0 338.85646223419917 562.41958229930788 0 0 0 0 14.194729377719014 20.389662813997106 0 20.389662813997106 30.90480095739683 0 0 0 0 783.58918330573215 -473.40392252093727 0 -473.40392252093727 274.23277977874 0 0 0 0 524.34849971707445 -355.63803954542072 0 -355.63803954542072 320.69240556745984 0 0 0 0 7.780777840601516 16.242063822251382 0 16.242063822251382 33.940430583920502 0 0 0 0 610.43769758171766 -456.10886952441444 0 -456.10886952441444 285.94555484864486 0 0 0 0 450.48158064678864 -338.4795516305303 0 -338.4795516305303 288.533109127231 0 0 0 0 629.81377328448434 -370.20476850869409 0 -370.20476850869409 195.6810154969919 0 0 0 0 3.2013503379553754 -0.42680745165881717 0 -0.42680745165881717 -1.4011775226550922 0 0 0 0 283.84853306600053 -138.65683667269468 0 -138.65683667269468 137.96874839649604 0 0 0 0 448.47024691578736 -422.48166955965416 0 -422.48166955965416 273.04663195563899 0 0 0 0 510.62221560961189 -286.89316418507838 0 -286.89316418507838 235.95552485475855 0 0 0 0 5.4708747236109758 -0.24502180160604325 0 -0.24502180160604325 -2.171810199039665 0 0 0 0 429.69609474807112 -409.06391604017824 0 -409.06391604017824 240.8009647083976 0 0 0 0 531.61045828402348 -502.96523913613402 0 -502.96523913613402 387.33706024647051 0 0 0 0 444.28244417790097 -272.21486357826547 0 -272.21486357826547 131.820585872847 0 0 0 0 270.60168975778652 -182.18305063442386 0 -182.18305063442386 154.85736201652827 0 0 0 0 11.599117045677815 5.7525409749261485 0 5.7525409749261485 2.1523594350879307 0 0 0 0 343.56393711183773 -333.33541280360902 0 -333.33541280360902 250.17606816125701 0 0 0 0 382.24150341821223 -305.08642539740652 0 -305.08642539740652 236.84629237911167 0 0 0 0 826.28475551604424 -513.72230856777253 0 -513.72230856777253 363.80848550978351 0 0 0 0 3.9429809882127245 -0.36537848484335456 0 -0.36537848484335456 -1.6606320698497132 0 0 0 0 528.70962256933126 -419.13353472576932 0 -419.13353472576932 336.57030937168929 0 0 0 0 51.094382964845863 -31.752358495301337 0 -31.752358495301337 -50.061648946421428 0 0 0 0 33.365325789553026 -110.8421963723012 0 -110.8421963723012 190.0739593953947 0 0 0 0 147.01179332817264 8.5717357769863156 0 8.5717357769863156 5.2861509756023679 0 0 0 0 7.7425584213633556 1.0044676435757083 0 1.0044676435757083 -61.930899922638673 0 0 0 0 4.4128824065240906 -3.2164510522823235 0 -3.2164510522823235 -1.4748770025017333 0 0 0 0 169.9834333718336 -62.261908108403588 0 -62.261908108403588 61.518495500871268 0 0 0 0 750.34720518304675 -50.190415115936503 0 -50.190415115936503 -172.15713180106945 0 0 0 0 245.13011459374684 192.35027839666873 0 192.35027839666873 35.958856155680166 0 0 0 0 531.18481777637498 -184.25585298775121 0 -184.25585298775121 365.92634081639039 0 0 0 0 851.03342609234096 -27.091882842257291 0 -27.091882842257291 36.743017382592654 0 0 0 0 835.61988283277788 -215.0192303491794 0 -215.0192303491794 85.141663831738697 0 0 0 0 768.02876375328924 -457.2639155168506 0 -457.2639155168506 216.45779777150869 0 0 0 0 817.20597303119575 -284.45791345976954 0 -284.45791345976954 12.198841017503355 0 0 0 0 453.62141898215577 63.422183983131212 0 63.422183983131212 191.22851296808062 0 0 0 0 5.5930037512695492 1.8004108468953959 0 1.8004108468953959 -0.082251205199291633 0 0 0 0 349.7685986347351 -115.33720394615261 0 -115.33720394615261 149.04109509898973 0 0 0 0 321.33116372663017 -383.61378795673284 0 -383.61378795673284 103.30386381571907 0 0 0 0 598.53813571510909 254.75286214019496 0 254.75286214019496 296.16173752522513 0 0 0 0 863.58708289494825 -439.20568208109239 0 -439.20568208109239 241.40585905365066 0 0 0 0 322.31782706857484 -8.8421501390529897 0 -8.8421501390529897 159.87314216541313 0 0 0 0 148.02348161572445 121.7582261431055 0 121.7582261431055 172.55151019729837 0 0 0 0 7.6605725210611126 142.2173217767517 0 142.2173217767517 160.78811397961522 0 0 0 0 129.62448050898092 169.98230531266108 0 169.98230531266108 231.65593260298215 0 0 0 0 38.779272554907948 68.797011913398478 0 68.797011913398478 160.79426402064291 0 0 0 0 68.483990730062942 48.585868847799247 0 48.585868847799247 -406.68758849821404 0 0 0 0 17.195728562532167 162.19366586585738 0 162.19366586585738 -180.04143092819049 0 0 0 0 73.547847223813051 2.0467619911260968 0 2.0467619911260968 -10.040590089560629 0 0 0 0 8.1740740084072741 14.931075191922609 0 14.931075191922609 -8.0057899262912589 0 0 0 0 -18.245685079200484 127.21782726895731 0 127.21782726895731 -24.388690024924472 0 0 0 0 149.72654845056968 80.346516782003391 0 80.346516782003391 -21.800128894287809 0 0 0 0 120.38354887997775 -4.6676183059475989 0 -4.6676183059475989 -84.316703466427498 0 0 0 0 177.43998724712583 12.866815261037573 0 12.866815261037573 -243.28201694332893 0 0 0 0 60.667520375289314 149.4524303341268 0 149.4524303341268 -258.38725179288804 0 0 0 0 267.95439326381893 -27.217497294513578 0 -27.217497294513578 -213.27607078523852 0 0 0 0 104.95072701226309 -19.24209944303675 0 -19.24209944303675 -196.01023314404165 0 0 0 0 425.48766229939065 30.072938697930113 0 30.072938697930113 -87.376239340141183 0 0 0 0 336.52967575880666 -212.14697461178605 0 -212.14697461178605 -3.2004217146763949 0 0 0 0 129.89594335528091 -83.829296423246433 0 -83.829296423246433 -40.875088185885488 0 0 0 0 -10.252847752104572 -46.819518972743936 0 -46.819518972743936 -143.02770549673778 0 0 0 0 239.22288912984004 -198.2386519146703 0 -198.2386519146703 -57.096796368416108 0 0 0 0 50.728456025743071 22.414530885001341 0 22.414530885001341 -43.607429458025763 0 0 0 0 41.785203667350288 11.385945927546345 0 11.385945927546345 -38.434692839485251 0 0 0 0 27.800320596648817 -130.04679309210428 0 -130.04679309210428 -189.32354772614053 0 0 0 0 25.394599164313959 -21.035190757987301 0 -21.035190757987301 9.455252037278326 0 0 0 0 -208.09017532510006 -117.97170441635663 0 -117.97170441635663 91.942935885286431 0 0 0 0 7.7820861755160848 3.1910489924378567 0 3.1910489924378567 -18.159454477335156 0 0 0 0 117.34999262848578 5.7728328993409832 0 5.7728328993409832 -223.99144026127851 0 0 0 0 45.030108687897808 -12.009615107069699 0 -12.009615107069699 -12.147898474164002 0 0 0 0 60.127500723850062 5.3342638751857976 0 5.3342638751857976 -55.940848365381044 0 0 0 0 55.841948684152158 31.116206779306367 0 31.116206779306367 -15.127736166376053 0 0 0 0 74.421647253861011 15.049611787964523 0 15.049611787964523 -49.950027935631724 0 0 0 0 81.486110868223477 23.541243194316849 0 23.541243194316849 -50.010942510776204 0 0 0 0 77.719521537605033 3.1504242793705544 0 3.1504242793705544 -56.332793732554705 0 0 0 0 84.941941701898031 5.5261717499508904 0 5.5261717499508904 -69.605342350052979 0 0 0 0 78.202137098629464 16.562427417711774 0 16.562427417711774 -66.872968342657032 0 0 0 0 406.98328528405182 -338.68230227629618 0 -338.68230227629618 314.63636678073976 0 0 0 0 7.0825577538164026 5.2228734883381946 0 5.2228734883381946 4.8598774373015914 0 0 0 0 872.32287107456796 -318.7890540482872 0 -318.7890540482872 315.09874435144275 0 0 0 0 -200.54911402848484 199.84639939836376 0 199.84639939836376 639.56061986411669 0 0 0 0 395.68511887024215 -93.190441543973122 0 -93.190441543973122 357.08070284467362 0 0 0 0 847.24903008827096 146.48767904497959 0 146.48767904497959 480.78502433295398 0 0 0 0 519.72764927182288 -443.38599913248902 0 -443.38599913248902 819.48475094896287 0 0 0 0 309.12740615501798 -324.23726886490056 0 -324.23726886490056 265.2223805845673 0 0 0 0 628.35601353379752 -100.02476236869319 0 -100.02476236869319 233.56991706583182 0 0 0 0 327.48927896370878 -104.77770278802097 0 -104.77770278802097 233.64022186977036 0 0 0 0 1329.8965208883164 833.82658782271756 0 833.82658782271756 1371.1781032327053 0 0 0 0 330.7129743481928 -290.80732503951856 0 -290.80732503951856 291.39196665311408 0 0 0 0 14.9627107447198 9.053198411389225 0 9.053198411389225 5.413394587119523 0 0 0 0 332.27125413242902 -281.48245629501434 0 -281.48245629501434 235.41865002505088 0 0 0 0 108.22447496263339 -409.69042470158729 0 -409.69042470158729 113.283918533014 0 0 0 0 2.4863259329649736 -251.0689491957819 0 -251.0689491957819 51.470462839886295 0 0 0 0 -125.58272456438135 -330.46767801248188 0 -330.46767801248188 103.59372278458363 0 0 0 0 7.6227149251958508 -6.0552639336332206 0 -6.0552639336332206 6.5836767418754043 0 0 0 0 482.90322453607223 -2304.2623419659103 0 -2304.2623419659103 -2515.5838187910904 0 0 0 0 1807.6829377605463 205.87935939175168 0 205.87935939175168 -460.93726227135448 0 0 0 0 1406.1396940346167 936.87987194433867 0 936.87987194433867 193.03281384667116 0 0 0 0 -79.83277261225885 48.618867140676912 0 48.618867140676912 196.72324120849771 0 0 0 0 536.16922948663705 225.56559681730869 0 225.56559681730869 215.86500270213219 0 0 0 0 656.96679706602299 405.85118675611636 0 405.85118675611636 -35.12993484486833 0 0 0 0 580.64547977542679 447.4158836609306 0 447.4158836609306 -39.477018124719507 0 0 0 0 585.50733826514625 402.28502238246483 0 402.28502238246483 -31.092385263035453 0 0 0 0 -63.187606422099634 486.7500329722925 0 486.7500329722925 102.15831213276488 0 0 0 0 437.60083669090818 -32.924133598264916 0 -32.924133598264916 1.2010441626166539 0 0 0 0 703.00697585751914 296.92330028536207 0 296.92330028536207 208.4282906367275 0 0 0 0 972.64788969563961 -100.66779657461882 0 -100.66779657461882 3.9538188977366531 0 0 0 0 2.4411616868692363 -4.3512363029743781 0 -4.3512363029743781 0.025155228988372969 0 0 0 0 450.94884082657518 269.95080311803667 0 269.95080311803667 -202.9155783359347 0 0 0 0 1098.2421592643259 285.24768804908524 0 285.24768804908524 -135.69440925371509 0 0 0 0 840.54568055128038 395.47108408367131 0 395.47108408367131 -175.51820822854188 0 0 0 0 1045.8824394017138 -98.265989023250995 0 -98.265989023250995 -469.60078579757965 0 0 0 0 908.67638481040194 -175.31728426676705 0 -175.31728426676705 -433.73150862395642 0 0 0 0 953.13756674348406 -31.877018889789156 0 -31.877018889789156 -389.06728423518689 0 0 0 0 820.82602771265374 225.01167750150103 0 225.01167750150103 -117.93381522490245 0 0 0 0 1389.5699763640878 126.4824551881768 0 126.4824551881768 -377.53232525095018 0 0 0 0 1305.7443221450667 22.561634772115667 0 22.561634772115667 -444.74632323137121 0 0 0 0 1503.4708388056315 -672.30913840565745 0 -672.30913840565745 695.9767389392764 0 0 0 0 1463.6731430737309 619.04296096513372 0 619.04296096513372 80.592721300098674 0 0 0 0 629.3318739941169 414.32757193307623 0 414.32757193307623 58.822695681398841 0 0 0 0 988.74245254416019 108.58145904143521 0 108.58145904143521 -161.78806477174658 0 0 0 0 726.15999030096282 133.42548984305358 0 133.42548984305358 -195.67439694975542 0 0 0 0 186.75706628771877 -292.57297232170026 0 -292.57297232170026 -343.1917025411816 0 0 0 0 9.3883995327807952 0.038337716029040791 0 0.038337716029040791 -1.1086763825008294 0 0 0 0 616.92398193871486 -221.29383615139 0 -221.29383615139 -499.54995174020479 0 0 0 0 585.78335458569927 507.06377961673638 0 507.06377961673638 -148.70238290398925 0 0 0 0 51.722200363656157 641.33386905019734 0 641.33386905019734 -94.198595978979029 0 0 0 0 613.39318036066834 -124.88389688237316 0 -124.88389688237316 -323.73357818830209 0 0 0 0 621.87299969859305 -104.9227128319817 0 -104.9227128319817 -302.35586884028044 0 0 0 0 451.29107059890521 -186.54615982572091 0 -186.54615982572091 -319.9060280122182 0 0 0 0 -507.4789156803381 109.31790967584743 0 109.31790967584743 -349.9583254916256 0 0 0 0 82.484361328970408 -155.16493768419741 0 -155.16493768419741 -202.97202031263586 0 0 0 0 51.299038855813706 -291.01360352030383 0 -291.01360352030383 -558.36250559574091 0 0 0 0 -36.959449927671812 179.3793023766259 0 179.3793023766259 587.01021833890309 0 0 0 0 -35.802420623058424 277.73029970595223 0 277.73029970595223 307.42057572627255 0 0 0 0 -789.59880333479668 407.11693208864926 0 407.11693208864926 285.70313000421856 0 0 0 0 562.87194938058565 -701.61552886049924 0 -701.61552886049924 -760.78929586167169 0 0 0 0 -154.68234089482576 475.23898001592443 0 475.23898001592443 541.44060317767071 0 0 0 0 14.274588004715042 477.07109022730788 0 477.07109022730788 428.69645560997151 0 0 0 0 -438.14104600975406 -154.64373757600742 0 -154.64373757600742 771.0340277540904 0 0 0 0 1396.9998551712306 -380.40107386047805 0 -380.40107386047805 -711.36883176956189 0 0 0 0 -25.223836785804451 -219.78118254411896 0 -219.78118254411896 -51.302550416373606 0 0 0 0 161.67277687625028 194.45997751599089 0 194.45997751599089 -611.45769135199134 0 0 0 0 -60.604012901079841 338.71251394976548 0 338.71251394976548 -474.13484603981988 0 0 0 0 16.792560335950967 -3.5259511212075729 0 -3.5259511212075729 -0.39146241492777722 0 0 0 0 -3.7705335182645285 -1.1686148718122027 0 -1.1686148718122027 -3.1943527015847577 0 0 0 0 -27.745508664971567 -99.946230049358405 0 -99.946230049358405 89.841611526579243 0 0 0 0 56.169458887045039 5.1319458566252649 0 5.1319458566252649 25.95915783400153 0 0 0 0 149.72231589291005 -87.940873587584406 0 -87.940873587584406 -59.31732827006325 0 0 0 0 55.653083602882276 -8.09874532420924 0 -8.09874532420924 0.690219481996456 0 0 0 0 78.912867061044381 -94.512035066511089 0 -94.512035066511089 -280.84364336548646 0 0 0 0 42.210882111190585 -45.367631474400042 0 -45.367631474400042 -148.71198552557604 0 0 0 0 -41.137228213861817 -183.17218378385098 0 -183.17218378385098 -144.67027476543876 0 0 0 0 11.748097397809033 -42.243184176325599 0 -42.243184176325599 5.354575934884906 0 0 0 0 48.395721115579363 -97.810081237667958 0 -97.810081237667958 -136.83298603782981 0 0 0 0 70.171342833229573 -128.76598277866901 0 -128.76598277866901 -41.370447123960048 0 0 0 0 -34.356270709773526 -158.5635863284266 0 -158.5635863284266 53.947686385094357 0 0 0 0 -1.3526145191281103 -104.17166920224895 0 -104.17166920224895 28.654125753830954 0 0 0 0 -41.778078943621949 -133.79946130527355 0 -133.79946130527355 9.0828002443195146 0 0 0 0 26.337589091570408 -160.6521857531917 0 -160.6521857531917 -62.553113718704935 0 0 0 0 9.9126362557435641 -246.68276387457945 0 -246.68276387457945 -215.63608694351387 0 0 0 0 100.97008723079489 -129.21743250681948 0 -129.21743250681948 -74.587258487276586 0 0 0 0 382.98066585396737 -72.538554009451786 0 -72.538554009451786 -149.53427627399287 0 0 0 0 137.39977389063642 -224.04679110415341 0 -224.04679110415341 -206.57691932592888 0 0 0 0 491.82411002957087 -171.82922879026137 0 -171.82922879026137 -307.31344488142111 0 0 0 0 826.56205888823024 -111.08592017727619 0 -111.08592017727619 -330.25494713811815 0 0 0 0 739.36439813772449 -15.490205369069599 0 -15.490205369069599 -278.09943201798768 0 0 0 0 553.26296048569202 -80.84203724528777 0 -80.84203724528777 -281.91896980692309 0 0 0 0 714.75733292878431 -11.594218268376835 0 -11.594218268376835 -278.60005368849056 0 0 0 0 619.87189284796477 110.50069185769343 0 110.50069185769343 -171.93513951940963 0 0 0 0 436.50636506000592 70.712573148050069 0 70.712573148050069 -176.40536770305789 0 0 0 0 362.2193574882258 -77.818957499071189 0 -77.818957499071189 -148.01919627656329 0 0 0 0 132.29265708664752 -10.126704869405174 0 -10.126704869405174 -44.277757583562902 0 0 0 0 981.32410095882369 122.78517659528643 0 122.78517659528643 -341.5750145681136 0 0 0 0 831.40337463414471 76.769955218374093 0 76.769955218374093 -353.47542190527486 0 0 0 0 907.43696738700964 31.921258702375098 0 31.921258702375098 -376.87862906727793 0 0 0 0 932.44343992932409 9.9714425117679184 0 9.9714425117679184 -363.69720847656527 0 0 0 0 742.14908535862924 -22.116160650581833 0 -22.116160650581833 -350.62700514373728 0 0 0 0 701.50715117618893 45.666013932245697 0 45.666013932245697 -314.39389001162795 0 0 0 0 841.58160365978256 35.151738038514679 0 35.151738038514679 -318.5214788959745 0 0 0 0 879.73217637350899 89.270760182581483 0 89.270760182581483 -315.33705667762922 0 0 0 0 704.15319753816584 -0.64616500102232521 0 -0.64616500102232521 -328.91982619440125 0 0 0 0 1004.7329800101143 -33.350573693766101 0 -33.350573693766101 -325.361507821928 0 0 0 0 750.00520458719257 391.18771591361025 0 391.18771591361025 43.529755216760066 0 0 0 0 817.60240387579324 -266.59669206073374 0 -266.59669206073374 -313.66175834261776 0 0 0 0 1013.544392576332 -35.220672998771192 0 -35.220672998771192 -315.75512460738764 0 0 0 0 859.02340435607766 177.36391104566047 0 177.36391104566047 -289.40818648752906 0 0 0 0 867.82482721394626 69.355733339101803 0 69.355733339101803 -314.07027903918333 0 0 0 0 1115.0243057952466 26.630560389671984 0 26.630560389671984 -310.35102288282849 0 0 0 0 671.00925343521521 149.83839266589911 0 149.83839266589911 -246.07229370915763 0 0 0 0 807.15437947378086 160.85031615522882 0 160.85031615522882 -245.6153250995593 0 0 0 0 1457.3986763050198 260.12257764294139 0 260.12257764294139 -279.16852632748714 0 0 0 0 1019.8860474118774 -8.1162412887760809 0 -8.1162412887760809 -326.57562201958041 0 0 0 0 2134.7520641646188 118.97233849111294 0 118.97233849111294 -326.65702043985465 0 0 0 0 17.938621017070773 -3.8096397044169481 0 -3.8096397044169481 1.0567816949771514 0 0 0 0 -32.403495218677563 7.3171036254492492 0 7.3171036254492492 33.669097374610828 0 0 0 0 229.25944185792468 9.003747303517514 0 9.003747303517514 -40.506300209001182 0 0 0 0 217.89327050685824 180.69631536361817 0 180.69631536361817 -72.450742135330188 0 0 0 0 624.57608044040535 322.60586798901352 0 322.60586798901352 -48.831024204690721 0 0 0 0 432.16667273265921 365.29091043962649 0 365.29091043962649 57.107658705457936 0 0 0 0 61.141495483228937 225.34502106246021 0 225.34502106246021 44.391039057694258 0 0 0 0 -161.74231171727297 -99.124405770046053 0 -99.124405770046053 -8.0996350606747285 0 0 0 0 -703.27092836328302 405.84492196384633 0 405.84492196384633 36.986523820871639 0 0 0 0 1203.8058710472978 277.26167117794853 0 277.26167117794853 1186.8446957105873 0 0 0 0 69.878374608562552 9.1467481668848745 0 9.1467481668848745 1.9024467254931889 0 0 0 0 -166.45495673435062 -74.15113071535734 0 -74.15113071535734 260.52700562428026 0 0 0 0 -6906.4669100681785 -1201.6987747928511 0 -1201.6987747928511 1649.119738646755 0 0 0 0 76.41721733276006 280.24106207633349 0 280.24106207633349 -226.56376554501117 0 0 0 0 147.53004524133667 276.71376309092727 0 276.71376309092727 -342.03854287985268 0 0 0 0 110.09740766897085 194.49752424340647 0 194.49752424340647 -387.78969121897347 0 0 0 0 114.6818560644906 155.34711659110008 0 155.34711659110008 -367.98563257161715 0 0 0 0 0.89904103882872732 -123.90992888956589 0 -123.90992888956589 -243.24220906038659 0 0 0 0 200.95839062523237 30.202176074550778 0 30.202176074550778 -554.19787783273898 0 0 0 0 -546.92031956424034 812.45040237408386 0 812.45040237408386 -607.91247348601144 0 0 0 0 11.961067792622638 -2.3707332022996432 0 -2.3707332022996432 -6.9526244227363918 0 0 0 0 -301.3387135547764 262.02788577012097 0 262.02788577012097 -263.32637192814468 0 0 0 0 390.21369578523627 -158.77586256154154 0 -158.77586256154154 -498.7203030658726 0 0 0 0 302.05432502077201 344.34452001742943 0 344.34452001742943 -766.52021468582643 0 0 0 0 1137.9074953972149 218.72632577049808 0 218.72632577049808 -314.26067234121024 0 0 0 0 -125.33256449637656 -15.326805334344158 0 -15.326805334344158 -344.80300891304751 0 0 0 0 1487.5272658768272 -821.13414120438506 0 -821.13414120438506 -889.92779090711633 0 0 0 0 30.819907622710161 -103.20906762757295 0 -103.20906762757295 478.01946559737746 0 0 0 0 90.660693787015347 -8.3777120607609632 0 -8.3777120607609632 -3.726498115263519 0 0 0 0 23.044237702895668 -0.040758007379175787 0 -0.040758007379175787 0.39980316323706577 0 0 0 0 -377.80004970965456 -627.3571998692646 0 -627.3571998692646 1215.0083433963969 0 0 0 0 -163.15902741839818 -461.70929060245317 0 -461.70929060245317 916.43657174776001 0 0 0 0 73.342822590429023 26.666917309411019 0 26.666917309411019 -24.497749447290289 0 0 0 0 55.470653934642904 -2.9555012169094028 0 -2.9555012169094028 -15.430796888799671 0 0 0 0 61.405796969048879 14.229219188256124 0 14.229219188256124 -0.93755989328019407 0 0 0 0 58.513089337602651 27.190306479553328 0 27.190306479553328 -11.833503615821428 0 0 0 0 69.644174647600266 10.517856001636801 0 10.517856001636801 0.43506301554862148 0 0 0 0 16.655835822686896 18.574420427753367 0 18.574420427753367 -19.106964499854584 0 0 0 0 88.027857076951477 41.85684306175699 0 41.85684306175699 -16.635226869836515 0 0 0 0 -414.90472986502573 276.88063510261878 0 276.88063510261878 -105.78734847143542 0 0 0 0 695.6350570420218 140.66614457449487 0 140.66614457449487 -585.016890832748 0 0 0 0 122.97913319246719 20.346569038818064 0 20.346569038818064 -3.2600279046739633 0 0 0 0 -31.160173614345695 109.04181402380571 0 109.04181402380571 -39.509593747593357 0 0 0 0 -351.4135369865653 -91.911313139990398 0 -91.911313139990398 55.076338582656206 0 0 0 0 223.33526180312765 -90.288507662251703 0 -90.288507662251703 9.6751580353180202 0 0 0 0 409.3911279001768 -304.36101856320835 0 -304.36101856320835 80.575996126198731 0 0 0 0 183.21346318023279 -26.193141489104306 0 -26.193141489104306 -48.373689982034023 0 0 0 0 727.33500768524027 -68.693706522356251 0 -68.693706522356251 -135.92918831602583 0 0 0 0 442.05231996324437 -188.22270988693879 0 -188.22270988693879 -185.82919266446521 0 0 0 0 1321.9337775841996 -276.98510328531751 0 -276.98510328531751 -324.19782332971613 0 0 0 0 358.73006574386091 -644.80537853732403 0 -644.80537853732403 27.940706312265405 0 0 0 0 106.31993425675472 19.642541803746511 0 19.642541803746511 4.1893517816569634 0 0 0 0 6302.164635709225 604.33523389436391 0 604.33523389436391 330.12072845875133 0 0 0 0 924.4271110561167 -717.0033442572477 0 -717.0033442572477 35.420043109826793 0 0 0 0 -515.73636755251846 -319.71045598204137 0 -319.71045598204137 144.36576594884463 0 0 0 0 38.239954317954698 296.93937642413744 0 296.93937642413744 -233.62456627008652 0 0 0 0 74.424642608203953 221.10457688988737 0 221.10457688988737 -234.21725657339152 0 0 0 0 125.58684722963062 -30.951378913469966 0 -30.951378913469966 29.965672931617394 0 0 0 0 94.884846131546112 156.27433039015568 0 156.27433039015568 -325.92603534050511 0 0 0 0 24.858984376668261 5.961029130665553 0 5.961029130665553 1.5665337025354091 0 0 0 0 -39.130263999218528 147.18741946449614 0 147.18741946449614 -281.7832896249754 0 0 0 0 -41.414944804286918 172.21372218070405 0 172.21372218070405 93.537212873303815 0 0 0 0 547.51338671144276 -394.74317804770368 0 -394.74317804770368 248.38367228106003 0 0 0 0 8.5385671959080955 2.6284126723510983 0 2.6284126723510983 0.98432176710000496 0 0 0 0 -101.61067437339614 62.226313264861403 0 62.226313264861403 -374.79911061837129 0 0 0 0 458.56217700780553 419.40013075576525 0 419.40013075576525 -189.07335285676152 0 0 0 0 747.07118502634603 -419.66776134575304 0 -419.66776134575304 -302.41588858991213 0 0 0 0 -184.52348313604216 -240.70672341989479 0 -240.70672341989479 -336.71886415258109 0 0 0 0 354.72760284528295 319.70928276409722 0 319.70928276409722 55.561711626105748 0 0 0 0 -108.43397285621359 67.178298111878348 0 67.178298111878348 301.81894227627561 0 0 0 0 21.516348927491435 198.42157907290755 0 198.42157907290755 -20.132382187650027 0 0 0 0 82.528521431135232 111.6779377316967 0 111.6779377316967 8.5753937156777624 0 0 0 0 55.414931116675689 -30.532983757645695 0 -30.532983757645695 22.612101020718193 0 0 0 0 93.963068511819529 121.64230354857436 0 121.64230354857436 15.891023882247623 0 0 0 0 803.37083556422226 -97.343369609923101 0 -97.343369609923101 -80.03700242900311 0 0 0 0 331.74750207693751 -6.616930553064595 0 -6.616930553064595 -97.423084433293837 0 0 0 0 -71.405746584915505 60.517238973512974 0 60.517238973512974 84.779344711720057 0 0 0 0 235.57738465950433 -29.038202595569231 0 -29.038202595569231 62.092842970476504 0 0 0 0 497.25193966108691 7.5409911282229558 0 7.5409911282229558 -4.0288722789809182 0 0 0 0 529.2059938017137 -209.7574907813397 0 -209.7574907813397 -5.5417136598521237 0 0 0 0 531.73783712195154 -207.39873811017088 0 -207.39873811017088 -23.449070707203383 0 0 0 0 116.40709408339808 -55.900470622590284 0 -55.900470622590284 -1.0987242767918204 0 0 0 0 119.88012918855839 -67.227563654440047 0 -67.227563654440047 -13.766045209752662 0 0 0 0 89.038402262875024 124.45047716094834 0 124.45047716094834 -194.52416223676025 0 0 0 0 225.89491953604647 38.975493540153607 0 38.975493540153607 -177.08358349401368 0 0 0 0 33.785341582728506 -264.80380893826066 0 -264.80380893826066 248.1370833079767 0 0 0 0 619.16605648948644 -408.53118886921385 0 -408.53118886921385 134.32194971449582 0 0 0 0 3.7842673887596625 0.46055015260274068 0 0.46055015260274068 -0.59536781446923215 0 0 0 0 556.11058718344634 -362.8262942852424 0 -362.8262942852424 63.536051797088362 0 0 0 0 2.15078452179152 0.4380555701713309 0 0.4380555701713309 -0.4296351086131307 0 0 0 0 598.1427241070478 -359.56833511926482 0 -359.56833511926482 61.958849230460203 0 0 0 0 195.61966495723755 -263.58271497719903 0 -263.58271497719903 135.24097853352379 0 0 0 0 632.26066997907856 -410.16688840794848 0 -410.16688840794848 115.08887914131154 0 0 0 0 565.43618324820056 -182.38119582561228 0 -182.38119582561228 22.283020727144049 0 0 0 0 208.25689381826987 -193.0063010977517 0 -193.0063010977517 -23.24146265571477 0 0 0 0 7.2268690522629555 2.0763411625843897 0 2.0763411625843897 -0.57687194076970361 0 0 0 0 274.05605914311042 76.914465556799982 0 76.914465556799982 -98.913001924268684 0 0 0 0 144.04779693656837 -118.93396995337071 0 -118.93396995337071 12.298531045021946 0 0 0 0 132.46583297019242 -138.06439189749079 0 -138.06439189749079 122.85677427719315 0 0 0 0 201.99051997632887 -216.51810403999326 0 -216.51810403999326 203.35814404513997 0 0 0 0 309.24319260549146 -227.24524279055143 0 -227.24524279055143 204.43003265892841 0 0 0 0 3.4852385675775803 0.98999898491677207 0 0.98999898491677207 -0.14545511506830966 0 0 0 0 57.774354450724786 -19.665481150186849 0 -19.665481150186849 -104.58847195501943 0 0 0 0 30.62511840485422 -31.027973109639788 0 -31.027973109639788 6.3094249038528005 0 0 0 0 146.51147988756929 -20.845908784830954 0 -20.845908784830954 7.2034354023132892 0 0 0 0 84.234462693962087 -13.008208445373157 0 -13.008208445373157 -79.254184887463907 0 0 0 0 44.115510580251794 17.194228484981465 0 17.194228484981465 -71.624026604390281 0 0 0 0 11.709545549690478 -3.2819672189176163 0 -3.2819672189176163 -14.71322138121373 0 0 0 0 40.543623679315672 11.389124884904131 0 11.389124884904131 -0.92943930123703833 0 0 0 0 344.50426158110758 339.13409038645489 0 339.13409038645489 -751.6628940604221 0 0 0 0 39.543519912212034 9.0374156169034858 0 9.0374156169034858 -2.3995234300351314 0 0 0 0 30.033205026424184 -3.8482206754796664 0 -3.8482206754796664 8.3805260349607025 0 0 0 0 39.936788523547875 14.49702304546922 0 14.49702304546922 -14.766729755119457 0 0 0 0 42.671513428344042 -4.4470460259751619 0 -4.4470460259751619 -17.027716913204003 0 0 0 0 42.682601230299952 -9.8870893393210864 0 -9.8870893393210864 32.880213286802046 0 0 0 0 39.971006203784782 -6.4269456329139132 0 -6.4269456329139132 -15.777262347743033 0 0 0 0 35.857310875422627 -6.7598502708094941 0 -6.7598502708094941 -79.097269673878401 0 0 0 0 12.885609246704007 12.557445592010566 0 12.557445592010566 -73.238212614173648 0 0 0 0 57.804221169840275 5.7398265486392006 0 5.7398265486392006 -95.203598671268225 0 0 0 0 53.5290284277296 -28.815826139565566 0 -28.815826139565566 -56.235159529636007 0 0 0 0 23.100004454914597 -41.662233347871052 0 -41.662233347871052 -78.531128044952311 0 0 0 0 58.019373850736883 -16.382428321430439 0 -16.382428321430439 -61.096026502233173 0 0 0 0 43.287166162328504 -13.230454816881377 0 -13.230454816881377 -61.090231586644904 0 0 0 0 78.380602396053291 -62.372089968038125 0 -62.372089968038125 -136.33301586634519 0 0 0 0 -86.598172779153629 -201.88426301715549 0 -201.88426301715549 -192.57399252722848 0 0 0 0 30.008384664576624 -6.1377363282115596 0 -6.1377363282115596 -74.283630912608317 0 0 0 0 -22.680505645901576 -85.016234084495579 0 -85.016234084495579 -60.598700437423055 0 0 0 0 7.6104076489987484 2.1486040092036776 0 2.1486040092036776 -0.38187062547907658 0 0 0 0 124.78525075885318 100.60911279272455 0 100.60911279272455 -31.531468226714424 0 0 0 0 387.63691033742271 -667.60000231694346 0 -667.60000231694346 31.131009745765368 0 0 0 0 826.40221498282699 -117.90452443002889 0 -117.90452443002889 -472.12479695010165 0 0 0 0 112.02210527545958 -19.254141998193575 0 -19.254141998193575 -113.11947705038165 0 0 0 0 -6.6861726396277845 224.7882015043412 0 224.7882015043412 -480.6429960773778 0 0 0 0 0.75321656931810743 0.47147537750821655 0 0.47147537750821655 -6.1051093055593428 0 0 0 0 68.871507979331909 47.139518589345698 0 47.139518589345698 87.347117820456333 0 0 0 0 317.88680437125163 73.165874154290805 0 73.165874154290805 18.000479837770627 0 0 0 0 0.43327550289474193 0.71526211478004686 0 0.71526211478004686 -0.94117791151128616 0 0 0 0 -380.00038946952873 1221.3976876145657 0 1221.3976876145657 155.83434800171932 0 0 0 0 798.37228025937293 99.306599248729356 0 99.306599248729356 -35.526275529483883 0 0 0 0 27.992869571841979 289.74645161879516 0 289.74645161879516 172.53039171966407 0 0 0 0 485.49095547939351 450.94079944756822 0 450.94079944756822 80.071388552397707 0 0 0 0 51.741757224249795 265.31656667276877 0 265.31656667276877 200.50879439755454 0 0 0 0 141.89390094258735 293.55707022233105 0 293.55707022233105 -47.750818098147931 0 0 0 0 191.21652693201736 130.45257900697743 0 130.45257900697743 263.92443024146382 0 0 0 0 98.216937829624442 291.91695420952556 0 291.91695420952556 200.67195705422273 0 0 0 0 152.48094526950854 296.02389583482113 0 296.02389583482113 166.29550257857386 0 0 0 0 73.899845322302696 77.570111302096564 0 77.570111302096564 -104.86740110023675 0 0 0 0 -43.094939653904305 83.459108379181998 0 83.459108379181998 283.47747253209434 0 0 0 0 112.60138740519761 -6.9688724617999469 0 -6.9688724617999469 -32.472885995899105 0 0 0 0 174.54738077784805 312.49498477278109 0 312.49498477278109 315.11046024888083 0 0 0 0 10.623873295535962 2.0344469221552908 0 2.0344469221552908 0.81853620055919585 0 0 0 0 466.52259532006792 -650.99037018656895 0 -650.99037018656895 348.61254290728903 0 0 0 0 -8.2791675033149659 -214.9553268579981 0 -214.9553268579981 8.5130227250324424 0 0 0 0 121.92207109428955 -397.81154678784429 0 -397.81154678784429 -274.16542714763546 0 0 0 0 29.215898745404576 6.2563983696558276 0 6.2563983696558276 1.1675128401749069 0 0 0 0 558.54053301528802 -139.50889878186581 0 -139.50889878186581 -570.47376952992659 0 0 0 0 14.522372459594717 15.672357256027521 0 15.672357256027521 5.9300019913314426 0 0 0 0 -320.82363208765446 426.70515713363716 0 426.70515713363716 -161.11763255763958 0 0 0 0 861.84767956558881 467.22188273116603 0 467.22188273116603 -275.66288479938771 0 0 0 0 817.93797018232544 -217.82171699923413 0 -217.82171699923413 333.94326087977151 0 0 0 0 754.91175497790096 231.97700169312532 0 231.97700169312532 151.25167673839746 0 0 0 0 57.609349074401052 -429.73171362502285 0 -429.73171362502285 534.8988238911885 0 0 0 0 712.24850787973787 26.541905910668191 0 26.541905910668191 104.0335961459179 0 0 0 0 687.59127701231637 633.69549672083951 0 633.69549672083951 701.85930392085197 0 0 0 0 487.22156233001795 -77.951103041843936 0 -77.951103041843936 129.51168086537785 0 0 0 0 2189.003623356356 192.56981450029019 0 192.56981450029019 -4.6072404204699069 0 0 0 0 1905.7401132164505 -610.65838066501317 0 -610.65838066501317 457.70888847276785 0 0 0 0 2995.6821014012348 -104.92387868879541 0 -104.92387868879541 633.53380231389383 0 0 0 0 3500.6618776326932 -288.27543589619404 0 -288.27543589619404 106.31752887097819 0 0 0 0 2939.0820125862988 -287.12429890713935 0 -287.12429890713935 250.67985728265751 0 0 0 0 3498.6925829012948 -43.892867006729908 0 -43.892867006729908 353.68954183946511 0 0 0 0 3017.3009693837034 121.86514723826438 0 121.86514723826438 348.62251788421025 0 0 0 0 2707.12995623805 208.68778557071184 0 208.68778557071184 383.62779687831664 0 0 0 0 3708.9012119224967 -736.27208752530282 0 -736.27208752530282 -39.513247155469799 0 0 0 0 -705.83999348415978 480.14106993910491 0 480.14106993910491 691.810570627282 0 0 0 0 9.3624355828991668 6.9306511850230139 0 6.9306511850230139 4.5694859881184069 0 0 0 0 3377.5176822216981 112.37756314090268 0 112.37756314090268 527.78328580536106 0 0 0 0 2978.6316438101367 -493.94996386921611 0 -493.94996386921611 365.19366007331013 0 0 0 0 3001.5812970689153 -238.4183588245391 0 -238.4183588245391 206.90705210644012 0 0 0 0 2185.6625084364914 -982.2606488379156 0 -982.2606488379156 30.21252962494053 0 0 0 0 3004.7525983207852 -488.87139491385983 0 -488.87139491385983 -171.72957888805331 0 0 0 0 2549.6118776909098 265.7192432487908 0 265.7192432487908 403.07389265602342 0 0 0 0 4015.8810728254066 -1124.8785007050494 0 -1124.8785007050494 9.9386953114584458 0 0 0 0 2437.8478665221937 -519.82608820406233 0 -519.82608820406233 859.3974972911509 0 0 0 0 1101.8778417275116 -320.89632031511081 0 -320.89632031511081 837.56483018387996 0 0 0 0 -587.84114998405676 -627.19509991568032 0 -627.19509991568032 1222.7321781332378 0 0 0 0 8.2690042782431021 -8.8107694580562104 0 -8.8107694580562104 8.5127665663764649 0 0 0 0 2338.1866213885678 -1591.2191198163714 0 -1591.2191198163714 1508.3341702391328 0 0 0 0 4527.5436141459504 -1701.0168166487667 0 -1701.0168166487667 2059.0089458127159 0 0 0 0 4977.1667005692325 -1638.9983665661712 0 -1638.9983665661712 459.11332222755755 0 0 0 0 3500.7510095836333 553.57968819058192 0 553.57968819058192 120.16461365411246 0 0 0 0 2300.4658398338779 275.80598212502122 0 275.80598212502122 586.70642229106966 0 0 0 0 2191.1213862298573 259.33608160742187 0 259.33608160742187 585.75642249269868 0 0 0 0 1869.0520807467747 414.51827428404272 0 414.51827428404272 617.81101892315905 0 0 0 0 1097.5925019710085 353.94693119350035 0 353.94693119350035 613.08361491344976 0 0 0 0 1790.5998818335302 1335.5157360189842 0 1335.5157360189842 540.14385644926631 0 0 0 0 2479.5077570702242 938.29005603772794 0 938.29005603772794 189.58337924885254 0 0 0 0 2296.9456829767187 1009.5264472396104 0 1009.5264472396104 203.54507348850436 0 0 0 0 3493.4186057465131 1770.6685463408394 0 1770.6685463408394 93.210791245588283 0 0 0 0 1558.4344626986858 2152.5056719908916 0 2152.5056719908916 1358.7269298798878 0 0 0 0 1224.0049491143914 673.79807523203453 0 673.79807523203453 339.82981705511594 0 0 0 0 631.29278715839746 -233.56465446424571 0 -233.56465446424571 -372.14021317741879 0 0 0 0 793.77536876156591 782.86425472640622 0 782.86425472640622 464.15719602744048 0 0 0 0 166.81113481206557 -178.42607991169507 0 -178.42607991169507 -178.26008696966983 0 0 0 0 331.04512392717334 212.23416719346051 0 212.23416719346051 -62.671189548480015 0 0 0 0 380.42964484701952 27.726824494084667 0 27.726824494084667 242.68285814585181 0 0 0 0 3.8535456445570624 5.1831194214543288 0 5.1831194214543288 11.160827684016885 0 0 0 0 3504.3822216607368 -620.52116486941713 0 -620.52116486941713 64.634937170815363 0 0 0 0 -488.16689809826676 540.12777269891433 0 540.12777269891433 682.19413558852011 0 0 0 0 615.50915337218794 694.00371820085309 0 694.00371820085309 466.01900266359826 0 0 0 0 -165.16948942422823 206.83156281741503 0 206.83156281741503 221.35516319791896 0 0 0 0 225.07703257261164 17.017929354763965 0 17.017929354763965 -144.24429087801582 0 0 0 0 -46.25589233244682 1048.9021555408622 0 1048.9021555408622 1239.5381667580859 0 0 0 0 4059.5361951422838 780.47308025425627 0 780.47308025425627 -471.64678264715803 0 0 0 0 1661.9934802077805 1124.930936577653 0 1124.930936577653 -91.00838190995205 0 0 0 0 5329.9982804860829 -1161.444751755874 0 -1161.444751755874 -638.31301945328232 0 0 0 0 830.60202721788119 781.58982353907788 0 781.58982353907788 -36.863442270207656 0 0 0 0 437.81376395359803 -58.510993273943768 0 -58.510993273943768 -0.09322501055248722 0 0 0 0 -413.39024217399765 -458.34677456944144 0 -458.34677456944144 107.09273249854107 0 0 0 0 12.532173594865014 -14.858607828039386 0 -14.858607828039386 11.162713001681379 0 0 0 0 1992.778433617299 -451.73567598193131 0 -451.73567598193131 -404.73501232697072 0 0 0 0 2871.8717554321611 -830.04599837774731 0 -830.04599837774731 -255.53795512341003 0 0 0 0 1054.0656862739634 -1177.3786237427157 0 -1177.3786237427157 681.92616136173547 0 0 0 0 2104.1955698129109 -1212.5777190717884 0 -1212.5777190717884 -42.590595516753638 0 0 0 0 688.70309276945045 -672.39783472500221 0 -672.39783472500221 490.24939807415922 0 0 0 0 2187.5656836253111 -2856.4443024381085 0 -2856.4443024381085 3144.8676083976461 0 0 0 0 223.50756816354988 -151.76953271533966 0 -151.76953271533966 242.87209725405 0 0 0 0 716.84019793744301 -634.26453607838494 0 -634.26453607838494 541.89308404545409 0 0 0 0 1014.565582473806 -786.36619125181051 0 -786.36619125181051 121.43728307859465 0 0 0 0 998.35043683655431 -603.84257559542198 0 -603.84257559542198 -76.938635662673732 0 0 0 0 264.68879343395383 -189.97623440322468 0 -189.97623440322468 0.7745422919979319 0 0 0 0 -1.2545999075297516 -1.4110976997839586 0 -1.4110976997839586 -3.9439400641748819 0 0 0 0 679.92787641163159 111.76934007146838 0 111.76934007146838 -665.03151498794023 0 0 0 0 -16.9582862281095 133.96806358428034 0 133.96806358428034 -332.36114372449492 0 0 0 0 196.7032164327029 -44.966773255553562 0 -44.966773255553562 -188.75842423641052 0 0 0 0 58.265303794607462 86.807006947058653 0 86.807006947058653 -88.815891343690964 0 0 0 0 19.269459379345506 -11.778472887333599 0 -11.778472887333599 -9.7053155676162355 0 0 0 0 83.608146935686818 -5.1983367741231632 0 -5.1983367741231632 -28.707684075108205 0 0 0 0 172.66004307630647 -32.835600593361278 0 -32.835600593361278 -55.568710679184278 0 0 0 0 19.893287505424425 -12.849604226504482 0 -12.849604226504482 -11.688729022981768 0 0 0 0 121.42106572085777 -64.418448082375747 0 -64.418448082375747 -17.499594909850686 0 0 0 0 103.54327584947671 -8.0390387404045374 0 -8.0390387404045374 -5.7993775379342827 0 0 0 0 167.98059929774172 -101.96702020338284 0 -101.96702020338284 -74.079036270552251 0 0 0 0 21.21409479224053 -7.051807966266054 0 -7.051807966266054 -5.1502510635091951 0 0 0 0 -541.71222817009402 505.48367483296533 0 505.48367483296533 1129.4594128041531 0 0 0 0 480.57737608277307 -611.47686184537974 0 -611.47686184537974 -173.64798997827234 0 0 0 0 371.46553497769219 -197.49768308318266 0 -197.49768308318266 -144.23534018392297 0 0 0 0 167.62140185787916 -88.844873850096803 0 -88.844873850096803 -202.10268968131186 0 0 0 0 477.44468904214557 73.72699630019099 0 73.72699630019099 -295.74177183382653 0 0 0 0 1196.5849254300369 450.21202666777663 0 450.21202666777663 97.387551884718505 0 0 0 0 2170.5477013364107 -307.31893473676223 0 -307.31893473676223 -257.15853262449571 0 0 0 0 -226.08601377633659 -220.53711383095452 0 -220.53711383095452 894.44026009598383 0 0 0 0 2431.4387081818459 806.77755332181073 0 806.77755332181073 -642.47323068938613 0 0 0 0 23.647624919481387 -3.7866419432776688 0 -3.7866419432776688 1.1695124081650543 0 0 0 0 29.41792537722543 2.9890046825344605 0 2.9890046825344605 -3.5805749899550143 0 0 0 0 82.044763295454231 173.4496275174385 0 173.4496275174385 -228.39000200984572 0 0 0 0 129.43655758147543 -36.904733808301302 0 -36.904733808301302 -73.920955259245744 0 0 0 0 -239.17873536821526 -104.89692252109541 0 -104.89692252109541 -25.541952920363656 0 0 0 0 60.500879700486763 -5.5822968760627809 0 -5.5822968760627809 -3.8388365110183962 0 0 0 0 242.36379211558415 56.688997304683426 0 56.688997304683426 -109.97802559239904 0 0 0 0 161.05560137666544 35.601495920554271 0 35.601495920554271 -112.68663029699678 0 0 0 0 160.67156640224147 153.57023109312968 0 153.57023109312968 -282.8958268935553 0 0 0 0 57.959241818314695 66.056408578395121 0 66.056408578395121 -98.712447688661996 0 0 0 0 57.994108285749462 100.03879466053161 0 100.03879466053161 -79.042343956171294 0 0 0 0 51.674233688036729 29.707303376201963 0 29.707303376201963 -14.069137185996761 0 0 0 0 136.02450886251427 72.972815669257329 0 72.972815669257329 -139.07445557774236 0 0 0 0 161.0569735606623 -35.819450783206776 0 -35.819450783206776 -193.09582952888547 0 0 0 0 454.64093595743361 77.153286220718428 0 77.153286220718428 -32.823769148537622 0 0 0 0 1154.8619048681858 -46.003993968161694 0 -46.003993968161694 -20.742375615423271 0 0 0 0 2.2415853476874581 -1.4333375747234705 0 -1.4333375747234705 0.24910188704761183 0 0 0 0 -161.39630812627183 -410.77647825565703 0 -410.77647825565703 -34.044584217674128 0 0 0 0 153.71659266852294 37.678474956908076 0 37.678474956908076 -133.55624989620276 0 0 0 0 250.71696795822936 -97.912257740790437 0 -97.912257740790437 -12.371076839302759 0 0 0 0 280.11726183809878 -8.2157624541596874 0 -8.2157624541596874 114.39386941085854 0 0 0 0 662.39141329498852 -361.57651311300822 0 -361.57651311300822 -37.11068709014171 0 0 0 0 662.0025286638047 57.562374325571568 0 57.562374325571568 409.04904273720331 0 0 0 0 525.67174093205176 -138.93138124744337 0 -138.93138124744337 151.53253511264461 0 0 0 0 300.70716443401125 70.868563385821858 0 70.868563385821858 215.89038966568387 0 0 0 0 276.119705257438 2.4411699004791672 0 2.4411699004791672 277.78156422711618 0 0 0 0 181.55535599142195 101.35997948114522 0 101.35997948114522 -51.579296370562133 0 0 0 0 187.15739795255104 -34.611780649741149 0 -34.611780649741149 120.79742834049563 0 0 0 0 131.92871126202408 -5.2560332029668189 0 -5.2560332029668189 116.90019053953847 0 0 0 0 142.20467009032336 48.701707823782954 0 48.701707823782954 333.1662800777342 0 0 0 0 209.18916899077885 20.39660593322742 0 20.39660593322742 271.96806004670111 0 0 0 0 160.78105848993982 116.48281620829334 0 116.48281620829334 307.30714192576107 0 0 0 0 258.25942784371728 27.438072427534053 0 27.438072427534053 118.85571441217508 0 0 0 0 140.90709273019093 -86.763967338547218 0 -86.763967338547218 63.996878829572893 0 0 0 0 4.3791549219757684 -2.2221209392400896 0 -2.2221209392400896 0.050273863336978364 0 0 0 0 -47.278127947331086 113.7190392967043 0 113.7190392967043 441.13709200193671 0 0 0 0 59.538036734029447 -11.060730870473321 0 -11.060730870473321 -128.88925671254947 0 0 0 0 99.555506828545248 48.049705959944731 0 48.049705959944731 -20.512938945176582 0 0 0 0 -30.837758269335609 97.807034359703266 0 97.807034359703266 -49.160535088994948 0 0 0 0 -47.635097263259013 405.56515479459154 0 405.56515479459154 -73.486195284764051 0 0 0 0 191.92719421848233 -90.638226668053676 0 -90.638226668053676 114.07583334803189 0 0 0 0 305.6572396994161 240.10639057760932 0 240.10639057760932 5.6798205303687155 0 0 0 0 132.15833731100429 50.633997314462249 0 50.633997314462249 -109.93462328154601 0 0 0 0 2.6515252864141416 20.019118920917528 0 20.019118920917528 -4.9909720864202001 0 0 0 0 116.93607063328091 120.86361107211178 0 120.86361107211178 -117.52582326356423 0 0 0 0 -152.59442510042572 173.66639205239699 0 173.66639205239699 52.482170792328361 0 0 0 0 104.58011682879997 41.432573664097376 0 41.432573664097376 -23.060096276541788 0 0 0 0 88.932806459695712 70.75072778021422 0 70.75072778021422 -92.759293291405584 0 0 0 0 209.05242373567307 20.145041106788767 0 20.145041106788767 -85.731213136914448 0 0 0 0 238.33023585563387 28.530584401725037 0 28.530584401725037 -15.06283992907629 0 0 0 0 304.48256633766141 119.48450862310528 0 119.48450862310528 -65.983692685344067 0 0 0 0 161.0552742570153 132.02560766681586 0 132.02560766681586 -59.638191397818446 0 0 0 0 50.004196724496978 190.08503200978373 0 190.08503200978373 -96.614089585980764 0 0 0 0 70.75721738079659 103.07250182323314 0 103.07250182323314 -6.3707186850460857 0 0 0 0 70.573897941114751 110.50648873299535 0 110.50648873299535 89.401030204659037 0 0 0 0 510.85154653548852 48.172024336482991 0 48.172024336482991 -23.506259929710723 0 0 0 0 261.97315661577159 231.4115836244946 0 231.4115836244946 159.58912021438846 0 0 0 0 94.671838593832661 52.187516900579183 0 52.187516900579183 -21.385368317831546 0 0 0 0 108.09617277943835 118.78882293518018 0 118.78882293518018 -305.62261561694459 0 0 0 0 125.93390761129012 219.96300642360353 0 219.96300642360353 -237.38266624563721 0 0 0 0 12.07316159549373 -20.114284915339113 0 -20.114284915339113 -136.23130688145966 0 0 0 0 -32.465700453787576 149.91897985921196 0 149.91897985921196 -25.181251089379657 0 0 0 0 12.899872605405108 71.612940684742171 0 71.612940684742171 -23.22798934155162 0 0 0 0 30.075891339998634 99.364507879561643 0 99.364507879561643 -40.290129093384394 0 0 0 0 16.272216108503926 65.617026795101992 0 65.617026795101992 84.30293613298636 0 0 0 0 23.53741918900058 33.596518455951404 0 33.596518455951404 -15.208895687434079 0 0 0 0 -121.34319601963944 182.02293206218269 0 182.02293206218269 -91.945343324413898 0 0 0 0 37.848948187137353 -2.9446122559739543 0 -2.9446122559739543 -5.3326832423330153 0 0 0 0 62.638072587779334 15.437191388850465 0 15.437191388850465 -9.5953902495939474 0 0 0 0 41.404271758224844 17.682506256176467 0 17.682506256176467 -8.0747353310967238 0 0 0 0 -19.929978574218694 54.045224399948893 0 54.045224399948893 39.95778168126526 0 0 0 0 -6.5550930533585188 4.57835805000866 0 4.57835805000866 2.4085802681620336 0 0 0 0 37.613965676147927 47.795465347888921 0 47.795465347888921 58.254036425954837 0 0 0 0 40.008100571139948 41.841097532138519 0 41.841097532138519 -15.163930276146857 0 0 0 0 2.5664899292908387 -0.49049671769227476 0 -0.49049671769227476 0.91524327482423118 0 0 0 0 -6.3981177980094799 -7.1900375301956956 0 -7.1900375301956956 26.909505814390286 0 0 0 0 29.233510485359147 28.658760444026484 0 28.658760444026484 32.182621539759566 0 0 0 0 17.608807569900819 -38.142091863917813 0 -38.142091863917813 32.925965739212188 0 0 0 0 8.0170311563737684 4.0870208086077469 0 4.0870208086077469 -0.48050536224675255 0 0 0 0 27.697858180765252 9.5416961666983298 0 9.5416961666983298 -2.5274168006653781 0 0 0 0 31.354440308561607 13.656300864845889 0 13.656300864845889 -4.7543907580875384 0 0 0 0 35.148446460465493 9.1004484272762056 0 9.1004484272762056 -3.47503107200464 0 0 0 0 663.01571304856407 0.15694459214500966 0 0.15694459214500966 -7.5089001724118134 0 0 0 0 -141.65105517051416 14.879710423679171 0 14.879710423679171 186.56256470632343 0 0 0 0 -13.521684806531994 76.996443484036718 0 76.996443484036718 216.36803193906326 0 0 0 0 1.9235428341544747 1.9642845435080716 0 1.9642845435080716 2.1767238569031804 0 0 0 0 66.033822318189777 27.350348919160751 0 27.350348919160751 72.956759214193426 0 0 0 0 52.580767759976879 10.544417287976557 0 10.544417287976557 54.596321699165856 0 0 0 0 143.94428111730667 -27.344552619644674 0 -27.344552619644674 63.108275923253132 0 0 0 0 104.10096001248894 26.97844382686435 0 26.97844382686435 20.11454905199389 0 0 0 0 68.47547288133137 168.31126073671203 0 168.31126073671203 -76.253307821857561 0 0 0 0 -0.92080916130726109 -156.22580832265885 0 -156.22580832265885 58.763231204477052 0 0 0 0 30.400169909989927 41.186705535516921 0 41.186705535516921 13.241519876391067 0 0 0 0 -24.858090931520564 20.767527878268083 0 20.767527878268083 33.500550149268747 0 0 0 0 1.7300754452304687 1.8274590907610531 0 1.8274590907610531 -0.12972352550286104 0 0 0 0 -1.451526034528797 -33.436821378738387 0 -33.436821378738387 21.629813503969672 0 0 0 0 50.279930075068478 -26.613385554741058 0 -26.613385554741058 8.0676957555224362 0 0 0 0 23.646189157261688 -43.015790769722116 0 -43.015790769722116 9.1422703893913422 0 0 0 0 3.8425771486927616 4.9999742409368935 0 4.9999742409368935 5.3799971840054006 0 0 0 0 41.143457553152984 -15.166700282592046 0 -15.166700282592046 5.2034676961120567 0 0 0 0 -10.070047386179795 17.805609921471842 0 17.805609921471842 10.059250633197735 0 0 0 0 34.17220167123287 15.968844278342658 0 15.968844278342658 -19.923650423344952 0 0 0 0 2.9195291369770331 4.2581498060258909 0 4.2581498060258909 1.3214071655228068 0 0 0 0 42.618389569572173 2.337756020829147 0 2.337756020829147 -4.3953457004390657 0 0 0 0 56.667602944500686 -2.9159515351484515 0 -2.9159515351484515 -2.6392796922409616 0 0 0 0 31.446550041236932 6.8995412433613748 0 6.8995412433613748 0.54332259085031254 0 0 0 0 43.753489800121315 -22.624035463457403 0 -22.624035463457403 -42.67200890400818 0 0 0 0 43.505897616618313 -7.1921272951458377 0 -7.1921272951458377 4.8400123718029135 0 0 0 0 8.876038642087515 -7.5844764435836112 0 -7.5844764435836112 -0.092256578180304416 0 0 0 0 34.045687837240621 0.98439230290500745 0 0.98439230290500745 2.9189252461783326 0 0 0 0 22.617501434862788 28.543558275456235 0 28.543558275456235 -16.288937720530612 0 0 0 0 7.8697373164526851 6.3466907806489843 0 6.3466907806489843 6.7149715240251986 0 0 0 0 5.4501064165040241 -6.0196385206617293 0 -6.0196385206617293 -3.6923850138594361 0 0 0 0 58.289851918641943 -5.3515463028797967 0 -5.3515463028797967 0.89030375868605915 0 0 0 0 35.974858870381468 -15.204332461974559 0 -15.204332461974559 14.519399591463298 0 0 0 0 74.309953274772852 26.275701829468744 0 26.275701829468744 1.0572511718355599 0 0 0 0 3.904666919423633 3.0326260282350717 0 3.0326260282350717 2.2846933565034888 0 0 0 0 9.4741672947384359 -7.8682408134584421 0 -7.8682408134584421 13.628406459212783 0 0 0 0 43.341010459604149 25.407674568960829 0 25.407674568960829 -19.480244995638714 0 0 0 0 21.405578361613152 35.945428652161354 0 35.945428652161354 92.399916074059547 0 0 0 0 12.415093104376865 -18.444620376686544 0 -18.444620376686544 22.797248102807316 0 0 0 0 46.489280890667033 18.312479300138762 0 18.312479300138762 -29.126848424058153 0 0 0 0 110.72246408821957 -109.46953075974398 0 -109.46953075974398 55.050842965840275 0 0 0 0 14.072124156916715 0.14968941232889676 0 0.14968941232889676 -1.6136804726993752 0 0 0 0 79.374902693979621 28.136543965968929 0 28.136543965968929 -25.339683213693444 0 0 0 0 129.1119617502236 13.790381179158999 0 13.790381179158999 -106.62738670989347 0 0 0 0 177.75138989931293 -114.13586029887119 0 -114.13586029887119 -106.3966872768342 0 0 0 0 47.260107796502624 -5.5058122282769872 0 -5.5058122282769872 1.0104438348561331 0 0 0 0 116.16103460443992 -27.634114215436057 0 -27.634114215436057 29.126804942996387 0 0 0 0 33.926333167601115 21.571160271566896 0 21.571160271566896 9.9150051727938262 0 0 0 0 54.657758379407824 13.413970122807314 0 13.413970122807314 -12.032025830725615 0 0 0 0 49.894369838235434 5.0028590111833182 0 5.0028590111833182 -3.3846369307593704 0 0 0 0 40.00101797612497 7.7603412409476729 0 7.7603412409476729 1.8553719250413145 0 0 0 0 47.200791769984789 15.926990224930705 0 15.926990224930705 -12.216153280925937 0 0 0 0 42.894504371732182 11.998085139253817 0 11.998085139253817 -5.8716793917728864 0 0 0 0 36.199123758600763 10.738330013486575 0 10.738330013486575 -5.7785943857597886 0 0 0 0 71.161483757477981 8.1223161938114572 0 8.1223161938114572 -38.009317911119069 0 0 0 0 51.852498841093563 7.931817091382797 0 7.931817091382797 -5.7192460352428292 0 0 0 0 67.380560816152865 22.556634803795532 0 22.556634803795532 -28.436047740404319 0 0 0 0 56.333185744747603 25.178917165558538 0 25.178917165558538 -18.226884039352605 0 0 0 0 113.16434989427259 31.293989589801583 0 31.293989589801583 -33.05250502244639 0 0 0 0 84.860678274924339 9.6429421115932286 0 9.6429421115932286 -47.82555901775504 0 0 0 0 83.395934478895242 -5.304080908967066 0 -5.304080908967066 -59.367716135474438 0 0 0 0 41.378502500128889 45.58257556243916 0 45.58257556243916 -12.16111304358401 0 0 0 0 214.28682872454374 -96.210835208552396 0 -96.210835208552396 72.538664994741339 0 0 0 0 214.20071502694191 119.53721962053623 0 119.53721962053623 62.168802673269525 0 0 0 0 -16.548995761524566 -97.747120017487305 0 -97.747120017487305 -133.67229452145853 0 0 0 0 1.4828555456768271 -2.448142881891135 0 -2.448142881891135 1.4648486138778614 0 0 0 0 30.134799262659612 33.353024376679684 0 33.353024376679684 97.501657203679201 0 0 0 0 29.372917728418543 22.53640887014501 0 22.53640887014501 -26.114953976002113 0 0 0 0 19.430315945143839 2.7926277746335586 0 2.7926277746335586 -4.6649807243166386 0 0 0 0 140.68561758087708 145.05773083995422 0 145.05773083995422 25.000573018797979 0 0 0 0 344.28071567675397 126.15016121665673 0 126.15016121665673 52.31571673026076 0 0 0 0 398.61798397081111 -60.084139731183598 0 -60.084139731183598 65.840098088168702 0 0 0 0 250.03246706264554 18.661025883063076 0 18.661025883063076 -41.813653888497925 0 0 0 0 160.04196868400049 119.11673770418702 0 119.11673770418702 21.670654707546646 0 0 0 0 64.921677871983775 13.210713127611942 0 13.210713127611942 -13.591716822337085 0 0 0 0 18.466596212509103 121.07118168591512 0 121.07118168591512 8.164074963968261 0 0 0 0 25.53660851719178 54.835876044145266 0 54.835876044145266 -37.52274017659488 0 0 0 0 2.3690530169260455 155.9130537436065 0 155.9130537436065 -118.30561043357102 0 0 0 0 170.92898463941674 84.041668596968748 0 84.041668596968748 -147.95294047909283 0 0 0 0 -33.579471149451429 21.528796406848585 0 21.528796406848585 13.985206562780204 0 0 0 0 4.594232377157482 0.097002420289634017 0 0.097002420289634017 -0.43671150083142152 0 0 0 0 540.38370679387299 331.22397744897262 0 331.22397744897262 282.26574131681264 0 0 0 0 77.993190500123092 132.33504256923152 0 132.33504256923152 -93.193468599391963 0 0 0 0 12.893293066095794 -240.28023901083361 0 -240.28023901083361 293.79512683699886 0 0 0 0 76.177697624843859 161.6530959006277 0 161.6530959006277 273.13398708943896 0 0 0 0 648.26095593459286 242.75029886318782 0 242.75029886318782 9.643587646090964 0 0 0 0 175.6003544424093 195.05343910385727 0 195.05343910385727 -87.639092150947135 0 0 0 0 167.91827724957056 189.2233022123321 0 189.2233022123321 -43.117351149307979 0 0 0 0 130.35947355058593 53.602771964796695 0 53.602771964796695 -32.325409951764087 0 0 0 0 508.9244411639811 -213.12391187810408 0 -213.12391187810408 -200.40367058637821 0 0 0 0 288.26578075377074 -48.369443098216493 0 -48.369443098216493 -49.412913514257752 0 0 0 0 504.60077423118764 58.649949109920726 0 58.649949109920726 -66.715223087014522 0 0 0 0 484.90667664267858 -83.163742199373928 0 -83.163742199373928 22.136777753056577 0 0 0 0 387.44268989278498 -172.10969351904268 0 -172.10969351904268 104.6674952172674 0 0 0 0 537.90153783054302 -182.73413181606998 0 -182.73413181606998 -19.595382982603269 0 0 0 0 446.8741023979801 -117.57557336001037 0 -117.57557336001037 -64.06799554340023 0 0 0 0 338.78932227900304 -119.34560105362948 0 -119.34560105362948 -41.07521967990715 0 0 0 0 404.14875542919162 -174.29082592668539 0 -174.29082592668539 2.2694920612343594 0 0 0 0 275.34900024828721 -181.11597346234066 0 -181.11597346234066 0.40863695019538682 0 0 0 0 372.95441680837757 68.053534186388532 0 68.053534186388532 178.36462203996578 0 0 0 0 341.34895293859915 -149.97694663484211 0 -149.97694663484211 4.4874454544249147 0 0 0 0 10.57447985448211 3.8433880579099213 0 3.8433880579099213 -0.96960651243568297 0 0 0 0 747.56104400340246 72.557158197425679 0 72.557158197425679 127.85790303760211 0 0 0 0 348.31212578365785 -121.84765804510351 0 -121.84765804510351 40.428724927802264 0 0 0 0 85.291397697503612 143.65872558261992 0 143.65872558261992 134.48420759033274 0 0 0 0 160.08133797509709 -495.09265842279353 0 -495.09265842279353 365.93882231986845 0 0 0 0 687.22213391383684 -641.2457453000585 0 -641.2457453000585 157.98562812823286 0 0 0 0 1218.1563152746667 -478.08296528259956 0 -478.08296528259956 13.935182629653241 0 0 0 0 1.2348536895865738 0.10139044864158819 0 0.10139044864158819 2.6510552298836121 0 0 0 0 656.20394017442959 -286.57643167297067 0 -286.57643167297067 213.61248233454899 0 0 0 0 774.30859309584594 -421.86760058541677 0 -421.86760058541677 199.67248525873563 0 0 0 0 630.48447281980134 -93.944961526693419 0 -93.944961526693419 150.48173414030924 0 0 0 0 487.60723772933852 77.278011665247334 0 77.278011665247334 237.9478142028818 0 0 0 0 785.69852235770759 -253.60360311308614 0 -253.60360311308614 167.15867592028889 0 0 0 0 837.31399907078628 57.158608151770821 0 57.158608151770821 -4.9152179556645024 0 0 0 0 920.79823211344592 -458.35326910898743 0 -458.35326910898743 187.45578855533356 0 0 0 0 5.7859421337455021 1.9421906054217075 0 1.9421906054217075 -0.075056780094034714 0 0 0 0 360.13801172055537 -134.19720870275461 0 -134.19720870275461 241.11170395066776 0 0 0 0 346.00737013890102 -217.66078854394243 0 -217.66078854394243 156.07113183776562 0 0 0 0 -186.5801020119543 60.20565750021791 0 60.20565750021791 -56.817728517240084 0 0 0 0 320.10609456133352 -159.39673797585721 0 -159.39673797585721 25.310629281789488 0 0 0 0 0.42552566963572325 0.65578521029918058 0 0.65578521029918058 1.4529288712330239 0 0 0 0 191.68710946539977 -54.343161801706401 0 -54.343161801706401 13.731650955081818 0 0 0 0 500.37577976230068 -64.64872668666726 0 -64.64872668666726 166.11970331793646 0 0 0 0 -515.33082695482153 300.09313859901886 0 300.09313859901886 -3.3156801592135707 0 0 0 0 -1.8080102826644211 -1.256768032197459 0 -1.256768032197459 -1.6716869513345953 0 0 0 0 -509.46741662261502 58.755701271792304 0 58.755701271792304 60.809046318154742 0 0 0 0 -291.63999170298484 245.43788481505499 0 245.43788481505499 -71.768880454744476 0 0 0 0 -254.36048843011667 -39.300777710091467 0 -39.300777710091467 202.67069275489109 0 0 0 0 -27.767533590198582 -114.47573728605033 0 -114.47573728605033 68.220702274443809 0 0 0 0 338.05067686266511 -288.6928099668288 0 -288.6928099668288 167.25590253070536 0 0 0 0 -280.99515979197986 51.989297987123336 0 51.989297987123336 13.425411704132671 0 0 0 0 0.63727317619964374 -7.1847068531067535 0 -7.1847068531067535 -6.6650321810781143 0 0 0 0 671.04509129026724 -448.34671190068025 0 -448.34671190068025 124.78139622003653 0 0 0 0 555.86403466721788 -579.58926726665823 0 -579.58926726665823 265.13843675344924 0 0 0 0 6.3580832437090473 1.4479948088680015 0 1.4479948088680015 -1.6993210877398788 0 0 0 0 384.70320761556053 -461.04722514706646 0 -461.04722514706646 191.0003055933314 0 0 0 0 350.72192830451559 -476.95644251241163 0 -476.95644251241163 488.97113933793753 0 0 0 0 414.50853627361903 -428.75616396014607 0 -428.75616396014607 217.06873362534122 0 0 0 0 2.6298344755926522 1.3384029684869949 0 1.3384029684869949 0.098573177581728899 0 0 0 0 759.66520905465677 -644.89021859360741 0 -644.89021859360741 349.31373215804183 0 0 0 0 19.551731848212246 10.419094146294446 0 10.419094146294446 0.60351617410476521 0 0 0 0 28.381017179557261 9.1707838085979603 0 9.1707838085979603 204.60261537196538 0 0 0 0 4.851389551584651 1.1504033422908799 0 1.1504033422908799 5.7300931512246365 0 0 0 0 47.560624806893429 14.384528639184509 0 14.384528639184509 12.298511598130517 0 0 0 0 282.96808063867138 -682.62818200097263 0 -682.62818200097263 394.07235529461741 0 0 0 0 41.921735327836359 3.9756689008791 0 3.9756689008791 11.814652946551476 0 0 0 0 33.543742251684989 -12.231332017704343 0 -12.231332017704343 -10.724830706612261 0 0 0 0 -242.15816721075998 -152.06065158042588 0 -152.06065158042588 -19.501331451866292 0 0 0 0 -239.81236791158045 -118.27855659984282 0 -118.27855659984282 118.28617402338338 0 0 0 0 -60.00960115055841 -120.52961164435486 0 -120.52961164435486 -127.93951397319314 0 0 0 0 -219.01011306463488 -362.8264967682241 0 -362.8264967682241 -188.82318710928814 0 0 0 0 63.812785305717625 16.458364833262976 0 16.458364833262976 14.655386537002414 0 0 0 0 37.152711688156181 -14.124711463011053 0 -14.124711463011053 -11.180139302388772 0 0 0 0 -222.19889621086895 -68.025514817968855 0 -68.025514817968855 -29.458141674034227 0 0 0 0 212.76170102495144 -6.6658980866892712 0 -6.6658980866892712 -59.961905698591416 0 0 0 0 -64.908487891171262 -182.2984057066414 0 -182.2984057066414 182.92011790126901 0 0 0 0 90.151321569756874 82.057263519613514 0 82.057263519613514 234.61414168326871 0 0 0 0 68.180822288034506 27.074531304341917 0 27.074531304341917 14.975552114679886 0 0 0 0 16.187518175314381 42.193971544061704 0 42.193971544061704 -112.2120173980976 0 0 0 0 36.409665035569077 -15.319467936450529 0 -15.319467936450529 -12.2941310406495 0 0 0 0 -389.9461652601201 -406.56634467847795 0 -406.56634467847795 -134.92851687821513 0 0 0 0 60.609345150739273 3.9407673883684993 0 3.9407673883684993 5.7251703771439679 0 0 0 0 43.669305908775641 6.4020452911158827 0 6.4020452911158827 16.955949981815138 0 0 0 0 46.268264183321207 3.0510796220258953 0 3.0510796220258953 5.1931146355886995 0 0 0 0 32.995749374087609 6.7199173629951474 0 6.7199173629951474 13.170216361584153 0 0 0 0 34.056972414196935 3.7855022576434294 0 3.7855022576434294 6.8544216406348824 0 0 0 0 38.811150623920128 0.53949415997230687 0 0.53949415997230687 2.2680007176477375 0 0 0 0 -45.892530625642394 -22.519787203244505 0 -22.519787203244505 122.71642056899077 0 0 0 0 29.743526906019362 9.3280914718393504 0 9.3280914718393504 3.0082600219722568 0 0 0 0 33.258736847084037 6.8575261763319304 0 6.8575261763319304 -3.5072419259568051 0 0 0 0 38.033871933511364 9.1504205775877381 0 9.1504205775877381 4.6238491557862744 0 0 0 0 55.17442035863678 10.099022200873151 0 10.099022200873151 -22.111631830237457 0 0 0 0 44.502882111518765 12.920558538433017 0 12.920558538433017 4.116505185992458 0 0 0 0 42.976415110471862 18.957501172359798 0 18.957501172359798 19.528908465306927 0 0 0 0 48.899786067497189 11.146922839335957 0 11.146922839335957 10.046104371194247 0 0 0 0 765.19216575640985 -227.1657421313879 0 -227.1657421313879 34.456801620697675 0 0 0 0 628.03572387460713 -333.36458025220554 0 -333.36458025220554 11.90422139085922 0 0 0 0 831.56308632989021 -347.05564835985092 0 -347.05564835985092 84.514860815726934 0 0 0 0 822.66810301832948 -257.04120657074782 0 -257.04120657074782 36.552526899922441 0 0 0 0 460.10525761713507 -238.96755322439572 0 -238.96755322439572 161.95842612660954 0 0 0 0 528.43480565301343 -158.21842743894081 0 -158.21842743894081 197.62162873616353 0 0 0 0 10.100269368138015 19.646144579301151 0 19.646144579301151 60.638205918949552 0 0 0 0 563.48059037861003 -56.655973111427215 0 -56.655973111427215 -127.96828686198978 0 0 0 0 3.516176657874801 4.6808960219918969 0 4.6808960219918969 7.3552824314897123 0 0 0 0 100.88824164665039 -14.524358748000736 0 -14.524358748000736 83.210396502870708 0 0 0 0 0.01926570982375253 5.1369179224590678 0 5.1369179224590678 6.1576191100162365 0 0 0 0 623.3552789615793 -190.90111061329384 0 -190.90111061329384 8.5137974314520761 0 0 0 0 312.98265346031803 -140.49898874148334 0 -140.49898874148334 95.441435179621067 0 0 0 0 342.70645135207724 -105.9818724519281 0 -105.9818724519281 -46.964782831705179 0 0 0 0 34.906268097655811 -8.1943479681108329 0 -8.1943479681108329 83.516343956745459 0 0 0 0 6.9537090064156688 5.3189125194900893 0 5.3189125194900893 2.4023635531529557 0 0 0 0 257.53596310147805 -78.609652552410353 0 -78.609652552410353 20.970385432249259 0 0 0 0 171.1587836903791 -158.50785870323671 0 -158.50785870323671 160.01228220344234 0 0 0 0 780.37954266663837 -625.1216725824147 0 -625.1216725824147 442.98279323831321 0 0 0 0 534.97026410433318 -347.1043911604126 0 -347.1043911604126 115.98823849887867 0 0 0 0 766.99448081449373 -237.13456785314588 0 -237.13456785314588 52.111063795814403 0 0 0 0 764.11038854113576 -255.53663839955607 0 -255.53663839955607 15.986370181983375 0 0 0 0 761.55942251618171 -249.54822420767306 0 -249.54822420767306 3.000465585798338 0 0 0 0 1117.1267603746765 -227.55488639685905 0 -227.55488639685905 1.2544373309726069 0 0 0 0 361.26615273466768 -110.95058483062309 0 -110.95058483062309 195.84714337816627 0 0 0 0 1282.1073455334208 -140.10110244350301 0 -140.10110244350301 104.33332194316677 0 0 0 0 80.262614184579434 192.96040283712136 0 192.96040283712136 321.00412655017874 0 0 0 0 34.38080660444939 -18.107190196411011 0 -18.107190196411011 220.27958245007449 0 0 0 0 273.35587711943299 213.5416451279259 0 213.5416451279259 391.67367384520912 0 0 0 0 9.8346331555918454 1.3261425478254072 0 1.3261425478254072 0.92296264767955094 0 0 0 0 42.916694925228512 1.9366101841173986 0 1.9366101841173986 97.295252089327505 0 0 0 0 -44.587887117406353 -67.860322265571995 0 -67.860322265571995 127.51629617304707 0 0 0 0 25.786520716532813 5.1799378636672078 0 5.1799378636672078 0.90442327302223502 0 0 0 0 -138.39937557962844 -119.21269677812268 0 -119.21269677812268 20.897476190998532 0 0 0 0 174.70484850237699 -106.75674828265619 0 -106.75674828265619 361.32550539810109 0 0 0 0 6.957536486294817 1.8436328311288257 0 1.8436328311288257 0.28830610233376319 0 0 0 0 253.14888175694068 222.61309526105288 0 222.61309526105288 -53.426223189801021 0 0 0 0 136.06973029096844 110.83700673454371 0 110.83700673454371 281.13980724208886 0 0 0 0 247.98475652690104 -79.363104545832357 0 -79.363104545832357 -12.688298508355729 0 0 0 0 -166.68035049084665 179.04772595816689 0 179.04772595816689 -118.53073842716003 0 0 0 0 219.35283959156368 201.72294314860892 0 201.72294314860892 -458.4745933627828 0 0 0 0 154.46024640667747 41.020986637990518 0 41.020986637990518 -280.85374527469958 0 0 0 0 56.676620155427372 332.83651603262297 0 332.83651603262297 459.7806795712886 0 0 0 0 154.32465099467117 254.65941895309572 0 254.65941895309572 258.50423102282275 0 0 0 0 118.32943177209381 134.43986576842894 0 134.43986576842894 136.46116360592441 0 0 0 0 -10.205501729375101 123.32922215331246 0 123.32922215331246 137.23782123436467 0 0 0 0 -25.559955574361084 176.70143018040608 0 176.70143018040608 406.95869392289251 0 0 0 0 64.052482351922663 116.03779810716742 0 116.03779810716742 99.864592145688334 0 0 0 0 33.590465921675786 111.97632069258646 0 111.97632069258646 184.88414633475486 0 0 0 0 -3.642208169301739 151.12963851635777 0 151.12963851635777 213.04158826562616 0 0 0 0 169.27487925702007 212.89595388205134 0 212.89595388205134 -38.248724944545984 0 0 0 0 34.964340613392778 173.05197707644459 0 173.05197707644459 32.298691878835598 0 0 0 0 9.3856989063533547 155.11440106708528 0 155.11440106708528 20.004203732620226 0 0 0 0 16.09821628422651 224.26819745007515 0 224.26819745007515 39.057269782473213 0 0 0 0 79.185012919120709 183.1677148881887 0 183.1677148881887 -25.760090959749505 0 0 0 0 48.959523859521141 136.58863965230239 0 136.58863965230239 41.68028853609303 0 0 0 0 7.5797489928154391 182.48900599825902 0 182.48900599825902 125.07881556908319 0 0 0 0 -1.2231239963730332 214.19645683161457 0 214.19645683161457 6.5581998974120097 0 0 0 0 53.313360753898451 201.94009814311016 0 201.94009814311016 -89.972222013846476 0 0 0 0 25.853576049150433 183.21258318406717 0 183.21258318406717 -95.194369990055975 0 0 0 0 37.156779783483216 214.3747748774764 0 214.3747748774764 -34.940049092741901 0 0 0 0 75.721122052305873 208.70020524703 0 208.70020524703 -218.98200814216489 0 0 0 0 80.032556839658355 179.37133699278877 0 179.37133699278877 -94.944191722844153 0 0 0 0 49.299794229526015 236.26975425293699 0 236.26975425293699 -90.200791378418316 0 0 0 0 41.048659287031114 297.26481197396276 0 297.26481197396276 -315.51673906844871 0 0 0 0 141.06799411718384 87.52374514384104 0 87.52374514384104 -514.1196836180759 0 0 0 0 35.793538083381335 23.552258070387659 0 23.552258070387659 -9.6088456715310961 0 0 0 0 90.136454523124485 89.794385178114851 0 89.794385178114851 -109.05297864690152 0 0 0 0 140.02295167597913 83.293594103812012 0 83.293594103812012 -225.91811614425663 0 0 0 0 -61.436963046318851 287.05458371384441 0 287.05458371384441 -74.842389562160179 0 0 0 0 -61.519814598213998 316.72403807859712 0 316.72403807859712 -259.98000508077348 0 0 0 0 -16.623806856528972 91.359774162354071 0 91.359774162354071 -117.67162694931358 0 0 0 0 96.020523907431198 262.5360911841392 0 262.5360911841392 -332.83325917647221 0 0 0 0 147.52867151353348 143.24465493813091 0 143.24465493813091 -178.35332302668849 0 0 0 0 173.54091301853259 195.35927922039457 0 195.35927922039457 -98.861826942814105 0 0 0 0 254.04358492601114 -87.185609858609752 0 -87.185609858609752 74.821965126835721 0 0 0 0 425.3422256438098 -0.22043572395193678 0 -0.22043572395193678 56.224276547144655 0 0 0 0 113.8143192682237 68.020561921962326 0 68.020561921962326 90.172728367835816 0 0 0 0 525.1600033432951 135.30462314994651 0 135.30462314994651 70.862455074145146 0 0 0 0 61.432604321589679 27.868388470410849 0 27.868388470410849 -74.882849495102903 0 0 0 0 80.480673900743568 14.849590409560633 0 14.849590409560633 -87.419873498189304 0 0 0 0 53.773887540897704 42.065252787392637 0 42.065252787392637 -50.04105074608924 0 0 0 0 73.888085270715237 14.662567166343251 0 14.662567166343251 -60.885008189426117 0 0 0 0 41.267355944859446 69.68549050378283 0 69.68549050378283 -64.533177478039761 0 0 0 0 17.272720207763996 -21.531295891323339 0 -21.531295891323339 -108.60964407518895 0 0 0 0 37.738489116052733 3.6182746732724809 0 3.6182746732724809 -208.43528598116131 0 0 0 0 132.17049252252036 194.34026840762772 0 194.34026840762772 192.63542800777111 0 0 0 0 12.381517370037315 4.4831879100561718 0 4.4831879100561718 -3.457073590774669 0 0 0 0 626.13086820451463 489.28580126532205 0 489.28580126532205 -1033.9461307317736 0 0 0 0 -66.039774280587153 58.635599785292925 0 58.635599785292925 -151.76051352742195 0 0 0 0 66.904311020867681 0.32020856160477251 0 0.32020856160477251 -93.365810930293264 0 0 0 0 -5.8795059427102387 -64.504380568930628 0 -64.504380568930628 20.745795217347222 0 0 0 0 -12.501951454847585 72.307770054444518 0 72.307770054444518 -157.65286960126014 0 0 0 0 -0.70803331468505348 -9.6290740364117937 0 -9.6290740364117937 -153.76667480860124 0 0 0 0 -61.643099826324033 24.926412558524589 0 24.926412558524589 -26.796224954306126 0 0 0 0 113.7885971279502 43.802831698317732 0 43.802831698317732 4.8991830107297574 0 0 0 0 24.453562028866145 -10.108391098570792 0 -10.108391098570792 -225.29933598842126 0 0 0 0 47.432412218557147 96.483328971278752 0 96.483328971278752 11.405920785157832 0 0 0 0 -468.52571536789765 -722.13123052900119 0 -722.13123052900119 873.63836079434213 0 0 0 0 0.23790390783194226 4.1292822122617023 0 4.1292822122617023 -2.1397900309568931 0 0 0 0 191.14733028343835 -66.971257973770662 0 -66.971257973770662 -550.91966436040241 0 0 0 0 -261.92919357168284 107.45248395407634 0 107.45248395407634 825.99912091269653 0 0 0 0 -138.8987925042311 0.19972060677014269 0 0.19972060677014269 -142.73795906047576 0 0 0 0 -102.45672283886961 -135.00687225708702 0 -135.00687225708702 -227.12313700025948 0 0 0 0 -434.9817357462598 -1652.1123418286406 0 -1652.1123418286406 378.42121192968625 0 0 0 0 13.345732885849429 -497.44771357449827 0 -497.44771357449827 -225.28142294126792 0 0 0 0 315.32102636418131 -955.48142278850901 0 -955.48142278850901 -1551.7252594788188 0 0 0 0 -29.636790018848842 -2101.5293987360255 0 -2101.5293987360255 -656.82670445209078 0 0 0 0 4.0474046057352098 58.340531951461344 0 58.340531951461344 -914.63236148598344 0 0 0 0 48.717735034631914 148.27421264596796 0 148.27421264596796 -135.17545362108194 0 0 0 0 1.6688978921374655 101.86889098902793 0 101.86889098902793 123.50302286719943 0 0 0 0 -127.80188027513213 -65.048200079263552 0 -65.048200079263552 617.37077818362422 0 0 0 0 -7.1420474141814339 114.25016130230097 0 114.25016130230097 -2.4941401338073774 0 0 0 0 2.3672645250990172 94.117415350250667 0 94.117415350250667 145.31640312851368 0 0 0 0 -10.049455551350547 120.66000182790231 0 120.66000182790231 159.9999887680915 0 0 0 0 -40.129252982318576 -388.45378940385945 0 -388.45378940385945 -404.71240373313958 0 0 0 0 -191.05590502519772 136.051765619533 0 136.051765619533 -19.037889562842111 0 0 0 0 -17.603712692598492 171.19241541000997 0 171.19241541000997 -41.771733385652624 0 0 0 0 -136.78310373848944 210.85589155191633 0 210.85589155191633 15.23436100084291 0 0 0 0 -145.05216198558628 251.57068530628976 0 251.57068530628976 -183.44862614322119 0 0 0 0 -85.340802476195677 142.53998578006804 0 142.53998578006804 -77.673414907331335 0 0 0 0 -4.2921034545906878 201.01743243805777 0 201.01743243805777 -42.857832133521697 0 0 0 0 60.828391493803792 135.60793489749551 0 135.60793489749551 -174.89107983556733 0 0 0 0 64.081361740417833 100.85872322331791 0 100.85872322331791 -72.163972355663645 0 0 0 0 84.223270625559053 27.559184807534358 0 27.559184807534358 -2.5419365181224092 0 0 0 0 113.87199947533372 26.271191669891977 0 26.271191669891977 -35.655844852201682 0 0 0 0 -10.673960419804644 44.374780064362653 0 44.374780064362653 -40.170298319439325 0 0 0 0 -83.955037564468796 58.72342686553322 0 58.72342686553322 -36.689135997963149 0 0 0 0 94.834290164551973 33.123970783115396 0 33.123970783115396 -0.33426002050027215 0 0 0 0 161.66032516528139 62.814285017447219 0 62.814285017447219 -52.382916288590422 0 0 0 0 150.83522182716843 58.957240665106298 0 58.957240665106298 36.499545036844665 0 0 0 0 24.165204727347966 4.7675438724170434 0 4.7675438724170434 -19.247583647357164 0 0 0 0 54.191050180750608 12.142396713853032 0 12.142396713853032 50.851764496493161 0 0 0 0 27.72146049659932 168.74822443626067 0 168.74822443626067 -106.08278948041789 0 0 0 0 -5.9552342641072755 182.96827790851592 0 182.96827790851592 116.17840549728089 0 0 0 0 83.688022789705428 -11.379793257827032 0 -11.379793257827032 1.5836774488543597 0 0 0 0 192.33327992087288 22.336421980697878 0 22.336421980697878 -219.88287415510217 0 0 0 0 31.994308913805071 129.24543953466946 0 129.24543953466946 -118.83781626455675 0 0 0 0 41.298985688264409 5.4523560828131075 0 5.4523560828131075 -6.0721177431360429 0 0 0 0 151.08462209673598 159.43423129553321 0 159.43423129553321 -303.17684710795493 0 0 0 0 62.538563196959657 7.1677125211499977 0 7.1677125211499977 1.0654438289182133 0 0 0 0 44.716569119380438 43.122280007884001 0 43.122280007884001 -13.399516349117221 0 0 0 0 53.97116055177321 63.231632124838939 0 63.231632124838939 3.2781027790114194 0 0 0 0 22.624815191062225 166.28109893124918 0 166.28109893124918 131.18184243066116 0 0 0 0 -0.63390629335508741 1.5445472236575597 0 1.5445472236575597 2.6406730725000083 0 0 0 0 101.03238807340449 144.05929056666801 0 144.05929056666801 109.00996404494481 0 0 0 0 31.868646399400859 -11.962175090942502 0 -11.962175090942502 39.550710269933006 0 0 0 0 -0.84057588582800236 9.5372655389844567 0 9.5372655389844567 123.25266168586516 0 0 0 0 -9.2187508105271263 38.994975676743763 0 38.994975676743763 20.504605267045463 0 0 0 0 29.637102349151974 7.8600735594080788 0 7.8600735594080788 0.88943976445307271 0 0 0 0 57.000218693824962 -1.9444142038412409 0 -1.9444142038412409 -22.879574708610271 0 0 0 0 4.9539626895311883 17.834657423684988 0 17.834657423684988 10.356639590503484 0 0 0 0 24.25959877193236 7.7816264196044358 0 7.7816264196044358 19.747121855620662 0 0 0 0 109.53171380271124 43.020036023341731 0 43.020036023341731 24.503238254425924 0 0 0 0 24.020093802696643 20.727943798858604 0 20.727943798858604 -12.320059206071942 0 0 0 0 31.49879786366364 54.180914607899695 0 54.180914607899695 4.4905756538307742 0 0 0 0 120.0002484061115 37.687126353714611 0 37.687126353714611 -15.849942825298537 0 0 0 0 78.119312158440152 36.535241205266189 0 36.535241205266189 -15.139105470036156 0 0 0 0 87.258833404295729 14.638721242564543 0 14.638721242564543 -6.1177406553879337 0 0 0 0 93.387082335080777 26.054655926390296 0 26.054655926390296 13.688161371500428 0 0 0 0 100.26567272293869 11.252410031436 0 11.252410031436 -96.604643461469095 0 0 0 0 83.813415702607017 -101.86670821936718 0 -101.86670821936718 -109.65652270321107 0 0 0 0 114.81646543933493 -13.676995323071651 0 -13.676995323071651 -31.375407460302085 0 0 0 0 132.22528444564341 53.818571821172895 0 53.818571821172895 105.53111749515301 0 0 0 0 -44.764133956661681 31.118614562142511 0 31.118614562142511 -30.456034837204129 0 0 0 0 48.388269130618937 -184.8510723423027 0 -184.8510723423027 -144.96430605137721 0 0 0 0 -63.584852167143254 -34.934117901264472 0 -34.934117901264472 -28.484719691194641 0 0 0 0 113.06303169899911 4.7152237300520028 0 4.7152237300520028 -85.979956931932065 0 0 0 0 -163.0137043642244 -153.66571067618304 0 -153.66571067618304 -20.202998084746469 0 0 0 0 11.526990907669692 4.5984141960021532 0 4.5984141960021532 -0.84177049852280206 0 0 0 0 29.614308517011523 10.147032854376789 0 10.147032854376789 2.4548562805011898 0 0 0 0 29.830495709093526 -3.9825231830416001 0 -3.9825231830416001 -7.5764713050738539 0 0 0 0 69.306667153667149 23.476619713252319 0 23.476619713252319 -9.8402851205273691 0 0 0 0 64.982010266627185 -55.729855051455615 0 -55.729855051455615 -90.787735488968792 0 0 0 0 9.5049369425822334 -10.125009435991686 0 -10.125009435991686 -5.2176432710663843 0 0 0 0 10.732164397271958 -8.8769807975607407 0 -8.8769807975607407 3.6865261876173738 0 0 0 0 11.494547439586313 -10.698249892432273 0 -10.698249892432273 -0.32168168498162686 0 0 0 0 27.042539209054667 -35.714078337568708 0 -35.714078337568708 -29.305221004942268 0 0 0 0 6.3394002759810535 2.0362032731033253 0 2.0362032731033253 6.8493632481010316 0 0 0 0 -52.965447284943366 -24.286305365273847 0 -24.286305365273847 102.43769211533481 0 0 0 0 44.399753314476584 -57.360072740645649 0 -57.360072740645649 -31.50143985849536 0 0 0 0 183.97657150781029 161.79673849401232 0 161.79673849401232 -123.89458814474892 0 0 0 0 149.85084434507223 41.112376320396834 0 41.112376320396834 7.7256145924006336 0 0 0 0 186.13259876557095 289.09016129248818 0 289.09016129248818 -592.71665225359823 0 0 0 0 66.475021548953009 328.46796568976993 0 328.46796568976993 -198.14370125857658 0 0 0 0 -20.802186130869813 275.70847574228083 0 275.70847574228083 -193.77231042162043 0 0 0 0 17.409835811834455 320.72490189960797 0 320.72490189960797 -262.03301268064649 0 0 0 0 157.31078940874272 41.185218015964942 0 41.185218015964942 4.6384735263421666 0 0 0 0 168.14761967655795 42.400532525346534 0 42.400532525346534 -139.22901288316461 0 0 0 0 81.951416686611111 2.8162736049254491 0 2.8162736049254491 -18.264616556029331 0 0 0 0 186.68774759983353 -12.80258009753743 0 -12.80258009753743 -104.96526061195527 0 0 0 0 88.032429598177671 9.0478255572857016 0 9.0478255572857016 -1.8250879064609613 0 0 0 0 142.51951086072222 -26.167276538554688 0 -26.167276538554688 -72.418693877471014 0 0 0 0 255.37861439408152 29.379001668543879 0 29.379001668543879 -137.36163158994009 0 0 0 0 185.18911216371635 16.536042257283725 0 16.536042257283725 -60.607976261848762 0 0 0 0 212.00267209520462 86.987852403534248 0 86.987852403534248 -5.3364217302660109 0 0 0 0 345.51719328131003 -41.43077534432723 0 -41.43077534432723 -81.58213433815672 0 0 0 0 185.81115672011947 -65.793151074806701 0 -65.793151074806701 286.3213506910306 0 0 0 0 528.26487503607495 1.9093788828804463 0 1.9093788828804463 17.445680817233551 0 0 0 0 216.10114174617775 226.73572367304507 0 226.73572367304507 190.06016158774787 0 0 0 0 126.01872539332544 103.82450766446709 0 103.82450766446709 22.629810068970642 0 0 0 0 104.46223501169152 70.460609697016025 0 70.460609697016025 15.073058777958977 0 0 0 0 47.530200427230739 22.522549149882821 0 22.522549149882821 127.1660328799813 0 0 0 0 85.793480963569891 93.797946539217037 0 93.797946539217037 119.35992374308398 0 0 0 0 797.21376067870005 -289.74386048295469 0 -289.74386048295469 -185.81314417869862 0 0 0 0 92.740741111963871 -235.03683524463986 0 -235.03683524463986 -187.4299179938713 0 0 0 0 54.953783404144986 -5.2679932966690544 0 -5.2679932966690544 0.31905293940142165 0 0 0 0 59.802222376294168 20.276369440026407 0 20.276369440026407 -28.947285813542557 0 0 0 0 108.70813663498848 70.687525894243663 0 70.687525894243663 39.168452162261019 0 0 0 0 97.092025248712162 97.117885579907124 0 97.117885579907124 -4.3291243991743613 0 0 0 0 76.536194147891365 115.56997336508994 0 115.56997336508994 16.04308587627429 0 0 0 0 98.033771405578591 120.35937937437075 0 120.35937937437075 -14.573086309225801 0 0 0 0 53.142521557281725 143.36654546066711 0 143.36654546066711 -38.222787327839114 0 0 0 0 75.863634381457814 126.15194157627548 0 126.15194157627548 -119.34132324935399 0 0 0 0 44.569844280660618 88.446213559338275 0 88.446213559338275 11.096836139661718 0 0 0 0 54.499038923517219 131.25525825945215 0 131.25525825945215 -107.35379672588715 0 0 0 0 289.26082738723198 332.05997929482669 0 332.05997929482669 60.787120323327144 0 0 0 0 344.96802182703686 209.32465484984129 0 209.32465484984129 -273.80020618083654 0 0 0 0 1.0499941161251627 367.92405279596733 0 367.92405279596733 -461.16766969716809 0 0 0 0 485.85763485809184 355.62537090328203 0 355.62537090328203 -772.29406326285152 0 0 0 0 173.49790527460308 33.053137276933128 0 33.053137276933128 -5.5283189353280404 0 0 0 0 461.8670171121812 -401.67607552270124 0 -401.67607552270124 -64.638765180092605 0 0 0 0 152.4612585776631 21.67573269008879 0 21.67573269008879 -6.1248866842034317 0 0 0 0 400.95933669617807 -147.10253797682071 0 -147.10253797682071 -289.02310725250027 0 0 0 0 1292.0080396142566 -1108.8651729357669 0 -1108.8651729357669 257.64991914221116 0 0 0 0 498.04736566505176 -363.18954036018789 0 -363.18954036018789 -30.114483378473324 0 0 0 0 1467.4322106432101 61.408679740563855 0 61.408679740563855 -187.24078852197732 0 0 0 0 247.02633953345867 -349.65503543662408 0 -349.65503543662408 -289.86850142660023 0 0 0 0 253.05391576422517 231.46074678489595 0 231.46074678489595 665.13275287254328 0 0 0 0 288.91907626996181 -827.00154725964035 0 -827.00154725964035 1594.9353560916563 0 0 0 0 16.755262184356482 -3.8758153793650751 0 -3.8758153793650751 0.9959399091417237 0 0 0 0 145.88838323685042 27.909407960869757 0 27.909407960869757 5.0422543528894685 0 0 0 0 322.9092504082364 212.50193823237714 0 212.50193823237714 -636.47682528865437 0 0 0 0 288.6226537711118 446.82857638705036 0 446.82857638705036 -681.24536392434425 0 0 0 0 41.303841725193706 34.069956687132617 0 34.069956687132617 -1274.2087318467693 0 0 0 0 -7.4661096405516219 605.16392393638023 0 605.16392393638023 -316.22916862981947 0 0 0 0 287.70426030261478 -476.00163681110689 0 -476.00163681110689 747.03684456071881 0 0 0 0 247.68948661835384 -91.313746234786777 0 -91.313746234786777 137.62153119626328 0 0 0 0 90.661979720416639 -64.447476161238114 0 -64.447476161238114 23.546893810195684 0 0 0 0 515.57107718784755 49.052380204130827 0 49.052380204130827 -33.843255602958379 0 0 0 0 579.82574150837536 -328.32861180248426 0 -328.32861180248426 210.96821827175984 0 0 0 0 484.45885302453826 -414.10728076041238 0 -414.10728076041238 391.19676837661279 0 0 0 0 1098.159028843007 -606.02291734811956 0 -606.02291734811956 327.61046585695226 0 0 0 0 1064.9472211693901 -722.75795296376987 0 -722.75795296376987 -2.4087617664511072 0 0 0 0 190.73164817091947 194.18268357549482 0 194.18268357549482 70.257264374606564 0 0 0 0 566.30336820141929 190.28953441298518 0 190.28953441298518 -157.95631461629245 0 0 0 0 5.2408070139641367 -0.054485837027505202 0 -0.054485837027505202 -0.13606783306943765 0 0 0 0 245.42275033170154 126.18917543827524 0 126.18917543827524 162.50001570956931 0 0 0 0 20.459764799492405 46.158231073875072 0 46.158231073875072 146.54763604543245 0 0 0 0 68.835023571669808 20.955851417332156 0 20.955851417332156 229.71046489206628 0 0 0 0 187.42416451626104 81.912831878790371 0 81.912831878790371 209.65097342762829 0 0 0 0 436.41652713682834 40.956309629381835 0 40.956309629381835 142.00055654633979 0 0 0 0 459.92052778908021 -177.22436449178338 0 -177.22436449178338 356.88688996090559 0 0 0 0 662.06138850421485 -452.02499222703239 0 -452.02499222703239 669.84682432018076 0 0 0 0 580.87114047624527 -240.93356187562063 0 -240.93356187562063 134.06606437217147 0 0 0 0 994.39958758162084 -475.54933035074555 0 -475.54933035074555 242.92720410448737 0 0 0 0 242.72499303444056 -74.802602827491341 0 -74.802602827491341 -13.661284341553142 0 0 0 0 127.3643889497497 44.327986706006719 0 44.327986706006719 -23.060634901813273 0 0 0 0 59.220872701561866 16.598457865920707 0 16.598457865920707 -20.514723912934244 0 0 0 0 117.12153987102374 -50.515713647856501 0 -50.515713647856501 27.253546972347976 0 0 0 0 53.7164519097023 -9.2805299202409515 0 -9.2805299202409515 13.708943859169381 0 0 0 0 29.444639370028654 -80.976350435618997 0 -80.976350435618997 131.34355501614391 0 0 0 0 88.19614052738325 -82.388525476121913 0 -82.388525476121913 85.30035734345347 0 0 0 0 134.72887631433696 -59.729601952061557 0 -59.729601952061557 66.497002722997877 0 0 0 0 72.432367403889657 -50.302784842292795 0 -50.302784842292795 141.65240372678988 0 0 0 0 48.851431897490329 -13.242307821875897 0 -13.242307821875897 45.802443113663799 0 0 0 0 6.8073314913362992 -88.992525833351237 0 -88.992525833351237 85.406604474731296 0 0 0 0 8.6387352276660465 0.19929317645935196 0 0.19929317645935196 -0.27890815121112189 0 0 0 0 81.645059771464275 -124.66270815330998 0 -124.66270815330998 -152.85303986691247 0 0 0 0 95.410917024046284 28.195177752242785 0 28.195177752242785 -195.43363159375696 0 0 0 0 17.48211503546645 64.18086373710652 0 64.18086373710652 -75.164468642956251 0 0 0 0 54.360087424594894 115.79526404881844 0 115.79526404881844 -58.384033868211503 0 0 0 0 237.34678004831176 39.964445576007677 0 39.964445576007677 -252.32105518552208 0 0 0 0 3.4002846325217959 0.22036082134051238 0 0.22036082134051238 -0.0030911807253241053 0 0 0 0 91.450415018362037 -177.19632397238564 0 -177.19632397238564 91.094898095089093 0 0 0 0 173.91284326875075 69.086633957223 0 69.086633957223 127.00743704513297 0 0 0 0 104.35190521815048 -124.75940039365253 0 -124.75940039365253 63.964601879735255 0 0 0 0 -16.959153602878359 93.548915422128857 0 93.548915422128857 -238.31151560756416 0 0 0 0 75.730559379026744 -4.4291575517237725 0 -4.4291575517237725 -0.89924272066957001 0 0 0 0 264.02373291110416 -122.01500051876178 0 -122.01500051876178 -511.80466270114692 0 0 0 0 90.900751215852779 13.488424630083809 0 13.488424630083809 -159.54536723817318 0 0 0 0 403.5139365488285 -338.15044285884369 0 -338.15044285884369 -37.259691797519054 0 0 0 0 263.72080202493817 -64.802651865190455 0 -64.802651865190455 -210.75231799219318 0 0 0 0 180.12498686419895 -7.4802800957365889 0 -7.4802800957365889 -24.519924663976781 0 0 0 0 80.627650789041581 -282.63779201421875 0 -282.63779201421875 225.582545388894 0 0 0 0 48.529523477347752 -5.4631830691008627 0 -5.4631830691008627 -0.056734848033092644 0 0 0 0 254.02271533593012 -344.66760309619565 0 -344.66760309619565 2.5215044425714872 0 0 0 0 101.92235171762411 -357.77812817024858 0 -357.77812817024858 118.80547573488639 0 0 0 0 359.61987787709222 -522.25671498842712 0 -522.25671498842712 213.66839054431784 0 0 0 0 174.1212202225106 -332.27042663622433 0 -332.27042663622433 119.95290807631636 0 0 0 0 288.71156108882133 -553.71085412497951 0 -553.71085412497951 355.85347211160752 0 0 0 0 514.69958606941452 -660.45990286901508 0 -660.45990286901508 194.42526779308628 0 0 0 0 379.28562120054266 -509.33127836017047 0 -509.33127836017047 102.74486999058536 0 0 0 0 199.19312649338099 -369.23390700266191 0 -369.23390700266191 254.20771675942433 0 0 0 0 321.44763219257948 -498.56083339125053 0 -498.56083339125053 390.81049338418416 0 0 0 0 346.92467348100854 -459.18566483446671 0 -459.18566483446671 311.07253034514633 0 0 0 0 512.7977881443876 -358.53378662158957 0 -358.53378662158957 286.76198796007884 0 0 0 0 310.01721440847177 -471.12001833478473 0 -471.12001833478473 792.86782823718022 0 0 0 0 188.43573856687726 10.287617219163621 0 10.287617219163621 429.25964262386879 0 0 0 0 383.43366030059042 -423.78672486647019 0 -423.78672486647019 741.5911280861219 0 0 0 0 477.60110227284895 -558.76662470278143 0 -558.76662470278143 819.71044541893207 0 0 0 0 33.887878800934132 -8.8328459940772319 0 -8.8328459940772319 -6.4634147465833642 0 0 0 0 82.351593527913792 17.961399910428099 0 17.961399910428099 -15.966843027702453 0 0 0 0 124.17686215339884 14.70441993329289 0 14.70441993329289 -12.409197069972823 0 0 0 0 120.46630854842078 57.794783235428213 0 57.794783235428213 -48.583536976332198 0 0 0 0 26.879175101552391 56.256909477423505 0 56.256909477423505 -25.915518739046547 0 0 0 0 747.86943132953456 -278.9978717265808 0 -278.9978717265808 27.595913752484194 0 0 0 0 339.16414196779806 -441.95024938666029 0 -441.95024938666029 500.33924227119314 0 0 0 0 256.46108197464218 -254.38139961809611 0 -254.38139961809611 253.93830125195927 0 0 0 0 395.5026076893264 -469.67256883905611 0 -469.67256883905611 316.56411467480643 0 0 0 0 296.99139601651132 -379.88275132011074 0 -379.88275132011074 776.88894602341134 0 0 0 0 516.41679349215701 -696.70507141372855 0 -696.70507141372855 525.05184129102418 0 0 0 0 170.55755467036943 -508.34175813123602 0 -508.34175813123602 867.51309888691503 0 0 0 0 52.716097047518602 12.089180414536671 0 12.089180414536671 -3.1194595571888364 0 0 0 0 93.47765641688602 -585.62989545116216 0 -585.62989545116216 953.94577813172873 0 0 0 0 136.98724210765795 -729.84269717778443 0 -729.84269717778443 1226.5010642080069 0 0 0 0 845.86912901848336 -1087.7823312363394 0 -1087.7823312363394 1002.593609085794 0 0 0 0 745.60043539682374 -911.88334233696423 0 -911.88334233696423 715.25121200641843 0 0 0 0 38.785582429035827 2.1449674941933594 0 2.1449674941933594 -1.9869340083485874 0 0 0 0 25.094242786923132 33.873829808957453 0 33.873829808957453 -191.55749945946172 0 0 0 0 1195.565032934086 -261.77146898803949 0 -261.77146898803949 1713.332119321778 0 0 0 0 403.03023996031698 -1012.8053679297682 0 -1012.8053679297682 1514.5464261252528 0 0 0 0 161.17114699818194 180.28479134800182 0 180.28479134800182 -34.568612350991316 0 0 0 0 324.31017792984494 26.384050321110408 0 26.384050321110408 -79.257237245165925 0 0 0 0 -153.23462964742794 -121.9971982945226 0 -121.9971982945226 -15.357055193955603 0 0 0 0 45.584726786726193 2.5721893049606877 0 2.5721893049606877 -18.08436748118854 0 0 0 0 65.291460611704679 -45.917195652265036 0 -45.917195652265036 -40.027786401155936 0 0 0 0 63.224823625954741 2.5144366743161299 0 2.5144366743161299 70.523330428695772 0 0 0 0 25.918485262724531 -3.7348289449519143 0 -3.7348289449519143 -14.68005163558383 0 0 0 0 59.327026700906572 4.0404196609365499 0 4.0404196609365499 -5.9640449267071745 0 0 0 0 16.703728946615229 -3.4388204510517824 0 -3.4388204510517824 -16.481274169709739 0 0 0 0 88.298775883442431 20.005771481788315 0 20.005771481788315 -25.689019370365713 0 0 0 0 -256.63755864977429 -23.831126178873092 0 -23.831126178873092 -18.319327488697127 0 0 0 0 37.330396742674523 21.809879097398507 0 21.809879097398507 -14.375969332599418 0 0 0 0 -300.72162936268978 -161.68696969774192 0 -161.68696969774192 -11.367455214391157 0 0 0 0 -162.26145878439274 -155.64146586910192 0 -155.64146586910192 -12.552616116141508 0 0 0 0 -206.23947260517161 -123.06449188599072 0 -123.06449188599072 -6.676182649725888 0 0 0 0 -91.301355172341573 9.90765241968802 0 9.90765241968802 -13.653482268798143 0 0 0 0 33.796242802472989 13.590054075851981 0 13.590054075851981 -5.8713965155648111 0 0 0 0 44.17601749808091 8.8560541125607415 0 8.8560541125607415 -32.582393239853133 0 0 0 0 37.718413122089942 2.9197211332617066 0 2.9197211332617066 -4.8158674146451377 0 0 0 0 54.230281755779288 -13.347646840800735 0 -13.347646840800735 -94.566556301011417 0 0 0 0 63.780728227251529 1.4968674896826997 0 1.4968674896826997 -42.502351000695398 0 0 0 0 48.64069617794604 9.5435734555356682 0 9.5435734555356682 -1.5047322894822426 0 0 0 0 41.436605083741597 -17.216068445854489 0 -17.216068445854489 -146.45730990843913 0 0 0 0 66.761496048266054 66.371577466132123 0 66.371577466132123 -33.326764141985677 0 0 0 0 18.642095549592341 76.20994695544033 0 76.20994695544033 22.758434894837137 0 0 0 0 23.128709659019989 22.818850577191512 0 22.818850577191512 17.943399168892917 0 0 0 0 -62.782616278374917 87.230127955461285 0 87.230127955461285 56.989760454118368 0 0 0 0 9.8649437934800517 -6.5665742896217125 0 -6.5665742896217125 -16.197509362815254 0 0 0 0 69.971283388644224 48.103757264625301 0 48.103757264625301 61.990227275126323 0 0 0 0 -28.99028861374245 -30.788772863839654 0 -30.788772863839654 -45.535662485506691 0 0 0 0 32.478430890646294 1.5000586589260507 0 1.5000586589260507 -25.04790320598952 0 0 0 0 0.2051071419917605 -9.4370669865581842 0 -9.4370669865581842 -7.7333223142312537 0 0 0 0 85.967109192948556 67.164856656970187 0 67.164856656970187 -12.021741156560211 0 0 0 0 59.260366188143962 46.006465454903662 0 46.006465454903662 10.382598199071822 0 0 0 0 11.329487942710927 2.648507790286871 0 2.648507790286871 -16.436778942303224 0 0 0 0 59.122913075100882 22.622266452014355 0 22.622266452014355 -39.900893721169837 0 0 0 0 -13.072554378319182 51.845543036253048 0 51.845543036253048 -31.467611640455615 0 0 0 0 49.107797899705474 20.811416290373359 0 20.811416290373359 -40.967220811478114 0 0 0 0 75.891202533050091 36.703812949476742 0 36.703812949476742 -40.406600558075752 0 0 0 0 89.709516883529432 20.672887538751183 0 20.672887538751183 -39.590280137364061 0 0 0 0 75.213902330608107 26.183026688849168 0 26.183026688849168 -30.893552016913418 0 0 0 0 106.61972757336866 24.837139509596945 0 24.837139509596945 -37.592206616924159 0 0 0 0 106.80590569032938 5.0464415383792129 0 5.0464415383792129 -31.978941961722057 0 0 0 0 95.323544828730519 17.813444356796026 0 17.813444356796026 -35.01295356872879 0 0 0 0 95.225146224467608 32.290602471650345 0 32.290602471650345 -29.172241135444892 0 0 0 0 75.068570751711377 22.780071354571646 0 22.780071354571646 -35.574351269468707 0 0 0 0 78.674573182543099 28.783544687879839 0 28.783544687879839 -27.930810447393924 0 0 0 0 48.42588395664643 52.201845669850286 0 52.201845669850286 -25.236770543456259 0 0 0 0 35.686484864279919 41.778522633841021 0 41.778522633841021 -23.337118720046419 0 0 0 0 -13.617809274306637 61.910526328030301 0 61.910526328030301 -0.17915339314856737 0 0 0 0 14.099257226363989 98.200710563053462 0 98.200710563053462 38.842340427112504 0 0 0 0 -74.348051303359171 118.83899193785507 0 118.83899193785507 94.849792339557098 0 0 0 0 5.7316357257982418 4.5876459677079993 0 4.5876459677079993 4.2663304464421756 0 0 0 0 840.65332117579237 -482.72864765408849 0 -482.72864765408849 117.83925921238188 0 0 0 0 -47.576164105164935 164.92002848867878 0 164.92002848867878 128.97926215529424 0 0 0 0 -87.001152545359218 20.117185084915832 0 20.117185084915832 -3.4888145735373541 0 0 0 0 400.69929664443771 -199.98328670222372 0 -199.98328670222372 140.7182561575386 0 0 0 0 -13.996442320007191 92.102518162069714 0 92.102518162069714 -75.331812332630619 0 0 0 0 1.5028438676090445 30.776336404640517 0 30.776336404640517 -85.889592949356825 0 0 0 0 0.017879558567074127 49.605388657723893 0 49.605388657723893 -22.282702137667059 0 0 0 0 5.5579598538897699 267.38864708445408 0 267.38864708445408 213.59579784462107 0 0 0 0 -262.31509146546705 -27.238705149981854 0 -27.238705149981854 388.58202491952989 0 0 0 0 912.4711357153592 -259.52252071200462 0 -259.52252071200462 -151.55360816796747 0 0 0 0 733.03117208833282 -45.48088309286095 0 -45.48088309286095 -193.40052169117041 0 0 0 0 -1.3061010125913128 -1.8929343064523252 0 -1.8929343064523252 -2.1030198954749366 0 0 0 0 68.041844945189951 5.8102941940928474 0 5.8102941940928474 -46.610794258005626 0 0 0 0 633.41383305987983 -295.63024844518532 0 -295.63024844518532 -51.213818405267602 0 0 0 0 67.782683605923012 15.364142908440584 0 15.364142908440584 -163.18937926444869 0 0 0 0 8.8023324730834815 0.23164560407058588 0 0.23164560407058588 -0.53319561539995597 0 0 0 0 219.53278185633098 368.14016068633555 0 368.14016068633555 -139.898279810438 0 0 0 0 582.11601096624509 311.10364993671556 0 311.10364993671556 -169.5749722223909 0 0 0 0 237.96041816037905 281.36033116166618 0 281.36033116166618 -66.391094805037937 0 0 0 0 222.70243915746687 322.3152943839159 0 322.3152943839159 -75.356320207454473 0 0 0 0 -80.750397249023081 271.21142802752138 0 271.21142802752138 -59.261020651412764 0 0 0 0 159.26446827283507 172.19647562737055 0 172.19647562737055 -154.17585419800071 0 0 0 0 -135.29598302074737 3.3536814595021269 0 3.3536814595021269 -197.60938908530443 0 0 0 0 326.82546629106218 120.29546591476196 0 120.29546591476196 -15.931934260887829 0 0 0 0 14.264982421354489 13.899581209594615 0 13.899581209594615 13.519256346995725 0 0 0 0 293.40018548019361 13.052752909204173 0 13.052752909204173 -254.11088311929598 0 0 0 0 512.11543757467007 338.40323453153087 0 338.40323453153087 143.44487733384904 0 0 0 0 206.54261836886872 -77.466887165608568 0 -77.466887165608568 531.06669331162902 0 0 0 0 726.13455932296347 -114.48965987815018 0 -114.48965987815018 -37.848029985320863 0 0 0 0 56.502781131857773 -82.47984632819589 0 -82.47984632819589 112.40898845823722 0 0 0 0 207.79861635293958 -1.0117064328425442 0 -1.0117064328425442 60.817046028410914 0 0 0 0 -42.900319804786704 -128.03028145510734 0 -128.03028145510734 58.319234925928868 0 0 0 0 19.663705650968041 15.289128346445068 0 15.289128346445068 21.116584988338218 0 0 0 0 84.454996963133453 -27.326776104536293 0 -27.326776104536293 -17.878350129735736 0 0 0 0 86.428753370662889 -22.62646192774946 0 -22.62646192774946 -22.564970817564244 0 0 0 0 136.62185376189882 -26.91332764566323 0 -26.91332764566323 -48.083834660446882 0 0 0 0 158.27954184546252 34.61887794258655 0 34.61887794258655 -68.508839134479786 0 0 0 0 230.94250259107503 -110.86020971295875 0 -110.86020971295875 8.1340943138329749 0 0 0 0 295.16297436343302 40.965610484895478 0 40.965610484895478 -89.690172848080692 0 0 0 0 310.88229646107357 20.164563996719153 0 20.164563996719153 -69.905840356468616 0 0 0 0 395.09373853291618 165.91785233859764 0 165.91785233859764 -91.652250725299382 0 0 0 0 327.24642243291601 57.757185709674559 0 57.757185709674559 -82.192077605044688 0 0 0 0 249.44773305478157 90.006394565851224 0 90.006394565851224 -80.083274437592991 0 0 0 0 224.02436764213053 145.09100498244538 0 145.09100498244538 -94.187669718092366 0 0 0 0 211.7043650909909 7.2118086679929547 0 7.2118086679929547 -67.998982250497647 0 0 0 0 233.74259245362191 89.925193154631415 0 89.925193154631415 -70.010162221306018 0 0 0 0 191.18275350451586 55.181433840190039 0 55.181433840190039 -88.182602925146057 0 0 0 0 157.38018386042677 72.577662458504165 0 72.577662458504165 -74.827660591483436 0 0 0 0 102.51589578343555 32.619712758271817 0 32.619712758271817 -88.657809854299558 0 0 0 0 176.65149947299506 77.494362208126404 0 77.494362208126404 -82.463050806634783 0 0 0 0 173.56397511177602 131.22753615184479 0 131.22753615184479 -41.759978224708902 0 0 0 0 104.66717421685462 35.458766925796226 0 35.458766925796226 -75.920596981949302 0 0 0 0 130.32866661375738 88.565224966192545 0 88.565224966192545 -27.717141190792063 0 0 0 0 116.38787450434756 32.915293530871168 0 32.915293530871168 -85.768857757539081 0 0 0 0 166.20655438117683 76.07120908584875 0 76.07120908584875 -72.458371013435681 0 0 0 0 59.135085836416692 -26.136342186990987 0 -26.136342186990987 -110.33821667569282 0 0 0 0 60.230565649311757 -22.985211025948956 0 -22.985211025948956 -118.97514035908125 0 0 0 0 138.27191392355599 30.32308699983696 0 30.32308699983696 -120.65848906441579 0 0 0 0 118.82380133389961 -9.3634494125890342 0 -9.3634494125890342 -182.9173928152527 0 0 0 0 -30.237248486082535 -135.91865619701639 0 -135.91865619701639 -188.44026310976875 0 0 0 0 -157.3103634796862 6.8020152956387392 0 6.8020152956387392 -287.36009972747343 0 0 0 0 97.858844779519131 9.182329816827405 0 9.182329816827405 -120.95583277186415 0 0 0 0 79.263090465654386 -2.9942003855248913 0 -2.9942003855248913 -53.264799315311393 0 0 0 0 98.311856828047894 -26.895256080095351 0 -26.895256080095351 -120.15244462398186 0 0 0 0 115.81679656356573 15.019871351574693 0 15.019871351574693 -71.672412839400295 0 0 0 0 97.940109968232264 30.281427619789063 0 30.281427619789063 -84.25101542775883 0 0 0 0 176.64963899667782 274.13930680830072 0 274.13930680830072 -25.180383563272699 0 0 0 0 -1.6303469609629246 253.98909932739934 0 253.98909932739934 -24.961475138257811 0 0 0 0 113.84561898271204 285.22063730818036 0 285.22063730818036 35.636830042198198 0 0 0 0 149.28123162791599 236.63133517449933 0 236.63133517449933 3.9680619090750042 0 0 0 0 173.07316238226485 261.67588782249459 0 261.67588782249459 11.858713544727379 0 0 0 0 303.82366341445595 280.65958251067696 0 280.65958251067696 -69.263068317136458 0 0 0 0 174.71458955544949 258.06960830184289 0 258.06960830184289 -37.620674644940664 0 0 0 0 210.71169901662506 229.40642119047243 0 229.40642119047243 -20.683361700097521 0 0 0 0 142.72435574955307 162.41203143887549 0 162.41203143887549 21.189354830006778 0 0 0 0 233.07711499258585 161.51573859909786 0 161.51573859909786 -67.027898042842935 0 0 0 0 165.19841320888372 209.9661943613537 0 209.9661943613537 -5.542237213887347 0 0 0 0 153.75891444063745 119.2267421143506 0 119.2267421143506 -48.007891047172961 0 0 0 0 114.99355462354652 170.98914890296601 0 170.98914890296601 96.157760529804364 0 0 0 0 117.62207287017372 144.03886312229679 0 144.03886312229679 7.866591154280286 0 0 0 0 120.19945688621374 188.3557972149847 0 188.3557972149847 65.124962092946134 0 0 0 0 140.1017865032627 253.4165767408731 0 253.4165767408731 78.84644339965962 0 0 0 0 102.25494333473034 150.15027832269243 0 150.15027832269243 72.483914239022852 0 0 0 0 88.533013038890203 153.01720416391981 0 153.01720416391981 129.48125698055696 0 0 0 0 139.06481564624119 221.73764325551565 0 221.73764325551565 116.18006869451347 0 0 0 0 130.48945593545795 188.26803405694591 0 188.26803405694591 167.86977463789844 0 0 0 0 135.37828381222789 241.63386755438239 0 241.63386755438239 190.1046916248506 0 0 0 0 114.76337871438591 194.52072241655515 0 194.52072241655515 180.02705800475451 0 0 0 0 168.80171531887754 231.22956653058736 0 231.22956653058736 61.950048605960546 0 0 0 0 251.6578117183526 288.09018902947992 0 288.09018902947992 100.7506121467386 0 0 0 0 29.182879596322891 57.681116892446425 0 57.681116892446425 210.35510207867264 0 0 0 0 22.890105725324247 28.73460991482898 0 28.73460991482898 84.561683742223977 0 0 0 0 31.999398809799459 53.451302571069391 0 53.451302571069391 137.94995117306007 0 0 0 0 70.41749699335378 191.64505435654235 0 191.64505435654235 259.91105006755606 0 0 0 0 178.46328469269793 221.98922550747011 0 221.98922550747011 168.02682594748694 0 0 0 0 72.344417019692173 126.70120745316575 0 126.70120745316575 145.4468708069362 0 0 0 0 61.375177113164682 118.05578806075209 0 118.05578806075209 170.06622772518676 0 0 0 0 60.862916834186763 97.03975573887692 0 97.03975573887692 113.32625144933354 0 0 0 0 65.377407199091977 85.085868192269118 0 85.085868192269118 78.748731694358867 0 0 0 0 48.502990618144395 53.50584769973284 0 53.50584769973284 112.74974893410945 0 0 0 0 52.236823149622069 40.887007191063276 0 40.887007191063276 74.611016868784645 0 0 0 0 53.343081958038965 41.213720014572573 0 41.213720014572573 55.421983905780507 0 0 0 0 52.214108116488205 22.736724522059376 0 22.736724522059376 32.284805105759006 0 0 0 0 94.71559724380495 88.866504311261451 0 88.866504311261451 30.518893845719504 0 0 0 0 101.237161006924 100.41734796152559 0 100.41734796152559 45.75940835073834 0 0 0 0 114.10329440943315 66.328077310056983 0 66.328077310056983 -46.787651706750694 0 0 0 0 88.392206085263751 35.902653942703182 0 35.902653942703182 -8.3577814585951273 0 0 0 0 61.013694245913939 -12.80543908088498 0 -12.80543908088498 -26.224923868478072 0 0 0 0 47.341617766374839 -12.638276983233482 0 -12.638276983233482 -23.146724746633481 0 0 0 0 58.827305736398557 -9.3180872171715237 0 -9.3180872171715237 -42.911626532602895 0 0 0 0 71.249263511330355 -19.743922172895509 0 -19.743922172895509 -35.286094824352404 0 0 0 0 71.526594026838211 -18.715663356393293 0 -18.715663356393293 -47.77270545805186 0 0 0 0 65.977737058976345 15.320096780903668 0 15.320096780903668 36.281299000063882 0 0 0 0 41.965325858182041 -39.452651749606048 0 -39.452651749606048 -19.294255888267799 0 0 0 0 -0.92563378860674561 -8.083701571496178 0 -8.083701571496178 -9.0424754655704938 0 0 0 0 42.075866925806622 -23.520085056038624 0 -23.520085056038624 64.348576295387829 0 0 0 0 33.650820619484875 -59.130199868735872 0 -59.130199868735872 -70.270708248155643 0 0 0 0 16.528445474235923 -7.7098811826926976 0 -7.7098811826926976 61.341990587286546 0 0 0 0 27.25524879033037 17.287885054602157 0 17.287885054602157 111.58217988730757 0 0 0 0 3.3793935633724743 -5.8668608898852455 0 -5.8668608898852455 -4.1994263859406367 0 0 0 0 62.720859523760737 -3.5754766250383909 0 -3.5754766250383909 -32.74713891920328 0 0 0 0 -104.27951081848551 -112.5572780498286 0 -112.5572780498286 -126.01267049138005 0 0 0 0 -0.33928684831485612 2.8039011452699896 0 2.8039011452699896 -12.624899798252372 0 0 0 0 -108.75082485610619 -81.915837572884811 0 -81.915837572884811 -61.27529015795244 0 0 0 0 48.671015034749871 -52.939235218738759 0 -52.939235218738759 -124.14827303745278 0 0 0 0 -7.4425159394741058 -13.558374209851536 0 -13.558374209851536 -41.572097873582607 0 0 0 0 34.94974099258252 -2.8563262483818335 0 -2.8563262483818335 -71.088921261678479 0 0 0 0 70.115129904486821 22.276651596405827 0 22.276651596405827 -15.980019168085164 0 0 0 0 86.337693068519002 -1.0104198067801917 0 -1.0104198067801917 -89.137944443678862 0 0 0 0 35.158312313184069 -24.914557177117786 0 -24.914557177117786 -46.662495398414649 0 0 0 0 -7.6121894983953098 -30.944629174841793 0 -30.944629174841793 -26.455996421128475 0 0 0 0 40.795881911515607 -5.1497410204451626 0 -5.1497410204451626 -27.706246036126686 0 0 0 0 86.491884803865105 -4.772136444714306 0 -4.772136444714306 -57.271801191341183 0 0 0 0 4.306724181165805 3.6573848544636149 0 3.6573848544636149 -18.936076715714762 0 0 0 0 51.810446202085586 -36.842535305298952 0 -36.842535305298952 -80.243869750847807 0 0 0 0 30.371193444283563 -19.890675677582749 0 -19.890675677582749 -89.267092047797632 0 0 0 0 30.371193444472738 -19.890675677575928 0 -19.890675677575928 -89.26709204781946 0 0 0 0 30.371193444327218 -19.8906756775541 0 -19.8906756775541 -89.267092047824917 0 0 0 0 52.013116562389769 9.5337692421617248 0 9.5337692421617248 -2.1339690675613383 0 0 0 0 61.475817021795592 -51.670134855684182 0 -51.670134855684182 -102.65152482211852 0 0 0 0 58.369707004138036 10.821388771648344 0 10.821388771648344 2.9251247796200914 0 0 0 0 117.77030956926501 -12.051721797864047 0 -12.051721797864047 -0.31773183004042949 0 0 0 0 167.3978426430258 89.561503243473453 0 89.561503243473453 -19.951127361757472 0 0 0 0 163.9878779459541 13.501058871337591 0 13.501058871337591 -60.072798204481842 0 0 0 0 21.968879669118905 -16.908084337386754 0 -16.908084337386754 -54.233136127591024 0 0 0 0 79.727800228924025 14.302909796853783 0 14.302909796853783 8.4968503945638076 0 0 0 0 122.50704731885708 -29.917998462632568 0 -29.917998462632568 -56.615818497233704 0 0 0 0 37.835337695956696 -11.363401806567708 0 -11.363401806567708 -42.254978162891348 0 0 0 0 36.339446060361979 -74.670999318223807 0 -74.670999318223807 -79.877084767940687 0 0 0 0 -34.084780183489784 -37.845039557725613 0 -37.845039557725613 -91.849380546267639 0 0 0 0 7.1832583375071408 -109.24064478826585 0 -109.24064478826585 -143.15820326889207 0 0 0 0 7.0841707336035711 -9.8797574610521082 0 -9.8797574610521082 7.1393667611773033 0 0 0 0 -20.298611623598845 -17.968757977157111 0 -17.968757977157111 2.2957396102610801 0 0 0 0 -26.799159854228492 -55.889227347293854 0 -55.889227347293854 -52.959006303974093 0 0 0 0 13.411021124862543 -7.3271296356733231 0 -7.3271296356733231 3.5705802259150197 0 0 0 0 31.299569359965972 -25.465462822327936 0 -25.465462822327936 -27.988609279122102 0 0 0 0 -21.602287031564629 -64.815273479397547 0 -64.815273479397547 -75.856180850593773 0 0 0 0 7.6434847484891861 1.417486737315258 0 1.417486737315258 -3.4596852919009251 0 0 0 0 -29.561092895339243 -145.51013234447601 0 -145.51013234447601 -99.561976467490695 0 0 0 0 32.039452799805247 -13.040357087361159 0 -13.040357087361159 3.7049103105321759 0 0 0 0 8.8645073642110219 -79.538379648941827 0 -79.538379648941827 -16.966806180955246 0 0 0 0 -51.33330937489518 -101.48813165501997 0 -101.48813165501997 54.379572247777105 0 0 0 0 -104.34760796856426 -96.991832397123744 0 -96.991832397123744 -9.8079586281273805 0 0 0 0 97.539731061144266 -9.9380614346227958 0 -9.9380614346227958 -101.41945272285557 0 0 0 0 -82.603569832397625 -79.80612023640424 0 -79.80612023640424 -91.17694537794705 0 0 0 0 -71.463999775567572 -127.19904551519767 0 -127.19904551519767 -142.62155964288468 0 0 0 0 -0.59489750307693612 159.13574573234928 0 159.13574573234928 80.271534704058467 0 0 0 0 4.2898038979695912 -2.9147240356387414 0 -2.9147240356387414 2.430312603694702 0 0 0 0 -16.71696353275911 -61.212767304670706 0 -61.212767304670706 -115.73172671526254 0 0 0 0 8.0391050256605752 -6.1356813105636192 0 -6.1356813105636192 3.6308551776059268 0 0 0 0 -56.200024502439192 -131.76731585411835 0 -131.76731585411835 -126.36967531975642 0 0 0 0 -21.788355546988896 -77.485851445740991 0 -77.485851445740991 -75.928279234925867 0 0 0 0 17.524529358706786 -47.135783674629238 0 -47.135783674629238 -76.41994966999664 0 0 0 0 15.503130480705295 -21.613873944445913 0 -21.613873944445913 -67.86717427109761 0 0 0 0 -10.471528508991469 -53.455953686386692 0 -53.455953686386692 -101.25038212431537 0 0 0 0 -21.269566245100577 -44.682371484944269 0 -44.682371484944269 -61.15003416874606 0 0 0 0 -43.805775419998099 -76.116037537310149 0 -76.116037537310149 -120.40470504465702 0 0 0 0 -53.601881352587952 -84.99646784673223 0 -84.99646784673223 -87.260759978149508 0 0 0 0 34.588443522999114 -27.244570817281897 0 -27.244570817281897 -159.51500225497148 0 0 0 0 21.11244226450799 -80.158850841856292 0 -80.158850841856292 -88.240273815154069 0 0 0 0 31.18975063131802 -8.700032657291672 0 -8.700032657291672 -87.794700339447445 0 0 0 0 63.693667397135869 13.74404832588516 0 13.74404832588516 -73.286331724599222 0 0 0 0 34.233429832893307 -27.447543723152194 0 -27.447543723152194 -104.00415396791686 0 0 0 0 257.33721845559194 -35.058951475474714 0 -35.058951475474714 -20.464969773835037 0 0 0 0 81.617226203787141 -15.952505103367002 0 -15.952505103367002 -106.85165375561974 0 0 0 0 196.33448312913242 73.134434313452402 0 73.134434313452402 -51.644591213263993 0 0 0 0 33.824758319125976 -21.968668985779004 0 -21.968668985779004 -21.65987533032785 0 0 0 0 13.422820876329411 0.53374061377471094 0 0.53374061377471094 -10.759407210437672 0 0 0 0 -291.31275331880897 -988.66518547796295 0 -988.66518547796295 -1369.6581861654995 0 0 0 0 72.539524930070911 -562.3766279146671 0 -562.3766279146671 -1542.3643755097892 0 0 0 0 -792.53715493308846 -526.81426397792893 0 -526.81426397792893 -250.25924374173337 0 0 0 0 -0.24795371265479105 0.88702931772253635 0 0.88702931772253635 -5.186572687108967 0 0 0 0 296.79732976887317 140.97318534961505 0 140.97318534961505 -24.48876246943837 0 0 0 0 -10.023321227752604 -39.456014735022109 0 -39.456014735022109 -0.39237972519549658 0 0 0 0 7.6316905107006221 4.7528714321788641 0 4.7528714321788641 -1.8724364512190768 0 0 0 0 -8.085817534418311 -31.54440593855179 0 -31.54440593855179 30.578175647240187 0 0 0 0 96.683812186076466 4.1761980392954001 0 4.1761980392954001 -44.493287776047509 0 0 0 0 -797.75420304347062 -518.65828355065059 0 -518.65828355065059 -191.40949842866758 0 0 0 0 0.020855994318083049 0.14420232078629169 0 0.14420232078629169 -1.4094887037120607 0 0 0 0 122.78831796375744 74.239483618644044 0 74.239483618644044 103.64800476592973 0 0 0 0 149.6665136074007 30.679633084313537 0 30.679633084313537 -55.080588771232215 0 0 0 0 55.265168497600826 15.079528039371326 0 15.079528039371326 -28.95898652105825 0 0 0 0 74.177398951645955 -35.43962394535879 0 -35.43962394535879 -64.987958273934055 0 0 0 0 56.446623385621933 -30.159658242921978 0 -30.159658242921978 -84.739072207567006 0 0 0 0 100.38616265065502 -15.295008984844571 0 -15.295008984844571 -24.223825200602732 0 0 0 0 4.4966812089643611 -7.5556727686954446 0 -7.5556727686954446 -2.1473243621731672 0 0 0 0 15.113018993703008 -2.8384880917433293 0 -2.8384880917433293 1.192462377171978 0 0 0 0 -24.632882697012974 -63.126583290298186 0 -63.126583290298186 -50.978614438484328 0 0 0 0 -29.530545717774658 -210.12451489895102 0 -210.12451489895102 91.906402831818923 0 0 0 0 3.7799260817114915 -6.5573449115825184 0 -6.5573449115825184 3.872361150898449 0 0 0 0 15.341005609923741 -2.6472185130468802 0 -2.6472185130468802 0.33715602250049415 0 0 0 0 4.9743571122583745 2.3355617903118713 0 2.3355617903118713 5.2035440467616993 0 0 0 0 15.642476810273365 0.29130539791276533 0 0.29130539791276533 2.1664184776249158 0 0 0 0 -0.7098868048650786 -0.39659938400656358 0 -0.39659938400656358 4.8006808811742072 0 0 0 0 7.2007854779076297 0.68717079497218947 0 0.68717079497218947 2.3180761781278534 0 0 0 0 12.225018645243836 -4.9879081863632564 0 -4.9879081863632564 4.1554803998251373 0 0 0 0 4.6125867825358 -2.398194306063715 0 -2.398194306063715 5.4985988133312276 0 0 0 0 -2.1172588828247285 0.65423457659602491 0 0.65423457659602491 3.415576976126756 0 0 0 0 5.0355084955176608 -1.5099088762254951 0 -1.5099088762254951 5.2308083202460693 0 0 0 0 5.247874998691259 -4.0762462244983908 0 -4.0762462244983908 5.2706519491111976 0 0 0 0 -0.86632309255341866 -5.8651500325615871 0 -5.8651500325615871 1.9610054472078069 0 0 0 0 -128.4854368795859 -16.336176368332417 0 -16.336176368332417 101.33022817396545 0 0 0 0 11.538842243638101 -5.1675461407935188 0 -5.1675461407935188 2.2965367937640622 0 0 0 0 6.4644551319080961 -5.2442026494276348 0 -5.2442026494276348 -5.1569683348123769 0 0 0 0 17.93899688887177 -11.718810976921304 0 -11.718810976921304 -0.83341488674670927 0 0 0 0 -0.92457526308152005 -12.118723066932475 0 -12.118723066932475 1.8230483073851715 0 0 0 0 -88.35986285125 -58.680444178035359 0 -58.680444178035359 89.734968425605985 0 0 0 0 -45.655053243310249 -125.85450507300538 0 -125.85450507300538 -0.60904864073927456 0 0 0 0 -130.35113398758403 41.376074643058246 0 41.376074643058246 19.163304010311094 0 0 0 0 -59.068240173714003 -101.18719854130609 0 -101.18719854130609 243.80872820621153 0 0 0 0 -0.10304871486897582 -4.2211826320928623 0 -4.2211826320928623 1.288767961131466 0 0 0 0 22.187552796327509 280.32603942301148 0 280.32603942301148 -157.42479350195572 0 0 0 0 -18.054659907546011 311.2035694435267 0 311.2035694435267 488.61602688209757 0 0 0 0 479.74499424012902 -358.25820160582566 0 -358.25820160582566 426.23429582580093 0 0 0 0 86.088847999049904 29.044638015605187 0 29.044638015605187 70.233774082450964 0 0 0 0 134.34903686481994 -118.11104907237996 0 -118.11104907237996 81.276662970222787 0 0 0 0 564.42537404711447 300.12699856831699 0 300.12699856831699 22.896284318409926 0 0 0 0 144.87058740106295 248.64536342907536 0 248.64536342907536 22.474000623434677 0 0 0 0 287.32766614918364 178.061901336858 0 178.061901336858 15.961957171098106 0 0 0 0 510.52829587989618 -317.94810420987085 0 -317.94810420987085 -26.677102982041106 0 0 0 0 10.854808453504489 1.4861520345734931 0 1.4861520345734931 -0.087125264083354192 0 0 0 0 1007.4294659149746 -4.0132611839017045 0 -4.0132611839017045 -392.61395140858485 0 0 0 0 366.79740046671941 -20.36585836094946 0 -20.36585836094946 -236.8318312010457 0 0 0 0 714.38441485696239 -33.523521604078269 0 -33.523521604078269 -242.00010327736936 0 0 0 0 435.85679464123677 186.07232928830535 0 186.07232928830535 -406.48283343439925 0 0 0 0 211.7834622511873 279.42274901865858 0 279.42274901865858 -139.22384912790767 0 0 0 0 -36.006127970525995 100.82586162788721 0 100.82586162788721 -273.81723564920139 0 0 0 0 -1.5250975926542907 1.814157423092027 0 1.814157423092027 0.59531366980208134 0 0 0 0 135.89027975386125 128.50469029707438 0 128.50469029707438 -45.345605686552517 0 0 0 0 420.53943576992606 -30.308693505765405 0 -30.308693505765405 9.7182350923758349 0 0 0 0 0.78141199268634409 0.15735474986635722 0 0.15735474986635722 -0.21657529439927359 0 0 0 0 321.18204170955869 62.723353896248227 0 62.723353896248227 8.1506981169241044 0 0 0 0 300.96753653133055 187.63188395349334 0 187.63188395349334 -145.64104028234033 0 0 0 0 222.20529549289495 -16.671160975990915 0 -16.671160975990915 -52.313658420513093 0 0 0 0 213.08072076132521 30.019196293826099 0 30.019196293826099 -18.608578474681053 0 0 0 0 25.087774495041231 37.500825092562536 0 37.500825092562536 60.125550771754206 0 0 0 0 58.475555579934735 32.356833987448226 0 32.356833987448226 -2.2895462945762119 0 0 0 0 297.27116042085981 -52.276882605170613 0 -52.276882605170613 -50.471289348266509 0 0 0 0 200.98622607265133 -58.235613668445694 0 -58.235613668445694 -45.109374260608092 0 0 0 0 321.15940402229899 -56.900629771164859 0 -56.900629771164859 -98.028881128872854 0 0 0 0 311.23842123781651 -45.270193691254917 0 -45.270193691254917 -92.287579008621833 0 0 0 0 376.78280628281937 -72.635076096734792 0 -72.635076096734792 -125.69517893909961 0 0 0 0 355.9817253820147 6.8519393894900986 0 6.8519393894900986 -107.19092668680059 0 0 0 0 172.29004145937506 -78.144833618000121 0 -78.144833618000121 -147.62996028458656 0 0 0 0 112.20659117367177 -174.69869050514944 0 -174.69869050514944 -37.358512078958483 0 0 0 0 283.24436049268843 -207.82359563326554 0 -207.82359563326554 -115.01999282214092 0 0 0 0 19.563865620526485 -66.220136750950587 0 -66.220136750950587 -125.22431206585543 0 0 0 0 110.98015710528125 -61.227872874030254 0 -61.227872874030254 -135.64493144747485 0 0 0 0 51.617339352909767 76.010365868834242 0 76.010365868834242 -341.78676726629033 0 0 0 0 131.39389125882008 35.425041461719957 0 35.425041461719957 -476.32876886222994 0 0 0 0 24.227210401805792 2.8715988022019658 0 2.8715988022019658 -1.081334436427607 0 0 0 0 49.57889760233229 -132.83176192497376 0 -132.83176192497376 -68.697943743050928 0 0 0 0 -30.828371680327109 -20.446190787861951 0 -20.446190787861951 -76.28432495910738 0 0 0 0 284.22539768333809 -234.66601060560026 0 -234.66601060560026 -51.064890832023139 0 0 0 0 108.67051464578253 485.55418514479538 0 485.55418514479538 -39.919419089375197 0 0 0 0 -353.34629202885117 202.30555819017286 0 202.30555819017286 175.98769965076735 0 0 0 0 278.37036924718996 327.99982271492854 0 327.99982271492854 200.30940695004711 0 0 0 0 96.725980758608785 259.6775701000887 0 259.6775701000887 371.93526781692617 0 0 0 0 535.06454278007004 -167.95796562338001 0 -167.95796562338001 -96.639522516970374 0 0 0 0 598.55407145425852 367.98889866614627 0 367.98889866614627 -699.45075739743083 0 0 0 0 93.481364242052223 -297.44590034088458 0 -297.44590034088458 -132.0047702301008 0 0 0 0 71.209634505779832 75.409310427975925 0 75.409310427975925 236.155370272656 0 0 0 0 -296.28280074486975 -289.15153351890922 0 -289.15153351890922 103.85598601600896 0 0 0 0 1.4262711256492366 -2.2968654533095076 0 -2.2968654533095076 1.2940846627423275 0 0 0 0 410.73121207059739 -223.83722975928833 0 -223.83722975928833 120.69269727851497 0 0 0 0 42.162272392670275 84.103829829765232 0 84.103829829765232 304.021737843648 0 0 0 0 6.7223639893079792 1.076174894888311 0 1.076174894888311 0.59212496028606587 0 0 0 0 -220.62964275482773 -135.91512112518879 0 -135.91512112518879 2.7185057621950364 0 0 0 0 -110.67476372896635 81.329286655686019 0 81.329286655686019 -72.515774835095272 0 0 0 0 25.506510424075344 -13.744775403763626 0 -13.744775403763626 -2.0661588724625837 0 0 0 0 -115.85817822210083 -154.43613886636922 0 -154.43613886636922 7.2421358105953004 0 0 0 0 -6.9699778419844449 -7.750662131115341 0 -7.750662131115341 -2.4661021820142501 0 0 0 0 70.379165043712419 -136.04113629025233 0 -136.04113629025233 -347.51684551811741 0 0 0 0 22.084669054064506 1.7838452263962665 0 1.7838452263962665 -1.1658331565457773 0 0 0 0 138.85949587485811 100.17274480609058 0 100.17274480609058 -578.71613970592193 0 0 0 0 71.719307517400011 -100.80932442209769 0 -100.80932442209769 -336.33555809510062 0 0 0 0 -43.094908063150797 113.99839941984942 0 113.99839941984942 -241.78625833573551 0 0 0 0 232.2869124130666 -11.860472717102311 0 -11.860472717102311 -227.43109683133673 0 0 0 0 418.52085591408832 193.27295676285121 0 193.27295676285121 -14.317222773528556 0 0 0 0 226.63079073407062 104.48231580499919 0 104.48231580499919 -52.482591571780176 0 0 0 0 35.059830567450263 137.33130754004833 0 137.33130754004833 -57.633823499375467 0 0 0 0 83.371378498530248 -26.297675048021119 0 -26.297675048021119 -35.747031129183597 0 0 0 0 324.87193063834275 -69.644793115949142 0 -69.644793115949142 -36.301979986071579 0 0 0 0 213.16299847167829 -297.40653059562555 0 -297.40653059562555 547.95178744210807 0 0 0 0 314.09848717568093 -112.88354127689036 0 -112.88354127689036 69.057330266698045 0 0 0 0 772.57677642375347 -104.10070502104645 0 -104.10070502104645 52.260675239301236 0 0 0 0 579.73921421926934 -13.2934114248892 0 -13.2934114248892 117.14288490218496 0 0 0 0 257.89620688001742 191.95400774135305 0 191.95400774135305 75.06451602436573 0 0 0 0 745.14402193951537 233.42118228822801 0 233.42118228822801 72.704265951523212 0 0 0 0 149.51513313916621 441.24613727151757 0 441.24613727151757 377.45471996698689 0 0 0 0 -146.16837329859845 274.395989798757 0 274.395989798757 309.18432467486309 0 0 0 0 1796.3635350403238 -214.27088848635731 0 -214.27088848635731 -53.627273840342241 0 0 0 0 1286.0153371010456 1506.2443703715855 0 1506.2443703715855 -5.7835852957432508 0 0 0 0 -35.808340872667031 102.25077419074478 0 102.25077419074478 185.26666891429159 0 0 0 0 -207.36267586283793 -26.887810679424149 0 -26.887810679424149 306.34834843828799 0 0 0 0 210.29487118724501 -1019.3197968586401 0 -1019.3197968586401 950.5486267105216 0 0 0 0 1207.2113979976639 193.3053198498319 0 193.3053198498319 20.387263312146388 0 0 0 0 240.27533522434351 209.4604363497763 0 209.4604363497763 22.824484585433311 0 0 0 0 279.98250534424642 -71.722152956745987 0 -71.722152956745987 -127.39654681547609 0 0 0 0 339.85811380721134 1077.8382929738664 0 1077.8382929738664 107.75230187554507 0 0 0 0 598.80062438031746 862.951348332831 0 862.951348332831 -711.66655923607868 0 0 0 0 783.4106832303878 -667.58860974189383 0 -667.58860974189383 707.00228212379261 0 0 0 0 20.059520590469702 5.1159209386329039 0 5.1159209386329039 1.1705130924845175 0 0 0 0 459.21286060871489 -643.22222638915889 0 -643.22222638915889 -131.73583122837681 0 0 0 0 -166.9664098501089 -135.98778372354741 0 -135.98778372354741 86.54607004932177 0 0 0 0 -152.4432026726281 44.324110776723728 0 44.324110776723728 870.55477904830377 0 0 0 0 -96.83975221701985 -172.21151060044417 0 -172.21151060044417 -99.114952069505307 0 0 0 0 53.512592902195706 9.3648186228992998 0 9.3648186228992998 0.11352819789044766 0 0 0 0 195.32675760758138 113.94280198092383 0 113.94280198092383 -1036.1372504924957 0 0 0 0 -16.359127899675514 -165.28928929077574 0 -165.28928929077574 171.67164100626178 0 0 0 0 117.35796834149369 -120.95630473057281 0 -120.95630473057281 222.97388780956317 0 0 0 0 84.499406530492706 -177.67328474223859 0 -177.67328474223859 150.76957407736563 0 0 0 0 211.61778919619974 -270.73975782772709 0 -270.73975782772709 167.69452180536246 0 0 0 0 179.02046661588247 -189.64551161066515 0 -189.64551161066515 -28.945584574478744 0 0 0 0 99.909338022771408 -139.59261775332061 0 -139.59261775332061 25.886907242525012 0 0 0 0 151.78609067434445 -112.87442912850975 0 -112.87442912850975 9.2425393707057992 0 0 0 0 166.71527487459753 -21.664147035071437 0 -21.664147035071437 58.716967271013345 0 0 0 0 92.778178748330902 -185.88925741537895 0 -185.88925741537895 146.72801378764052 0 0 0 0 315.66253132681595 -84.994122623630574 0 -84.994122623630574 -80.839377085923388 0 0 0 0 486.15251422672009 -63.779909583597146 0 -63.779909583597146 -6.7951482495716391 0 0 0 0 378.36351668681891 89.133898156411306 0 89.133898156411306 113.13672814699385 0 0 0 0 306.02883419198042 -59.674175724301676 0 -59.674175724301676 -3.8406000667491753 0 0 0 0 328.58615355892107 -103.95250543268776 0 -103.95250543268776 -33.200904934948085 0 0 0 0 330.54711127917108 -193.62895013442176 0 -193.62895013442176 105.76930073711492 0 0 0 0 10.660780272621196 -9.0123269378609621 0 -9.0123269378609621 39.362186317221585 0 0 0 0 200.22666812420357 -51.582377467787637 0 -51.582377467787637 16.47110788959435 0 0 0 0 120.04873729341489 -126.0673932554123 0 -126.0673932554123 84.085235249614925 0 0 0 0 3.7102383884166841 0.22971533657694465 0 0.22971533657694465 -0.30577318478729154 0 0 0 0 -381.36538631936855 -336.30937324813249 0 -336.30937324813249 17.28251718973479 0 0 0 0 301.48053523280396 -226.56708826284103 0 -226.56708826284103 -253.9633680119623 0 0 0 0 -64.437719043780817 241.97778883458614 0 241.97778883458614 -314.20805214313077 0 0 0 0 719.78470062778797 132.97598939474847 0 132.97598939474847 23.069583256758051 0 0 0 0 71.835452789612759 12.399624012116035 0 12.399624012116035 -0.075053477240194511 0 0 0 0 -93.314711910710685 91.369869056588641 0 91.369869056588641 269.04358633154516 0 0 0 0 208.95416331902379 227.69491299831589 0 227.69491299831589 -690.05139306146339 0 0 0 0 -19.52786323465989 -82.87767063706724 0 -82.87767063706724 -507.23596167640153 0 0 0 0 -116.24633469094988 -65.453055564681335 0 -65.453055564681335 -18.013440424151213 0 0 0 0 -108.75189796022823 -88.220414097780576 0 -88.220414097780576 33.552283229334535 0 0 0 0 1.402690792852809 1.8235810534822861 0 1.8235810534822861 3.7796784286558243 0 0 0 0 569.58390888950817 -204.71524090774665 0 -204.71524090774665 269.63609692253794 0 0 0 0 17.14431423136557 92.919460773297033 0 92.919460773297033 47.527730112427889 0 0 0 0 592.41544561990304 114.32340925579592 0 114.32340925579592 -315.96887886176228 0 0 0 0 303.26561463171674 -363.83775011753596 0 -363.83775011753596 97.042376698089356 0 0 0 0 174.47069046270917 -143.91607597827351 0 -143.91607597827351 -160.08100875174023 0 0 0 0 -21.010561846196651 -387.42288312343226 0 -387.42288312343226 113.35506446242107 0 0 0 0 212.33081697636226 -238.91526016749367 0 -238.91526016749367 -136.64036409132677 0 0 0 0 55.450671947233786 -529.97697345592508 0 -529.97697345592508 711.7884224228992 0 0 0 0 332.6410680905974 47.20215945588734 0 47.20215945588734 149.72761606497369 0 0 0 0 3125.8927669361146 -1603.2902856335641 0 -1603.2902856335641 120.26078732526548 0 0 0 0 -503.43268395401537 27.226121129813237 0 27.226121129813237 196.80160320205141 0 0 0 0 1.2915197608396269 -6.277236548647636 0 -6.277236548647636 11.388211949209186 0 0 0 0 3948.2868541206153 -2229.605826921555 0 -2229.605826921555 612.43544804765406 0 0 0 0 17.683470460455283 58.461695336287448 0 58.461695336287448 669.86716925454493 0 0 0 0 2778.9226951608362 -1387.9900068097422 0 -1387.9900068097422 88.834995753317344 0 0 0 0 11.524418187727225 -9.5520959914813091 0 -9.5520959914813091 25.838502063986379 0 0 0 0 3002.4464040711769 -2582.6319172295152 0 -2582.6319172295152 2966.6897408467812 0 0 0 0 7.4428705342206172 3.5998024118866283 0 3.5998024118866283 2.9461758564846861 0 0 0 0 3881.4966707315034 -1898.4988282768463 0 -1898.4988282768463 477.96927254307957 0 0 0 0 -235.06112938091701 -218.3653865474011 0 -218.3653865474011 22.073065163654974 0 0 0 0 1612.916066588572 540.44446279813747 0 540.44446279813747 -1333.2590002178913 0 0 0 0 -4997.3536321244028 2342.6145755282378 0 2342.6145755282378 -831.29116770841256 0 0 0 0 19.991003797971644 15.083884488321928 0 15.083884488321928 -78.263328805857782 0 0 0 0 44.108634605621724 18.194220836045844 0 18.194220836045844 13.782664383279638 0 0 0 0 47.251661120033845 -9.2379860163766097 0 -9.2379860163766097 15.715985393272003 0 0 0 0 -19.564008904519142 -127.38272957158279 0 -127.38272957158279 -146.50267566477123 0 0 0 0 40.58784778448171 -181.26604119544754 0 -181.26604119544754 -149.69669145041371 0 0 0 0 229.6160445176647 -125.81869495609681 0 -125.81869495609681 -345.07683864907995 0 0 0 0 134.98398497348535 -25.701587610722527 0 -25.701587610722527 -361.58407923847881 0 0 0 0 80.491082501885614 11.675190014710132 0 11.675190014710132 1.6766957284778812 0 0 0 0 144.01635626022107 197.66764344591707 0 197.66764344591707 -37.602480362798815 0 0 0 0 3.3026072781649418 4.8136667429125737 0 4.8136667429125737 -35.232824984496801 0 0 0 0 30.797722796601619 15.678830869176892 0 15.678830869176892 3.6176763574697794 0 0 0 0 39.697690360342676 26.449943982148852 0 26.449943982148852 1.1359492537303595 0 0 0 0 8.1879231221302007 4.0111046406172761 0 4.0111046406172761 2.9516521493141408 0 0 0 0 11.868551367260807 -10.53054883235086 0 -10.53054883235086 18.488237685587592 0 0 0 0 56.428701869517681 5.2526010972642325 0 5.2526010972642325 -1.6811091246272554 0 0 0 0 38.273644001193084 -13.731912106090547 0 -13.731912106090547 -4.4616383905661472 0 0 0 0 56.472808672056999 4.624661297264538 0 4.624661297264538 -4.3828487291248166 0 0 0 0 27.950271401353461 1.5527695085553859 0 1.5527695085553859 -2.2225650978484843 0 0 0 0 126.50077725501615 57.544475499862529 0 57.544475499862529 -25.431352802141646 0 0 0 0 339.30352385313017 -78.984268583715675 0 -78.984268583715675 -1412.2672301475814 0 0 0 0 53.051905713044107 1.5876615663783014 0 1.5876615663783014 -1.343840924106189 0 0 0 0 41.118896552796286 3.0468277867329334 0 3.0468277867329334 5.3014781223682803 0 0 0 0 39.563876264296994 -9.7689381794047208 0 -9.7689381794047208 17.828689711829277 0 0 0 0 53.210657277872087 3.3244638769974699 0 3.3244638769974699 9.4484455899655586 0 0 0 0 729.39446614672488 -177.24950680032441 0 -177.24950680032441 -185.16228296611709 0 0 0 0 806.21992777306878 -347.75431824298414 0 -347.75431824298414 99.66417987882744 0 0 0 0 915.93048625939628 -486.52683907668705 0 -486.52683907668705 -66.651638840566648 0 0 0 0 854.12860891755554 -468.21608486845366 0 -468.21608486845366 -62.978271066034722 0 0 0 0 782.29312614120499 -302.2076894051944 0 -302.2076894051944 -176.38332716747846 0 0 0 0 989.41992361696612 -360.64536178236767 0 -360.64536178236767 -217.26040414565131 0 0 0 0 1214.3513144492899 -340.89894624588942 0 -340.89894624588942 -253.82516244837234 0 0 0 0 1774.0458854804892 -235.53630630948828 0 -235.53630630948828 43.984527282728322 0 0 0 0 1079.7241165774642 -486.03821166298326 0 -486.03821166298326 -45.438402367264644 0 0 0 0 1263.9555561532616 -1120.4779344239732 0 -1120.4779344239732 677.15881600244916 0 0 0 0 649.06357252119051 -584.458636808439 0 -584.458636808439 229.95600039934106 0 0 0 0 859.8012252785993 -527.85030589706821 0 -527.85030589706821 -85.482739507147926 0 0 0 0 1137.1689441098988 -740.72693048624251 0 -740.72693048624251 77.843832157506768 0 0 0 0 844.20440407471324 -546.50360128987086 0 -546.50360128987086 41.219125343756787 0 0 0 0 597.63497703925532 -426.93355098174106 0 -426.93355098174106 152.24739277555182 0 0 0 0 659.55394455668284 -504.06353123172858 0 -504.06353123172858 240.65287268263339 0 0 0 0 -314.16812039870274 300.32771063535074 0 300.32771063535074 278.98429218145338 0 0 0 0 5.5922034403837699 6.3474992480910259 0 6.3474992480910259 7.452379192827566 0 0 0 0 543.64584184964406 -263.61423231160268 0 -263.61423231160268 -43.557341399141478 0 0 0 0 714.26234629085593 -433.44689484281304 0 -433.44689484281304 50.38752440645203 0 0 0 0 586.78368285310717 -333.49186375182217 0 -333.49186375182217 44.893278479473793 0 0 0 0 859.493758993136 -445.44973971245031 0 -445.44973971245031 -18.674289933447881 0 0 0 0 705.42951450245528 -460.8969851186348 0 -460.8969851186348 -8.5075111631713298 0 0 0 0 841.6072576712686 -508.84918954488643 0 -508.84918954488643 124.80222233207212 0 0 0 0 886.85879640445637 -371.30219927033204 0 -371.30219927033204 -53.940367098296861 0 0 0 0 1056.507472614634 -791.33023241193678 0 -791.33023241193678 701.54877275454646 0 0 0 0 1768.0147338793613 26.456408693077663 0 26.456408693077663 -17.04314453245874 0 0 0 0 722.69755115068983 1136.9178388804585 0 1136.9178388804585 251.04914231057563 0 0 0 0 3.2059991469610338 4.030095982995789 0 4.030095982995789 4.4204287537556839 0 0 0 0 -328.61967586052197 1139.8145871406355 0 1139.8145871406355 405.51251155213436 0 0 0 0 1275.0562673474633 -69.232562394120123 0 -69.232562394120123 -170.48912067640299 0 0 0 0 613.61107628949685 -17.602506743763342 0 -17.602506743763342 -590.58585782696764 0 0 0 0 -87.343832237864262 -104.75686790857935 0 -104.75686790857935 82.017017965436253 0 0 0 0 307.98757754615508 322.05242828353425 0 322.05242828353425 -146.71657681107808 0 0 0 0 8.3332479616106241 8.6060219393170314 0 8.6060219393170314 7.5789580722183336 0 0 0 0 135.20667106602923 0.67201821643311632 0 0.67201821643311632 -114.70134155448932 0 0 0 0 873.80627206097415 574.20004491560371 0 574.20004491560371 282.2972469274647 0 0 0 0 597.49378656854606 -35.42320281024945 0 -35.42320281024945 -171.71354003822944 0 0 0 0 458.32587443522061 -93.444619962722413 0 -93.444619962722413 -104.10389745231174 0 0 0 0 1216.981979984148 -340.69702024835476 0 -340.69702024835476 -24.599370894967251 0 0 0 0 26.255766720758402 407.87712898497603 0 407.87712898497603 489.75407110543028 0 0 0 0 7.2554894019118876 7.8576408850854591 0 7.8576408850854591 8.6112983394289309 0 0 0 0 94.835762084141606 58.260001611284224 0 58.260001611284224 -195.20582095234613 0 0 0 0 -27.833170455676736 83.050715849068411 0 83.050715849068411 -33.831224264956631 0 0 0 0 127.46875933650517 -66.278212698888524 0 -66.278212698888524 -111.0019825770421 0 0 0 0 192.761208156473 29.819390296325537 0 29.819390296325537 -190.87618250539003 0 0 0 0 28.602491821825197 20.181661428106366 0 20.181661428106366 11.821431827498685 0 0 0 0 333.84459552402404 112.82819870243139 0 112.82819870243139 -40.098599819847095 0 0 0 0 10.3887604269284 -3.0474550927905852 0 -3.0474550927905852 -4.084091645152836 0 0 0 0 -33.584301783041155 65.020771060893708 0 65.020771060893708 66.671036939112128 0 0 0 0 462.86304753482909 233.9888164718123 0 233.9888164718123 0.68416740367956663 0 0 0 0 75.479867862537503 -201.1360583287742 0 -201.1360583287742 -1.5651122827724095 0 0 0 0 560.1714311670803 570.34219158507949 0 570.34219158507949 312.50508427001387 0 0 0 0 78.059319134190446 232.35337408499018 0 232.35337408499018 767.51654364881915 0 0 0 0 886.13380413732375 -129.43054153392234 0 -129.43054153392234 -0.14640575939829087 0 0 0 0 46.038946149972617 1.7986019232620265 0 1.7986019232620265 -5.4808743740454702 0 0 0 0 8.6272595569804622 -4.6405953648212233 0 -4.6405953648212233 -6.7222754787823522 0 0 0 0 -185.1256880677538 -192.89446931340524 0 -192.89446931340524 110.91720152414871 0 0 0 0 40.512004965348751 1.1235502259379189 0 1.1235502259379189 -2.825572383844559 0 0 0 0 327.32732435420621 -100.70041912178938 0 -100.70041912178938 94.83757949007196 0 0 0 0 31.786208299018199 9.3498017322049307 0 9.3498017322049307 0.71086289520716472 0 0 0 0 180.064345606399 24.353483236604006 0 24.353483236604006 -514.78324981595551 0 0 0 0 198.38883370667463 -507.78389715217975 0 -507.78389715217975 199.11725608898212 0 0 0 0 340.22714301670203 -97.356081560952589 0 -97.356081560952589 75.808381252734989 0 0 0 0 7.1730559164425358 -27.437783443402147 0 -27.437783443402147 81.156060286347355 0 0 0 0 140.08148618321866 -202.98477375018209 0 -202.98477375018209 95.674247602168833 0 0 0 0 136.09508424729574 16.117109871111865 0 16.117109871111865 5.7844271675214713 0 0 0 0 92.350387187594606 26.017279394798209 0 26.017279394798209 -18.391909794463487 0 0 0 0 31.348493777062117 3.3631675304297559 0 3.3631675304297559 -1.1457808273099226 0 0 0 0 -1.356688524785568 -53.744324763774145 0 -53.744324763774145 0.9993601657453155 0 0 0 0 8.8652447077771086 -0.61927747873309613 0 -0.61927747873309613 -1.3928862915641664 0 0 0 0 471.36044412078627 -22.224755374089568 0 -22.224755374089568 -42.178786774580175 0 0 0 0 66.924957642586378 -28.825892132042355 0 -28.825892132042355 11.121944693830045 0 0 0 0 74.603338160028215 -1.3056352539662583 0 -1.3056352539662583 99.585152738790754 0 0 0 0 -36.311842178009101 5.388077759425399 0 5.388077759425399 11.336152372031965 0 0 0 0 0.31289798720146678 -0.53652715749080926 0 -0.53652715749080926 0.40655003002843165 0 0 0 0 382.29312896726333 -254.30513636179921 0 -254.30513636179921 91.054874303068175 0 0 0 0 1167.685511721269 -202.75560904371338 0 -202.75560904371338 -0.26432822762203045 0 0 0 0 524.93444141864893 -199.49718905860857 0 -199.49718905860857 17.334696555598583 0 0 0 0 195.85859605827136 -197.56571233185008 0 -197.56571233185008 243.4951350480024 0 0 0 0 494.71419431277172 -405.50361918963023 0 -405.50361918963023 219.26358587850376 0 0 0 0 12.396381467561469 4.4033140837615647 0 4.4033140837615647 2.3095291955927144 0 0 0 0 211.09013923319827 825.96773878256283 0 825.96773878256283 487.81291517790265 0 0 0 0 1207.7575645053876 -739.18034814078578 0 -739.18034814078578 520.15007326459818 0 0 0 0 1711.8281610632148 403.40284601287806 0 403.40284601287806 725.63919390676961 0 0 0 0 572.96578593273443 -159.6088106576162 0 -159.6088106576162 -0.042127990126243013 0 0 0 0 1077.5140664565042 -208.97952709050961 0 -208.97952709050961 152.67702321806547 0 0 0 0 1043.5659539110202 -11.125772937427854 0 -11.125772937427854 138.53682794052111 0 0 0 0 816.27058190297976 -130.39487902906114 0 -130.39487902906114 487.69594920148165 0 0 0 0 861.32949125337473 -150.10169080410856 0 -150.10169080410856 33.911964667981231 0 0 0 0 801.65278265844972 8.7026826241441952 0 8.7026826241441952 13.006803143646323 0 0 0 0 672.93970411096234 -192.36073193168795 0 -192.36073193168795 98.009983483727439 0 0 0 0 803.78398278668101 -207.89819769087205 0 -207.89819769087205 7.9926562089895015 0 0 0 0 636.07856335963879 -82.631047889247441 0 -82.631047889247441 -87.90894566587815 0 0 0 0 1.1072554677375592 -14.685499281820739 0 -14.685499281820739 -22.549241457083554 0 0 0 0 -13.202349948849587 -56.15101520539838 0 -56.15101520539838 -21.125484354117361 0 0 0 0 -25.127643434680067 -29.636817466240245 0 -29.636817466240245 -59.617210022425525 0 0 0 0 -19.900272368133301 -30.931090626287187 0 -30.931090626287187 -3.4576853961443703 0 0 0 0 28.400765592756215 -45.433648486568927 0 -45.433648486568927 -4.1226785005273996 0 0 0 0 44.028403367905412 3.1560390612276024 0 3.1560390612276024 -4.8217189648466956 0 0 0 0 9.9213300839182921 -21.140166237236372 0 -21.140166237236372 4.7737041022865014 0 0 0 0 41.238638660091965 16.999817253855099 0 16.999817253855099 -0.58245829209818112 0 0 0 0 11.27317357136053 18.121812524093912 0 18.121812524093912 42.791088048170423 0 0 0 0 9.601099074119702 -29.722590228631816 0 -29.722590228631816 -2.1438098791188054 0 0 0 0 -4.0587696429574862 -7.9261685337123708 0 -7.9261685337123708 32.46046981512859 0 0 0 0 -2.731588780945458 -8.6491877255148211 0 -8.6491877255148211 -56.24173394007812 0 0 0 0 -12.688953214463254 -21.104811573596407 0 -21.104811573596407 8.0035892875239369 0 0 0 0 -24.068439503273112 -81.290438808898671 0 -81.290438808898671 -74.329512037637528 0 0 0 0 3.5165239332226292 -2.7361484316276119 0 -2.7361484316276119 1.8526524897719536 0 0 0 0 -4.3856988877450931 -48.988712571574524 0 -48.988712571574524 10.976812755593073 0 0 0 0 -49.795026619205601 -54.750436146640368 0 -54.750436146640368 -23.851719921979921 0 0 0 0 16.57291336313574 18.410029068928139 0 18.410029068928139 -31.497320943583418 0 0 0 0 -20.986988316173665 18.199280147265199 0 18.199280147265199 -23.296995127705486 0 0 0 0 -44.903695264685666 -37.852833196029678 0 -37.852833196029678 -50.575487451775643 0 0 0 0 1.488624286024617 -0.58553078477778797 0 -0.58553078477778797 -0.68424985852498565 0 0 0 0 -156.71810048053158 -92.548034901989922 0 -92.548034901989922 29.676492627881998 0 0 0 0 -49.823008839812246 1.7000052708267503 0 1.7000052708267503 39.151552655022897 0 0 0 0 -56.51736786076799 6.125427466358019 0 6.125427466358019 115.38533199126323 0 0 0 0 -93.750073352275649 -12.984584555231777 0 -12.984584555231777 60.886537814096073 0 0 0 0 -84.379046184010804 -81.817646992401933 0 -81.817646992401933 -13.983693502067581 0 0 0 0 -30.566719133639708 -19.764384071203494 0 -19.764384071203494 56.340636729961716 0 0 0 0 -169.88834945055714 -4.2205042584685089 0 -4.2205042584685089 69.66663895608508 0 0 0 0 -3.1636175540043041 -21.135293814716533 0 -21.135293814716533 12.760021151858382 0 0 0 0 -278.22034575787256 89.144079607346612 0 89.144079607346612 34.172206554815602 0 0 0 0 68.162479814956896 97.552932697281904 0 97.552932697281904 -195.51339548098076 0 0 0 0 -47.881070214760257 -29.994683560118574 0 -29.994683560118574 -29.612803016766975 0 0 0 0 -29.652844352182001 4.8081440035057312 0 4.8081440035057312 -11.898270642727766 0 0 0 0 2.8786119059718089 -2.3363163724321652 0 -2.3363163724321652 1.7616914348480748 0 0 0 0 -50.273434643400833 -51.406995436648685 0 -51.406995436648685 -20.057439216063358 0 0 0 0 -57.558055986010004 -46.18112192579656 0 -46.18112192579656 -7.8551629409193993 0 0 0 0 -54.279451483336743 -46.295418236408295 0 -46.295418236408295 9.8668413859577413 0 0 0 0 -36.109824240083981 -62.034417675291706 0 -62.034417675291706 8.0969793540680257 0 0 0 0 -49.282937099778792 -47.588626050276616 0 -47.588626050276616 -7.6470674632273585 0 0 0 0 -67.688980449660448 -55.563793492422519 0 -55.563793492422519 23.908788206874306 0 0 0 0 -48.131676102813799 -45.559061234993351 0 -45.559061234993351 8.9956430589484171 0 0 0 0 -16.944538793322863 -66.327818784120609 0 -66.327818784120609 18.13017314683384 0 0 0 0 -73.554835642920807 -36.072458196944353 0 -36.072458196944353 10.615164546938161 0 0 0 0 -79.310407623503124 -37.130633493930873 0 -37.130633493930873 19.191151171868114 0 0 0 0 -41.648939962818986 -47.715494823677545 0 -47.715494823677545 -5.2830408648605953 0 0 0 0 -33.160986868926557 -32.722546660818807 0 -32.722546660818807 20.656906973643345 0 0 0 0 -34.955184933052806 -21.271239494601559 0 -21.271239494601559 15.283957403309614 0 0 0 0 -10.037933908986815 21.081865447035909 0 21.081865447035909 -2.4617931060347473 0 0 0 0 -6.8759224464001818 68.923501460768705 0 68.923501460768705 69.483039259386715 0 0 0 0 -90.556339248898439 -20.179028436938097 0 -20.179028436938097 24.085495012626779 0 0 0 0 -68.912174775468884 17.599001544314888 0 17.599001544314888 69.529942476961878 0 0 0 0 -178.84556548745604 -38.847988023209837 0 -38.847988023209837 115.33126911883483 0 0 0 0 -130.51456362806493 -111.39403170384685 0 -111.39403170384685 -6.7794359919146245 0 0 0 0 -76.173650994518539 4.0449943303874534 0 4.0449943303874534 142.28817785702267 0 0 0 0 -58.107409804390045 -9.0065940232052526 0 -9.0065940232052526 41.524915629255702 0 0 0 0 6.8824787712364923 -80.308420630783075 0 -80.308420630783075 130.13093532397761 0 0 0 0 25.028676550311502 -13.365803130787754 0 -13.365803130787754 88.181023847515462 0 0 0 0 -2.4053051190276165 -165.40901317444605 0 -165.40901317444605 -31.995171448182305 0 0 0 0 -56.679275296322885 20.80606518323475 0 20.80606518323475 -4.471454930404434 0 0 0 0 -128.96762374108948 -95.467746353241637 0 -95.467746353241637 55.336207128439128 0 0 0 0 -42.838462256302591 -56.826044753874157 0 -56.826044753874157 -140.23996611129769 0 0 0 0 -6.8157134788298208 -57.809640944973253 0 -57.809640944973253 14.014881831742059 0 0 0 0 -91.328830590500729 -38.545798231411936 0 -38.545798231411936 140.90449172049739 0 0 0 0 -8.9358949321613181 -13.70790852554137 0 -13.70790852554137 17.140110445095161 0 0 0 0 -1.158096297679208 1.5006596604427127 0 1.5006596604427127 0.064354674072666596 0 0 0 0 15.941285685781622 -17.462225558515456 0 -17.462225558515456 -10.289493543499702 0 0 0 0 21.526678141828796 -13.446858574149431 0 -13.446858574149431 4.2580533280023545 0 0 0 0 23.315859555732459 28.749610474407746 0 28.749610474407746 -132.46402309788323 0 0 0 0 -3.0584812921446769 -5.1268031564313219 0 -5.1268031564313219 1.9301617379166156 0 0 0 0 -46.721533419564366 210.71072902345077 0 210.71072902345077 156.19284168534068 0 0 0 0 -22.696007989841746 -54.009712155985198 0 -54.009712155985198 45.420203651519842 0 0 0 0 57.438528470083838 -103.8391236204061 0 -103.8391236204061 71.428488294051022 0 0 0 0 -74.967349195711904 -237.13688564013515 0 -237.13688564013515 170.28250419829419 0 0 0 0 17.265405450508609 -13.248533599475024 0 -13.248533599475024 2.8425632163399968 0 0 0 0 119.01753752227523 -26.736282675564325 0 -26.736282675564325 -6.0803380265169835 0 0 0 0 58.80844673741376 -11.040046466532658 0 -11.040046466532658 5.2396590887781258 0 0 0 0 -5.8708404932986014 -40.338982589137231 0 -40.338982589137231 5.3584324437970281 0 0 0 0 57.611438316118438 -70.548787863603138 0 -70.548787863603138 11.918174440334042 0 0 0 0 67.682924634602387 36.117673999176077 0 36.117673999176077 22.601016830869412 0 0 0 0 -70.343605539295822 -42.469608787498146 0 -42.469608787498146 -77.464014710792981 0 0 0 0 -1.3250242873939158 -3.0990885340666523 0 -3.0990885340666523 1.8178331856307519 0 0 0 0 -34.126879496878246 -28.934226383696114 0 -28.934226383696114 15.936643422926863 0 0 0 0 -7.5115843003150076 -61.326477475743559 0 -61.326477475743559 -17.88185724658797 0 0 0 0 21.691412361367185 -11.73225583726979 0 -11.73225583726979 2.2742659391605784 0 0 0 0 36.060741358844098 -33.439602002670654 0 -33.439602002670654 -25.440940267339101 0 0 0 0 42.42890289099887 -49.631479328155365 0 -49.631479328155365 -0.16240117811503296 0 0 0 0 8.5827828324577808 2.5163740040225804 0 2.5163740040225804 -9.3889391744079713 0 0 0 0 2.817358359522018 -13.682134104542024 0 -13.682134104542024 5.7280190396553738 0 0 0 0 -2.8665607209259178 -33.010706102638324 0 -33.010706102638324 13.299424339606048 0 0 0 0 7.2137234766269103 -25.83393539230201 0 -25.83393539230201 0.55765099592827028 0 0 0 0 7.2875206866447115 -6.6959768417982559 0 -6.6959768417982559 77.309147432039026 0 0 0 0 47.632573822193081 -66.655872395094775 0 -66.655872395094775 -96.209202094011289 0 0 0 0 21.122874644583504 -14.322044371785012 0 -14.322044371785012 6.2448695701070527 0 0 0 0 31.829931436139475 -15.652158442611821 0 -15.652158442611821 -1.4981979656234556 0 0 0 0 46.345050458956393 -25.665702940063966 0 -25.665702940063966 20.095652275384964 0 0 0 0 28.88760050694691 -7.8813389800761797 0 -7.8813389800761797 26.828544833125306 0 0 0 0 25.521273186690451 -13.785469739889777 0 -13.785469739889777 -37.084592172417615 0 0 0 0 35.907439151349536 5.0156953425475876 0 5.0156953425475876 -38.834937819541665 0 0 0 0 0.27808629021114939 -4.8807503817903282 0 -4.8807503817903282 -2.9731588545815386 0 0 0 0 17.989879673658677 -16.872662870770014 0 -16.872662870770014 1.359653900650482 0 0 0 0 45.141056059175753 -3.0815825144372866 0 -3.0815825144372866 6.6654273860058311 0 0 0 0 25.40250849511358 -39.784273195495643 0 -39.784273195495643 8.8215243977247155 0 0 0 0 20.377241605048766 -12.086590743888337 0 -12.086590743888337 7.9108532977543291 0 0 0 0 13.906163733045105 -17.406783811004971 0 -17.406783811004971 -6.9338148583046859 0 0 0 0 44.405970230322964 -0.94210999081431623 0 -0.94210999081431623 10.140981765969627 0 0 0 0 39.329673309752252 -14.591321293375586 0 -14.591321293375586 -8.1482452121258575 0 0 0 0 31.902268511883449 -12.262137127516326 0 -12.262137127516326 19.01854507274038 0 0 0 0 17.763282980581934 -10.777347344680535 0 -10.777347344680535 -22.408708855239791 0 0 0 0 36.030802123161266 -20.295607684605784 0 -20.295607684605784 -134.09150687542842 0 0 0 0 12.599343431313457 6.2355060427022124 0 6.2355060427022124 -15.693757404537081 0 0 0 0 59.649236830431619 -11.678460676303985 0 -11.678460676303985 -15.093734999243679 0 0 0 0 59.280533218305209 -9.9693809147211141 0 -9.9693809147211141 -7.8074177166809022 0 0 0 0 61.54482360437396 -19.371917152528113 0 -19.371917152528113 -23.161897224034874 0 0 0 0 60.43782709685911 -19.797240348579635 0 -19.797240348579635 -10.719964804467963 0 0 0 0 65.712816053870483 -22.10912350146009 0 -22.10912350146009 -38.980481832369605 0 0 0 0 63.175215366791235 -19.992042201991353 0 -19.992042201991353 -7.5112340742332435 0 0 0 0 54.572036116354866 -9.1394446840713499 0 -9.1394446840713499 -2.8289808231911593 0 0 0 0 37.906232106819516 -9.9333675917364417 0 -9.9333675917364417 -8.820721408411373 0 0 0 0 27.82475204768707 12.161142569825643 0 12.161142569825643 -14.533605595478775 0 0 0 0 27.02060832259599 6.02380199466009 0 6.02380199466009 -9.8640195552590786 0 0 0 0 56.774252662322397 5.3793560619020582 0 5.3793560619020582 -15.148992218363219 0 0 0 0 32.248299947939813 7.1725908215785239 0 7.1725908215785239 -2.1951287769452392 0 0 0 0 16.457918040878354 6.3698150230763275 0 6.3698150230763275 -9.3968503250250706 0 0 0 0 41.64413477269045 -9.6444001021611712 0 -9.6444001021611712 -12.616473793973455 0 0 0 0 31.511990674611297 10.702152758508419 0 10.702152758508419 -17.684802050480812 0 0 0 0 17.943274712683973 2.1775489704938451 0 2.1775489704938451 -7.4367730451544798 0 0 0 0 25.597029113327153 -2.2138350929017179 0 -2.2138350929017179 0.77417034211248392 0 0 0 0 23.219241025518784 10.744151319037684 0 10.744151319037684 -14.894052847438832 0 0 0 0 25.731704696227098 -7.7139414999901419 0 -7.7139414999901419 -7.0719056228008412 0 0 0 0 18.110485084576737 -8.7712803707672151 0 -8.7712803707672151 -5.3942600400474632 0 0 0 0 40.413048118765317 -6.7332756672806937 0 -6.7332756672806937 -9.527191976907023 0 0 0 0 52.106908497560653 -4.0807984176908576 0 -4.0807984176908576 -2.1072182559128123 0 0 0 0 13.613191658916861 -4.4676735052177605 0 -4.4676735052177605 -10.759135372355543 0 0 0 0 48.770445493537409 -0.47992808058756964 0 -0.47992808058756964 -5.6100445916210901 0 0 0 0 29.082702514409903 -0.26982692835235866 0 -0.26982692835235866 -6.81548405046874 0 0 0 0 40.523141616227804 -3.2992277965307721 0 -3.2992277965307721 -2.3649019051477627 0 0 0 0 32.430070804388379 4.1308982587230503 0 4.1308982587230503 -4.628372457088517 0 0 0 0 32.614799514631159 -19.677848207185889 0 -19.677848207185889 -18.593908727524649 0 0 0 0 2.3364853300154209 -37.388084985625937 0 -37.388084985625937 -15.846066634161616 0 0 0 0 -31.18710861238651 -46.07731526489988 0 -46.07731526489988 -3.982391805449879 0 0 0 0 13.748716473751898 -7.0771110223807625 0 -7.0771110223807625 1.1568667470097633 0 0 0 0 9.2407973407950692 -10.582788603523724 0 -10.582788603523724 5.0534222959313801 0 0 0 0 18.481310181668505 -16.351437454035107 0 -16.351437454035107 1.9823677404910498 0 0 0 0 44.101969006107538 -12.818542095369594 0 -12.818542095369594 -9.1382482466906367 0 0 0 0 36.828270595688082 -11.664381400441926 0 -11.664381400441926 -13.3833887595747 0 0 0 0 44.530681046264363 -3.3173851027413548 0 -3.3173851027413548 -6.2061456471637939 0 0 0 0 32.190507093808264 -13.299593096469835 0 -13.299593096469835 -2.5395472932250414 0 0 0 0 39.249246557825245 -16.940420630842709 0 -16.940420630842709 -2.1418436123785796 0 0 0 0 20.665693469767575 -7.7803910985903713 0 -7.7803910985903713 -7.9452984939634916 0 0 0 0 46.405295127704449 12.569564796721238 0 12.569564796721238 -3.2992144399690915 0 0 0 0 27.396657680586941 -22.435328772430694 0 -22.435328772430694 -11.516787171260148 0 0 0 0 18.29535987600454 -10.350916344235245 0 -10.350916344235245 1.6675328533778941 0 0 0 0 14.301741203700658 -7.149515153534594 0 -7.149515153534594 -27.7298813511552 0 0 0 0 37.402534601744264 -8.9323732261618716 0 -8.9323732261618716 -7.0421094474058918 0 0 0 0 16.876037508021597 1.1544940630261635 0 1.1544940630261635 -6.5958352049551294 0 0 0 0 0.16145771824952249 0.24041130211047346 0 0.24041130211047346 -0.90449961569033732 0 0 0 0 19.359006982295057 -11.907573595711995 0 -11.907573595711995 -2.8520665460276486 0 0 0 0 4.2435920460266061 -18.172234861969628 0 -18.172234861969628 -8.3928791375201399 0 0 0 0 10.584114068193429 -8.8061392311505102 0 -8.8061392311505102 2.1554417887151196 0 0 0 0 41.472122828635293 21.132334821022596 0 21.132334821022596 -10.422819342468756 0 0 0 0 39.100075614143861 -9.3039903140511342 0 -9.3039903140511342 -32.479430075894925 0 0 0 0 4.7359374990628567 -39.132768622315325 0 -39.132768622315325 -30.150488775937447 0 0 0 0 -50.454057342009037 -16.923716544032231 0 -16.923716544032231 -23.546547933699003 0 0 0 0 33.251068032230251 -44.026617963840181 0 -44.026617963840181 -23.175863429506421 0 0 0 0 13.418945307013928 -9.4108947681907011 0 -9.4108947681907011 -81.660415944375927 0 0 0 0 14.344544176936324 7.5778174125037481 0 7.5778174125037481 -31.928843103952204 0 0 0 0 6.7099859823473764 -1.5580261644906841 0 -1.5580261644906841 -0.034051083884964584 0 0 0 0 48.223074791370891 -26.039115830441006 0 -26.039115830441006 1.2927432905163414 0 0 0 0 24.11512129829498 -11.713901528622955 0 -11.713901528622955 -26.168077722875751 0 0 0 0 19.631388072913978 -32.332635630118148 0 -32.332635630118148 2.1477938377638566 0 0 0 0 3.2113497356321261 -0.13044694351657427 0 -0.13044694351657427 -3.7717093970758571 0 0 0 0 1.6245639180779108 -8.8864596048658768 0 -8.8864596048658768 -11.775113710337791 0 0 0 0 24.453470826258126 -13.096717460444893 0 -13.096717460444893 -20.536521799383991 0 0 0 0 16.856480904091001 -8.774107318746033 0 -8.774107318746033 -5.0972665640864676 0 0 0 0 23.851824456534814 -18.15697604188972 0 -18.15697604188972 -21.920874312809474 0 0 0 0 50.817747514010989 -31.932550162870257 0 -31.932550162870257 -56.321597398118683 0 0 0 0 -22.653800381929614 0.018573123233181832 0 0.018573123233181832 -6.0282182471789838 0 0 0 0 23.894386402771488 -18.92411210964454 0 -18.92411210964454 -16.908635276673522 0 0 0 0 -88.036508609831799 -104.88758172966755 0 -104.88758172966755 345.54485402562568 0 0 0 0 26.838175651879283 -57.047726580151675 0 -57.047726580151675 -36.941238686858242 0 0 0 0 1.6728377431333001 -0.77732006558542821 0 -0.77732006558542821 0.14193163478039583 0 0 0 0 -23.388941519588116 21.901932134131471 0 21.901932134131471 88.056065016768571 0 0 0 0 -25.48159478361049 31.14996631556096 0 31.14996631556096 56.634011349245156 0 0 0 0 35.215887348895194 -59.59337305134477 0 -59.59337305134477 -73.980718889259606 0 0 0 0 39.48613269321504 -0.37501344412736159 0 -0.37501344412736159 -2.9770311435039289 0 0 0 0 28.716950273509951 6.5804128677303915 0 6.5804128677303915 -5.1109609728908936 0 0 0 0 13.380305962464234 -6.5003797728330142 0 -6.5003797728330142 -4.6978919680121622 0 0 0 0 28.75972584723786 10.429767524365843 0 10.429767524365843 -0.77775047332897884 0 0 0 0 38.659309124894207 9.8516667427454649 0 9.8516667427454649 -18.680615658152874 0 0 0 0 28.564525098947342 14.24894080573722 0 14.24894080573722 13.245008409098773 0 0 0 0 41.311541017174022 19.606388908819781 0 19.606388908819781 -8.1535017611199692 0 0 0 0 6.7281538386847046 -3.2989453016124983 0 -3.2989453016124983 -2.3790758913384549 0 0 0 0 2.1059315345191862 -17.318635529202197 0 -17.318635529202197 2.1414367735076212 0 0 0 0 18.684566228219126 -4.8338820505001081 0 -4.8338820505001081 -7.3161141767447688 0 0 0 0 30.750576860504225 0.1176060018908629 0 0.1176060018908629 -14.370403035564777 0 0 0 0 32.309648308364558 18.689683143492918 0 18.689683143492918 -5.0037697107681005 0 0 0 0 30.794557136255207 1.8029690332324906 0 1.8029690332324906 0.54165260700960971 0 0 0 0 21.842700162988251 0.0061104641443563423 0 0.0061104641443563423 -1.6358946344349039 0 0 0 0 7.5261548476719895 0.17980386392738978 0 0.17980386392738978 -0.47642478758974904 0 0 0 0 58.280297070916276 -65.315122760768105 0 -65.315122760768105 5.7631908456967551 0 0 0 0 56.518897779926192 72.920852842396201 0 72.920852842396201 -26.425919156970437 0 0 0 0 11.324011834745761 -14.785455541124188 0 -14.785455541124188 17.930913153237093 0 0 0 0 3.6428524648391658 -0.079682863836126216 0 -0.079682863836126216 -1.4530909498339728 0 0 0 0 30.625304784043692 -29.162851813587146 0 -29.162851813587146 19.596616608048105 0 0 0 0 8.3389962837318308 -4.4967302733977901 0 -4.4967302733977901 12.177814042049 0 0 0 0 12.021434308873722 -3.9365672720736749 0 -3.9365672720736749 -4.0893574864529061 0 0 0 0 21.608005122165196 -12.281301591785569 0 -12.281301591785569 0.80452204949635764 0 0 0 0 15.280748777862755 -9.2351440267137157 0 -9.2351440267137157 -0.0032673785515228756 0 0 0 0 25.23342578872689 -15.875962494144815 0 -15.875962494144815 2.0000681269140288 0 0 0 0 12.046255036548246 -4.0619850626138048 0 -4.0619850626138048 -0.022467665432814293 0 0 0 0 27.042681814065872 -2.6100504450052271 0 -2.6100504450052271 -13.836452629062663 0 0 0 0 75.893610487459227 -21.963528287908023 0 -21.963528287908023 -7.3816058473863428 0 0 0 0 6.3215675820974866 -3.3932636816122681 0 -3.3932636816122681 28.672540351339194 0 0 0 0 9.1975942055262294 -0.79753012167677184 0 -0.79753012167677184 -1.8352973154886421 0 0 0 0 13.582293163053691 -3.3537257456522935 0 -3.3537257456522935 -11.985982326601459 0 0 0 0 -3.4754445679282071 -5.17814489670684 0 -5.17814489670684 60.090555847368705 0 0 0 0 125.22169798286632 -236.62988999579829 0 -236.62988999579829 164.62772412376717 0 0 0 0 6.6452146684241598 -4.8497748323456218 0 -4.8497748323456218 3.0713619310482576 0 0 0 0 13.581212403834797 -10.396095913163229 0 -10.396095913163229 -0.077912945957452351 0 0 0 0 10.472492021159269 -9.2716126958015597 0 -9.2716126958015597 0.023759250599345014 0 0 0 0 16.610225472075399 -9.154699938300487 0 -9.154699938300487 -3.3996500999345241 0 0 0 0 1.0399572214899422 0.57339456724875504 0 0.57339456724875504 -0.42681811010267223 0 0 0 0 19.656200240263388 13.692730826017321 0 13.692730826017321 -5.2452780537805275 0 0 0 0 4.935672422288917 -5.1133983211628049 0 -5.1133983211628049 -0.017529647033781518 0 0 0 0 5.1902308433782309 -4.7467734153890158 0 -4.7467734153890158 -10.047180875589003 0 0 0 0 1.3381257185406525 -1.9905304682439038 0 -1.9905304682439038 0.17101757537086265 0 0 0 0 23.470647773378005 -24.381082326713511 0 -24.381082326713511 -3.2868814453752293 0 0 0 0 8.6816010237598675 -11.524788044646243 0 -11.524788044646243 9.1797767448597369 0 0 0 0 52.181989437900484 0.024127343261625356 0 0.024127343261625356 11.151624334970734 0 0 0 0 27.035074789979262 -19.009252642873435 0 -19.009252642873435 10.66168747172469 0 0 0 0 20.30752826234675 14.540882821293962 0 14.540882821293962 1.7470883992627932 0 0 0 0 11.005960553186014 -0.89087445675022536 0 -0.89087445675022536 14.857914367387821 0 0 0 0 11.772989197434129 -1.1834672031398625 0 -1.1834672031398625 -1.1073871997980018 0 0 0 0 -8.0384826735535171 19.706404895314563 0 19.706404895314563 64.00687107737599 0 0 0 0 33.811201761534903 37.246739475260256 0 37.246739475260256 40.584977675031723 0 0 0 0 -10.613927219346806 28.350960259529131 0 28.350960259529131 51.248883650818243 0 0 0 0 38.188582296483219 30.516868660484761 0 30.516868660484761 35.519011210805047 0 0 0 0 86.926325388019904 42.072863108855927 0 42.072863108855927 36.487318997627426 0 0 0 0 29.55907854304678 9.019756361303962 0 9.019756361303962 17.9457576050836 0 0 0 0 67.300870621220383 -6.2639851130355169 0 -6.2639851130355169 9.8717818891273055 0 0 0 0 129.04671883606352 40.917878691964688 0 40.917878691964688 65.522775691183597 0 0 0 0 32.647915463327081 35.823124971589152 0 35.823124971589152 113.54119214103594 0 0 0 0 84.188001781643834 -54.429933974395681 0 -54.429933974395681 95.428223991449613 0 0 0 0 -4.1770573087705998 -45.862194528711143 0 -45.862194528711143 117.39772728315734 0 0 0 0 0.61858872146694921 24.693944720342188 0 24.693944720342188 54.856426452958658 0 0 0 0 0.81689619975196592 -0.15321706118152179 0 -0.15321706118152179 -0.50675726120720377 0 0 0 0 26.678056278760778 45.847336284755556 0 45.847336284755556 -36.506542240076669 0 0 0 0 26.031762078782776 11.103281715546473 0 11.103281715546473 61.593564243630112 0 0 0 0 15.477752176710055 -55.050380442067535 0 -55.050380442067535 -17.578547113567993 0 0 0 0 2.6208567161957035 -63.790496964849581 0 -63.790496964849581 69.93265084370978 0 0 0 0 3.1532843964440644 -2.2631593663184901 0 -2.2631593663184901 1.3393619898634999 0 0 0 0 -32.002668206605449 -79.069131350766781 0 -79.069131350766781 -73.448317665905051 0 0 0 0 -30.177923090675904 48.084629078375514 0 48.084629078375514 22.836358449951604 0 0 0 0 -51.730820962387952 58.01826630335745 0 58.01826630335745 44.341987232537576 0 0 0 0 -51.275096608005697 65.46294450752157 0 65.46294450752157 75.658869333379357 0 0 0 0 -42.852876824537816 31.761075680580007 0 31.761075680580007 61.627665145786523 0 0 0 0 -32.877472717940691 53.097893883910501 0 53.097893883910501 95.28227232865629 0 0 0 0 -53.894647878565593 41.838390662416259 0 41.838390662416259 53.675069654849437 0 0 0 0 -43.004367983434349 45.907133270526629 0 45.907133270526629 56.032430185302019 0 0 0 0 -68.99208036006894 24.211641009249433 0 24.211641009249433 44.38722942665845 0 0 0 0 -9.8587975497357547 39.223928830543628 0 39.223928830543628 10.039989492315726 0 0 0 0 -46.843623029912123 27.912683091896724 0 27.912683091896724 42.255829520342559 0 0 0 0 -9.1504425904131494 43.204500975412031 0 43.204500975412031 31.347129622033208 0 0 0 0 -17.967821694008308 24.030778353797359 0 24.030778353797359 62.215685345575366 0 0 0 0 -2.9503967277123593 27.29934481514465 0 27.29934481514465 62.049865075469825 0 0 0 0 -4.6646153458277695 25.308882603635993 0 25.308882603635993 83.392776245304049 0 0 0 0 -20.341130769404117 38.853263260324184 0 38.853263260324184 46.353709383481146 0 0 0 0 -24.617436454980634 26.620747934737665 0 26.620747934737665 65.677043599892386 0 0 0 0 0.26280836094520055 7.7556337082105529 0 7.7556337082105529 79.614472393790038 0 0 0 0 1.0791514427327797 -0.076319558922428143 0 -0.076319558922428143 0.88595034744235623 0 0 0 0 27.107478974823607 27.977996929485016 0 27.977996929485016 51.611496412700035 0 0 0 0 4.593983805301832 18.902219209459872 0 18.902219209459872 94.36546944144925 0 0 0 0 25.829124011739623 -16.754308943718115 0 -16.754308943718115 20.184001442689123 0 0 0 0 1.9568889721390232 -1.0184321714789348 0 -1.0184321714789348 0.029989810210945045 0 0 0 0 -7.5593378050834872 11.200179491003382 0 11.200179491003382 89.980071599866051 0 0 0 0 5.2912686344334894 -4.639149405250464 0 -4.639149405250464 3.4319118107699893 0 0 0 0 -15.5502788714075 -1.650771118601142 0 -1.650771118601142 14.773649928231634 0 0 0 0 5.8747622800437966 76.41153266712854 0 76.41153266712854 -81.352842220634329 0 0 0 0 36.971538903191686 0.89218072891299016 0 0.89218072891299016 4.9119597337514733 0 0 0 0 -3.3792837499058805 0.51035290615857321 0 0.51035290615857321 8.3720949431475447 0 0 0 0 10.670876534977481 -0.45449850138330561 0 -0.45449850138330561 -0.15633759151554216 0 0 0 0 -54.00276016147717 8.1256278836334541 0 8.1256278836334541 22.564348251090905 0 0 0 0 11.029098227336362 -1.3409427099976767 0 -1.3409427099976767 -1.6045414518748302 0 0 0 0 10.503083118033828 -16.249020603409804 0 -16.249020603409804 6.4772249409368214 0 0 0 0 29.509599478275049 4.8403013049715184 0 4.8403013049715184 0.41827822070069942 0 0 0 0 0.13718882703551571 0.097873376060377382 0 0.097873376060377382 0.33704555727207319 0 0 0 0 12.687663945062525 -5.9631368009984698 0 -5.9631368009984698 2.2163539878250638 0 0 0 0 17.662220487603918 -5.5323665871305714 0 -5.5323665871305714 1.7342677802748163 0 0 0 0 26.126532054724521 -13.280763431687774 0 -13.280763431687774 -4.6182831437390632 0 0 0 0 1.5393060667652829 2.7047794983487279 0 2.7047794983487279 -1.9648382232863204 0 0 0 0 33.763823858680553 -12.245318005477209 0 -12.245318005477209 -9.0649745074288361 0 0 0 0 11.844218300204375 -12.97595626475651 0 -12.97595626475651 -0.02367822353443743 0 0 0 0 7.4971261483250942 -2.1701324187305033 0 -2.1701324187305033 -0.083470271499937021 0 0 0 0 8.6349741122103296 -1.9713838832668571 0 -1.9713838832668571 0.0056784269970902405 0 0 0 0 12.597030560107669 -0.86544839686868613 0 -0.86544839686868613 -5.439492995229557 0 0 0 0 7.2899717879627133 -2.1994959805003482 0 -2.1994959805003482 1.319398344545244 0 0 0 0 8.705676873981588 -2.993176568916752 0 -2.993176568916752 0.55341135550638221 0 0 0 0 8.9776372865089797 -2.9567251951721714 0 -2.9567251951721714 0.0029065115489971876 0 0 0 0 8.4299428199301474 3.1274380358352118 0 3.1274380358352118 -6.6613189825313839 0 0 0 0 2.5578997179841849 -1.264891225108471 0 -1.264891225108471 0.29342975081206424 0 0 0 0 7.5002077786193695 -8.8440041381580983 0 -8.8440041381580983 -0.66117594691093018 0 0 0 0 11.454059868585318 -6.5034624386212272 0 -6.5034624386212272 -0.085902671988577595 0 0 0 0 1.3957399087958038 -0.61429403454155818 0 -0.61429403454155818 -3.2896069984524274 0 0 0 0 1498.6807853802457 -83.404422849053461 0 -83.404422849053461 -1.7768238465161685 0 0 0 0 1190.9081655907212 -214.49939827335018 0 -214.49939827335018 -33.737627907621714 0 0 0 0 2028.1629497444665 543.89900280134657 0 543.89900280134657 205.61997542491781 0 0 0 0 2318.6857384705218 -380.50641252758612 0 -380.50641252758612 -17.392918772470864 0 0 0 0 809.70973358605988 406.78375984240517 0 406.78375984240517 76.891444361118658 0 0 0 0 1.1420192733183683 -1.2391815111191136 0 -1.2391815111191136 -0.13655002734822463 0 0 0 0 840.86455695144832 122.83741671190273 0 122.83741671190273 176.50570225262641 0 0 0 0 8.895376074461069 -0.42794540768103673 0 -0.42794540768103673 -1.3282189943311618 0 0 0 0 8.7818320601945743 -0.4731803388743856 0 -0.4731803388743856 -7.5661361506364528 0 0 0 0 908.76772078851354 -111.90582359710322 0 -111.90582359710322 -113.10850760254866 0 0 0 0 9.5400174897725947 -2.8684227931364106 0 -2.8684227931364106 -0.46811439143220412 0 0 0 0 571.57678998322808 124.07169650543088 0 124.07169650543088 845.43196330610908 0 0 0 0 1305.2031219819037 -813.66067224277094 0 -813.66067224277094 328.78865968270958 0 0 0 0 2701.7906526842853 845.41580919766966 0 845.41580919766966 -737.17321601945423 0 0 0 0 2990.9894252794329 988.20377734475187 0 988.20377734475187 -1175.1919568798658 0 0 0 0 1358.0644896132872 1584.7194508801804 0 1584.7194508801804 1876.0657000557239 0 0 0 0 6612.9668953046203 1133.0019754620555 0 1133.0019754620555 -1094.7798138749131 0 0 0 0 6.8957909281367051 -1.7334310571445286 0 -1.7334310571445286 -0.715823283815193 0 0 0 0 -0.58717141565676911 -1.6568727466105528 0 -1.6568727466105528 -0.41772373747457392 0 0 0 0 3169.5206382427568 -1206.7008203136561 0 -1206.7008203136561 1531.034239060521 0 0 0 0 2259.4863483301888 186.42841537996674 0 186.42841537996674 -230.90450013872794 0 0 0 0 2998.6177666315452 -588.48444098028301 0 -588.48444098028301 -1.4414809121626604 0 0 0 0 1275.4507963298238 -111.17087088335961 0 -111.17087088335961 -180.50067403604749 0 0 0 0 1817.3083360231794 388.30601217688707 0 388.30601217688707 119.18999865120759 0 0 0 0 3634.2603608838981 -37.668028388552102 0 -37.668028388552102 -78.771985718574342 0 0 0 0 34.890157802612521 -1728.4740620447378 0 -1728.4740620447378 1220.0756153196617 0 0 0 0 2073.9251055042332 -366.02663450602921 0 -366.02663450602921 -133.02048390259324 0 0 0 0 966.1872079763707 -484.16435271948467 0 -484.16435271948467 -6.2677500848817544 0 0 0 0 622.56595960170489 -14.813339081985447 0 -14.813339081985447 -254.26114747963607 0 0 0 0 643.59225701795367 -351.43505145599079 0 -351.43505145599079 181.22025193530868 0 0 0 0 844.57796288720419 40.163310221304073 0 40.163310221304073 548.72662293086501 0 0 0 0 1681.9076220667921 -57.133503203369855 0 -57.133503203369855 -179.12719860252696 0 0 0 0 74.954460368389846 31.596448265484014 0 31.596448265484014 -208.41151544376623 0 0 0 0 11.755773826699112 -0.15312506749834753 0 -0.15312506749834753 -0.60076887126498058 0 0 0 0 13.350629781780299 -5.2681727411345491 0 -5.2681727411345491 -7.2073085102333607 0 0 0 0 -25.230210791982245 115.29773374993033 0 115.29773374993033 39.847159070425278 0 0 0 0 60.030899372860503 152.31857037746315 0 152.31857037746315 66.270870388270851 0 0 0 0 59.664042184871505 -107.63685371259214 0 -107.63685371259214 290.9566776066381 0 0 0 0 141.07561619156331 -127.71090150752252 0 -127.71090150752252 173.47662295590419 0 0 0 0 39.622135217578034 56.883860200854656 0 56.883860200854656 98.785187540973311 0 0 0 0 -25.678610937815392 36.413499056470187 0 36.413499056470187 77.966029910939142 0 0 0 0 26.234513767034514 34.550835329775964 0 34.550835329775964 63.660615090860574 0 0 0 0 11.243536342766674 6.2742391744538111 0 6.2742391744538111 154.0354572536753 0 0 0 0 13.595419891586062 24.898680605821482 0 24.898680605821482 66.755258469942419 0 0 0 0 205.69361652810767 -18.816744447522979 0 -18.816744447522979 60.794707371363984 0 0 0 0 57.632649684252101 29.883926983182391 0 29.883926983182391 35.329582669584852 0 0 0 0 -58.91812431080325 34.671596819798992 0 34.671596819798992 46.890483000330278 0 0 0 0 135.95592110094731 -71.17453160083187 0 -71.17453160083187 101.15217452063484 0 0 0 0 190.41420835797908 -12.170582729795569 0 -12.170582729795569 -84.852581209973323 0 0 0 0 133.44080137339188 -25.848727431879524 0 -25.848727431879524 -46.340525944267938 0 0 0 0 171.06966027231829 -31.970493225128394 0 -31.970493225128394 -10.542328775458373 0 0 0 0 283.30162435078819 -146.94237672310442 0 -146.94237672310442 79.578912833356299 0 0 0 0 292.78569453017553 -133.63354146340316 0 -133.63354146340316 -25.912230546754472 0 0 0 0 333.91165979433572 -115.8284703308982 0 -115.8284703308982 -38.317153708752812 0 0 0 0 344.08978575760557 -152.28537062717305 0 -152.28537062717305 0.74526807442452991 0 0 0 0 427.10730674641673 -166.46486076448582 0 -166.46486076448582 -18.740470220765928 0 0 0 0 349.19975645618979 -158.82532456606168 0 -158.82532456606168 6.2870250593532546 0 0 0 0 350.22365606739186 -151.44267949975256 0 -151.44267949975256 -21.397978658525972 0 0 0 0 309.49071999982698 -148.88793364291632 0 -148.88793364291632 -8.2394607743208326 0 0 0 0 279.36989774665562 -137.33735473040178 0 -137.33735473040178 -51.59433610027736 0 0 0 0 291.67258152115392 -165.3911860662738 0 -165.3911860662738 -11.369287239933328 0 0 0 0 206.99341282222304 -62.086061936755868 0 -62.086061936755868 -115.96527944489071 0 0 0 0 308.02996373207134 -134.37026908211135 0 -134.37026908211135 -72.178772934454173 0 0 0 0 226.23907924816012 -40.622828815904541 0 -40.622828815904541 -139.53871126078047 0 0 0 0 247.29108205274679 -111.97464518861671 0 -111.97464518861671 -23.856143286306178 0 0 0 0 627.65733247075696 -146.02608403976001 0 -146.02608403976001 -48.555010554980981 0 0 0 0 522.58742273595999 -205.898709755661 0 -205.898709755661 -10.594884604303388 0 0 0 0 447.00495608948404 -141.64341432422134 0 -141.64341432422134 -10.017234190130694 0 0 0 0 431.14100971500739 -167.41127189069903 0 -167.41127189069903 5.7290106562149958 0 0 0 0 434.28171778057003 -157.44600534583788 0 -157.44600534583788 -18.685835632956241 0 0 0 0 657.10438668407733 -304.07458755381981 0 -304.07458755381981 55.816074336536985 0 0 0 0 340.66866227915307 -207.22035901924255 0 -207.22035901924255 233.30266375822521 0 0 0 0 336.24127855848201 -30.247570374002066 0 -30.247570374002066 138.84861241673707 0 0 0 0 1057.5242827253096 305.64786652627265 0 305.64786652627265 -53.978807331624466 0 0 0 0 1283.5818561583001 -342.972737851896 0 -342.972737851896 2.0391675879943705 0 0 0 0 793.17831329983892 -115.21047017056799 0 -115.21047017056799 -99.78827231910077 0 0 0 0 920.22526474596816 -25.383793715126558 0 -25.383793715126558 -163.52046474469535 0 0 0 0 888.48785600935298 94.434303803517423 0 94.434303803517423 -140.95587092770438 0 0 0 0 774.66774338649702 -106.49134595981377 0 -106.49134595981377 -94.382844941522762 0 0 0 0 804.39241531967855 -170.8725704674498 0 -170.8725704674498 -78.958697939387093 0 0 0 0 632.14203098099097 -149.41784373215341 0 -149.41784373215341 -79.000576028853175 0 0 0 0 687.19870990220807 -134.90495690610101 0 -134.90495690610101 -80.343810503829445 0 0 0 0 728.40637935564882 -72.117007730036903 0 -72.117007730036903 -108.79622408497016 0 0 0 0 692.50539741115062 -63.109424885019507 0 -63.109424885019507 -107.35103481627152 0 0 0 0 749.64975673321533 -36.154975045462379 0 -36.154975045462379 -160.72395800275626 0 0 0 0 677.18147133808816 -39.599490390571191 0 -39.599490390571191 -82.136158638284542 0 0 0 0 727.51125627287547 101.45834605600032 0 101.45834605600032 -139.182829699801 0 0 0 0 770.50893764811917 -36.87790724003662 0 -36.87790724003662 -155.56055392454164 0 0 0 0 744.58441078523174 -25.338891873894681 0 -25.338891873894681 -159.3132661147738 0 0 0 0 667.45676737985195 -79.741569807083579 0 -79.741569807083579 -114.60654282580617 0 0 0 0 729.69103946216637 -23.975380389412749 0 -23.975380389412749 -157.78547454904492 0 0 0 0 738.28508745996805 -34.458679383651315 0 -34.458679383651315 -158.96893515496959 0 0 0 0 612.11434120751801 -2.292460777616725 0 -2.292460777616725 -101.2553651990396 0 0 0 0 819.18428082286846 -48.165778401963507 0 -48.165778401963507 -162.97092478672675 0 0 0 0 658.49302678222011 7.9445015998635427 0 7.9445015998635427 -100.55712125976453 0 0 0 0 723.02043005306768 56.397046099917588 0 56.397046099917588 -191.0723865497821 0 0 0 0 637.29348547970585 54.524587434724708 0 54.524587434724708 -99.103229930384259 0 0 0 0 555.5886626268184 89.017935692575975 0 89.017935692575975 -99.801089596381644 0 0 0 0 544.56438085398986 29.245195403962498 0 29.245195403962498 -39.631401703118172 0 0 0 0 537.31608351209434 9.9980574537439679 0 9.9980574537439679 -41.100956161622435 0 0 0 0 604.72907423929064 -34.209524449868582 0 -34.209524449868582 -17.676102236971929 0 0 0 0 528.17315497604432 30.284231912177347 0 30.284231912177347 23.851021832779224 0 0 0 0 514.87756909418385 4.0343315970458207 0 4.0343315970458207 44.933090085512958 0 0 0 0 532.77623779448913 -7.6291884151687555 0 -7.6291884151687555 27.217730502577979 0 0 0 0 498.61275583098177 37.878250305499023 0 37.878250305499023 -15.189483708760235 0 0 0 0 540.92470354029501 36.834935216515987 0 36.834935216515987 -46.709923875805544 0 0 0 0 433.91895490407478 21.883917395616663 0 21.883917395616663 -24.735410537228745 0 0 0 0 505.501279297172 -6.7932671491561223 0 -6.7932671491561223 -17.13847348004856 0 0 0 0 462.10380621292279 0.51373591614719771 0 0.51373591614719771 -59.994167120423299 0 0 0 0 456.8756987201341 46.372078592663456 0 46.372078592663456 -42.917721932730274 0 0 0 0 391.7283792294038 27.582248334758333 0 27.582248334758333 -41.403471912059103 0 0 0 0 263.99943261194858 -6.2173474686042027 0 -6.2173474686042027 -3.3203645032863278 0 0 0 0 227.09948682281538 -127.00894408184377 0 -127.00894408184377 3.8517906600427523 0 0 0 0 186.43060970527586 -87.246812737985238 0 -87.246812737985238 -0.49968261862204599 0 0 0 0 23.516636273590848 -90.334221383811609 0 -90.334221383811609 52.213211678037624 0 0 0 0 197.844464169204 -152.88394566033094 0 -152.88394566033094 33.319327079820141 0 0 0 0 223.39537477360136 -70.374389136913805 0 -70.374389136913805 32.993457356533327 0 0 0 0 64.906986869696993 -39.75226810546701 0 -39.75226810546701 73.533423669731746 0 0 0 0 430.09345641651635 -56.719365234269731 0 -56.719365234269731 -30.667868643256952 0 0 0 0 344.29148990591057 -153.59704261959087 0 -153.59704261959087 47.727814842932275 0 0 0 0 363.20408914185828 -44.274254656042103 0 -44.274254656042103 11.517863033659523 0 0 0 0 374.56730003841221 -123.80716147208659 0 -123.80716147208659 43.731456696436908 0 0 0 0 496.99323985597584 -74.342870579957889 0 -74.342870579957889 21.38820536059211 0 0 0 0 396.95280558936065 -163.54702812933829 0 -163.54702812933829 95.692074787788442 0 0 0 0 474.8416775270598 -55.720182677599951 0 -55.720182677599951 34.676595488686871 0 0 0 0 603.11961569520645 -144.24232836566807 0 -144.24232836566807 28.430670904868748 0 0 0 0 501.27229285554495 -83.973683536714816 0 -83.973683536714816 16.483269362106512 0 0 0 0 569.59368366340641 -14.011260193336057 0 -14.011260193336057 47.947771962426486 0 0 0 0 270.33621484297328 -146.56984664664742 0 -146.56984664664742 -19.003685515410325 0 0 0 0 4.9661154693858407 4.5652661815760212 0 4.5652661815760212 -17.466709710784016 0 0 0 0 42.492774193582591 -0.60840972150435846 0 -0.60840972150435846 167.09704669286657 0 0 0 0 656.00185091351159 -41.060061972520998 0 -41.060061972520998 42.691243466259039 0 0 0 0 286.68695600272622 -161.03820331213865 0 -161.03820331213865 236.3411218428846 0 0 0 0 1.8613150259206463 -1.4331146194472666 0 -1.4331146194472666 1.2730623722845547 0 0 0 0 1.4741870503604275 0.10425610663776297 0 0.10425610663776297 -1.9863834437970471 0 0 0 0 668.45439887262182 116.95981301992651 0 116.95981301992651 188.75133874736639 0 0 0 0 895.9977049001609 -31.094024854119198 0 -31.094024854119198 42.972980314050801 0 0 0 0 752.75401507114293 -205.69282999428106 0 -205.69282999428106 108.31823970431287 0 0 0 0 497.07383186463267 -196.89132824878834 0 -196.89132824878834 108.43812650408654 0 0 0 0 376.96206598263234 -131.29735258666915 0 -131.29735258666915 171.27754257204288 0 0 0 0 348.26808424257615 -184.48623955914809 0 -184.48623955914809 163.15167618330088 0 0 0 0 479.10511925659375 -162.1218892573379 0 -162.1218892573379 92.615964025375433 0 0 0 0 511.78514621523209 -253.31756094991943 0 -253.31756094991943 216.64619062003476 0 0 0 0 303.43700813985197 -163.25377984082843 0 -163.25377984082843 74.414087179124181 0 0 0 0 329.73209598564426 -89.755760412730979 0 -89.755760412730979 134.96928243309958 0 0 0 0 417.65114780206932 4.6475571659757406 0 4.6475571659757406 220.6006087061096 0 0 0 0 252.19619875938224 -139.57794228129342 0 -139.57794228129342 104.4098768158874 0 0 0 0 251.1062275666045 -151.47437206863106 0 -151.47437206863106 138.25032664401806 0 0 0 0 127.80134504864691 -112.23486641980708 0 -112.23486641980708 223.88875863818157 0 0 0 0 23.717369081627112 -24.23775186153398 0 -24.23775186153398 170.78496169824075 0 0 0 0 191.98654900188558 -141.70540991693269 0 -141.70540991693269 159.54404287803482 0 0 0 0 190.70998914417578 -132.89422232491961 0 -132.89422232491961 137.23561908314878 0 0 0 0 279.45868413560675 -184.06149407131761 0 -184.06149407131761 74.43583004539687 0 0 0 0 298.45806177181657 -167.72396956144803 0 -167.72396956144803 71.494784864749818 0 0 0 0 310.52982568275183 -185.66526723940478 0 -185.66526723940478 33.615653562628722 0 0 0 0 297.90163914120058 -149.84360218141774 0 -149.84360218141774 11.73727758127643 0 0 0 0 336.53550328407437 -163.7749805594849 0 -163.7749805594849 3.3789384433512168 0 0 0 0 418.56200150749646 -140.8768427627474 0 -140.8768427627474 2.8070954325430648 0 0 0 0 344.55550683598267 -138.76131833537693 0 -138.76131833537693 43.623618381581764 0 0 0 0 378.88592455541948 -160.16608759398787 0 -160.16608759398787 14.829837804620183 0 0 0 0 481.61922895663884 -158.50824723078313 0 -158.50824723078313 -4.1857667116983066 0 0 0 0 426.3296711631483 -162.15228559524894 0 -162.15228559524894 3.0560645432869933 0 0 0 0 432.54552109423093 -135.05802489783855 0 -135.05802489783855 27.886667354386077 0 0 0 0 421.41405580478022 -125.95185697668967 0 -125.95185697668967 27.991217452468845 0 0 0 0 516.18790820152208 -124.36477482487135 0 -124.36477482487135 -1.2712896131470188 0 0 0 0 487.67973717546556 -123.4613976634264 0 -123.4613976634264 -0.65886304822470265 0 0 0 0 560.61484794373973 -150.03522275640807 0 -150.03522275640807 -48.517347344753702 0 0 0 0 621.56706855029915 -105.06007794362449 0 -105.06007794362449 -56.382474837224436 0 0 0 0 606.27915973734343 -84.26085829758631 0 -84.26085829758631 -56.455000650263841 0 0 0 0 546.94130144626251 -58.884659916499004 0 -58.884659916499004 -22.583024899533484 0 0 0 0 468.83915544638876 -65.941267959417019 0 -65.941267959417019 61.95404782276637 0 0 0 0 492.67472988320515 -4.3997089567401417 0 -4.3997089567401417 45.278341647263005 0 0 0 0 493.5697474583867 2.5527682097854267 0 2.5527682097854267 98.058835773408646 0 0 0 0 563.77358936326345 60.41018462977263 0 60.41018462977263 109.49581530035357 0 0 0 0 489.27574746636674 -4.1155048642635848 0 -4.1155048642635848 92.263064262915577 0 0 0 0 484.47850542457309 16.21103497074364 0 16.21103497074364 143.92277304338313 0 0 0 0 471.37864962656749 -51.288967572327238 0 -51.288967572327238 141.89210588756396 0 0 0 0 435.22742045940686 -110.11352511353789 0 -110.11352511353789 73.7290018551721 0 0 0 0 473.54306878161151 -97.107614025324438 0 -97.107614025324438 59.34321958547298 0 0 0 0 534.27735632052645 -84.469476220304841 0 -84.469476220304841 28.797961946893338 0 0 0 0 88.383334504149389 3.7033180303069457 0 3.7033180303069457 35.456279559361974 0 0 0 0 90.595905856225727 -4.437650191983721 0 -4.437650191983721 61.115454180422603 0 0 0 0 208.84510227655119 12.745756899529624 0 12.745756899529624 32.358966112685721 0 0 0 0 42.67274616935174 -24.124653670352018 0 -24.124653670352018 62.476740040124241 0 0 0 0 -0.86585387057857588 -4.5987806374896536 0 -4.5987806374896536 80.254512918443652 0 0 0 0 -156.29321311784588 -43.216027363807825 0 -43.216027363807825 87.547628476156206 0 0 0 0 -46.762108735798392 -14.571228021264687 0 -14.571228021264687 74.253322743950775 0 0 0 0 -0.63841531903017312 -5.0510003235376644 0 -5.0510003235376644 58.164739903036207 0 0 0 0 -91.09742756515061 -74.473599131284629 0 -74.473599131284629 31.021270435607221 0 0 0 0 -82.709377718390897 30.604160528085231 0 30.604160528085231 59.171465823623294 0 0 0 0 -13.267514858860523 -6.8036526677788061 0 -6.8036526677788061 45.344578760221339 0 0 0 0 -95.357132702940362 -29.432294581127678 0 -29.432294581127678 69.38609367411118 0 0 0 0 -3.3733739792278357 7.8255124853576206 0 7.8255124853576206 59.847284661578669 0 0 0 0 -2.4876194635871798 -4.8079554360901966 0 -4.8079554360901966 -12.362815860848059 0 0 0 0 11.629725346778287 -34.30418995741411 0 -34.30418995741411 53.025375871544384 0 0 0 0 -46.094578855871077 -49.754113612069659 0 -49.754113612069659 -39.318373574507859 0 0 0 0 -55.65880157193169 -26.89510424033233 0 -26.89510424033233 46.93983001010929 0 0 0 0 -53.905328365217429 37.88251571996534 0 37.88251571996534 -33.05372532291625 0 0 0 0 -49.417345316964202 17.05959109934247 0 17.05959109934247 39.173600011547933 0 0 0 0 208.65392021687876 4.31351550906993 0 4.31351550906993 18.269827586649626 0 0 0 0 65.352254013472702 -23.323425059809779 0 -23.323425059809779 82.016605482888735 0 0 0 0 57.183989119264879 13.692067919819237 0 13.692067919819237 21.670666975210224 0 0 0 0 387.53504109672213 -43.9123016687372 0 -43.9123016687372 -3.2175880042441349 0 0 0 0 217.11633268443984 -30.747237275167208 0 -30.747237275167208 27.819359457108021 0 0 0 0 637.83827235302306 -23.449089931773415 0 -23.449089931773415 -90.70471225179972 0 0 0 0 565.68772820977028 -9.5535872412501703 0 -9.5535872412501703 -91.363147441806177 0 0 0 0 444.23273394074931 88.701927166324822 0 88.701927166324822 -4.1361772312466201 0 0 0 0 397.79177263804013 -11.192249624577471 0 -11.192249624577471 -8.5850594284438557 0 0 0 0 208.0056597207149 39.170845885645576 0 39.170845885645576 41.203394047631264 0 0 0 0 178.29934027096897 101.77880348371809 0 101.77880348371809 143.59846922232828 0 0 0 0 366.3047914460185 80.668677250104565 0 80.668677250104565 32.061060726999813 0 0 0 0 558.43516499536054 216.05905689446627 0 216.05905689446627 -55.442870741331262 0 0 0 0 377.0838569234038 56.509407447144667 0 56.509407447144667 0.2497365862708989 0 0 0 0 69.026866038417211 -30.745518307845941 0 -30.745518307845941 134.84190929014585 0 0 0 0 135.56423742388142 -66.782842673284748 0 -66.782842673284748 0.10609529299865983 0 0 0 0 94.611767172100372 -27.050482090706737 0 -27.050482090706737 2.189409562160904 0 0 0 0 17.884515013385681 -61.357388036857174 0 -61.357388036857174 50.847865897884731 0 0 0 0 84.11049012804142 -22.842450602835925 0 -22.842450602835925 69.425347873537248 0 0 0 0 37.711007275240263 11.194059979884287 0 11.194059979884287 53.680554290070177 0 0 0 0 81.378066938923439 29.291990106826688 0 29.291990106826688 85.835608268625947 0 0 0 0 32.015331617656557 -30.977533559809672 0 -30.977533559809672 9.6139718034664838 0 0 0 0 -8.3993719407735625 -21.773801527695241 0 -21.773801527695241 165.77292018901426 0 0 0 0 28.879597450756691 -27.910867633847488 0 -27.910867633847488 7.6805473880620161 0 0 0 0 -11.306996669562068 -3.7184848130200407 0 -3.7184848130200407 57.478028965534577 0 0 0 0 12.417908431176329 2.954141643645471 0 2.954141643645471 60.576177524795639 0 0 0 0 -21.739066056208685 -0.8527118426936795 0 -0.8527118426936795 60.439587747698766 0 0 0 0 -19.040097527875332 -11.919682535964057 0 -11.919682535964057 75.888616530165564 0 0 0 0 -3.5624345514370361 -7.1489156345357969 0 -7.1489156345357969 17.184386107679529 0 0 0 0 4.8580075550707988 -26.743608977592885 0 -26.743608977592885 61.816517318578917 0 0 0 0 14.011063628085642 -2.3703974657489084 0 -2.3703974657489084 -0.35601586812416564 0 0 0 0 -96.518961218273034 -69.146743636677911 0 -69.146743636677911 5.5379313940675274 0 0 0 0 7.0048412180767627 -33.913789345173313 0 -33.913789345173313 -16.750557481177566 0 0 0 0 11.145938697144608 -13.403656532646266 0 -13.403656532646266 1.1980077846846946 0 0 0 0 -29.127863618443371 -73.628388447570217 0 -73.628388447570217 6.6432120512322399 0 0 0 0 35.131035495071046 -15.573683373724649 0 -15.573683373724649 -5.3373847626812676 0 0 0 0 8.375400069608645 -16.441273575780087 0 -16.441273575780087 -0.13264024717921075 0 0 0 0 52.436853955078732 -33.72259029016611 0 -33.72259029016611 3.1236817825586058 0 0 0 0 22.327459919200919 -30.874817435713737 0 -30.874817435713737 -34.234702029635287 0 0 0 0 18.714086942331051 -25.934397562204595 0 -25.934397562204595 -33.570463261168953 0 0 0 0 39.618937935068971 -57.968874839018667 0 -57.968874839018667 8.0061623199570136 0 0 0 0 16.217571575983328 -11.641687672282018 0 -11.641687672282018 -5.3793632081531753 0 0 0 0 1.6340489424096702 -12.457150565557441 0 -12.457150565557441 2.1418368900655249 0 0 0 0 13.655776334101574 -27.265079874710416 0 -27.265079874710416 18.107331875288878 0 0 0 0 26.486665771706612 -10.199792064767394 0 -10.199792064767394 -3.645782208650644 0 0 0 0 15.339525395353292 -5.3191435046702509 0 -5.3191435046702509 -1.7242450821798954 0 0 0 0 8.0797862133913441 -7.9405344927170063 0 -7.9405344927170063 9.0654689936957311 0 0 0 0 175.69211465986882 348.01360944486487 0 348.01360944486487 268.08204778513294 0 0 0 0 1552.8827406559321 -195.17176841048189 0 -195.17176841048189 -72.309225895143982 0 0 0 0 8.2709066777521798 4.7327670546804228 0 4.7327670546804228 2.8568547265251354 0 0 0 0 125.61408510514593 -25.958326982572149 0 -25.958326982572149 -86.244178825532074 0 0 0 0 21.008938472574414 8.9642033011659379 0 8.9642033011659379 4.2405661159478534 0 0 0 0 -244.2270878519048 108.3830000217381 0 108.3830000217381 -28.728896735402031 0 0 0 0 59.143925733453216 18.806155387356519 0 18.806155387356519 -103.4456133324155 0 0 0 0 -277.25682905513531 166.72601627004633 0 166.72601627004633 415.84803607823142 0 0 0 0 458.35121550501208 -267.5196925094624 0 -267.5196925094624 -13.313521873106652 0 0 0 0 1316.4902670540323 -192.24824831046067 0 -192.24824831046067 234.33785304645289 0 0 0 0 1601.6843865424016 252.07381090336639 0 252.07381090336639 -462.29890757510555 0 0 0 0 10.37455331764869 0.048948435444178706 0 0.048948435444178706 -0.084500694903023393 0 0 0 0 96.926278249418829 391.09255207628797 0 391.09255207628797 264.99619968900981 0 0 0 0 -327.29176578008628 -246.80635394123402 0 -246.80635394123402 241.13667279488072 0 0 0 0 -181.68097432974173 -175.07640039257848 0 -175.07640039257848 -137.01220210496751 0 0 0 0 22.616152451404844 -1.7599981076330984 0 -1.7599981076330984 -0.26335919978277866 0 0 0 0 4.2141817366997145 0.68461822607810063 0 0.68461822607810063 -0.52047427522110934 0 0 0 0 41.264955274979002 2.7887423176725648 0 2.7887423176725648 -9.7663359898364064 0 0 0 0 114.39860211469932 61.736247422694063 0 61.736247422694063 1.2919800270501554 0 0 0 0 808.37600388120336 -710.97636533756827 0 -710.97636533756827 382.13899987024183 0 0 0 0 15.88788770568317 -5.3339901622727872 0 -5.3339901622727872 -2.1180093592354297 0 0 0 0 4.8508964943353021 -4.4652029094659298 0 -4.4652029094659298 3.0258335547805473 0 0 0 0 5.2116990232827618 -4.3768825632824075 0 -4.3768825632824075 0.9682195376256808 0 0 0 0 22.4801086254447 -6.2539271421055673 0 -6.2539271421055673 -2.641603478942784 0 0 0 0 14.336663421922594 -3.2378186109983429 0 -3.2378186109983429 -0.27735234330510056 0 0 0 0 26.888462821720168 -0.99544750934899184 0 -0.99544750934899184 -0.22068635296142247 0 0 0 0 15.086781714063335 -2.693809538322256 0 -2.693809538322256 1.4724453957963872 0 0 0 0 15.294171646615723 -6.0299595304832803 0 -6.0299595304832803 -0.0014792580635714699 0 0 0 0 20.202588881962583 -4.2034975843520774 0 -4.2034975843520774 -1.6215439597411572 0 0 0 0 -17.402791591376626 -27.72422328569381 0 -27.72422328569381 -23.725194828639872 0 0 0 0 2.3458576862141989 -0.48281674259703777 0 -0.48281674259703777 -0.1106555414997295 0 0 0 0 -39.749051484250231 -68.916325669837519 0 -68.916325669837519 -27.785588215935825 0 0 0 0 -26.994290436152369 -37.373699569669427 0 -37.373699569669427 0.020891945307013618 0 0 0 0 -13.224097554906621 -68.705711770588579 0 -68.705711770588579 -160.19665617759625 0 0 0 0 0.9656954692909494 -18.508950809252546 0 -18.508950809252546 -34.740600978502357 0 0 0 0 3.6365733912628571 -2.8966592377306957 0 -2.8966592377306957 0.040309713066948548 0 0 0 0 17.744868637091713 -23.03416314829434 0 -23.03416314829434 16.216276284943206 0 0 0 0 -2.1113875319267663 -2.8406371689301295 0 -2.8406371689301295 1.399017052311839 0 0 0 0 -8.9552608372177929 -21.59722602739653 0 -21.59722602739653 -20.043901034811384 0 0 0 0 -0.64976203882247319 -0.018553953375374022 0 -0.018553953375374022 0.77568922747626767 0 0 0 0 5.7558665812248364 -30.115401689664168 0 -30.115401689664168 35.516420429359641 0 0 0 0 21.754467026883503 -41.2634413080537 0 -41.2634413080537 19.583907397068117 0 0 0 0 54.567679374187719 -83.804119000505239 0 -83.804119000505239 12.849999665607129 0 0 0 0 16.311723486694973 -74.256010192116662 0 -74.256010192116662 18.197350420383032 0 0 0 0 28.690754967159592 -54.999815229420847 0 -54.999815229420847 37.274238493011879 0 0 0 0 -24.505760174593888 -71.312754132532007 0 -71.312754132532007 36.290120214640041 0 0 0 0 -106.55927687970689 -74.897322722790136 0 -74.897322722790136 -47.644416213259262 0 0 0 0 0.042060169458068231 0.19509890571401378 0 0.19509890571401378 0.54316984626129361 0 0 0 0 -5.2150960193685023 -39.556920754988226 0 -39.556920754988226 88.565609552559124 0 0 0 0 16.794764919788577 -129.41176718905265 0 -129.41176718905265 -140.85048503465163 0 0 0 0 7.0695857732789591 -111.39971849377356 0 -111.39971849377356 -1.3071814225379512 0 0 0 0 11.249431660864502 -83.327001289903876 0 -83.327001289903876 -9.6762517767854632 0 0 0 0 53.84881315151506 -84.555744178207831 0 -84.555744178207831 -55.391538597467331 0 0 0 0 -0.8247994844277855 -73.98462097419025 0 -73.98462097419025 -13.128588165071761 0 0 0 0 -53.236372307816055 -16.01486144749623 0 -16.01486144749623 -73.416537229212736 0 0 0 0 -94.943455323897069 -79.140552258867757 0 -79.140552258867757 -38.130623073702154 0 0 0 0 -24.447249896969879 -59.896458231945722 0 -59.896458231945722 -33.58105824223081 0 0 0 0 -25.468463653931394 -33.366674736258602 0 -33.366674736258602 -15.570440945867869 0 0 0 0 56.942653038277058 -77.195282223036727 0 -77.195282223036727 -0.16230517204802239 0 0 0 0 143.40632891256246 -84.879064996829811 0 -84.879064996829811 -28.112089970093081 0 0 0 0 53.472875139344978 -83.010136449533064 0 -83.010136449533064 11.356469723573127 0 0 0 0 185.16406380788248 -42.531410621807396 0 -42.531410621807396 -5.7080347871312256 0 0 0 0 180.93591355130775 -33.212544814847703 0 -33.212544814847703 61.728529231728487 0 0 0 0 186.09424090923858 -85.136700854650059 0 -85.136700854650059 -17.91923266305929 0 0 0 0 180.64494525513692 -66.24496296928865 0 -66.24496296928865 17.278098515008253 0 0 0 0 110.04619838455983 -103.23728264819979 0 -103.23728264819979 -15.259311188102004 0 0 0 0 110.2275199447904 -100.32881189701033 0 -100.32881189701033 25.07598386645725 0 0 0 0 54.091918317964883 -86.035670464531307 0 -86.035670464531307 10.641212242901929 0 0 0 0 66.01162919253693 -93.451748057418285 0 -93.451748057418285 11.781507899983978 0 0 0 0 110.73325012124769 -83.188964762874491 0 -83.188964762874491 -4.4743591690285029 0 0 0 0 111.45537452817371 -78.315388795716615 0 -78.315388795716615 -11.888946423682057 0 0 0 0 160.65963653449944 -72.575308351724971 0 -72.575308351724971 -25.927680528480323 0 0 0 0 168.35925539215168 -51.990995818573154 0 -51.990995818573154 -56.653085796173627 0 0 0 0 141.19653551178635 -23.292185551433022 0 -23.292185551433022 -65.700904381235716 0 0 0 0 201.83450842603634 -42.693848519350695 0 -42.693848519350695 -59.548190842022791 0 0 0 0 98.898086577406502 -54.066405083544169 0 -54.066405083544169 -31.412591274702152 0 0 0 0 95.299030813988793 -61.772590286990933 0 -61.772590286990933 -8.4568258763434869 0 0 0 0 132.18628434621496 -44.347508863641792 0 -44.347508863641792 -33.052557543538342 0 0 0 0 70.285438889841316 -48.087352419206468 0 -48.087352419206468 -12.027400904070323 0 0 0 0 70.155682538776091 -46.820410359765589 0 -46.820410359765589 -5.7753699660884195 0 0 0 0 51.716751306390506 -32.198861197455585 0 -32.198861197455585 1.2680838497386731 0 0 0 0 54.196978192208917 -49.086257122912855 0 -49.086257122912855 6.1149342756320948 0 0 0 0 25.638773980885162 -23.61028223664357 0 -23.61028223664357 5.6273762137111589 0 0 0 0 36.253929167287424 -43.908886383740693 0 -43.908886383740693 20.001044283532337 0 0 0 0 75.500488643854624 -62.69587985018677 0 -62.69587985018677 -8.3689584442356022 0 0 0 0 54.336232589965221 -67.617664324601492 0 -67.617664324601492 14.433108450334998 0 0 0 0 56.914070000071661 -66.955576471776538 0 -66.955576471776538 13.752272696396176 0 0 0 0 45.901020592806162 -45.768987550613929 0 -45.768987550613929 4.9262337114451498 0 0 0 0 29.973251868752413 -11.240642244837781 0 -11.240642244837781 7.6699569869060156 0 0 0 0 0.11967952369911927 0.0079129447476447012 0 0.0079129447476447012 -0.13993269908813627 0 0 0 0 -24.74200777556689 18.756596892750984 0 18.756596892750984 -16.225263682473781 0 0 0 0 31.60687035729643 -29.638267544091931 0 -29.638267544091931 -23.800141031863845 0 0 0 0 7.0598953219159739 6.4978692158027087 0 6.4978692158027087 -10.530730857156449 0 0 0 0 39.876591328749782 -14.897681146565404 0 -14.897681146565404 1.3917188316775402 0 0 0 0 9.6091500887960137 6.3068964700539079 0 6.3068964700539079 11.258734734467357 0 0 0 0 -23.986282578771352 -23.601827875073866 0 -23.601827875073866 -5.6505342030320893 0 0 0 0 8.5391644740402626 -8.5670684730753681 0 -8.5670684730753681 -7.7589678602115679 0 0 0 0 -14.477825668305741 -9.4978214101716159 0 -9.4978214101716159 -0.0056153825786652246 0 0 0 0 5.9369721356010814 -1.8524550449023707 0 -1.8524550449023707 -0.87539602786617632 0 0 0 0 309.31656194607058 316.4407943689132 0 316.4407943689132 290.5558333872325 0 0 0 0 -0.49054950039209189 -0.26573989536761644 0 -0.26573989536761644 -0.11503734143726245 0 0 0 0 -1.4416176143276971 -19.780229999173276 0 -19.780229999173276 -2.4119787686502043 0 0 0 0 397.53108483714459 16.361820610713977 0 16.361820610713977 -5.4320404649483862 0 0 0 0 209.60869857449143 114.69214728692316 0 114.69214728692316 158.19532894497445 0 0 0 0 585.6011165183445 414.99397919000137 0 414.99397919000137 347.76893565035215 0 0 0 0 1.8711869878203515 -0.26998344826182574 0 -0.26998344826182574 -0.16327408930300821 0 0 0 0 0.46278663637116324 0.22754959548197462 0 0.22754959548197462 0.046213196736321252 0 0 0 0 6.6578283005510457 -0.96772520066483114 0 -0.96772520066483114 -0.018786642418384205 0 0 0 0 576.22629415031452 54.534368700859858 0 54.534368700859858 11.295471342555459 0 0 0 0 345.92020831862465 -67.971258400679261 0 -67.971258400679261 0.67392282096760614 0 0 0 0 292.5342600808217 -91.050371301265159 0 -91.050371301265159 7.4465124509275711 0 0 0 0 256.18722903063463 -28.836203485464551 0 -28.836203485464551 82.338685305382555 0 0 0 0 239.4590025478974 -95.502296525940437 0 -95.502296525940437 -31.286487419726427 0 0 0 0 278.65522283645987 -37.884978244612967 0 -37.884978244612967 -94.104218513638443 0 0 0 0 197.24023856571876 13.330253209617808 0 13.330253209617808 -82.978487682374634 0 0 0 0 199.70811128831701 2.6886740846907742 0 2.6886740846907742 -105.25875705275834 0 0 0 0 183.04662998279491 95.106544134129777 0 95.106544134129777 -208.66874228000529 0 0 0 0 124.7895230371505 95.921174905514135 0 95.921174905514135 -62.130549640930894 0 0 0 0 243.94207268593254 42.911770039918736 0 42.911770039918736 -343.01125067126827 0 0 0 0 247.88650236326794 -44.542420617871073 0 -44.542420617871073 -105.55571576701016 0 0 0 0 222.20872245395731 -12.925814053027636 0 -12.925814053027636 8.1852809927135013 0 0 0 0 -72.799813631761936 8.9431781383291309 0 8.9431781383291309 215.28775218476466 0 0 0 0 372.62601787848325 148.13363094734487 0 148.13363094734487 -438.59810579842542 0 0 0 0 37.401918258226942 214.64438331263068 0 214.64438331263068 -200.48298462366301 0 0 0 0 -49.269923266176193 96.488932972469172 0 96.488932972469172 12.30323313305189 0 0 0 0 6.1334914453908596 1.8868966441425243 0 1.8868966441425243 -0.88193003106513679 0 0 0 0 -154.98249472852331 -180.74840898409457 0 -180.74840898409457 -154.11257361115349 0 0 0 0 19.11113686693821 5.9124745961586598 0 5.9124745961586598 -5.0814116111812746 0 0 0 0 -25.027681873791153 -222.42067240859433 0 -222.42067240859433 -245.74825043742703 0 0 0 0 217.98090761949425 -2.2994843161282006 0 -2.2994843161282006 -100.84892409725808 0 0 0 0 -37.314078873887411 -23.753777091755012 0 -23.753777091755012 26.163105912006358 0 0 0 0 -29.902012344242394 -107.42283895018033 0 -107.42283895018033 -59.97425106884566 0 0 0 0 138.47741585547919 -99.020107211996219 0 -99.020107211996219 -60.036219377377435 0 0 0 0 211.19608874220285 -17.981907503435082 0 -17.981907503435082 16.976987396202276 0 0 0 0 311.92549604597298 467.34541541569371 0 467.34541541569371 246.50405664800746 0 0 0 0 418.35638591340103 350.93613951690122 0 350.93613951690122 -203.82605094486053 0 0 0 0 6.7958311211795603 -5.7795710040307142 0 -5.7795710040307142 2.1966730905441727 0 0 0 0 32.355449609633069 -34.103425173704153 0 -34.103425173704153 11.505748408287786 0 0 0 0 20.087053888011724 -14.778880702833249 0 -14.778880702833249 10.257951604716538 0 0 0 0 77.339057664386928 54.449186990691942 0 54.449186990691942 -11.542030696369466 0 0 0 0 135.10047077090712 -1.1643243282032927 0 -1.1643243282032927 -43.085603296669433 0 0 0 0 136.01755669894919 -37.202144462773958 0 -37.202144462773958 -2.2125180045732122 0 0 0 0 81.188205998743015 23.694681256854068 0 23.694681256854068 -27.066274879937353 0 0 0 0 71.333313731171074 -45.126371160586132 0 -45.126371160586132 -5.7262906620389913 0 0 0 0 83.648675660256174 -25.167877978804881 0 -25.167877978804881 -16.436544257255406 0 0 0 0 197.12841410146029 46.309645606341917 0 46.309645606341917 8.5622216512256273 0 0 0 0 54.251152658700107 -32.097433304978225 0 -32.097433304978225 -4.7733570306457951 0 0 0 0 98.317106141592376 7.7105628608202323 0 7.7105628608202323 40.289990401157411 0 0 0 0 19.823005201948796 42.059814125493375 0 42.059814125493375 -4.3505879966417371 0 0 0 0 70.107733896045829 66.956034027194846 0 66.956034027194846 -22.20390822500076 0 0 0 0 184.66738166759751 -19.582145066757448 0 -19.582145066757448 -12.735858829021709 0 0 0 0 95.536829432676313 44.46349068661857 0 44.46349068661857 -21.576922752053065 0 0 0 0 114.5960502048838 19.926928498883512 0 19.926928498883512 -26.288434653944364 0 0 0 0 273.13879649450973 -29.845341060282635 0 -29.845341060282635 -44.512776690180544 0 0 0 0 22.775764320460084 40.891696903305203 0 40.891696903305203 -6.4585927764512396 0 0 0 0 187.23362760557211 56.900353139375966 0 56.900353139375966 4.2486679206190274 0 0 0 0 131.94684591131227 -73.109845529227641 0 -73.109845529227641 28.791120581602627 0 0 0 0 100.36777082393382 34.734774954711042 0 34.734774954711042 -41.302266418523232 0 0 0 0 81.461570145387668 48.078326996872192 0 48.078326996872192 -8.5671194150338579 0 0 0 0 103.41385462742619 62.223193637299687 0 62.223193637299687 -44.309490289840141 0 0 0 0 92.436901466891868 81.309994834805366 0 81.309994834805366 -66.395084119993044 0 0 0 0 149.35978018440073 30.915297232813259 0 30.915297232813259 -88.118018494412695 0 0 0 0 116.48919178175856 39.491873754627193 0 39.491873754627193 -52.097299911692289 0 0 0 0 84.185064168821555 23.676040273957881 0 23.676040273957881 -45.83979701334556 0 0 0 0 77.46830842638883 0.53618422548885292 0 0.53618422548885292 -2.8089299823545844 0 0 0 0 84.670689283091633 33.431610682808611 0 33.431610682808611 -10.900202972543411 0 0 0 0 105.98299572788528 24.21726399051613 0 24.21726399051613 15.001574867832915 0 0 0 0 117.06000408163527 -7.8820277779573189 0 -7.8820277779573189 -14.216459370726426 0 0 0 0 73.60928444676955 37.057782955421565 0 37.057782955421565 -10.532382080599069 0 0 0 0 104.88236554681498 14.694812809617815 0 14.694812809617815 -15.731953946310114 0 0 0 0 95.374194640500775 10.075092009354698 0 10.075092009354698 -3.4401157134730909 0 0 0 0 111.30027043259906 -3.7176934564184236 0 -3.7176934564184236 -54.419548371698312 0 0 0 0 149.42489667402697 -23.71523339641044 0 -23.71523339641044 -9.8619048182742972 0 0 0 0 49.616210145657035 -15.066653982110552 0 -15.066653982110552 -10.09909842848459 0 0 0 0 229.04742208602329 21.085113945145508 0 21.085113945145508 -25.194149885679508 0 0 0 0 78.092683067035935 34.86336669851903 0 34.86336669851903 -20.439089119494142 0 0 0 0 142.32729283527442 11.863746168656689 0 11.863746168656689 -18.170533297111206 0 0 0 0 133.46556328391671 -9.6175909405287712 0 -9.6175909405287712 -67.175533647928205 0 0 0 0 127.898834029922 10.759477638794579 0 10.759477638794579 -21.965560348056897 0 0 0 0 75.129564631111862 -27.302486840726374 0 -27.302486840726374 -24.998850786686035 0 0 0 0 72.611215851269662 -26.996585012994501 0 -26.996585012994501 -4.2755680432951522 0 0 0 0 72.64109362992167 -26.162023545122906 0 -26.162023545122906 -6.6462547881981209 0 0 0 0 25.290623715205584 -28.984235186116166 0 -28.984235186116166 22.981587633563322 0 0 0 0 74.6222296707856 -21.430741167027691 0 -21.430741167027691 -2.7311799062065347 0 0 0 0 65.497255545880762 -27.261730274680417 0 -27.261730274680417 6.2010654896015467 0 0 0 0 65.077726967159379 -35.480635793052457 0 -35.480635793052457 -9.2386984129427674 0 0 0 0 71.542475399794057 -40.556917124233451 0 -40.556917124233451 -5.3315486926048123 0 0 0 0 71.416333416476846 -42.149456846791509 0 -42.149456846791509 -12.183208487460625 0 0 0 0 86.277252877513092 -30.425790326672484 0 -30.425790326672484 -37.175914314232614 0 0 0 0 88.172433881074539 -39.042052116355308 0 -39.042052116355308 -19.696866627053851 0 0 0 0 129.43072301567736 -17.067973776893155 0 -17.067973776893155 -53.107454033774275 0 0 0 0 121.60313140432118 -16.909450414128514 0 -16.909450414128514 -46.631654978896087 0 0 0 0 73.674055562994909 2.3732673152135249 0 2.3732673152135249 -45.376975137596986 0 0 0 0 103.8532855643316 6.2484497641616485 0 6.2484497641616485 -68.679371017713493 0 0 0 0 79.262542630065582 -21.306837477304043 0 -21.306837477304043 -19.778639463202467 0 0 0 0 48.464998101524543 -0.9639261289253227 0 -0.9639261289253227 18.383922121688556 0 0 0 0 79.184345016544853 7.6171477979076503 0 7.6171477979076503 1.265231465198706 0 0 0 0 101.32022510003299 8.68736744689636 0 8.68736744689636 -66.67434417842 0 0 0 0 83.615683078140137 5.0073080745482912 0 5.0073080745482912 17.073243905751497 0 0 0 0 56.471432519132065 -14.541272989563026 0 -14.541272989563026 -9.017234673755592 0 0 0 0 87.019632662806544 45.82442921760321 0 45.82442921760321 37.511355378668213 0 0 0 0 58.840359189780429 26.894984357946669 0 26.894984357946669 13.744694410313514 0 0 0 0 64.43014522199519 19.785810947877053 0 19.785810947877053 15.429755182430654 0 0 0 0 16.64864646548952 7.5760516072183037 0 7.5760516072183037 5.0009575174958911 0 0 0 0 34.614605831870222 20.316209606977154 0 20.316209606977154 15.733651491083007 0 0 0 0 61.933227924438597 4.2371422505090663 0 4.2371422505090663 -0.60328214615299203 0 0 0 0 31.87985420614055 5.1324187908522134 0 5.1324187908522134 -4.1322164164904978 0 0 0 0 73.894171381922206 -12.985810836068367 0 -12.985810836068367 -25.900893956973164 0 0 0 0 82.379279608780053 32.343805742483013 0 32.343805742483013 -26.466167666916874 0 0 0 0 184.71375831062323 83.670735681581391 0 83.670735681581391 62.460841777993664 0 0 0 0 -1.4437982523615034 -1.0222809599985112 0 -1.0222809599985112 -0.19685278148549301 0 0 0 0 60.164783547370462 31.323380870975598 0 31.323380870975598 29.916621004974786 0 0 0 0 181.29707066381525 101.37458520859764 0 101.37458520859764 14.196782020489536 0 0 0 0 182.11437056181603 66.66584183180521 0 66.66584183180521 30.545428607474605 0 0 0 0 8.714559010738796 -1.8000817159734908 0 -1.8000817159734908 16.807797018736807 0 0 0 0 -9.9717880704195068 -3.5297247932088709 0 -3.5297247932088709 10.312174223557751 0 0 0 0 64.247680439089891 -8.149031485650994 0 -8.149031485650994 22.447533098126769 0 0 0 0 46.639497932446432 -16.453469240798967 0 -16.453469240798967 -1.4765694009981756 0 0 0 0 125.41969885410799 35.743639171073028 0 35.743639171073028 17.813095371539021 0 0 0 0 119.7381560088179 39.048835037275239 0 39.048835037275239 16.352076087569003 0 0 0 0 15.963294310537819 2.8844331942374026 0 2.8844331942374026 0.32365037633257288 0 0 0 0 -73.919853508115921 32.100936361353888 0 32.100936361353888 26.079233584441681 0 0 0 0 -65.839497304681572 34.511546698506208 0 34.511546698506208 9.0373307758418377 0 0 0 0 -70.380077967769466 88.684665672438314 0 88.684665672438314 -9.6390836040095564 0 0 0 0 17.631327256098785 2.116650212639783 0 2.116650212639783 -2.7775346913912742 0 0 0 0 47.677121679995849 30.527356581726295 0 30.527356581726295 8.0566256225620627 0 0 0 0 95.645797619774385 26.242276130833261 0 26.242276130833261 -13.658626760980042 0 0 0 0 78.48912251607544 64.739251026413967 0 64.739251026413967 -53.134705454404866 0 0 0 0 14.841188871392333 -4.1514164744643978 0 -4.1514164744643978 11.042825219017132 0 0 0 0 80.952472301767557 12.115104887854159 0 12.115104887854159 15.691140812453341 0 0 0 0 90.449805833341088 25.449257146001059 0 25.449257146001059 18.604502668902569 0 0 0 0 68.717425962640846 18.120720802086453 0 18.120720802086453 24.286484964746251 0 0 0 0 45.251856502449812 30.64383033475923 0 30.64383033475923 9.4870190515533892 0 0 0 0 72.579640011543233 7.4524818757806486 0 7.4524818757806486 13.556136257991056 0 0 0 0 73.204380534196389 14.902189570728297 0 14.902189570728297 18.894153144933625 0 0 0 0 67.991952903483252 3.1865428299607288 0 3.1865428299607288 3.2890001534537987 0 0 0 0 62.059246957963069 -3.8374793768144997 0 -3.8374793768144997 -9.2284578665642059 0 0 0 0 75.04895097847475 20.140610758655612 0 20.140610758655612 6.496341173890869 0 0 0 0 72.129023757683171 18.223587567189952 0 18.223587567189952 24.372850367339197 0 0 0 0 82.347089771519677 12.706414914885613 0 12.706414914885613 16.067360288638156 0 0 0 0 18.980915968663538 -2.288647501684963 0 -2.288647501684963 13.889868345033658 0 0 0 0 212.67361221397005 -421.75774737082247 0 -421.75774737082247 -190.25623027365327 0 0 0 0 99.534571478296129 24.958982428966465 0 24.958982428966465 19.683761546258438 0 0 0 0 17.587075770410593 73.236176251326413 0 73.236176251326413 29.255540126598817 0 0 0 0 69.19657484076015 33.935660814904679 0 33.935660814904679 -44.97657074735173 0 0 0 0 55.712481606716167 38.748439798873441 0 38.748439798873441 13.907587500688937 0 0 0 0 35.077440601076887 94.880012834596585 0 94.880012834596585 91.097812980360459 0 0 0 0 13.705723056726129 57.621945346526672 0 57.621945346526672 26.698290287501095 0 0 0 0 13.304176863543304 11.813547337093958 0 11.813547337093958 17.371261749583002 0 0 0 0 80.169163294533064 27.078788442086307 0 27.078788442086307 22.1594857342061 0 0 0 0 161.50616777071264 673.49969888005398 0 673.49969888005398 260.11977001728155 0 0 0 0 912.76585244887974 1299.3908264912388 0 1299.3908264912388 781.26380217310361 0 0 0 0 46.09850746937903 33.170587783886539 0 33.170587783886539 21.767282932410847 0 0 0 0 6.5295205651711967 2.4304241180722528 0 2.4304241180722528 1.0280995637093442 0 0 0 0 709.39215742051238 -35.819101216314721 0 -35.819101216314721 70.614546978213184 0 0 0 0 212.40149300021585 -35.047428267365831 0 -35.047428267365831 252.28211021281822 0 0 0 0 -55.941139747650595 125.49384274275508 0 125.49384274275508 357.8564345532659 0 0 0 0 -33.27252147757099 58.605704948174207 0 58.605704948174207 218.49458186952188 0 0 0 0 54.815986696528853 71.501286723665999 0 71.501286723665999 23.824355899374495 0 0 0 0 59.686510365070717 67.597851609521967 0 67.597851609521967 -12.418757448060205 0 0 0 0 62.363371716724942 42.991268289907566 0 42.991268289907566 -22.008583608393565 0 0 0 0 271.39145703332542 155.57029862116639 0 155.57029862116639 -120.99994647767016 0 0 0 0 160.38123363174964 23.342310910117021 0 23.342310910117021 -76.825984878545796 0 0 0 0 163.68913722048183 25.184837901098319 0 25.184837901098319 -76.533025040139364 0 0 0 0 157.9392802483344 42.844910549556175 0 42.844910549556175 -30.292749867402563 0 0 0 0 137.07424847444054 24.804225105880505 0 24.804225105880505 -45.020240921255208 0 0 0 0 23.349873242803351 -0.92129439994070594 0 -0.92129439994070594 -3.9008964382053897 0 0 0 0 -28.5655036628159 97.697551643121756 0 97.697551643121756 -40.67091972844878 0 0 0 0 401.99538416512951 -27.297610423608944 0 -27.297610423608944 -82.313448525583453 0 0 0 0 -1.8456431711624681 3.1865859269759511 0 3.1865859269759511 -2.5997489671658922 0 0 0 0 297.46903058175303 -70.748453056907465 0 -70.748453056907465 -26.522297019128928 0 0 0 0 176.22864913617377 -16.402274265497908 0 -16.402274265497908 56.616478777115844 0 0 0 0 246.28406538416129 -15.232568328189927 0 -15.232568328189927 -28.590150534897475 0 0 0 0 83.287939585716231 62.982504426832293 0 62.982504426832293 60.128582718132748 0 0 0 0 140.51871382884565 121.72640849668232 0 121.72640849668232 -33.75473113188491 0 0 0 0 79.678232667742961 51.59201433802258 0 51.59201433802258 -0.1421940899470826 0 0 0 0 106.21430145516206 6.2060024461393368 0 6.2060024461393368 32.701638101044409 0 0 0 0 99.150276308646426 35.560043850202874 0 35.560043850202874 49.322091170215117 0 0 0 0 67.057569663059567 24.107742020521933 0 24.107742020521933 0.17963582785553278 0 0 0 0 45.659013719778159 105.69441211286403 0 105.69441211286403 -5.4228007984766009 0 0 0 0 22.741687526460737 26.992626674382564 0 26.992626674382564 -15.324448472151289 0 0 0 0 193.46749780961454 60.796539839363845 0 60.796539839363845 -80.710490936604401 0 0 0 0 158.15727899928606 88.398235867081212 0 88.398235867081212 -25.369192551430842 0 0 0 0 102.94089989252097 91.988600463404111 0 91.988600463404111 -7.8290524771794026 0 0 0 0 65.425816134276829 93.768599261359441 0 93.768599261359441 -2.5668019759403933 0 0 0 0 139.84655473247221 223.7136669897875 0 223.7136669897875 223.13474206842409 0 0 0 0 296.26667735182127 72.261308277696799 0 72.261308277696799 -40.207690827905708 0 0 0 0 233.63157963444974 141.28262841248704 0 141.28262841248704 -138.30181196106741 0 0 0 0 456.6561463467151 -30.883717218616653 0 -30.883717218616653 -96.075025026771357 0 0 0 0 327.50449199247487 -195.68381816487889 0 -195.68381816487889 162.66226268284382 0 0 0 0 200.56378101892551 -37.55856222071256 0 -37.55856222071256 -13.557360330511983 0 0 0 0 200.28047742216586 -20.125802492175055 0 -20.125802492175055 4.9260127559429492 0 0 0 0 407.36797128536818 21.774316457072075 0 21.774316457072075 282.35280111734551 0 0 0 0 192.62278146489552 -136.93081408288231 0 -136.93081408288231 301.66294163159841 0 0 0 0 652.87668533718534 -103.91395801779674 0 -103.91395801779674 -39.060715456733305 0 0 0 0 5.3572662829845399 3.3168880673703853 0 3.3168880673703853 -0.51506124756325899 0 0 0 0 20.787434928985022 -38.758560593813854 0 -38.758560593813854 224.15972405296316 0 0 0 0 32.195489962812644 0.95330126043052132 0 0.95330126043052132 28.902019085163829 0 0 0 0 19.981594797765865 -23.581625178999047 0 -23.581625178999047 27.177160133659982 0 0 0 0 10.65693329173223 3.8828109135091964 0 3.8828109135091964 9.5513441550920675 0 0 0 0 -341.52760077529092 -100.28608154446101 0 -100.28608154446101 250.81937918915446 0 0 0 0 16.340245901474091 -17.181937383917273 0 -17.181937383917273 33.566320434283952 0 0 0 0 49.599414328031344 -23.372027883266583 0 -23.372027883266583 38.062784015374518 0 0 0 0 1522.159949919238 -286.16482925039782 0 -286.16482925039782 -46.113091073028045 0 0 0 0 224.04866553037937 142.39512203997174 0 142.39512203997174 -60.857188800573567 0 0 0 0 225.5187513159633 -23.254909245205219 0 -23.254909245205219 17.047611952755688 0 0 0 0 534.53699645642337 -171.62891503025639 0 -171.62891503025639 -27.255425904945469 0 0 0 0 710.95267762744334 19.182267897933343 0 19.182267897933343 -115.94689822916735 0 0 0 0 806.50366606623902 -396.42087553371812 0 -396.42087553371812 57.526553607827736 0 0 0 0 38.797312267396578 10.30922121189047 0 10.30922121189047 1.2777734997437058 0 0 0 0 266.02841488907143 -118.05802652342663 0 -118.05802652342663 95.300667964801505 0 0 0 0 225.44872196054348 -299.16314634526316 0 -299.16314634526316 347.19319869399169 0 0 0 0 463.86418955931003 -207.55965998218608 0 -207.55965998218608 -21.578048779089841 0 0 0 0 447.46472270471168 -121.92211736462144 0 -121.92211736462144 82.133613155705461 0 0 0 0 80.491545252172727 -3.8280190251630302 0 -3.8280190251630302 11.241239179540571 0 0 0 0 19.497190324076904 -3.7973655524036047 0 -3.7973655524036047 17.628464818120737 0 0 0 0 71.87729347676941 29.54827982956067 0 29.54827982956067 30.444782276833848 0 0 0 0 51.632057864056179 28.189168823856811 0 28.189168823856811 0.58447349517028258 0 0 0 0 78.63893726297465 1.1057888747668585 0 1.1057888747668585 29.122846876417498 0 0 0 0 50.192928112170193 37.607013658078813 0 37.607013658078813 8.7536574146906787 0 0 0 0 42.332714720287186 15.773212887346972 0 15.773212887346972 -23.879985950365153 0 0 0 0 84.58546471549198 29.547287671657614 0 29.547287671657614 5.4306102237496816 0 0 0 0 40.238532865245361 25.762468261827053 0 25.762468261827053 93.589027606944001 0 0 0 0 33.719296298204426 49.563764664824248 0 49.563764664824248 8.3208575173066492 0 0 0 0 -150.75714828030686 -178.45061659584962 0 -178.45061659584962 38.275710519024869 0 0 0 0 59.05797366594561 32.559482155778596 0 32.559482155778596 29.740824347083162 0 0 0 0 -539.90816397120943 -706.14403618035067 0 -706.14403618035067 -419.29000149818239 0 0 0 0 78.927595844208554 35.130262538632451 0 35.130262538632451 -3.7788650987295114 0 0 0 0 -9.0232821218087338 -146.47119081396522 0 -146.47119081396522 42.432583472422266 0 0 0 0 2.9086595491441756 0.32405827519851016 0 0.32405827519851016 -0.105929433872614 0 0 0 0 219.44815123500302 68.998453973106734 0 68.998453973106734 88.576422550427424 0 0 0 0 23.547328396976837 5.5981705727958229 0 5.5981705727958229 -1.2524871720832813 0 0 0 0 49.855917360507391 31.373064620570098 0 31.373064620570098 17.897836102488906 0 0 0 0 67.331103754462674 23.14261491512616 0 23.14261491512616 25.974911886572499 0 0 0 0 -16.985280659235286 -16.276014708755838 0 -16.276014708755838 73.859848018711489 0 0 0 0 -7.5618496456120354 1.1017883226890035 0 1.1017883226890035 22.437749127212836 0 0 0 0 67.135464253635291 26.036456748500882 0 26.036456748500882 31.192983096610078 0 0 0 0 70.672539167011564 24.393773285120915 0 24.393773285120915 31.929251941532812 0 0 0 0 66.995096287068009 28.499613507123968 0 28.499613507123968 39.626853653092439 0 0 0 0 81.087961418936175 32.120901460120422 0 32.120901460120422 36.329097838714915 0 0 0 0 7.8604117864928895 -6.9286006506016804 0 -6.9286006506016804 14.393423851140597 0 0 0 0 28.829393115003768 -0.042167602073277521 0 -0.042167602073277521 16.444292057075472 0 0 0 0 80.841358792094979 16.762896032417302 0 16.762896032417302 37.28983092812814 0 0 0 0 83.092402019537985 38.785221152139457 0 38.785221152139457 58.160752126066654 0 0 0 0 53.698649512916745 25.142445503991894 0 25.142445503991894 38.679406826711329 0 0 0 0 2.9148033854536521 1.5264176107140273 0 1.5264176107140273 30.55085560646987 0 0 0 0 46.551952570072899 14.393431795573406 0 14.393431795573406 43.405898216026799 0 0 0 0 54.451546500989934 23.048623450690457 0 23.048623450690457 39.309144155476588 0 0 0 0 59.439714671254478 6.1241574988288789 0 6.1241574988288789 21.228717644306926 0 0 0 0 31.101134851023744 19.226970465045753 0 19.226970465045753 18.718252939737038 0 0 0 0 53.170810185994924 20.073933932043701 0 20.073933932043701 46.692509873903418 0 0 0 0 73.304692127730959 -0.85563249504298255 0 -0.85563249504298255 16.994992560177479 0 0 0 0 23.378965899944518 -12.425477339695391 0 -12.425477339695391 11.170892644774927 0 0 0 0 40.80311190777411 -9.625452709972933 0 -9.625452709972933 21.29089785740598 0 0 0 0 44.060162977279106 -2.9987782472503568 0 -2.9987782472503568 14.400136433171156 0 0 0 0 3.944795674906473 -4.9320362714293466 0 -4.9320362714293466 0.18360888725965907 0 0 0 0 52.050201930964249 8.9673611195285048 0 8.9673611195285048 5.6622753796546021 0 0 0 0 31.621444431533831 3.4850691115781345 0 3.4850691115781345 4.0701735031923132 0 0 0 0 59.705398139954923 17.573048135941463 0 17.573048135941463 7.2345108449935651 0 0 0 0 54.57034895953575 -4.3905382323827098 0 -4.3905382323827098 15.815079321939265 0 0 0 0 9.985587330140369 1.260224255788593 0 1.260224255788593 0.35029039452152233 0 0 0 0 31.861668960773386 26.377554827327003 0 26.377554827327003 48.114386593231757 0 0 0 0 80.986461206001877 -18.807004794045838 0 -18.807004794045838 10.41222357793049 0 0 0 0 72.386237671489653 8.612066332422728 0 8.612066332422728 25.013768432907909 0 0 0 0 49.118638350577385 9.4640293567272238 0 9.4640293567272238 2.0789253189022929 0 0 0 0 37.387844369069128 6.4673915781598765 0 6.4673915781598765 1.4445984473874489 0 0 0 0 63.022365691751475 -4.132136286115383 0 -4.132136286115383 1.9536929216510543 0 0 0 0 55.762131264383243 -21.907331676931335 0 -21.907331676931335 18.090243287977501 0 0 0 0 73.094834801988327 -17.352972321634297 0 -17.352972321634297 10.181366614706349 0 0 0 0 51.039208422982483 -19.150580041350622 0 -19.150580041350622 54.495506317167383 0 0 0 0 96.657758436431322 -40.28442030214137 0 -40.28442030214137 19.571061585033021 0 0 0 0 163.13333877873811 71.028055867386684 0 71.028055867386684 -58.951512644371178 0 0 0 0 54.101964578742525 24.008507733651527 0 24.008507733651527 -6.2241504727819077 0 0 0 0 113.15915403391682 30.392169596146346 0 30.392169596146346 -58.406968444080121 0 0 0 0 125.69237765492289 -21.799830579062473 0 -21.799830579062473 -8.1826890066222404 0 0 0 0 204.35444290302985 59.468949069421797 0 59.468949069421797 -3.4741162332938984 0 0 0 0 -5.5208502930327086 29.533145247643915 0 29.533145247643915 34.219278099179064 0 0 0 0 20.657410372204197 10.080794334873943 0 10.080794334873943 -13.281859181912075 0 0 0 0 134.42983290100346 70.838938693261184 0 70.838938693261184 -58.35714265372917 0 0 0 0 135.56531988526694 128.88655520815701 0 128.88655520815701 28.973357789996953 0 0 0 0 129.48430184419249 68.907051461278286 0 68.907051461278286 -86.205741459805722 0 0 0 0 83.346913569454046 62.21856460573963 0 62.21856460573963 -54.752369871588598 0 0 0 0 11.713119522188208 57.58488160662273 0 57.58488160662273 6.587574488881728 0 0 0 0 50.497317722821364 27.494339254688519 0 27.494339254688519 -3.2257405927986582 0 0 0 0 14.97149764867936 79.02171144928252 0 79.02171144928252 60.768068947772917 0 0 0 0 12.124493938696105 18.545532315404671 0 18.545532315404671 2.348342366363795 0 0 0 0 46.009155568222923 22.758929773851378 0 22.758929773851378 -97.923841110559806 0 0 0 0 11.864126168831717 -101.74984577674331 0 -101.74984577674331 -71.732521069568975 0 0 0 0 -34.034933621711389 33.061842988687204 0 33.061842988687204 30.315434828982688 0 0 0 0 5.395762780928635 16.461036368847999 0 16.461036368847999 30.361545648938773 0 0 0 0 102.68317740710336 -100.6629889671749 0 -100.6629889671749 18.455914362821204 0 0 0 0 9.2851188894492225 140.43206317423892 0 140.43206317423892 230.91018305019315 0 0 0 0 -29.887426544708433 -118.55099862154384 0 -118.55099862154384 51.245745770935173 0 0 0 0 -266.81362649606308 -236.12120732326184 0 -236.12120732326184 321.50995374302693 0 0 0 0 -46.159886858280515 69.161550848048137 0 69.161550848048137 67.672329531600553 0 0 0 0 4.0929327189514879 -56.765676575595535 0 -56.765676575595535 224.95285633493495 0 0 0 0 -144.32328430880443 -37.637081333752576 0 -37.637081333752576 124.96472044450638 0 0 0 0 -6.0074500032933429 -14.576959795023868 0 -14.576959795023868 117.38822703236656 0 0 0 0 -24.692740177735686 -40.142294785975537 0 -40.142294785975537 135.7214057405854 0 0 0 0 44.47321184023167 -42.950999393620805 0 -42.950999393620805 159.04841046966249 0 0 0 0 97.420989003527211 -78.406081705656106 0 -78.406081705656106 63.624654954117432 0 0 0 0 -48.291966670949478 -76.210217888615261 0 -76.210217888615261 122.64974377922772 0 0 0 0 31.042426941770827 -65.492728926994459 0 -65.492728926994459 122.38847305666059 0 0 0 0 151.06491841509705 -28.313947972750611 0 -28.313947972750611 160.54847111842173 0 0 0 0 8.5473832095885882 -89.782247884022581 0 -89.782247884022581 180.19337817878704 0 0 0 0 -7.7830350443909992 -12.73258030899342 0 -12.73258030899342 161.61077987051249 0 0 0 0 88.978664021153236 78.803059996564116 0 78.803059996564116 2.1093807587330957 0 0 0 0 116.30105030545383 -38.020594680127033 0 -38.020594680127033 45.164677454410253 0 0 0 0 6.3822755358793302 1.4568649559332272 0 1.4568649559332272 0.0046849516769658095 0 0 0 0 21.758413639610808 44.887950283249211 0 44.887950283249211 41.719342069336562 0 0 0 0 84.149082259144052 -105.72955538357564 0 -105.72955538357564 15.7470656362093 0 0 0 0 164.68437365190766 -99.552593923101995 0 -99.552593923101995 -50.105830230508218 0 0 0 0 113.39291158056579 11.155550998064108 0 11.155550998064108 -3.0488944453430946 0 0 0 0 137.02768931729952 23.470308881402161 0 23.470308881402161 -59.640812345757695 0 0 0 0 -157.43792309457785 492.21420427637167 0 492.21420427637167 -724.37748173986574 0 0 0 0 29.065481988343265 -6.0564838819909141 0 -6.0564838819909141 -13.064323192716788 0 0 0 0 177.88620703204651 -116.29304381910697 0 -116.29304381910697 156.13095212709231 0 0 0 0 163.50515952582646 -61.624619068668835 0 -61.624619068668835 58.618969500967069 0 0 0 0 153.37365860849968 -53.566945324630069 0 -53.566945324630069 139.27710985376507 0 0 0 0 92.648055588884745 -89.458913573063001 0 -89.458913573063001 47.870426967176172 0 0 0 0 175.65226863833959 -60.502193518619606 0 -60.502193518619606 19.447340841805271 0 0 0 0 170.14862324277055 -89.448105749450406 0 -89.448105749450406 9.7691691644513412 0 0 0 0 3.8287294181807852 0.72763928417081303 0 0.72763928417081303 0.059736306923197091 0 0 0 0 153.46267583424924 -95.119111433896251 0 -95.119111433896251 19.058432845055677 0 0 0 0 51.891531504687009 152.88868460425533 0 152.88868460425533 213.11632431878934 0 0 0 0 170.24488416797249 -91.026297882527615 0 -91.026297882527615 11.645519697942291 0 0 0 0 179.46824827529781 -75.926244355687231 0 -75.926244355687231 22.095968861605797 0 0 0 0 66.138138701317075 -19.834982401503794 0 -19.834982401503794 36.854478436105637 0 0 0 0 185.2184737217558 -27.662431974344372 0 -27.662431974344372 73.638084655376588 0 0 0 0 56.402978175210592 -74.050338264009952 0 -74.050338264009952 303.10078525262361 0 0 0 0 174.06365773219295 -153.41127124429977 0 -153.41127124429977 -49.756789721091991 0 0 0 0 -12.617525159410434 -167.66167222933927 0 -167.66167222933927 282.35974111608516 0 0 0 0 2.1874765477852804 2.0777485386595771 0 2.0777485386595771 1.1943551912785608 0 0 0 0 -201.28018585465907 113.18536381371541 0 113.18536381371541 209.44206612116113 0 0 0 0 -125.93390406773324 54.653795368502529 0 54.653795368502529 15.765090860793862 0 0 0 0 -110.15799676997631 153.07291832795892 0 153.07291832795892 -28.176305034878169 0 0 0 0 9.2401733642473118 -2.2297170175506835 0 -2.2297170175506835 -79.736747775865183 0 0 0 0 -10.424180840127519 71.327747101709974 0 71.327747101709974 -41.093503938878712 0 0 0 0 3.9256639283346999 4.0267778956075091 0 4.0267778956075091 2.5780920857828669 0 0 0 0 -149.76862287448603 215.4028691225235 0 215.4028691225235 -45.222225344018938 0 0 0 0 -87.901136260850762 -51.984990632764948 0 -51.984990632764948 208.54874459575967 0 0 0 0 409.42872302420437 419.74479815783343 0 419.74479815783343 351.11660090500709 0 0 0 0 150.18225779121713 -56.187150542509698 0 -56.187150542509698 571.62156406499025 0 0 0 0 676.09572408414897 302.24493215068833 0 302.24493215068833 33.91964396837102 0 0 0 0 569.82873089131317 -49.358196238683377 0 -49.358196238683377 238.75859877625498 0 0 0 0 152.10821687791031 -22.476813466545536 0 -22.476813466545536 127.61897830434737 0 0 0 0 -13.986853846541635 -165.51695765052409 0 -165.51695765052409 295.61114539392474 0 0 0 0 630.94490242926258 -1819.3312802297132 0 -1819.3312802297132 2005.6304774780792 0 0 0 0 373.20138955317088 -967.43050202942595 0 -967.43050202942595 1143.4922854207343 0 0 0 0 14.428351209107802 -0.26590102626196455 0 -0.26590102626196455 -0.45553840705223081 0 0 0 0 337.55610290271579 -94.937106832459904 0 -94.937106832459904 767.7987735351162 0 0 0 0 1980.9821304795623 -27.687676230750185 0 -27.687676230750185 504.18046738515568 0 0 0 0 637.32787979990098 -402.42201499820749 0 -402.42201499820749 1044.3290518708855 0 0 0 0 1858.1522647838538 -248.72768054502558 0 -248.72768054502558 -415.94653587196626 0 0 0 0 337.95249325993063 178.60976999887316 0 178.60976999887316 -452.89816020420858 0 0 0 0 1703.7193995268681 157.17316391926124 0 157.17316391926124 -573.98080569526564 0 0 0 0 353.36645976608997 -614.34580276131328 0 -614.34580276131328 -461.04047005007851 0 0 0 0 -130.99361326323196 -157.49031546172318 0 -157.49031546172318 -24.6261241683751 0 0 0 0 56.225939140782444 10.843920789031202 0 10.843920789031202 -19.910374663194641 0 0 0 0 1937.4954446104457 -466.5493091496819 0 -466.5493091496819 -600.67317207725864 0 0 0 0 1441.4478363785602 210.71979881139487 0 210.71979881139487 -437.48237837591387 0 0 0 0 1437.9896712777045 496.67823530676378 0 496.67823530676378 -302.41739872907237 0 0 0 0 1962.1751595726819 339.54008543719283 0 339.54008543719283 -547.44754309498421 0 0 0 0 786.79038761957781 407.0712683437996 0 407.0712683437996 -225.07362809181177 0 0 0 0 2685.5328067571609 -3914.8243384222023 0 -3914.8243384222023 -752.28726792864109 0 0 0 0 -104.61523548483092 -258.31748254892955 0 -258.31748254892955 -238.1535410579429 0 0 0 0 698.2931446639559 526.24871455147331 0 526.24871455147331 -280.34482859849049 0 0 0 0 1504.9684653965523 -959.77923446939167 0 -959.77923446939167 2666.4057202715949 0 0 0 0 88.870085191318424 -10.049062924364677 0 -10.049062924364677 -8.6119700267483914 0 0 0 0 46.903113925393455 -3.4195038446555728 0 -3.4195038446555728 -0.77590826974427518 0 0 0 0 -1414.418848260364 1852.9453314042839 0 1852.9453314042839 3242.6744897526187 0 0 0 0 20.375138666349812 -217.54287844017381 0 -217.54287844017381 247.65829975050656 0 0 0 0 159.39287240221893 -72.81813153362873 0 -72.81813153362873 114.8843141515481 0 0 0 0 46.14546862377756 -151.84061247368118 0 -151.84061247368118 36.339416088618236 0 0 0 0 85.886590604000958 -28.001857815925177 0 -28.001857815925177 317.08837043179028 0 0 0 0 609.34038392786169 -54.675804843778451 0 -54.675804843778451 106.11240627052393 0 0 0 0 -261.45497002445336 194.54336317258094 0 194.54336317258094 87.347875632131036 0 0 0 0 -147.64702582347672 -292.87672424799621 0 -292.87672424799621 72.339351145838918 0 0 0 0 1676.4433693298924 949.23084675714927 0 949.23084675714927 -83.405742816233115 0 0 0 0 28.738347698080361 -8.8030774510327348 0 -8.8030774510327348 2.0275310790948837 0 0 0 0 -6972.2779455618002 29.689618736800185 0 29.689618736800185 3694.8713985114427 0 0 0 0 930.05281999953149 -2789.4349025800411 0 -2789.4349025800411 555.44778440465416 0 0 0 0 106.76315245150676 3.0806373349707101 0 3.0806373349707101 -1.0850308995342219 0 0 0 0 138.30877437481831 -124.46368459776977 0 -124.46368459776977 -413.24392137717768 0 0 0 0 8163.68614213611 -545.73490295769443 0 -545.73490295769443 558.28261960066266 0 0 0 0 1920.9023026022915 0.33795732181442872 0 0.33795732181442872 -729.94994575146711 0 0 0 0 3608.1985221471768 -177.82691148384174 0 -177.82691148384174 -812.90697643661952 0 0 0 0 187.83105456061548 -187.19950850022724 0 -187.19950850022724 -227.42714416402669 0 0 0 0 270.83637612470193 266.59527604221694 0 266.59527604221694 -7.8812901058895477 0 0 0 0 10.918125188071031 -3.0380128144117151 0 -3.0380128144117151 0.99658601491866783 0 0 0 0 1906.0189352086009 -108.40987236567543 0 -108.40987236567543 -237.6882936527636 0 0 0 0 847.35211281977536 -158.95383060148288 0 -158.95383060148288 423.3277182209622 0 0 0 0 882.68638545545036 -375.58565150989818 0 -375.58565150989818 81.246384945268801 0 0 0 0 112.81580540230789 -5.0364553752633583 0 -5.0364553752633583 -223.74335126183905 0 0 0 0 115.87715730667696 -203.4464652170127 0 -203.4464652170127 -402.05789771841137 0 0 0 0 98.59962676017858 78.945027288243068 0 78.945027288243068 -575.86131782372831 0 0 0 0 27.405568112613764 -114.29801633956629 0 -114.29801633956629 -263.81796466905143 0 0 0 0 -264.8640146847174 -120.83987025440047 0 -120.83987025440047 308.12965619850729 0 0 0 0 23.440332156077488 -8.3833901685908785 0 -8.3833901685908785 -9.4204550519385641 0 0 0 0 198.75401281007544 -341.30980322119598 0 -341.30980322119598 -532.62652017330038 0 0 0 0 360.88134105401696 167.73402161101694 0 167.73402161101694 -591.67270888029225 0 0 0 0 -123.48698141721252 -27.941906803529491 0 -27.941906803529491 231.16387090802982 0 0 0 0 178.02254764454847 -327.13832231077686 0 -327.13832231077686 126.33523912088094 0 0 0 0 -82.575766661175294 -123.14570782491683 0 -123.14570782491683 -30.137258338968877 0 0 0 0 87.792343894383521 -269.92549727054211 0 -269.92549727054211 -75.923505927239603 0 0 0 0 230.05835803144146 195.92134317179989 0 195.92134317179989 -44.647247226705076 0 0 0 0 0.67087064949447495 -1.159726848878293 0 -1.159726848878293 1.3759715320904924 0 0 0 0 136.4154600459151 -24.881328696308628 0 -24.881328696308628 -216.56786678689755 0 0 0 0 26.258933308628173 -8.6292026819594412 0 -8.6292026819594412 2.2768390954808702 0 0 0 0 105.7195139211799 -125.28593566408392 0 -125.28593566408392 -166.90700855920113 0 0 0 0 165.03225401527015 -137.32649662410222 0 -137.32649662410222 -216.86975101025777 0 0 0 0 356.6587819081833 383.56742020338879 0 383.56742020338879 165.67383109921502 0 0 0 0 12.492492552904878 -81.337242011472426 0 -81.337242011472426 -29.309775100768093 0 0 0 0 554.85405029952381 63.142999557810072 0 63.142999557810072 -100.29198001469376 0 0 0 0 464.14983889093855 150.85476457380992 0 150.85476457380992 -53.806629199152667 0 0 0 0 183.36769133675261 68.602694140459789 0 68.602694140459789 49.051138940093551 0 0 0 0 203.0877695685358 -91.402620962823903 0 -91.402620962823903 -158.13345700491118 0 0 0 0 235.65729039612052 -7.1287884884773121 0 -7.1287884884773121 -58.687020516559642 0 0 0 0 230.51261365585378 -7.9096337070468508 0 -7.9096337070468508 -33.734922850441762 0 0 0 0 24.695548938412685 -102.23245257589679 0 -102.23245257589679 11.312430893253349 0 0 0 0 16.445716119327699 30.411039824417458 0 30.411039824417458 -134.60159716325506 0 0 0 0 72.162814246199559 -42.564784579422849 0 -42.564784579422849 -39.133743058514483 0 0 0 0 907.2146763313358 -132.21849756561005 0 -132.21849756561005 -95.089325629944142 0 0 0 0 860.96025877447573 -369.42550076963846 0 -369.42550076963846 50.565346835361197 0 0 0 0 1154.1502449421969 569.12125581098553 0 569.12125581098553 204.29421696235295 0 0 0 0 1912.9577571106493 -386.86315985945475 0 -386.86315985945475 6.4020893090219033 0 0 0 0 929.49302932331921 -172.04975952649329 0 -172.04975952649329 -31.982260923900412 0 0 0 0 1296.0683572743874 146.11742306699034 0 146.11742306699034 -170.67326463820609 0 0 0 0 687.08836643119866 178.03360926242476 0 178.03360926242476 -171.77687544795035 0 0 0 0 942.62700324758771 14.945288663943757 0 14.945288663943757 -183.38541354347944 0 0 0 0 735.04668111160572 -84.963967499917089 0 -84.963967499917089 -126.92701920244599 0 0 0 0 723.51693873177283 -88.45183844488156 0 -88.45183844488156 -127.50246639378383 0 0 0 0 852.39418890852176 -154.14438957997481 0 -154.14438957997481 -95.280612466351158 0 0 0 0 619.1219792048214 -201.68530835996694 0 -201.68530835996694 -4.4426466353907017 0 0 0 0 396.35340979271859 -110.60976289918426 0 -110.60976289918426 -4.4430996801856963 0 0 0 0 486.04719557872158 -188.54044721938226 0 -188.54044721938226 -1.5020462305208184 0 0 0 0 183.91599300611415 -103.5618669684427 0 -103.5618669684427 154.97285078770622 0 0 0 0 343.57572390208952 -205.65148226655401 0 -205.65148226655401 156.86899679489034 0 0 0 0 397.70800449412491 -353.0552822273994 0 -353.0552822273994 279.15937970481355 0 0 0 0 87.415242601113277 -37.448209108833453 0 -37.448209108833453 89.531815057425774 0 0 0 0 26.017555835482199 34.377991933558405 0 34.377991933558405 36.924422307653003 0 0 0 0 169.84188470458321 -108.59605242362795 0 -108.59605242362795 93.761091690736976 0 0 0 0 108.17558511816605 15.362750037260412 0 15.362750037260412 38.136955292228777 0 0 0 0 23.718649069458479 -14.749022243428044 0 -14.749022243428044 82.330145311003434 0 0 0 0 -65.53862272243714 38.019994802210931 0 38.019994802210931 48.569336937494882 0 0 0 0 -28.362626045884099 27.569039630708176 0 27.569039630708176 20.215578155055482 0 0 0 0 -18.644107462372631 -0.018082183718433953 0 -0.018082183718433953 67.224428092968083 0 0 0 0 -22.386977783011389 47.684310064533747 0 47.684310064533747 48.815024061134409 0 0 0 0 -31.157429844082799 32.15319288167575 0 32.15319288167575 21.388327142092749 0 0 0 0 -75.227433380030561 68.958270195746081 0 68.958270195746081 43.69754770929103 0 0 0 0 -20.597818899339472 47.712141113610414 0 47.712141113610414 -12.492239414038522 0 0 0 0 -0.69249319036316592 -39.199318262211818 0 -39.199318262211818 164.94379230201412 0 0 0 0 -17.025497541195364 76.24599742232931 0 76.24599742232931 52.742311702939787 0 0 0 0 -44.967104901348648 136.66025426194801 0 136.66025426194801 -133.20670149618854 0 0 0 0 -112.66667492142005 170.87808260948623 0 170.87808260948623 -7.755598070881689 0 0 0 0 43.061289525657401 26.89073825779424 0 26.89073825779424 5.1538176551262573 0 0 0 0 51.98692811355113 48.903061866252585 0 48.903061866252585 6.3829523460844939 0 0 0 0 51.850872758463083 43.599108630198316 0 43.599108630198316 0.37589333897267352 0 0 0 0 21.687085085104002 3.5565493965143773 0 3.5565493965143773 1.0097086184121045 0 0 0 0 31.729639122320805 43.442208666415354 0 43.442208666415354 72.403138278172264 0 0 0 0 -26.153646352599026 -4.5070675644965377 0 -4.5070675644965377 245.56659399245291 0 0 0 0 27.940579176640313 17.78980530616991 0 17.78980530616991 9.5996212862391985 0 0 0 0 35.714169752335437 12.400719024342159 0 12.400719024342159 2.1193678021293696 0 0 0 0 -4.636765602597734 187.51379646232544 0 187.51379646232544 -126.68669005714582 0 0 0 0 30.938155058160191 18.599730720995467 0 18.599730720995467 -7.1140818870612748 0 0 0 0 54.311298932517161 16.594731970630789 0 16.594731970630789 -1.1167499077246923 0 0 0 0 -5.3941673975982667 211.82225707604056 0 211.82225707604056 -430.08292248614816 0 0 0 0 -358.19243036751868 343.04643736267644 0 343.04643736267644 72.61086564512334 0 0 0 0 -468.21872171560244 585.35208004452852 0 585.35208004452852 -427.64611104483447 0 0 0 0 -1473.130210994037 -166.92504139629864 0 -166.92504139629864 526.26099654471182 0 0 0 0 418.13306071737316 -538.03992522035514 0 -538.03992522035514 322.00406948082127 0 0 0 0 480.35089207868441 -207.3661032133723 0 -207.3661032133723 213.41871778789391 0 0 0 0 -142.76212201391172 -394.66902150558326 0 -394.66902150558326 407.77283951390564 0 0 0 0 11.259232940748916 -129.77571401190016 0 -129.77571401190016 271.44466035749792 0 0 0 0 -118.25312011895585 108.17962997314635 0 108.17962997314635 138.89716970932932 0 0 0 0 -203.47308154922575 70.375682623798298 0 70.375682623798298 193.03681783009415 0 0 0 0 -80.514094641635893 79.723875886477799 0 79.723875886477799 66.261953297711187 0 0 0 0 3496.1172267455077 1361.771847583045 0 1361.771847583045 -10.672122205334277 0 0 0 0 -332.40627121446596 283.54363675816046 0 283.54363675816046 1416.2271075268795 0 0 0 0 2423.2975771395286 1808.0781627214928 0 1808.0781627214928 835.29544140707105 0 0 0 0 608.20867696998903 -108.84793454874352 0 -108.84793454874352 -130.63599731670456 0 0 0 0 3494.1479132226959 -869.03777174783659 0 -869.03777174783659 130.83098739076016 0 0 0 0 13.774637304041534 7.0896766008877137 0 7.0896766008877137 6.1886327386294022 0 0 0 0 510.22762079950189 385.11436534911536 0 385.11436534911536 -135.08962061733973 0 0 0 0 124.8000575335027 -334.37642394186241 0 -334.37642394186241 62.411335691798513 0 0 0 0 30.199620578045483 -15.260569435874686 0 -15.260569435874686 0.41587853860369783 0 0 0 0 64.158361908741426 -7.2530809003986292 0 -7.2530809003986292 1.8731474310006888 0 0 0 0 65.417449081433006 -15.118900174348937 0 -15.118900174348937 4.9790530676255003 0 0 0 0 47.198718650884985 -12.609920527415625 0 -12.609920527415625 0.17618552883232041 0 0 0 0 25.066769990995482 3.2433732912801219 0 3.2433732912801219 -5.4910600163855374 0 0 0 0 51.518697415660426 59.560139831585843 0 59.560139831585843 -73.43308347912216 0 0 0 0 41.015817053899809 -21.833103693895737 0 -21.833103693895737 -2.6980236992717437 0 0 0 0 30.932280891402712 -19.63966022377727 0 -19.63966022377727 -6.9406841374941877 0 0 0 0 17.73379285968096 10.042420417964962 0 10.042420417964962 16.094197555170595 0 0 0 0 110.96844289443106 426.95724897104691 0 426.95724897104691 238.35161621392055 0 0 0 0 252.04816986303194 -203.25810879829999 0 -203.25810879829999 -50.883050426462205 0 0 0 0 3.2092111878467335 5.311406138399235 0 5.311406138399235 8.4796938630785874 0 0 0 0 66.983846705494216 -106.43385125854081 0 -106.43385125854081 -0.62889569103208487 0 0 0 0 132.88681207007903 -66.660212852727909 0 -66.660212852727909 -174.20351999491504 0 0 0 0 -72.508911058066587 -16.561539856670493 0 -16.561539856670493 23.302170024535826 0 0 0 0 -23.272016048969817 -161.65597787897303 0 -161.65597787897303 375.11437115292301 0 0 0 0 -41.82368146421868 377.07830377644905 0 377.07830377644905 651.65699435575846 0 0 0 0 3014.7132381660267 1072.0972162090136 0 1072.0972162090136 543.63390944797095 0 0 0 0 3206.1203522398719 930.36137827067137 0 930.36137827067137 163.05862555492556 0 0 0 0 2497.6852623885316 169.33564259180284 0 169.33564259180284 -0.31319646304979304 0 0 0 0 2856.1729166817677 622.53740895164333 0 622.53740895164333 -4.1076781287101838 0 0 0 0 2813.1413742028526 711.82104830057995 0 711.82104830057995 -21.528674958431438 0 0 0 0 3496.9901632848228 516.90977259999636 0 516.90977259999636 -348.56119718787482 0 0 0 0 1303.1481194925946 395.04186149268099 0 395.04186149268099 144.3138959847978 0 0 0 0 1099.1825400640228 549.11796601994365 0 549.11796601994365 263.01137598617311 0 0 0 0 1517.0028397928254 585.80599967446221 0 585.80599967446221 249.25043570086203 0 0 0 0 605.3212621226121 699.89725690905345 0 699.89725690905345 511.25958062999842 0 0 0 0 680.4164773010998 336.62553084483972 0 336.62553084483972 309.47658380662676 0 0 0 0 2771.6567498881959 371.68181257843162 0 371.68181257843162 46.904226308220672 0 0 0 0 1494.9783523473161 693.31371956979501 0 693.31371956979501 186.27300584280198 0 0 0 0 1114.943253963298 1345.539414397165 0 1345.539414397165 906.34246843594576 0 0 0 0 2903.6920108686536 819.1745762427114 0 819.1745762427114 194.05499643156551 0 0 0 0 -154.01116084548994 240.44713275446065 0 240.44713275446065 383.09946524317377 0 0 0 0 1328.5788474938454 268.21377107923104 0 268.21377107923104 -74.928210106777982 0 0 0 0 -2.010566562297754 303.14192726756255 0 303.14192726756255 368.80041292819533 0 0 0 0 -1.5128908456796069 0.64415850086444948 0 0.64415850086444948 4.029539795372493 0 0 0 0 442.15603575788555 134.17593235802144 0 134.17593235802144 -332.39853727653411 0 0 0 0 336.41703570945538 -1.6595097773954421 0 -1.6595097773954421 13.494182493780045 0 0 0 0 231.5071242832928 137.17993283825854 0 137.17993283825854 -142.9855839914332 0 0 0 0 91.972336006205296 -55.520316038111673 0 -55.520316038111673 19.983179775530971 0 0 0 0 65.124917162116617 8.7888826923845045 0 8.7888826923845045 -25.107892956938485 0 0 0 0 225.53727283532498 74.034949864743794 0 74.034949864743794 140.33779681843669 0 0 0 0 336.86193880223436 8.1652255818826802 0 8.1652255818826802 32.914824474256136 0 0 0 0 295.19971866613196 -173.48268689816612 0 -173.48268689816612 115.26182492680272 0 0 0 0 215.80955786761479 -103.56322788105763 0 -103.56322788105763 -0.97565401222414039 0 0 0 0 307.69902392975928 -201.98589015021156 0 -201.98589015021156 41.713872848080058 0 0 0 0 462.03289564902298 -69.377147729413707 0 -69.377147729413707 89.897592570303516 0 0 0 0 380.43753184529487 -6.534266842916729 0 -6.534266842916729 258.6592008155385 0 0 0 0 314.92066192278799 -15.527262718987274 0 -15.527262718987274 202.1081306221073 0 0 0 0 702.72475197560561 298.80551548223599 0 298.80551548223599 371.93315777309493 0 0 0 0 1010.1500835787519 205.12761985391626 0 205.12761985391626 136.09583221338855 0 0 0 0 637.13664416165557 -57.930014624223482 0 -57.930014624223482 0.62002947974813227 0 0 0 0 373.93497643964838 -45.902425877907234 0 -45.902425877907234 -19.237551907603631 0 0 0 0 367.28735295160004 -55.107292051055651 0 -55.107292051055651 217.45080998448756 0 0 0 0 334.24532542531961 -149.62682852641507 0 -149.62682852641507 60.386511761484286 0 0 0 0 372.08188004435215 -168.40549714843689 0 -168.40549714843689 31.1263704880771 0 0 0 0 400.67115843292413 -236.74971222209143 0 -236.74971222209143 63.666969153157879 0 0 0 0 450.62365656560723 -183.66848395272604 0 -183.66848395272604 -5.0295368828731171 0 0 0 0 686.89704640726268 -199.0697916847439 0 -199.0697916847439 -10.630144631386429 0 0 0 0 416.87850347827771 -158.85736159189935 0 -158.85736159189935 -5.1913798432006075 0 0 0 0 444.4378130449586 -306.19278652228178 0 -306.19278652228178 270.80422942818041 0 0 0 0 1123.9602865746856 -716.59934652160155 0 -716.59934652160155 486.45961340097529 0 0 0 0 35.646304069461507 21.436891010897128 0 21.436891010897128 12.798085873986341 0 0 0 0 318.07970749762899 -252.1250674878778 0 -252.1250674878778 222.09950003951462 0 0 0 0 -18.948408012234722 579.5322002586131 0 579.5322002586131 -469.64066421909342 0 0 0 0 401.85343018461572 -187.39208306005193 0 -187.39208306005193 66.976461862775295 0 0 0 0 285.31035575049464 -211.60605898020378 0 -211.60605898020378 37.019850368299103 0 0 0 0 256.38856609692448 180.32571451607782 0 180.32571451607782 -546.98653463213304 0 0 0 0 210.27611167143914 -69.186343450058985 0 -69.186343450058985 -83.566514858246933 0 0 0 0 63.245019869583473 31.960025488305391 0 31.960025488305391 10.30427234724981 0 0 0 0 9.0966889806441031 -160.93670786729626 0 -160.93670786729626 -65.639545103536875 0 0 0 0 186.6710621965758 -158.25602656002502 0 -158.25602656002502 -99.888352370452594 0 0 0 0 183.45492746002856 -68.30163219045653 0 -68.30163219045653 0.64926231488351505 0 0 0 0 73.141300045790558 -341.56441362487681 0 -341.56441362487681 -146.93893676111429 0 0 0 0 80.790419637851301 6.2019494612723065 0 6.2019494612723065 24.743751010932897 0 0 0 0 232.26570594389341 289.96405320312488 0 289.96405320312488 -260.71206249642137 0 0 0 0 9.9347728369007768 -7.4742852345435864 0 -7.4742852345435864 -3.2668296286329777 0 0 0 0 18.935492108470811 -2.4416878906025374 0 -2.4416878906025374 -0.56954101179095229 0 0 0 0 -113.9262472637929 205.61723173392602 0 205.61723173392602 -83.951307060411636 0 0 0 0 11.235268695221748 215.25240905898318 0 215.25240905898318 -128.72153495419224 0 0 0 0 -23.952953041574801 -23.637091980513731 0 -23.637091980513731 -14.699821556107963 0 0 0 0 -222.5499093902763 42.588513940775101 0 42.588513940775101 -36.574837931610091 0 0 0 0 -79.145956152191502 -106.14535189013463 0 -106.14535189013463 -193.59589428688832 0 0 0 0 49.696904825340582 -29.698234769576274 0 -29.698234769576274 -25.845651218650474 0 0 0 0 234.85053638892714 -298.21630949038786 0 -298.21630949038786 -135.16250634878168 0 0 0 0 27.323333944670566 -30.90595914304312 0 -30.90595914304312 -2.8931086928843985 0 0 0 0 1039.5441054303374 -532.66129568114002 0 -532.66129568114002 -442.66306106681077 0 0 0 0 585.60618766071275 7.8183290690997183 0 7.8183290690997183 -553.37200966095338 0 0 0 0 -158.54359404374554 220.02188083170404 0 220.02188083170404 -386.39288032381637 0 0 0 0 1047.2930258371989 335.96153709523543 0 335.96153709523543 -597.36418507539975 0 0 0 0 2744.3595124268904 1727.3846182185225 0 1727.3846182185225 2536.382211926757 0 0 0 0 -1987.3724080417487 -4594.3142487067053 0 -4594.3142487067053 554.41468063945376 0 0 0 0 2.8023666207030828 -13.957981730395957 0 -13.957981730395957 -5.3421495096712093 0 0 0 0 40.526014630246209 -19.826948193530598 0 -19.826948193530598 11.215778076759307 0 0 0 0 58.038347160192643 -26.772800110526305 0 -26.772800110526305 1.6656217352015119 0 0 0 0 37.250253056176007 -13.187151263673968 0 -13.187151263673968 7.3538775590534442 0 0 0 0 43.074082791972614 -9.4612679352716214 0 -9.4612679352716214 4.0183043009342327 0 0 0 0 -3.7737033116760017 0.15377793514173277 0 0.15377793514173277 9.8500216154443923 0 0 0 0 26.886670924614009 -6.8800768974585367 0 -6.8800768974585367 10.725177801501104 0 0 0 0 26.671547639874916 -14.205223390438391 0 -14.205223390438391 14.466507804762841 0 0 0 0 429.96925834855938 -192.06325879425367 0 -192.06325879425367 1178.2397253648778 0 0 0 0 568.57566878023499 -480.6330648992116 0 -480.6330648992116 690.80593119597779 0 0 0 0 483.88231790691498 -221.26437230487954 0 -221.26437230487954 291.64554707578753 0 0 0 0 408.00238931603235 -353.85362194055733 0 -353.85362194055733 79.687110580997796 0 0 0 0 417.51243800742668 -498.2198232033752 0 -498.2198232033752 314.83919667140196 0 0 0 0 74.683207004663331 9.1793255593938738 0 9.1793255593938738 -0.54437569141259168 0 0 0 0 397.86747669099714 -474.26411851391913 0 -474.26411851391913 148.61409035383622 0 0 0 0 103.86554869692191 -399.74702086044726 0 -399.74702086044726 205.62821583338973 0 0 0 0 1031.5266652321734 1280.3175578252485 0 1280.3175578252485 -1482.9219382801857 0 0 0 0 10.856214489835622 7.7041569710094535 0 7.7041569710094535 5.8018101951271159 0 0 0 0 -311.45001767375288 136.85278856562144 0 136.85278856562144 -507.54804508688358 0 0 0 0 78.478572735446505 613.98318715294181 0 613.98318715294181 -423.60752163182588 0 0 0 0 -394.96082822370226 355.14646815999095 0 355.14646815999095 -342.59287711618367 0 0 0 0 24.943374934353557 4.5222921590308971 0 4.5222921590308971 1.6486474877200541 0 0 0 0 -58.1452648727427 -172.26976196174974 0 -172.26976196174974 -391.10119818942621 0 0 0 0 -206.16541062329998 -346.92069549758151 0 -346.92069549758151 -172.93443110353428 0 0 0 0 -39.930483588686911 -306.79230590642283 0 -306.79230590642283 -200.9525124247134 0 0 0 0 -169.99113064311678 -233.12280224078165 0 -233.12280224078165 345.38712916637496 0 0 0 0 -32.781639113847632 -486.94479742611202 0 -486.94479742611202 -110.62823462924598 0 0 0 0 146.09983249564539 123.72541124710506 0 123.72541124710506 1016.7883277084229 0 0 0 0 -162.03667291306192 -1123.9395744164267 0 -1123.9395744164267 128.38784702064595 0 0 0 0 484.62217234337004 281.74309106234068 0 281.74309106234068 -340.39724307045162 0 0 0 0 411.12004266529402 -507.56263947747675 0 -507.56263947747675 -1335.8330376872987 0 0 0 0 -24.906439804130059 -207.27279485149052 0 -207.27279485149052 199.51872690013624 0 0 0 0 108.36918940209296 6.6627702880914157 0 6.6627702880914157 -4.7334777893392497 0 0 0 0 47.286145813210169 156.6135503798796 0 156.6135503798796 -364.22081234300913 0 0 0 0 41.74896674779302 -126.74923145600042 0 -126.74923145600042 -312.25472108082249 0 0 0 0 9.6453166556433132 -24.633429173647684 0 -24.633429173647684 -3.6124951060108605 0 0 0 0 26.167898876978086 0.67817332755903692 0 0.67817332755903692 -12.838639176632444 0 0 0 0 181.98121232003905 -295.23357333670629 0 -295.23357333670629 -215.49480304765075 0 0 0 0 564.68671809847001 312.97477189666643 0 312.97477189666643 -55.872067617775429 0 0 0 0 229.83459535237489 -12.524175226255238 0 -12.524175226255238 18.318725812299817 0 0 0 0 -248.05261506991519 -302.89981391648871 0 -302.89981391648871 -160.84665693142415 0 0 0 0 29.823557972330661 -14.990434360496558 0 -14.990434360496558 6.2430827744765445 0 0 0 0 -32.670120949478587 -499.191232821124 0 -499.191232821124 -555.55509451853686 0 0 0 0 170.63188754465227 24.716265096071993 0 24.716265096071993 52.919810109135142 0 0 0 0 161.81923625491618 64.071714350745651 0 64.071714350745651 124.67176596143099 0 0 0 0 70.90640414243282 -46.401318212407475 0 -46.401318212407475 0.16397257142537924 0 0 0 0 -288.28123504738323 -282.64798924568663 0 -282.64798924568663 -21.121435878571219 0 0 0 0 -134.44045788455696 -65.040304708522399 0 -65.040304708522399 34.282099331735481 0 0 0 0 155.47520014190377 20.249269460834284 0 20.249269460834284 54.816551440936109 0 0 0 0 62.605170299973508 -46.929691555017257 0 -46.929691555017257 -1.1474887394207887 0 0 0 0 -199.44355666903721 -148.76030344316189 0 -148.76030344316189 13.345078156046725 0 0 0 0 -37.617483266294585 -104.23971201825657 0 -104.23971201825657 60.909120368456684 0 0 0 0 -63.320711607797421 -54.789732400737876 0 -54.789732400737876 -33.917087727690969 0 0 0 0 246.95418460396468 36.381146095694362 0 36.381146095694362 40.508343853996593 0 0 0 0 -61.931796240693075 -145.56762339512431 0 -145.56762339512431 99.887711408752693 0 0 0 0 351.14389998459956 79.348138395250089 0 79.348138395250089 159.50209957824859 0 0 0 0 1309.9700301359262 235.17248453485331 0 235.17248453485331 160.4307834196195 0 0 0 0 435.50316179141009 -94.385105688498811 0 -94.385105688498811 194.26493427183141 0 0 0 0 546.26457412437594 61.72053372693847 0 61.72053372693847 69.325081032519051 0 0 0 0 269.90260644906084 -80.385730231305786 0 -80.385730231305786 68.575976461770324 0 0 0 0 180.0863111627441 -144.24414190827989 0 -144.24414190827989 -0.069887564990327083 0 0 0 0 451.9698214210257 -96.37260071761574 0 -96.37260071761574 -21.224036220385187 0 0 0 0 224.09285896304209 -87.070487218573504 0 -87.070487218573504 13.851455959182658 0 0 0 0 226.96929802425439 -60.243952750158229 0 -60.243952750158229 31.79197858465956 0 0 0 0 -119.03789173284895 -66.897065719820546 0 -66.897065719820546 55.009939487754252 0 0 0 0 -177.90865878004479 43.642848114945352 0 43.642848114945352 19.075786156513914 0 0 0 0 -2.3180074502473644 -0.26542164304899529 0 -0.26542164304899529 0.24262422524114033 0 0 0 0 -82.015561842410534 -11.370947807351712 0 -11.370947807351712 46.270201253127311 0 0 0 0 -115.83936541405274 -21.852816742790765 0 -21.852816742790765 60.972864418083077 0 0 0 0 -18.265714195193141 -99.972872358979942 0 -99.972872358979942 62.270899097876878 0 0 0 0 -83.032780414301669 -92.757227758962472 0 -92.757227758962472 76.617630021831445 0 0 0 0 -10.66143487028603 -8.608804077979471 0 -8.608804077979471 56.987865280895107 0 0 0 0 -77.430377636075718 -64.855645149236352 0 -64.855645149236352 -6.5372417335944419 0 0 0 0 113.99154082755558 2.2132524435429559 0 2.2132524435429559 31.723241692945066 0 0 0 0 140.70742230068572 18.137061421872346 0 18.137061421872346 23.200120204592054 0 0 0 0 66.224510763468118 33.794062865974382 0 33.794062865974382 3.8699056094936353 0 0 0 0 109.82296884858806 29.614471592420443 0 29.614471592420443 1.1576673946460687 0 0 0 0 63.134084356408266 -37.021543196586649 0 -37.021543196586649 -7.1070910476356906 0 0 0 0 -80.255889143976674 -60.648498504822925 0 -60.648498504822925 14.936707109911595 0 0 0 0 -57.2662749474257 -29.107733756210507 0 -29.107733756210507 4.4485813759381898 0 0 0 0 9.560537781695416 -6.4199514405076741 0 -6.4199514405076741 -2.0614418858703196 0 0 0 0 47.187728330667596 0.40748772907380193 0 0.40748772907380193 -8.501186812410662 0 0 0 0 114.16691669049032 28.961431850632977 0 28.961431850632977 1.1919262656969352 0 0 0 0 15.957001110044388 3.5096459650720249 0 3.5096459650720249 -0.64151142657507043 0 0 0 0 33.345014721387997 -4.5497315676617154 0 -4.5497315676617154 -9.6654936713655939 0 0 0 0 25.581104525612318 -9.4429476258918363 0 -9.4429476258918363 -1.2400459821884127 0 0 0 0 9.6147756045684218 7.3618634444400408 0 7.3618634444400408 0.012650166644687809 0 0 0 0 70.028962311669602 -7.4213335594681338 0 -7.4213335594681338 0.029552353949325275 0 0 0 0 58.545932240202092 2.7322021529592568 0 2.7322021529592568 8.4945772380596836 0 0 0 0 87.080252782034222 -14.16486134457557 0 -14.16486134457557 6.9917636070041791 0 0 0 0 132.81769107672153 14.674525831167985 0 14.674525831167985 1.8388045174076657 0 0 0 0 128.92825212301977 8.7917916750807414 0 8.7917916750807414 33.027404291800934 0 0 0 0 154.34516788236215 14.982905178431462 0 14.982905178431462 -0.025861653959761609 0 0 0 0 -0.28692277998331406 0.2939485776759625 0 0.2939485776759625 1.1677340240886809 0 0 0 0 197.89149538407219 -18.096424507102242 0 -18.096424507102242 5.7954803011451368 0 0 0 0 258.88880785739457 84.725138118406022 0 84.725138118406022 10.917387300118541 0 0 0 0 122.99648483931378 43.379107704828371 0 43.379107704828371 19.764376821069291 0 0 0 0 155.39596166770207 20.714522676030484 0 20.714522676030484 -15.180632953198028 0 0 0 0 151.91146394310636 15.688817215153648 0 15.688817215153648 0.74954980273815153 0 0 0 0 109.28111114661442 -11.976862482069805 0 -11.976862482069805 12.978150545903709 0 0 0 0 70.884417128545465 -24.427382767041578 0 -24.427382767041578 -3.5659373141985995 0 0 0 0 98.04838596778427 6.241543403218806 0 6.241543403218806 -9.2034519049888388 0 0 0 0 60.668877421820071 -0.011678659789538415 0 -0.011678659789538415 3.3999475764773024 0 0 0 0 64.390235728875268 -7.4213571707045958 0 -7.4213571707045958 -4.9780047295477061 0 0 0 0 115.91840149773634 4.7393497205215169 0 4.7393497205215169 -12.718168163258071 0 0 0 0 57.121011995055596 19.641665011456752 0 19.641665011456752 -2.8161507383837261 0 0 0 0 114.52934734820155 9.3879626443706243 0 9.3879626443706243 -10.157319456618552 0 0 0 0 113.42326230531035 11.814462347615773 0 11.814462347615773 -5.5590266727139692 0 0 0 0 120.16340705980838 -17.022602398218396 0 -17.022602398218396 16.063885562823515 0 0 0 0 96.083325034625886 21.629988890828599 0 21.629988890828599 29.359077584584952 0 0 0 0 66.128949294622856 25.847363997161494 0 25.847363997161494 6.8241840408165526 0 0 0 0 118.44846536374826 7.7604059276776809 0 7.7604059276776809 -9.4551020793395537 0 0 0 0 362.32882908196189 86.876788923793242 0 86.876788923793242 -37.567997840817043 0 0 0 0 36.575215311549528 -3.2767031670771161 0 -3.2767031670771161 1.9160805820867619 0 0 0 0 111.50769997566584 37.78249892876434 0 37.78249892876434 -7.8396696463256053 0 0 0 0 184.16872861028969 6.4691462072287322 0 6.4691462072287322 9.8944172866013105 0 0 0 0 195.84493526439473 11.428317338837246 0 11.428317338837246 -6.5633565743260078 0 0 0 0 336.42337340617087 100.20472175194209 0 100.20472175194209 -28.072246045523571 0 0 0 0 37.922271853207064 -9.6319455466935437 0 -9.6319455466935437 7.3909002218232658 0 0 0 0 302.57532109229032 -50.458028659968932 0 -50.458028659968932 -70.426501492485841 0 0 0 0 100.98144248247263 0.7142086189969632 0 0.7142086189969632 -14.691611557866963 0 0 0 0 99.64005928789993 1.3335519746939895 0 1.3335519746939895 34.587511019428007 0 0 0 0 185.22276115462182 -56.126002000064162 0 -56.126002000064162 -63.335979173352825 0 0 0 0 73.57320325066442 -31.651182380396889 0 -31.651182380396889 19.846035172103676 0 0 0 0 115.70146158481657 5.7307684679187787 0 5.7307684679187787 42.773359544721643 0 0 0 0 107.54562180468929 13.817572528084156 0 13.817572528084156 53.957266754680859 0 0 0 0 59.301274348883652 -43.509682832586918 0 -43.509682832586918 -3.7658141112897803 0 0 0 0 147.95108094981697 21.652120988322395 0 21.652120988322395 39.442555542720584 0 0 0 0 142.81684982519073 10.760975780122294 0 10.760975780122294 31.434795736422302 0 0 0 0 141.02019159767951 15.196899327356277 0 15.196899327356277 41.351406872248958 0 0 0 0 122.29364055018232 25.929948745104866 0 25.929948745104866 75.107777996292953 0 0 0 0 162.66260839421011 27.339058852542394 0 27.339058852542394 48.163505010164045 0 0 0 0 139.2461781367092 20.787076672511375 0 20.787076672511375 51.352029757408673 0 0 0 0 -82.381236695917323 -142.80884604276798 0 -142.80884604276798 -72.600795742298942 0 0 0 0 47.615772207508883 -34.400607734365344 0 -34.400607734365344 18.832574106606444 0 0 0 0 109.07310565243824 6.7592722864205825 0 6.7592722864205825 54.875284291795253 0 0 0 0 108.02560720125621 13.866019439992215 0 13.866019439992215 65.855093600228429 0 0 0 0 36.784386805557006 -195.42295184264549 0 -195.42295184264549 -120.72484862922829 0 0 0 0 139.02090914313158 -24.956650510424879 0 -24.956650510424879 -128.91005508438502 0 0 0 0 -31.373114399015321 11.177168252044794 0 11.177168252044794 -117.02914275795411 0 0 0 0 262.82462351419963 -33.221062648715815 0 -33.221062648715815 -264.09310855510012 0 0 0 0 -64.227175485895714 -138.67586834162285 0 -138.67586834162285 -192.05919212383287 0 0 0 0 -224.34436878201086 -379.69572608321869 0 -379.69572608321869 -403.9365522620501 0 0 0 0 -11.424191346053163 -4.7426421418771767 0 -4.7426421418771767 9.6499194853040571 0 0 0 0 16.524911596840639 0.70432283215706804 0 0.70432283215706804 -11.917143906523499 0 0 0 0 -277.18203594873194 -404.47294513796805 0 -404.47294513796805 -405.26749777983423 0 0 0 0 -24.039951092054253 -19.097867325370316 0 -19.097867325370316 -354.6907050358775 0 0 0 0 -37.233908096219238 -86.286409775347238 0 -86.286409775347238 -35.026059166797495 0 0 0 0 45.852516022056506 -25.493772947251507 0 -25.493772947251507 10.612721585403374 0 0 0 0 -115.07943273161072 -295.58489528704376 0 -295.58489528704376 -398.433916844544 0 0 0 0 85.55914937556372 -311.28082255905701 0 -311.28082255905701 -459.05696217510831 0 0 0 0 158.97943218431101 49.704840451508005 0 49.704840451508005 80.53822440528802 0 0 0 0 -11.975701128380024 61.7592856582678 0 61.7592856582678 -239.56588949231627 0 0 0 0 -64.03092086072138 21.195368292846979 0 21.195368292846979 -67.093629739526023 0 0 0 0 261.22051634877425 -67.595158086572155 0 -67.595158086572155 -96.247589530857113 0 0 0 0 6.9566722132878738 -9.1007027967977194 0 -9.1007027967977194 7.137910184281214 0 0 0 0 532.09197186589518 333.69826103214541 0 333.69826103214541 -28.05418859096244 0 0 0 0 58.195910993410507 -52.836306775642242 0 -52.836306775642242 -77.311480250939894 0 0 0 0 92.963104155962355 5.0168835959298121 0 5.0168835959298121 -18.041828811651612 0 0 0 0 163.61563587949786 35.210266463906009 0 35.210266463906009 88.167619891023151 0 0 0 0 272.42430922369749 22.538967761828417 0 22.538967761828417 -227.06233464750767 0 0 0 0 164.29129454368376 -52.892720695450976 0 -52.892720695450976 -76.132258352461122 0 0 0 0 28.409866385122768 -9.8925011980308 0 -9.8925011980308 -47.938615410938837 0 0 0 0 -25.769555840985049 -166.81156212352687 0 -166.81156212352687 -163.35883443064813 0 0 0 0 453.3770431525918 377.02935582114037 0 377.02935582114037 152.65672285781761 0 0 0 0 6.4175140264898829 -4.910535384682241 0 -4.910535384682241 2.8654166675190531 0 0 0 0 265.62835976335191 33.574590003474555 0 33.574590003474555 43.217805191113257 0 0 0 0 339.08102645550389 -18.307197107808861 0 -18.307197107808861 -312.62952634993417 0 0 0 0 101.70971561042825 -39.263107289895743 0 -39.263107289895743 70.427201822685674 0 0 0 0 363.33817940940025 314.33937503725986 0 314.33937503725986 362.85812368378447 0 0 0 0 831.02514402291854 -151.68825996015948 0 -151.68825996015948 253.67341321443473 0 0 0 0 0.47769504005731278 -0.83741410729861343 0 -0.83741410729861343 2.9997511356229687 0 0 0 0 978.44548773794668 478.38281968334366 0 478.38281968334366 225.04502412103068 0 0 0 0 480.41950620301213 -48.142189692693819 0 -48.142189692693819 0.45483734643676144 0 0 0 0 -203.26987728670247 -416.14066421942732 0 -416.14066421942732 106.00878645595731 0 0 0 0 -119.41159953440365 68.441835107980069 0 68.441835107980069 -54.126918865205766 0 0 0 0 70.482827611318498 -3.3332903166460568 0 -3.3332903166460568 261.84901722703694 0 0 0 0 -24.63755722730275 -176.45383063072148 0 -176.45383063072148 498.41147592589436 0 0 0 0 293.49073748491355 -120.42062293953904 0 -120.42062293953904 500.42718571221633 0 0 0 0 491.56182390321919 -301.84111856320021 0 -301.84111856320021 -30.769280703884007 0 0 0 0 353.12453894628561 20.427272056352763 0 20.427272056352763 458.22583376281636 0 0 0 0 609.11430056898098 -107.4238670418719 0 -107.4238670418719 285.80689267766746 0 0 0 0 206.96258528636827 -83.788994667034785 0 -83.788994667034785 287.97286927238235 0 0 0 0 -114.93660733852448 238.94336947924296 0 238.94336947924296 219.79359350465347 0 0 0 0 270.48428652925941 -464.94021162719901 0 -464.94021162719901 507.15714589237984 0 0 0 0 2.5644336816849034 1.7564643356022032 0 1.7564643356022032 0.23684573127890562 0 0 0 0 164.34558660855328 -163.88572274586647 0 -163.88572274586647 226.00848688295218 0 0 0 0 273.56323072795931 -265.64719380953352 0 -265.64719380953352 278.055401542906 0 0 0 0 71.524383349285927 -118.59053336282153 0 -118.59053336282153 112.98280593548623 0 0 0 0 88.104140739996637 21.152806207312224 0 21.152806207312224 29.014173226398725 0 0 0 0 165.83053558989195 -118.53237338467714 0 -118.53237338467714 194.2881424891095 0 0 0 0 210.92765016630437 -140.62376422711714 0 -140.62376422711714 178.80882634619633 0 0 0 0 204.93955187780284 -114.97666869303617 0 -114.97666869303617 223.30313045635489 0 0 0 0 176.21522543413448 -177.74414589575849 0 -177.74414589575849 160.13714519334371 0 0 0 0 -0.11027410218747491 1.9600044365658675 0 1.9600044365658675 3.9288456079951573 0 0 0 0 246.91544069808151 -118.16049676573584 0 -118.16049676573584 138.06527070869515 0 0 0 0 255.12019229122961 -121.53264427243516 0 -121.53264427243516 46.065818950765788 0 0 0 0 231.97193716495531 -150.60405206279165 0 -150.60405206279165 122.88873593075459 0 0 0 0 121.75896974256466 -31.430923275866007 0 -31.430923275866007 120.86696583057937 0 0 0 0 190.68845996427262 -171.98754928976177 0 -171.98754928976177 144.00196151293585 0 0 0 0 102.48574287191332 -46.823752858418629 0 -46.823752858418629 -22.136414152695579 0 0 0 0 10.613436818752362 -0.9413149318440901 0 -0.9413149318440901 3.9111692942803771 0 0 0 0 62.830817551410291 5.3289822906790505 0 5.3289822906790505 -46.091275521626812 0 0 0 0 2.9616449769929147 5.9138848836510647 0 5.9138848836510647 -3.8805783294431428 0 0 0 0 59.278279615115025 278.81987859370565 0 278.81987859370565 -592.86232909461421 0 0 0 0 56.16960688180265 -0.17278554306387228 0 -0.17278554306387228 -8.6584387797147873 0 0 0 0 56.807298384723254 -17.530443397474301 0 -17.530443397474301 16.559426985004393 0 0 0 0 -111.05176200442656 165.08151059808733 0 165.08151059808733 -623.39072181024494 0 0 0 0 254.00242040789453 183.79671209009939 0 183.79671209009939 -604.61290675671626 0 0 0 0 175.33862816089822 160.59718772410997 0 160.59718772410997 -500.15761193987601 0 0 0 0 -0.37093558115884662 208.07486712990067 0 208.07486712990067 -606.80647797658185 0 0 0 0 -139.97198214884702 226.82465723337191 0 226.82465723337191 -583.38990944334523 0 0 0 0 -59.226716179662617 -514.85860016237712 0 -514.85860016237712 -598.69123816230058 0 0 0 0 -322.36803009596042 -28.274232535910414 0 -28.274232535910414 -354.60277734980627 0 0 0 0 87.734036347261281 158.50429876768885 0 158.50429876768885 -769.74328878178676 0 0 0 0 69.067526541072226 -9.9769448910013736 0 -9.9769448910013736 -2.2656547849189277 0 0 0 0 274.33892112136527 -137.5625493040061 0 -137.5625493040061 -509.15059633253441 0 0 0 0 250.0218913959834 -144.19429231179674 0 -144.19429231179674 -944.67248931440167 0 0 0 0 323.44830957565864 -17.573825150939228 0 -17.573825150939228 -928.71938373681769 0 0 0 0 273.31051625650184 25.894005291293887 0 25.894005291293887 -538.17206411912412 0 0 0 0 153.09938863635762 -131.44255112431711 0 -131.44255112431711 -678.88826365019804 0 0 0 0 242.23183185310336 -94.312281311966217 0 -94.312281311966217 -677.84381260674127 0 0 0 0 124.05018938654393 -19.103269132734567 0 -19.103269132734567 -503.32922069284905 0 0 0 0 193.42635516857263 -7.711558125600277 0 -7.711558125600277 -639.75736969013758 0 0 0 0 269.72913671372771 27.637581197513555 0 27.637581197513555 -639.84839000303691 0 0 0 0 143.14425518594362 -73.238919791017452 0 -73.238919791017452 -698.07290572238708 0 0 0 0 -120.76973764746799 -94.951103465979031 0 -94.951103465979031 -693.36673697268543 0 0 0 0 -5.3448778350127952 -15.748334353371355 0 -15.748334353371355 -4.6671583336307823 0 0 0 0 41.704171269862854 -8.1702176207684261 0 -8.1702176207684261 -184.08376030598083 0 0 0 0 96.49288380840153 -133.28380675392509 0 -133.28380675392509 -101.12028737934179 0 0 0 0 16.034690662694629 -37.505159451300642 0 -37.505159451300642 -47.529484763529581 0 0 0 0 -9.0312041053111898 -77.020985477212889 0 -77.020985477212889 59.138619679747535 0 0 0 0 -17.855357269654633 -137.63535608545408 0 -137.63535608545408 -137.54906109035346 0 0 0 0 212.74111264382373 -305.71460736572317 0 -305.71460736572317 231.33412072886995 0 0 0 0 -4.3521740774005764 -2.0569497772491694 0 -2.0569497772491694 -1.1633197466214469 0 0 0 0 171.09489647499504 28.59053421450335 0 28.59053421450335 -705.80561621719608 0 0 0 0 -93.788534440427611 -49.445298306311088 0 -49.445298306311088 129.92272718458298 0 0 0 0 296.52569192260853 -872.3722472447671 0 -872.3722472447671 360.3013608478509 0 0 0 0 411.08316684389865 353.14895581190558 0 353.14895581190558 552.99472408262227 0 0 0 0 -99.521057027814095 -66.570943199172916 0 -66.570943199172916 67.585688380624674 0 0 0 0 -95.496229485950607 -86.527247434747551 0 -86.527247434747551 130.12976210279271 0 0 0 0 -7.6784880859740952 -223.9766498709962 0 -223.9766498709962 54.207086694495956 0 0 0 0 409.7536841475121 -38.270050914230808 0 -38.270050914230808 111.09582462807202 0 0 0 0 46.940793303387181 -150.3184269304088 0 -150.3184269304088 105.36719790493225 0 0 0 0 275.73832541650336 218.97372636206546 0 218.97372636206546 59.258013340229809 0 0 0 0 785.20117786221817 -475.52039920068364 0 -475.52039920068364 318.77989180092891 0 0 0 0 497.1331529103627 15.370821416473973 0 15.370821416473973 117.8767240226298 0 0 0 0 568.11562845488515 -369.23244266431084 0 -369.23244266431084 297.43178838695172 0 0 0 0 1122.8274971109058 -134.4196151740507 0 -134.4196151740507 121.67788778609841 0 0 0 0 -22.885418763704365 304.59948401614201 0 304.59948401614201 -103.89827985288684 0 0 0 0 13.618038745599051 4.1640034866958828 0 4.1640034866958828 0.96321013082111762 0 0 0 0 202.58911245677155 527.61566406000293 0 527.61566406000293 69.690448193212433 0 0 0 0 1099.5106938075187 680.30616591920807 0 680.30616591920807 -515.05626646400924 0 0 0 0 379.19440181231403 -64.984598311901209 0 -64.984598311901209 -218.16052671396756 0 0 0 0 214.27212086840882 70.316307016685641 0 70.316307016685641 -131.94871438989776 0 0 0 0 277.21040814789012 145.48821320466959 0 145.48821320466959 -261.24338785636792 0 0 0 0 215.69192498974371 101.06611085473958 0 101.06611085473958 -104.90975210525721 0 0 0 0 445.04957501644094 110.54012944552778 0 110.54012944552778 -744.77252274147304 0 0 0 0 457.88342823091807 255.2668162396767 0 255.2668162396767 -274.40872092596874 0 0 0 0 183.4230369678844 341.64416784299124 0 341.64416784299124 -113.97124046078352 0 0 0 0 366.97230431248317 411.88511619766996 0 411.88511619766996 -130.4494461786685 0 0 0 0 147.50803182555683 275.62109263924208 0 275.62109263924208 -63.586204495280981 0 0 0 0 210.49293354970723 235.13160448991857 0 235.13160448991857 -39.124712525494033 0 0 0 0 278.02104491690989 309.40707527047743 0 309.40707527047743 -115.79171896012099 0 0 0 0 319.96814826829359 248.93650817745947 0 248.93650817745947 -30.89513586369867 0 0 0 0 -272.1347333900585 -434.88690487106982 0 -434.88690487106982 -413.24518692104903 0 0 0 0 17.039949344390521 -4.8370333143189548 0 -4.8370333143189548 1.3147652379274497 0 0 0 0 14.758422725339187 479.19862384701446 0 479.19862384701446 663.50647343277728 0 0 0 0 188.29688767893822 147.28740484985428 0 147.28740484985428 -12.024297469943122 0 0 0 0 179.12399440044464 241.80742090875918 0 241.80742090875918 102.42001160557993 0 0 0 0 97.802578142873244 3.2109415010709199 0 3.2109415010709199 362.48676926054213 0 0 0 0 234.89667501871008 349.04707138493086 0 349.04707138493086 39.967853640027897 0 0 0 0 108.19649657196715 348.47512977451697 0 348.47512977451697 354.91114198063406 0 0 0 0 176.73933482931625 204.49582967547019 0 204.49582967547019 292.46234076023029 0 0 0 0 111.67409785783093 361.20618899241208 0 361.20618899241208 396.60943119890362 0 0 0 0 6.8445007063710364 162.32993765516403 0 162.32993765516403 648.93511182762268 0 0 0 0 221.55374769805348 13.137893197190351 0 13.137893197190351 -193.49412350123566 0 0 0 0 48.577599973543556 -8.9966862313124949 0 -8.9966862313124949 0.65464400838294878 0 0 0 0 33.074321898622657 482.55783518738565 0 482.55783518738565 -563.43782344918145 0 0 0 0 323.42712066388049 -399.02085773968975 0 -399.02085773968975 -957.98763543405221 0 0 0 0 233.54531565238722 86.544013962702593 0 86.544013962702593 -166.05127767167141 0 0 0 0 231.07596210855991 130.57489182601057 0 130.57489182601057 -89.011839701775898 0 0 0 0 101.1690681470609 -30.899161252697183 0 -30.899161252697183 -11.682415555587795 0 0 0 0 34.802699561116761 18.713136669168328 0 18.713136669168328 -9.2619306642361714 0 0 0 0 586.27060510539195 287.70944992683349 0 287.70944992683349 120.1460166749057 0 0 0 0 375.92354731596424 704.36762978168736 0 704.36762978168736 255.6473894145056 0 0 0 0 -127.15113761318207 -1808.9313598463705 0 -1808.9313598463705 5615.9940540019161 0 0 0 0 -224.42770770895004 498.33404482895367 0 498.33404482895367 666.0590339069222 0 0 0 0 100.14393145375652 518.1837746912388 0 518.1837746912388 520.14289307208492 0 0 0 0 183.07087829755619 698.48044218604264 0 698.48044218604264 444.84472792386805 0 0 0 0 284.8601303256728 536.91222394421129 0 536.91222394421129 47.014769362351217 0 0 0 0 221.65231628139736 574.1060645053858 0 574.1060645053858 374.69816462014205 0 0 0 0 212.8487283962022 360.93954555627897 0 360.93954555627897 190.65543125721842 0 0 0 0 270.9507904535858 309.77081960496253 0 309.77081960496253 -132.00267807695855 0 0 0 0 219.42744375011534 442.24481502675008 0 442.24481502675008 171.5976743452884 0 0 0 0 283.24737578087661 432.50384955883419 0 432.50384955883419 113.13367530110008 0 0 0 0 314.18028675327241 216.47477211614483 0 216.47477211614483 -260.24626363417519 0 0 0 0 185.60891965126211 265.71635585359491 0 265.71635585359491 -101.94356695155784 0 0 0 0 109.70890662247984 -5.2631202272439168 0 -5.2631202272439168 -337.76534286022979 0 0 0 0 230.92659551451288 203.2029019092015 0 203.2029019092015 -222.94546726775116 0 0 0 0 -265.62789850690024 -1.6422149545651337 0 -1.6422149545651337 -178.26176229003886 0 0 0 0 -257.16833348249975 90.649219357515506 0 90.649219357515506 -140.78042416041717 0 0 0 0 21.994373847395991 13.870476918298159 0 13.870476918298159 -16.528083629210016 0 0 0 0 -218.2193748567297 103.05238871647634 0 103.05238871647634 -141.77824148343825 0 0 0 0 -205.7632657653412 105.6416833630949 0 105.6416833630949 -225.51894744212768 0 0 0 0 -39.49929942082963 27.118116884170377 0 27.118116884170377 -205.49513705411118 0 0 0 0 -151.63118030247279 122.72341456784307 0 122.72341456784307 -224.4374171902972 0 0 0 0 -192.92483342092601 211.57726280851284 0 211.57726280851284 -268.48456764591174 0 0 0 0 -3.0867714894645815 64.740900994186433 0 64.740900994186433 -268.2220851462971 0 0 0 0 0.88745944542461075 154.36836151491752 0 154.36836151491752 -173.06999797636627 0 0 0 0 35.495823686463837 13.677305640563787 0 13.677305640563787 4.2467764512000699 0 0 0 0 -17.383764912287006 134.46534414107691 0 134.46534414107691 -339.90614969406352 0 0 0 0 -19.178062495811901 132.44094429345614 0 132.44094429345614 -300.62360180676023 0 0 0 0 -214.24025597920991 169.32334284214267 0 169.32334284214267 -251.90639672945872 0 0 0 0 -112.08356466253463 208.83240929359636 0 208.83240929359636 -278.61865283338921 0 0 0 0 271.43460311175295 14.43565968347221 0 14.43565968347221 -133.79472354255176 0 0 0 0 -124.9705428712914 191.99878634925881 0 191.99878634925881 -265.55856715575464 0 0 0 0 53.979005534590726 22.081085693760024 0 22.081085693760024 8.5671345950919218 0 0 0 0 739.99153670936357 -238.94337238113985 0 -238.94337238113985 95.746425925736389 0 0 0 0 144.22537172868397 -135.95425272257762 0 -135.95425272257762 79.185183888072288 0 0 0 0 64.386161914109834 -340.77865382329355 0 -340.77865382329355 281.65574248980874 0 0 0 0 223.3702910034408 -145.88194798435757 0 -145.88194798435757 98.857020128064846 0 0 0 0 228.82224835889429 -265.33438525237011 0 -265.33438525237011 209.14613796697608 0 0 0 0 224.96262885536407 -182.21090048062877 0 -182.21090048062877 252.88424120509853 0 0 0 0 378.01594522732194 -173.55801327402111 0 -173.55801327402111 241.44443662488467 0 0 0 0 403.27273308546137 40.759862169191024 0 40.759862169191024 132.1938426151969 0 0 0 0 410.54007729062869 -40.138372240404351 0 -40.138372240404351 250.43512206873703 0 0 0 0 296.69637423766108 -132.06794807799952 0 -132.06794807799952 319.49434671797326 0 0 0 0 351.40267569971184 -14.140507615430977 0 -14.140507615430977 284.78826946000561 0 0 0 0 295.61627238175424 -141.96765125287357 0 -141.96765125287357 376.82074650983077 0 0 0 0 126.85989241185598 -198.84416923587105 0 -198.84416923587105 321.9139597748399 0 0 0 0 162.01294298074936 -282.00607949290702 0 -282.00607949290702 256.36237355784965 0 0 0 0 -50.214057533248706 -185.04462640980267 0 -185.04462640980267 349.05414917532471 0 0 0 0 40.109901097341208 -367.27202651157427 0 -367.27202651157427 252.84291863957969 0 0 0 0 -31.624650648023817 -277.26232668123248 0 -277.26232668123248 176.87004810404255 0 0 0 0 203.54703878918372 11.284757916499075 0 11.284757916499075 311.83155559248462 0 0 0 0 259.74515192456602 -153.90858555554723 0 -153.90858555554723 84.750093895699138 0 0 0 0 -59.610786503952113 -211.28864101193085 0 -211.28864101193085 104.94112225484878 0 0 0 0 207.29246169447288 -131.68764540050961 0 -131.68764540050961 -311.83377935246608 0 0 0 0 -68.698827555708704 -6.0940408946944444 0 -6.0940408946944444 -439.52672328357312 0 0 0 0 -422.28540612552752 -247.09720779646136 0 -247.09720779646136 190.95489775440183 0 0 0 0 7.9983513325550177 -5.3775286088021659 0 -5.3775286088021659 4.1973582237165932 0 0 0 0 1026.0577634025103 -37.842631927845559 0 -37.842631927845559 -210.75987247394369 0 0 0 0 64.448531816509785 670.65581959794986 0 670.65581959794986 672.87098572073091 0 0 0 0 -168.85199766718506 -537.81733649398143 0 -537.81733649398143 175.17186641673652 0 0 0 0 763.81341125943436 -577.94314452101423 0 -577.94314452101423 273.17152247762533 0 0 0 0 296.96406853260123 -499.17294427854904 0 -499.17294427854904 667.32362414497004 0 0 0 0 207.50664387208235 -268.28473742406004 0 -268.28473742406004 118.22613330796457 0 0 0 0 416.43492863113352 94.152730079382764 0 94.152730079382764 351.46950617632319 0 0 0 0 186.04120966313349 -74.964324444433259 0 -74.964324444433259 675.7932366422674 0 0 0 0 369.50127386535314 -582.38334706537853 0 -582.38334706537853 177.35597486708139 0 0 0 0 7.4851308519137092 -612.11349559318251 0 -612.11349559318251 195.57579720039826 0 0 0 0 35.253287636733148 -22.803459596972516 0 -22.803459596972516 120.90261774022292 0 0 0 0 142.00840434388374 -113.60555351118137 0 -113.60555351118137 167.1337243206126 0 0 0 0 181.37923251447501 -71.541903924459803 0 -71.541903924459803 50.023132890155466 0 0 0 0 38.002638291334733 3.7964084744925515 0 3.7964084744925515 27.153882553425319 0 0 0 0 -13.701222526899073 8.9713863101096649 0 8.9713863101096649 55.936881880743385 0 0 0 0 -40.669152132817544 39.199769913550881 0 39.199769913550881 54.87008047951349 0 0 0 0 44.224738600023557 58.583959253641297 0 58.583959253641297 1.0768257447275573 0 0 0 0 156.4376452871511 -5.5184642836686635 0 -5.5184642836686635 57.082237548185731 0 0 0 0 23.802827648178209 10.918238582201411 0 10.918238582201411 95.187473893299284 0 0 0 0 227.19302062358474 -128.27762923814589 0 -128.27762923814589 234.91508344019076 0 0 0 0 120.06033759046113 -32.516200294593091 0 -32.516200294593091 204.37139002537788 0 0 0 0 229.5559298445296 -226.79250703648904 0 -226.79250703648904 299.29184521711431 0 0 0 0 317.36875916097779 -308.5697849175076 0 -308.5697849175076 196.33440266063826 0 0 0 0 313.4351349301869 -302.65470940255591 0 -302.65470940255591 190.35636470005193 0 0 0 0 251.09215683976072 -364.29094524187803 0 -364.29094524187803 270.85766795595373 0 0 0 0 341.53439718062873 -445.86119374169175 0 -445.86119374169175 316.67558150587047 0 0 0 0 359.39651191362645 -459.03508127547002 0 -459.03508127547002 304.39364149019275 0 0 0 0 424.72650857488043 -380.28894139521253 0 -380.28894139521253 187.41637152843759 0 0 0 0 610.86809044393522 -464.57953795276353 0 -464.57953795276353 20.228780569599621 0 0 0 0 609.2327500487736 -473.23539440940658 0 -473.23539440940658 215.57588596748974 0 0 0 0 -1.1780153547578891 -3.2597560679984596 0 -3.2597560679984596 2.5616234347260303 0 0 0 0 411.86036255364888 -351.28148702510771 0 -351.28148702510771 140.59706981636191 0 0 0 0 22.701464585843496 19.342590153064521 0 19.342590153064521 20.822234944473166 0 0 0 0 481.0374953483406 -329.3512619594967 0 -329.3512619594967 133.69989198233634 0 0 0 0 530.76877566440089 -57.373691888200028 0 -57.373691888200028 13.35518364948075 0 0 0 0 3.6048577201542003 -1.6165500938742952 0 -1.6165500938742952 0.39232240673948482 0 0 0 0 400.57906551878841 -243.3168712630054 0 -243.3168712630054 41.763694575920454 0 0 0 0 32.326054884608311 -34.146439306660682 0 -34.146439306660682 39.237274899754993 0 0 0 0 5.5228125970170368 -5.5399731692159548 0 -5.5399731692159548 9.4029848918380594 0 0 0 0 9.7130107025216148 -8.6861505290584446 0 -8.6861505290584446 4.671635146024081 0 0 0 0 40.783675940212561 -3.8470692684004462 0 -3.8470692684004462 3.347281245376962 0 0 0 0 -19.304850707863807 23.829408458822172 0 23.829408458822172 9.4515257538782862 0 0 0 0 11.250031042514877 1.0000926570686275 0 1.0000926570686275 2.2475568420970866 0 0 0 0 51.565101989006507 -13.294952879291372 0 -13.294952879291372 4.5049837321748498 0 0 0 0 19.522110959158226 2.7387322498516511 0 2.7387322498516511 -1.6388338013462418 0 0 0 0 43.823105306313664 0.37213107917693833 0 0.37213107917693833 4.9441010822456519 0 0 0 0 39.178734370811242 -8.2360047663953679 0 -8.2360047663953679 1.4539888663176042 0 0 0 0 49.242127723096928 -12.220225365354224 0 -12.220225365354224 0.20636836907533507 0 0 0 0 38.72475689978819 6.8442580414175609 0 6.8442580414175609 -1.6670732478760328 0 0 0 0 30.813338564242045 0.95767883359037853 0 0.95767883359037853 -1.5188935678720572 0 0 0 0 49.911565423702996 -6.1717377438715744 0 -6.1717377438715744 4.4655970103198399 0 0 0 0 32.894176950484962 3.8121558287003054 0 3.8121558287003054 -4.9086076877701617 0 0 0 0 100.43566887862107 -21.983139708113868 0 -21.983139708113868 79.505854286914655 0 0 0 0 49.856607362205978 -6.1875325176462184 0 -6.1875325176462184 12.575618641359597 0 0 0 0 -13.419927370511687 11.6887888533075 0 11.6887888533075 -9.0736668249055583 0 0 0 0 -21.629989883789676 -2.6482381268485824 0 -2.6482381268485824 35.256169846675675 0 0 0 0 22.630145002795416 13.057688011150873 0 13.057688011150873 -0.29184979474850081 0 0 0 0 39.605203065913102 15.70222075349173 0 15.70222075349173 -1.1343614968805698 0 0 0 0 -17.313233215827495 64.662656117178358 0 64.662656117178358 -25.335112044359448 0 0 0 0 57.948345533994143 -0.69653472664168703 0 -0.69653472664168703 -9.348425701475378 0 0 0 0 -79.503579938027542 87.199642712724653 0 87.199642712724653 10.456941069731897 0 0 0 0 42.809809134641256 6.0636685434264592 0 6.0636685434264592 -22.081314216439523 0 0 0 0 13.223359494509921 -1.3348375464876341 0 -1.3348375464876341 7.4252208076383592 0 0 0 0 109.6419010351965 -40.310785310485244 0 -40.310785310485244 25.708483482119846 0 0 0 0 170.73313074363614 -220.40744867073295 0 -220.40744867073295 328.74201489612551 0 0 0 0 96.202908242463309 -262.0101018657665 0 -262.0101018657665 483.94093212336838 0 0 0 0 2.3111775064535323 -99.60946391270204 0 -99.60946391270204 381.13017242775368 0 0 0 0 171.51924998373215 -219.36396521366407 0 -219.36396521366407 273.31044313140956 0 0 0 0 81.418210842341068 -209.95702496501281 0 -209.95702496501281 367.26474467997105 0 0 0 0 77.955923184208586 -288.82067692622678 0 -288.82067692622678 453.17309333239064 0 0 0 0 173.00276271691837 -434.19677339690861 0 -434.19677339690861 515.74002565623914 0 0 0 0 84.140405486838972 -331.50695118280566 0 -331.50695118280566 574.90432563801642 0 0 0 0 174.73076138287433 -309.76869068986844 0 -309.76869068986844 449.17892953136197 0 0 0 0 82.01601441267303 -316.54363244934837 0 -316.54363244934837 485.69093697552762 0 0 0 0 70.264738909769221 -339.95984960744101 0 -339.95984960744101 508.37819790197091 0 0 0 0 579.84798623824463 -664.97711233329073 0 -664.97711233329073 345.88641521550971 0 0 0 0 495.00223154158448 -380.15493606752557 0 -380.15493606752557 355.85676602027252 0 0 0 0 201.02176305364992 -246.23495947508263 0 -246.23495947508263 304.13070701957076 0 0 0 0 95.731601807405241 -482.69725717484789 0 -482.69725717484789 444.95601267087341 0 0 0 0 23.590701362380678 -6.9450592640169333 0 -6.9450592640169333 -41.637139082476232 0 0 0 0 149.75447247788725 -97.263505088431089 0 -97.263505088431089 36.508780914683939 0 0 0 0 349.84800404003181 -35.15159859817868 0 -35.15159859817868 -355.81491573655694 0 0 0 0 112.72611429082463 37.816967713122722 0 37.816967713122722 21.221596890514775 0 0 0 0 62.116405951746856 -111.6570776377398 0 -111.6570776377398 71.508817139811526 0 0 0 0 2.3555054357668297 1.68540131138748 0 1.68540131138748 0.47988232028706967 0 0 0 0 3874.1843730491964 -3023.2518470681534 0 -3023.2518470681534 2227.9983216024557 0 0 0 0 64.816649276809557 32.645109799238675 0 32.645109799238675 7.3743013038801095 0 0 0 0 65.685078464928665 204.32462188685406 0 204.32462188685406 -107.49361095641636 0 0 0 0 62.990044632846548 130.75271335269485 0 130.75271335269485 18.990643768382142 0 0 0 0 -50.684967669047182 13.638134110530473 0 13.638134110530473 -18.96024418352772 0 0 0 0 64.643123027111869 52.761093289627752 0 52.761093289627752 -103.67265784728038 0 0 0 0 101.90564587910194 82.25365091024878 0 82.25365091024878 198.99036849648274 0 0 0 0 330.25825224755681 -66.753818303320486 0 -66.753818303320486 68.347896906396272 0 0 0 0 131.23120518273936 38.48384025126245 0 38.48384025126245 65.090775372642838 0 0 0 0 -40.153919498130563 175.59079901812061 0 175.59079901812061 65.495471058856992 0 0 0 0 41.919408206173102 -47.971511985851748 0 -47.971511985851748 77.309979394845413 0 0 0 0 -81.565341126311978 250.09115775265298 0 250.09115775265298 -227.02642038916383 0 0 0 0 -49.493526566919172 -7.2435128265660751 0 -7.2435128265660751 582.10042160905141 0 0 0 0 602.91059674542339 262.96445750883959 0 262.96445750883959 -833.96208554333498 0 0 0 0 -106.84400860083406 181.10725990987521 0 181.10725990987521 -298.90403053087175 0 0 0 0 -346.3335475436761 550.01419883446579 0 550.01419883446579 -419.62854091071858 0 0 0 0 10.990254584164774 1.771619331057579 0 1.771619331057579 -8.9921152964806037 0 0 0 0 371.39310647573438 80.328658578942282 0 80.328658578942282 -227.41705234009351 0 0 0 0 6273.0946998478612 -2982.2457777729123 0 -2982.2457777729123 136.65001003878569 0 0 0 0 7340.717893841269 -2088.4860383225468 0 -2088.4860383225468 -438.98257024304894 0 0 0 0 6.8603063576114067 -2.0753298996107077 0 -2.0753298996107077 -15.621676815539848 0 0 0 0 171.78602632785623 500.50885684542482 0 500.50885684542482 -826.05179871984319 0 0 0 0 843.49112017720472 119.59185609943768 0 119.59185609943768 -810.84125059624012 0 0 0 0 -436.49630323758174 277.24260028144909 0 277.24260028144909 -187.42708628517175 0 0 0 0 -215.57121320492297 299.00300472860545 0 299.00300472860545 -400.58215540188939 0 0 0 0 714.04059544183838 -538.41054920886427 0 -538.41054920886427 202.09145506982304 0 0 0 0 145.41912352986401 -207.51736112350181 0 -207.51736112350181 209.71130838340287 0 0 0 0 593.59683619131101 -504.60228490787335 0 -504.60228490787335 116.01425338376021 0 0 0 0 479.78252316289581 -230.57122868140061 0 -230.57122868140061 -186.88691893063515 0 0 0 0 210.28830663082772 -429.40733389982347 0 -429.40733389982347 423.4365223565992 0 0 0 0 635.87127224959841 -399.45078307787037 0 -399.45078307787037 -132.32940129474773 0 0 0 0 864.2294196781877 -574.72950822542066 0 -574.72950822542066 -115.93472607109072 0 0 0 0 774.32377014242229 -315.03147601099283 0 -315.03147601099283 -197.95183784137521 0 0 0 0 703.93025145867432 -252.10607799329784 0 -252.10607799329784 -248.41367110768806 0 0 0 0 693.20710236949526 -438.5218302671974 0 -438.5218302671974 -108.50110948320784 0 0 0 0 887.00952361572854 -509.56303366083102 0 -509.56303366083102 -39.892328865983472 0 0 0 0 928.30441642311052 -375.36192924141642 0 -375.36192924141642 -509.53830513759954 0 0 0 0 829.5901054911883 -645.02439502191487 0 -645.02439502191487 319.592210970422 0 0 0 0 -341.19609050141298 158.5592806435352 0 158.5592806435352 -147.21628974143459 0 0 0 0 2472.1919510706794 -3195.1172722829419 0 -3195.1172722829419 3510.6028767584567 0 0 0 0 995.23942142381566 -603.03472961694388 0 -603.03472961694388 0.21520320994886788 0 0 0 0 1028.8169664669258 -675.85726377085007 0 -675.85726377085007 -45.369154152676401 0 0 0 0 1484.911549570912 -445.05917131374736 0 -445.05917131374736 -1396.0869844195058 0 0 0 0 1894.7044446238433 -1616.7627300353092 0 -1616.7627300353092 -509.65354038346982 0 0 0 0 1408.001552530448 -209.92188459803538 0 -209.92188459803538 428.03130199741122 0 0 0 0 1398.0463280481636 -490.02816012918981 0 -490.02816012918981 573.33760458372126 0 0 0 0 951.48909369790636 -466.80647261412196 0 -466.80647261412196 996.75397643353517 0 0 0 0 1154.7465808979323 -286.94705469703604 0 -286.94705469703604 905.07954212071854 0 0 0 0 1225.079448882374 -588.08577041406215 0 -588.08577041406215 1717.4138681531135 0 0 0 0 1155.2702672987652 -312.57640579411054 0 -312.57640579411054 268.87204793801084 0 0 0 0 1305.2463966203431 -382.10351571957722 0 -382.10351571957722 -4.3655427057692577 0 0 0 0 1157.6456355282207 -437.8285994255948 0 -437.8285994255948 255.07453104133901 0 0 0 0 908.41170231388969 -567.28497270057801 0 -567.28497270057801 390.1599577732095 0 0 0 0 1154.2943915786745 -456.00382024651799 0 -456.00382024651799 343.6416950134161 0 0 0 0 -7.8570542653086903 -12.424742233292434 0 -12.424742233292434 -12.493628878061362 0 0 0 0 965.47379667103814 -641.65733212710074 0 -641.65733212710074 392.59988093167249 0 0 0 0 1527.1775918935946 -763.21730781488134 0 -763.21730781488134 -126.43504002695681 0 0 0 0 1142.2236997698637 -864.30793964357713 0 -864.30793964357713 489.99479428423092 0 0 0 0 63.446351099486492 -211.57924964600869 0 -211.57924964600869 -17.450276860774125 0 0 0 0 -26.870946578186704 -280.67413581122537 0 -280.67413581122537 141.49397224865211 0 0 0 0 -61.712535449412826 -209.6956952997723 0 -209.6956952997723 6.7869833539896263 0 0 0 0 -778.98567010532133 -128.95254209076489 0 -128.95254209076489 138.94069335848272 0 0 0 0 25.756741716209945 -742.97200493496257 0 -742.97200493496257 -2.5478585465100423 0 0 0 0 348.03181100235815 -360.41726820698341 0 -360.41726820698341 -186.10745232876468 0 0 0 0 781.0655370517261 -873.89147855099611 0 -873.89147855099611 53.991606770051817 0 0 0 0 -1.8652467503863335 -4.1405859704639596 0 -4.1405859704639596 -5.1775934752755424 0 0 0 0 1167.6308743158406 -699.43376865134576 0 -699.43376865134576 128.97444741524225 0 0 0 0 244.71592499625694 -806.91851062526985 0 -806.91851062526985 65.3306260748966 0 0 0 0 -186.60423247738981 -641.52701892921345 0 -641.52701892921345 386.97865496319537 0 0 0 0 312.6514711688651 -517.48440965188149 0 -517.48440965188149 398.63174894185124 0 0 0 0 297.23946852452355 -624.69715452575451 0 -624.69715452575451 412.17039932517446 0 0 0 0 -198.51827103001324 -223.06370054548825 0 -223.06370054548825 336.90266907619383 0 0 0 0 143.1762486924199 -376.07766370829347 0 -376.07766370829347 402.91079469634565 0 0 0 0 362.34246792982594 -452.17907379594067 0 -452.17907379594067 247.37796032803635 0 0 0 0 797.38149942873133 -497.8014067948061 0 -497.8014067948061 235.08363165170007 0 0 0 0 1705.2233901551153 -575.0303096450267 0 -575.0303096450267 -6.0164081122040898 0 0 0 0 858.15645927903824 -853.95799080132497 0 -853.95799080132497 538.66076961781789 0 0 0 0 1126.078466293261 -564.62474799276595 0 -564.62474799276595 19.731583013755198 0 0 0 0 1106.6801118647272 -472.97144081387785 0 -472.97144081387785 -112.28542063453642 0 0 0 0 391.51825586730774 -285.26342300886745 0 -285.26342300886745 3.5936080857779871 0 0 0 0 616.56831459035311 -467.91004264985645 0 -467.91004264985645 -68.33704852210218 0 0 0 0 1209.6063830264357 140.81234526455106 0 140.81234526455106 -334.03845728793817 0 0 0 0 2228.0793917639094 93.600012299472553 0 93.600012299472553 -906.08857573672867 0 0 0 0 3500.3613075549583 398.89888361442246 0 398.89888361442246 -922.52083584693764 0 0 0 0 1915.4417180318123 -357.58568093493682 0 -357.58568093493682 -451.10960827098927 0 0 0 0 3499.1956874210227 -324.50848242662613 0 -324.50848242662613 -884.90638633488641 0 0 0 0 2336.0686386578891 -700.19891590444968 0 -700.19891590444968 -562.22323062941734 0 0 0 0 2077.5133637514737 -288.17538235337275 0 -288.17538235337275 -451.36805048174392 0 0 0 0 2041.5382647633742 -1343.5696136979327 0 -1343.5696136979327 353.59899061751463 0 0 0 0 3499.8664843978331 -911.68827847006924 0 -911.68827847006924 -539.0267211770971 0 0 0 0 1768.2826347457158 -1194.2269200075925 0 -1194.2269200075925 401.81695580666377 0 0 0 0 3494.574864451657 -2492.2384823219245 0 -2492.2384823219245 1358.3592912673082 0 0 0 0 298.12508597009582 -576.39238235668245 0 -576.39238235668245 1527.9157202727649 0 0 0 0 1299.1955974213197 -1407.551574811609 0 -1407.551574811609 1175.9572825626033 0 0 0 0 588.24874854501104 -732.6832187750648 0 -732.6832187750648 778.27620685178454 0 0 0 0 743.53069565565966 -628.11814162534711 0 -628.11814162534711 602.12594228705871 0 0 0 0 214.17032144292898 -371.66004304393277 0 -371.66004304393277 518.02500170781457 0 0 0 0 425.19294276527944 -393.35833867478891 0 -393.35833867478891 489.97090497605859 0 0 0 0 116.65779225505685 -393.75302786893053 0 -393.75302786893053 766.55297098545543 0 0 0 0 218.65413732668458 -250.48448435403634 0 -250.48448435403634 496.21276379494338 0 0 0 0 2.4171056496415986 -207.66461935384268 0 -207.66461935384268 559.85792963487711 0 0 0 0 163.31397154749538 -376.63142120267923 0 -376.63142120267923 968.01891186819012 0 0 0 0 241.56105351127917 -152.41504216350586 0 -152.41504216350586 537.65398337065835 0 0 0 0 425.3260761508318 -607.4683525156529 0 -607.4683525156529 985.37292352137956 0 0 0 0 129.57313660663931 -217.09684995419275 0 -217.09684995419275 500.32865186068648 0 0 0 0 -156.6366508663632 11.728609000514098 0 11.728609000514098 883.16962208801306 0 0 0 0 41.459485605540664 -10.821206624889451 0 -10.821206624889451 3.0616331316410066 0 0 0 0 237.02301515216095 16.425739941973234 0 16.425739941973234 -3.5143068670386128 0 0 0 0 8.4689745692885481 1.8548217019733784 0 1.8548217019733784 312.49994532373603 0 0 0 0 77.637546351856145 -149.21053012959328 0 -149.21053012959328 221.76267953181923 0 0 0 0 41.516053274315055 -2.9321452515958697 0 -2.9321452515958697 -3.7402700894837642 0 0 0 0 85.243970208990504 69.240338234660157 0 69.240338234660157 33.178930827800286 0 0 0 0 54.25274920114316 -10.135323383968966 0 -10.135323383968966 0.13454465479549071 0 0 0 0 37.512252651076551 -3.5733503485311289 0 -3.5733503485311289 0.72438549382106387 0 0 0 0 54.412098200511537 -11.142228947862577 0 -11.142228947862577 3.5425633000013477 0 0 0 0 55.64026915530394 -3.0786346987673028 0 -3.0786346987673028 -0.12220862000685884 0 0 0 0 39.427698926272569 -10.520405278940871 0 -10.520405278940871 -7.7397864587039749 0 0 0 0 -28.161531132354867 -59.072678300211116 0 -59.072678300211116 68.347405203343328 0 0 0 0 36.215343214615302 -3.1944896774218563 0 -3.1944896774218563 8.4944233323565026 0 0 0 0 35.024060063552554 -10.308300288523768 0 -10.308300288523768 1.5310586945211515 0 0 0 0 37.730484320722553 15.46367500239537 0 15.46367500239537 8.1971107843328586 0 0 0 0 480.95302775387245 -18.549614646609957 0 -18.549614646609957 44.989265312167419 0 0 0 0 456.24116618650442 -70.877308559142989 0 -70.877308559142989 26.160143847933767 0 0 0 0 774.14512056601234 -136.51855824324434 0 -136.51855824324434 -8.2717908001202431 0 0 0 0 275.03295041805541 -1573.4471070191012 0 -1573.4471070191012 4293.8135505298987 0 0 0 0 3494.0513014918174 1144.2998865500001 0 1144.2998865500001 -61.261277364116175 0 0 0 0 15.859165858927128 -7.550234005483226 0 -7.550234005483226 6.0730597541541327 0 0 0 0 481.86006616670238 -433.86327853868465 0 -433.86327853868465 1052.9933582486738 0 0 0 0 488.77868009076337 124.70154743344506 0 124.70154743344506 24.202610408337065 0 0 0 0 352.57869631213543 -541.16705325848761 0 -541.16705325848761 976.81275003204451 0 0 0 0 40.297657116886995 -16.730588956969861 0 -16.730588956969861 8.0343981312237567 0 0 0 0 12.60271690688576 0.32209117001471554 0 0.32209117001471554 -2.8962896962136568 0 0 0 0 2204.8182248281282 -526.72191582205085 0 -526.72191582205085 35.98517949854886 0 0 0 0 5.9232341682345293 1.7235033909718638 0 1.7235033909718638 -0.51152055830806875 0 0 0 0 -66.783531529159518 217.15287565153477 0 217.15287565153477 -72.001029185770932 0 0 0 0 2170.7379446827472 -400.70094162296516 0 -400.70094162296516 -24.388352595272124 0 0 0 0 2837.9863406583463 -723.2083813660654 0 -723.2083813660654 38.567699361846721 0 0 0 0 3498.9436436995093 -475.8516225954225 0 -475.8516225954225 -515.82095047328835 0 0 0 0 3031.3244275935322 -146.98424029468566 0 -146.98424029468566 -542.43740245657568 0 0 0 0 2578.6623922919862 9.8936579895656678 0 9.8936579895656678 -588.47223836911769 0 0 0 0 1008.1967770027513 -401.32925813273027 0 -401.32925813273027 28.08023384099468 0 0 0 0 125.12351262955053 71.554826890356139 0 71.554826890356139 -204.85044716407566 0 0 0 0 354.81492681514646 27.585137764056185 0 27.585137764056185 32.17197546872012 0 0 0 0 8.9668063040756749 4.1280180684521142 0 4.1280180684521142 -0.83975042686780332 0 0 0 0 441.24520873477923 158.61917435376074 0 158.61917435376074 63.014928210829567 0 0 0 0 -27.637737197132083 144.18093980841286 0 144.18093980841286 -145.79974795306521 0 0 0 0 49.987244054398616 -3.2348406641481233 0 -3.2348406641481233 -77.510492161355387 0 0 0 0 11.191595580559806 8.488703169569817 0 8.488703169569817 -66.585634683327044 0 0 0 0 -18.691390759879141 -3.1502934852287581 0 -3.1502934852287581 -56.703798481699323 0 0 0 0 31.348274960517301 32.246269173632129 0 32.246269173632129 -96.322738275444067 0 0 0 0 58.947900909319287 -17.837186774316137 0 -17.837186774316137 -77.193967326625256 0 0 0 0 57.450097650740645 -48.1952572429405 0 -48.1952572429405 -30.943608035178499 0 0 0 0 9.6244569101982052 -95.681449146167154 0 -95.681449146167154 187.92254587245165 0 0 0 0 178.62985203549033 209.07914674329982 0 209.07914674329982 149.83651965658623 0 0 0 0 6.0033925266729824 0.35620384583448228 0 0.35620384583448228 0.12407398396959551 0 0 0 0 58.505417052439952 -38.286672906210285 0 -38.286672906210285 -21.097672460547756 0 0 0 0 51.866958620646983 -63.406743060833264 0 -63.406743060833264 10.080235415449351 0 0 0 0 59.713791116766515 -85.278258807208516 0 -85.278258807208516 88.295763225876485 0 0 0 0 167.74048644298455 -86.470104479967375 0 -86.470104479967375 -53.802362567590833 0 0 0 0 103.35147530375252 -157.00857262764447 0 -157.00857262764447 83.484547972960371 0 0 0 0 -98.299020624439436 222.57948050073728 0 222.57948050073728 463.63070470826261 0 0 0 0 239.60987177905918 -95.141593800355253 0 -95.141593800355253 -79.855928671206243 0 0 0 0 148.79954983304197 5.9320410143036071 0 5.9320410143036071 -180.74700294337984 0 0 0 0 -352.82532350117253 177.14573485696113 0 177.14573485696113 463.86105495179896 0 0 0 0 341.35708625050029 222.42114240655872 0 222.42114240655872 -379.05704774969365 0 0 0 0 272.54471208532777 115.06837848998322 0 115.06837848998322 -124.55456613002048 0 0 0 0 122.62467866353836 202.49640708140467 0 202.49640708140467 152.13762088473715 0 0 0 0 124.06493673130581 109.57677296956506 0 109.57677296956506 -90.265246988735953 0 0 0 0 71.63372949893558 2.8343083784367273 0 2.8343083784367273 -6.0458429586265572 0 0 0 0 -42.619905412204389 -168.40422013574275 0 -168.40422013574275 -215.268157642365 0 0 0 0 221.50208573110285 -57.927065082272065 0 -57.927065082272065 -309.24624140003493 0 0 0 0 111.5993227960862 -152.12890643850915 0 -152.12890643850915 -362.74416037762239 0 0 0 0 14.550678484444632 0.81537746653343568 0 0.81537746653343568 3.010318835688095 0 0 0 0 1417.6362510546242 813.46235679649442 0 813.46235679649442 276.19654356043657 0 0 0 0 29.7520985917416 16.480342468325567 0 16.480342468325567 12.714507036830884 0 0 0 0 1162.6024843195519 -899.27731653103774 0 -899.27731653103774 510.66681527834493 0 0 0 0 -521.22263442301846 545.70650544090802 0 545.70650544090802 -266.76014677753778 0 0 0 0 16.976860785484433 -5.1244521983179965 0 -5.1244521983179965 -9.7576951894689845 0 0 0 0 2155.8542954033837 -133.30544760595791 0 -133.30544760595791 -39.16563303218912 0 0 0 0 -33.854535297654365 -795.80759597259828 0 -795.80759597259828 120.80295713047458 0 0 0 0 3500.274037978561 -843.9289225255967 0 -843.9289225255967 1274.0525460853844 0 0 0 0 1910.8186623873653 -947.55113735947714 0 -947.55113735947714 -12.473855946483944 0 0 0 0 4024.2944250262299 -1216.6597124070904 0 -1216.6597124070904 -230.95157096808833 0 0 0 0 4094.6874472999625 -510.44996222202445 0 -510.44996222202445 -65.803526296662113 0 0 0 0 1905.6006413224386 561.37431243034644 0 561.37431243034644 96.286641054323425 0 0 0 0 1197.603639006069 -555.66442211140725 0 -555.66442211140725 23.794600778450729 0 0 0 0 3497.3656630577389 -1338.8025231110626 0 -1338.8025231110626 -91.66863487228477 0 0 0 0 10.149748776195821 7.1871210416973668 0 7.1871210416973668 7.4753812892865588 0 0 0 0 45.193198287746782 256.74100562986382 0 256.74100562986382 -274.48357866487186 0 0 0 0 308.82356723505927 -49.158913494130132 0 -49.158913494130132 -125.24425433022907 0 0 0 0 243.17374768430454 202.53256329752139 0 202.53256329752139 493.61388440068828 0 0 0 0 -96.464156419823667 1086.7982053682456 0 1086.7982053682456 1223.4443235846777 0 0 0 0 1787.8041962749448 647.07919071813069 0 647.07919071813069 -565.4000611023265 0 0 0 0 3492.7911247627599 2029.6536790452178 0 2029.6536790452178 98.299742324035549 0 0 0 0 1599.7128021574808 926.38191421974227 0 926.38191421974227 212.53107157061066 0 0 0 0 846.74706318305107 219.08468730544223 0 219.08468730544223 -415.34979164306776 0 0 0 0 1900.9067573103566 486.39658952264551 0 486.39658952264551 -496.75774490203889 0 0 0 0 1849.1720703376668 624.53813341616069 0 624.53813341616069 -575.65001225076617 0 0 0 0 507.1306112663824 375.43009759917248 0 375.43009759917248 -526.54263608004339 0 0 0 0 96.676908945082687 -356.62026959888942 0 -356.62026959888942 -100.92081241520464 0 0 0 0 961.8820171370171 -90.645962325559424 0 -90.645962325559424 -255.96070355977818 0 0 0 0 866.34243143802451 132.4063265186754 0 132.4063265186754 -78.129414288258403 0 0 0 0 -29.568942389421863 -35.01315582941691 0 -35.01315582941691 90.669257993888323 0 0 0 0 289.41211695311358 -290.42235933244916 0 -290.42235933244916 -364.87524274719203 0 0 0 0 87.805703404137603 -108.65923461528013 0 -108.65923461528013 88.877356283905385 0 0 0 0 108.58877782448781 -22.469474349428484 0 -22.469474349428484 205.85231531890463 0 0 0 0 334.48844067668688 -146.16275100334587 0 -146.16275100334587 -2.5822537555627605 0 0 0 0 66.44414176254395 20.210278438932253 0 20.210278438932253 -104.23237020629313 0 0 0 0 65.086047268690663 -166.27333241894885 0 -166.27333241894885 -8.9011301306002224 0 0 0 0 79.629546089250653 -82.928352691299438 0 -82.928352691299438 -249.79365048896938 0 0 0 0 21.563056767041417 -76.453152639832581 0 -76.453152639832581 38.586440401265008 0 0 0 0 75.244804839647941 1.0157890673844463 0 1.0157890673844463 -7.5002245408820745 0 0 0 0 69.260652575128915 -97.387730265520077 0 -97.387730265520077 -84.996134528095354 0 0 0 0 -5.1687336904592485 -18.209511256936203 0 -18.209511256936203 -13.738088929238291 0 0 0 0 71.601885754258547 -49.110561047907481 0 -49.110561047907481 -80.269655109877021 0 0 0 0 25.063445349529502 -40.681099746095356 0 -40.681099746095356 19.9942893746463 0 0 0 0 37.755515294426004 -113.02431371686667 0 -113.02431371686667 55.783281011750489 0 0 0 0 -9.8573267510627716 -7.7360709067833895 0 -7.7360709067833895 -6.7830025110607375 0 0 0 0 -2.9339308817652068 -2.6456782435139914 0 -2.6456782435139914 -2.6334209912243334 0 0 0 0 56.405837834012345 -111.99347826568794 0 -111.99347826568794 -96.114900488044896 0 0 0 0 -3.0789837517077103 61.415664126817433 0 61.415664126817433 -182.8687445808946 0 0 0 0 69.836373199756054 -63.33430728614411 0 -63.33430728614411 -9.9263546061465604 0 0 0 0 8.0830496481612499 52.593779126427762 0 52.593779126427762 -547.89739868431491 0 0 0 0 1779.0158997833419 -338.24336296190563 0 -338.24336296190563 378.75070152509034 0 0 0 0 943.48383717043907 -466.22766672273519 0 -466.22766672273519 407.9410235223786 0 0 0 0 -14.336764632818074 -19.140685955139809 0 -19.140685955139809 -21.222323321659673 0 0 0 0 145.90652835516812 -146.73277445486303 0 -146.73277445486303 -26.612429374552448 0 0 0 0 67.601052963524126 -45.491809916798047 0 -45.491809916798047 -23.485369475948573 0 0 0 0 81.995360559871187 -34.356809489724128 0 -34.356809489724128 -14.879165744418515 0 0 0 0 -146.1664186955677 -199.04724742492544 0 -199.04724742492544 40.261427067073782 0 0 0 0 0.26171439350428116 -1.7401873262340928 0 -1.7401873262340928 3.5699053625262778 0 0 0 0 127.08242742843868 -33.648290608802654 0 -33.648290608802654 -36.612934683156709 0 0 0 0 1727.3389813017129 -912.67972885177733 0 -912.67972885177733 300.42391596043308 0 0 0 0 124.75486988875764 -68.224642939650423 0 -68.224642939650423 -47.629220956975587 0 0 0 0 52.218137241376098 -49.753599842952099 0 -49.753599842952099 -28.358578893996309 0 0 0 0 -10.771042258346952 -28.820178342089697 0 -28.820178342089697 -32.530808133629932 0 0 0 0 107.39464298901657 -58.083558076034706 0 -58.083558076034706 -35.680010400295942 0 0 0 0 144.22290086433895 -62.994524057633953 0 -62.994524057633953 -53.721944719321982 0 0 0 0 122.69451276383188 -49.395288736441273 0 -49.395288736441273 -60.474816341966289 0 0 0 0 46.313419540376344 -19.710765047721907 0 -19.710765047721907 -49.331419891565019 0 0 0 0 55.182767599362705 19.999338523186907 0 19.999338523186907 -105.7305876598806 0 0 0 0 89.106890197072062 -49.959799291936179 0 -49.959799291936179 -71.911246769461286 0 0 0 0 90.198580193740781 -43.999811427208897 0 -43.999811427208897 -39.474287734507016 0 0 0 0 78.482563182129525 -32.112859286196908 0 -32.112859286196908 -54.23039050759462 0 0 0 0 81.883737311902223 -16.434959006434838 0 -16.434959006434838 -74.847866781492769 0 0 0 0 62.850095459436488 70.068615420554494 0 70.068615420554494 45.267101713896807 0 0 0 0 101.80725509289186 -54.939362418179371 0 -54.939362418179371 -69.481131687898596 0 0 0 0 73.515747523168102 -15.441936588505541 0 -15.441936588505541 -33.156985242803785 0 0 0 0 4.0130613121127112 6.3531896577450304 0 6.3531896577450304 -6.2079141654545644 0 0 0 0 105.15899830279523 20.029386621506092 0 20.029386621506092 -39.962316187580655 0 0 0 0 62.265464049210607 3.2243685262632837 0 3.2243685262632837 -8.4442282218100573 0 0 0 0 73.171717782541748 -37.77732528728189 0 -37.77732528728189 -35.087350593605152 0 0 0 0 44.696555535967093 -21.372913939135998 0 -21.372913939135998 -5.1085471421719433 0 0 0 0 31.428737326248665 -45.830499598756433 0 -45.830499598756433 1.0399691398665709 0 0 0 0 28.358776646506158 -38.774825762030105 0 -38.774825762030105 -2.3214770595186565 0 0 0 0 28.86217918467446 -42.282729432317552 0 -42.282729432317552 20.202282362673486 0 0 0 0 37.458262792679307 -33.314034009998636 0 -33.314034009998636 -95.331255316404736 0 0 0 0 26.391183356659894 -26.949052951186445 0 -26.949052951186445 3.926818833704715 0 0 0 0 27.390273356169928 -7.7551791426539012 0 -7.7551791426539012 -92.485031196469663 0 0 0 0 5.8730525296577127 -4.7259920656289509 0 -4.7259920656289509 0.41163261236253756 0 0 0 0 28.790999379183631 -42.587416796241314 0 -42.587416796241314 -68.838547917585686 0 0 0 0 34.798402530657768 -39.424137438837107 0 -39.424137438837107 -88.887192375027283 0 0 0 0 23.255264783962048 -4.8069910076746964 0 -4.8069910076746964 -118.1553264025743 0 0 0 0 23.802184992502589 -14.508455135357224 0 -14.508455135357224 -52.750119600452905 0 0 0 0 24.643639517315023 -29.916797638920684 0 -29.916797638920684 -78.741388802683218 0 0 0 0 27.541490725705614 -2.8554643531144839 0 -2.8554643531144839 -53.547639241502452 0 0 0 0 13.397287171370408 -27.005103948886557 0 -27.005103948886557 -47.268754837361143 0 0 0 0 10.582526469989119 0.49477330136011943 0 0.49477330136011943 -1.5048680922142395 0 0 0 0 146.72837797127795 61.614943346730115 0 61.614943346730115 -82.422809604704923 0 0 0 0 180.2628962812596 -36.933988224032987 0 -36.933988224032987 -254.03543761487089 0 0 0 0 6.5072546058581793 -1.0395478667941802 0 -1.0395478667941802 126.10946894871643 0 0 0 0 74.895660783324359 0.19613849730185962 0 0.19613849730185962 -6.3317952259650614 0 0 0 0 -115.1863063130877 -69.04808193390943 0 -69.04808193390943 -91.472232478108197 0 0 0 0 1.8628078591923156 -0.47875046985225822 0 -0.47875046985225822 -0.74159717605835351 0 0 0 0 -16.676617891302158 -30.975957345827823 0 -30.975957345827823 -101.45588380911114 0 0 0 0 161.09051830029057 274.28243172326972 0 274.28243172326972 125.35328512512854 0 0 0 0 -10.349275831147679 -62.096696650380686 0 -62.096696650380686 -76.402233465826825 0 0 0 0 17.205913496391176 1.9997743921198028 0 1.9997743921198028 0.72879198410269663 0 0 0 0 27.922263710190236 -19.688845925238638 0 -19.688845925238638 10.408624982691521 0 0 0 0 24.0723558067657 -40.276491139314061 0 -40.276491139314061 -172.64133169319587 0 0 0 0 36.22294128325666 -17.483340812402616 0 -17.483340812402616 4.7671263100021406 0 0 0 0 32.03199173923349 -8.4540353573726748 0 -8.4540353573726748 89.465996249435648 0 0 0 0 41.575134174938285 -30.374643056891628 0 -30.374643056891628 -7.1475336233386315 0 0 0 0 52.938630839547841 -27.146492740435519 0 -27.146492740435519 -44.699795883210527 0 0 0 0 42.160262408859126 -31.566603981641038 0 -31.566603981641038 2.4897970261200726 0 0 0 0 44.699849115459074 -11.625025214598736 0 -11.625025214598736 -39.747857241675035 0 0 0 0 26.57539292043657 -11.659961633721721 0 -11.659961633721721 -0.13918930122429174 0 0 0 0 37.777512597527675 -16.047656803345376 0 -16.047656803345376 -26.295223533658827 0 0 0 0 36.740931317239301 -18.030720730240546 0 -18.030720730240546 -16.445154354094711 0 0 0 0 26.483194006788835 -6.0084426340067125 0 -6.0084426340067125 -16.948625009636892 0 0 0 0 18.985568469493714 -6.6926953131912157 0 -6.6926953131912157 -21.957476844779269 0 0 0 0 -51.374961975725455 -119.13586681738252 0 -119.13586681738252 38.815245955996943 0 0 0 0 28.805456971787677 -0.55488621992714204 0 -0.55488621992714204 -5.249753016989513 0 0 0 0 26.210344619954412 -8.8436879608687136 0 -8.8436879608687136 -22.358272466315697 0 0 0 0 40.403449699979319 -24.050039149881854 0 -24.050039149881854 -47.266417976966636 0 0 0 0 439.51783524166603 379.91872756228258 0 379.91872756228258 -55.105638517576153 0 0 0 0 338.14606193893633 -25.820124123973073 0 -25.820124123973073 -213.35862446785723 0 0 0 0 80.787180131035711 -13.495249607254664 0 -13.495249607254664 -30.108893655571023 0 0 0 0 21.342977468433673 -69.819657650848967 0 -69.819657650848967 32.625615918386757 0 0 0 0 27.818225276947487 -38.323447913537166 0 -38.323447913537166 -176.10406488784452 0 0 0 0 3.0408357523703842 -13.34382439465827 0 -13.34382439465827 -6.8861142937054485 0 0 0 0 95.782987731283356 30.243647786212023 0 30.243647786212023 26.691220198390511 0 0 0 0 145.87486705571791 -122.80868360310524 0 -122.80868360310524 -55.653531646756164 0 0 0 0 190.37697978436699 -124.8983607393302 0 -124.8983607393302 28.39433115430711 0 0 0 0 51.236863994337909 -95.566393381159287 0 -95.566393381159287 -28.481144762370604 0 0 0 0 80.47005368662758 -35.953154159902624 0 -35.953154159902624 90.407183293049457 0 0 0 0 721.90358888891933 57.431007261103787 0 57.431007261103787 -0.6759109749154959 0 0 0 0 416.48892260555658 108.1639621024633 0 108.1639621024633 12.018219339736561 0 0 0 0 725.22378996324733 -59.925721113061627 0 -59.925721113061627 -67.589971547839014 0 0 0 0 762.53601022258499 9.2147745503580154 0 9.2147745503580154 36.699741080595231 0 0 0 0 1060.7255556539385 -119.13932526502413 0 -119.13932526502413 55.898364738576674 0 0 0 0 936.41950522758088 -171.07757976854418 0 -171.07757976854418 395.88496443876102 0 0 0 0 1296.0459717746526 -109.8441039442414 0 -109.8441039442414 -171.71149822622829 0 0 0 0 1405.7665050369869 -300.35457610440335 0 -300.35457610440335 383.80303251583962 0 0 0 0 1.5271142363725687 0.72574448646920686 0 0.72574448646920686 4.4188635359110719 0 0 0 0 592.18667537946385 -428.11577202283388 0 -428.11577202283388 532.22426615368749 0 0 0 0 956.83375891297874 -354.82458137493859 0 -354.82458137493859 246.54565656524937 0 0 0 0 554.16481264733557 -253.29448254059412 0 -253.29448254059412 242.45655711053041 0 0 0 0 439.64538934306256 -299.56563025400965 0 -299.56563025400965 275.34597341623612 0 0 0 0 4.1671113684830914 3.0686550003893913 0 3.0686550003893913 7.6026611997740439 0 0 0 0 933.37945679834593 -389.74917123699743 0 -389.74917123699743 340.70744283494696 0 0 0 0 760.42277967166228 -506.60504486947502 0 -506.60504486947502 257.10338096008854 0 0 0 0 1636.5105456585516 -628.68685697501314 0 -628.68685697501314 34.647268724495007 0 0 0 0 1522.0343797487731 -647.2361747017394 0 -647.2361747017394 430.86253120620859 0 0 0 0 1625.8845868251956 -660.33254678764752 0 -660.33254678764752 -28.401437912105393 0 0 0 0 14.001819451154368 5.4192619947915333 0 5.4192619947915333 3.4442764986947481 0 0 0 0 -35.070018895534304 204.14596485550919 0 204.14596485550919 -113.29043058429306 0 0 0 0 1.9751685493113058 0.84053881672386765 0 0.84053881672386765 2.4993140094348831 0 0 0 0 1997.5562757258795 -1058.3358691147791 0 -1058.3358691147791 227.4210077143016 0 0 0 0 14.118817705676975 -42.903287454575775 0 -42.903287454575775 -35.440113199128973 0 0 0 0 12.377263456068839 1.1697323055748434 0 1.1697323055748434 -2.3291785574162773 0 0 0 0 96.760131767827261 -29.483597855486551 0 -29.483597855486551 -101.70783406348528 0 0 0 0 83.475538696789954 -0.38253838310083665 0 -0.38253838310083665 -158.22597627120558 0 0 0 0 73.532558843973675 16.198152296385473 0 16.198152296385473 -52.158864813391347 0 0 0 0 -14.035615708369733 -5.3338708506000785 0 -5.3338708506000785 7.298951148586184 0 0 0 0 21.16684888372037 -23.910498911205377 0 -23.910498911205377 -34.452936222831873 0 0 0 0 12.55390504615707 -7.6642012662171766 0 -7.6642012662171766 -27.90427073938071 0 0 0 0 79.819072762220458 -28.206015514573664 0 -28.206015514573664 -17.656178117189484 0 0 0 0 140.70180275249731 -93.949500183126929 0 -93.949500183126929 -136.25967073799529 0 0 0 0 52.563154517334624 27.48844404697229 0 27.48844404697229 -8.7531316947333835 0 0 0 0 15.356579557083471 -21.093337952571744 0 -21.093337952571744 -17.910885133599663 0 0 0 0 25.213693806039373 -26.560121791653046 0 -26.560121791653046 19.015526626261362 0 0 0 0 202.25929807351531 59.677181233960482 0 59.677181233960482 383.30257702010931 0 0 0 0 91.635515664544073 -25.135825782553184 0 -25.135825782553184 -17.264482068937468 0 0 0 0 42.463306125798226 -778.40970824222632 0 -778.40970824222632 1023.1483068419402 0 0 0 0 15.385499636217524 -6.7032536968151497 0 -6.7032536968151497 -24.381547966572938 0 0 0 0 32.110683656072069 -48.550305326056332 0 -48.550305326056332 8.317040756775441 0 0 0 0 5.0868885649464559 -14.472993180455653 0 -14.472993180455653 -16.306328783908292 0 0 0 0 2531.8962897070487 68.978148686852364 0 68.978148686852364 606.7866613996157 0 0 0 0 2819.1324468622988 -420.70992680834843 0 -420.70992680834843 19.718461304957145 0 0 0 0 1574.3703867990807 -1551.484157928187 0 -1551.484157928187 281.9402929279895 0 0 0 0 6.9841226163185226 -5.6240698178247968 0 -5.6240698178247968 5.9421002949071493 0 0 0 0 1815.3844139509165 -1368.019096019978 0 -1368.019096019978 320.17973991459075 0 0 0 0 1392.687698659669 -334.08633118684997 0 -334.08633118684997 588.44829561704137 0 0 0 0 4.4103491204014773 2.096431720615719 0 2.096431720615719 2.8773756203691789 0 0 0 0 793.7042100353392 -785.05284525440493 0 -785.05284525440493 465.76085464400535 0 0 0 0 1636.5269420516161 -941.61441423013639 0 -941.61441423013639 528.42085188724013 0 0 0 0 1959.8420369163905 -1019.9125118312959 0 -1019.9125118312959 477.49188980957842 0 0 0 0 1687.3475793638281 -833.27433246491819 0 -833.27433246491819 -410.53684166068524 0 0 0 0 -5.461828887930821 -4.3688913549675519 0 -4.3688913549675519 1.7850439554368833 0 0 0 0 -35.660578137245466 -56.653811799358664 0 -56.653811799358664 -50.115975110576983 0 0 0 0 -28.802488034069377 -30.381709310622071 0 -30.381709310622071 20.437109874664579 0 0 0 0 1328.1480906720317 -1105.5079802511891 0 -1105.5079802511891 512.64032301511543 0 0 0 0 1626.1928868191026 -931.90373222668495 0 -931.90373222668495 599.91097962527056 0 0 0 0 1783.4320636215562 -999.56107949538455 0 -999.56107949538455 517.37590364935386 0 0 0 0 1800.4185261313105 -918.36729813024431 0 -918.36729813024431 891.42440970169628 0 0 0 0 1943.9675665709437 -1218.6907455010878 0 -1218.6907455010878 334.45335958640499 0 0 0 0 1782.9054565093684 -1215.2095113835921 0 -1215.2095113835921 297.42256571967664 0 0 0 0 1775.6899870764537 -1318.1444303983189 0 -1318.1444303983189 406.73199662847037 0 0 0 0 1549.4277940227548 -1105.9437964664085 0 -1105.9437964664085 303.19196084105351 0 0 0 0 1244.4081392752323 -741.71752221810902 0 -741.71752221810902 74.444355219846329 0 0 0 0 1478.680836379106 -1189.4614516815873 0 -1189.4614516815873 205.17052152692122 0 0 0 0 1405.5454423164774 -808.99959671269607 0 -808.99959671269607 25.789779880067726 0 0 0 0 1510.8035841271558 -1001.2839998203563 0 -1001.2839998203563 524.18028122295618 0 0 0 0 1566.5749314560635 -856.67458027583189 0 -856.67458027583189 457.58804516561577 0 0 0 0 1377.3866259073548 -1053.3025256153132 0 -1053.3025256153132 287.61616257119204 0 0 0 0 649.04161280133849 -349.55264544953388 0 -349.55264544953388 41.010232349550279 0 0 0 0 910.03523882253648 81.581588408273092 0 81.581588408273092 704.91391093923721 0 0 0 0 848.83973899780358 -42.54480041019724 0 -42.54480041019724 -71.859346185330651 0 0 0 0 110.03655648315907 -17.323110921352054 0 -17.323110921352054 195.96454984634875 0 0 0 0 400.0942769779067 -940.29080992974923 0 -940.29080992974923 91.076175214639079 0 0 0 0 60.028953642384295 91.907603380472892 0 91.907603380472892 -770.83168904487957 0 0 0 0 505.5855268985033 -1846.2189812635952 0 -1846.2189812635952 -126.60794996066579 0 0 0 0 610.33762697426209 -966.13622996262529 0 -966.13622996262529 -301.76536918760576 0 0 0 0 -705.95348370364445 97.34758045160379 0 97.34758045160379 7.2111305214511958 0 0 0 0 -204.78164150911107 299.95343310699582 0 299.95343310699582 -261.90346769689495 0 0 0 0 17.953987611178235 -0.20449608244780393 0 -0.20449608244780393 -8.1795170801959962 0 0 0 0 1028.0093101640668 -944.50625270171076 0 -944.50625270171076 844.27463260282002 0 0 0 0 8.1067799575389188 4.0539464296281515 0 4.0539464296281515 -0.74145447936947484 0 0 0 0 1789.144717140603 -1040.9759479554318 0 -1040.9759479554318 146.1380076309888 0 0 0 0 1672.7864281669099 -994.67303961294056 0 -994.67303961294056 53.345257436638349 0 0 0 0 1394.8394169387029 -944.77037147773626 0 -944.77037147773626 137.12169900120534 0 0 0 0 1704.634404984954 -876.98799536322031 0 -876.98799536322031 361.96562990877283 0 0 0 0 1181.7039533167554 -817.0397833629595 0 -817.0397833629595 164.48542632053795 0 0 0 0 1209.6853400751424 -674.05049295090885 0 -674.05049295090885 -189.42047798974636 0 0 0 0 32.766152785768838 -4.3131382363247015 0 -4.3131382363247015 -5.4022659170468348 0 0 0 0 17.574622713480494 -21.356119509309792 0 -21.356119509309792 33.800585842554028 0 0 0 0 381.17779456656353 -106.98423804548975 0 -106.98423804548975 -415.00409476772256 0 0 0 0 248.99588414812024 -349.86094066217083 0 -349.86094066217083 -512.83423589276379 0 0 0 0 65.268384909229098 -15.219393575698177 0 -15.219393575698177 28.996214725288155 0 0 0 0 6.367489821239559 -0.39382284760569775 0 -0.39382284760569775 -3.4716466014099936 0 0 0 0 63.161510892072315 2.7885117871924772 0 2.7885117871924772 -7.7714066018154968 0 0 0 0 430.51282277876453 276.49023501360352 0 276.49023501360352 -735.14512397882936 0 0 0 0 31.531752100825543 -185.6437056976074 0 -185.6437056976074 -815.02022909324205 0 0 0 0 418.85438904613693 -104.83738869460831 0 -104.83738869460831 -577.49922053769251 0 0 0 0 -150.50395250283327 -103.47281589891008 0 -103.47281589891008 -87.28359071964951 0 0 0 0 235.85947470132669 -185.61863088886184 0 -185.61863088886184 513.72977548038398 0 0 0 0 355.49398097108497 -194.71801689342828 0 -194.71801689342828 -123.42650235381507 0 0 0 0 101.82269468356935 336.00032437570871 0 336.00032437570871 -674.75111577680036 0 0 0 0 195.11317023947049 -3.1738695874282712 0 -3.1738695874282712 -222.48338804961713 0 0 0 0 -207.17015732884647 307.77909124583732 0 307.77909124583732 -243.61678558103449 0 0 0 0 30.516794703702544 202.83742126543166 0 202.83742126543166 -230.07683399398047 0 0 0 0 156.11478259258729 -93.331887639161323 0 -93.331887639161323 -112.1293423242314 0 0 0 0 65.671899526198104 18.888874587948521 0 18.888874587948521 95.264742773135367 0 0 0 0 324.41726637868851 -321.26344276629243 0 -321.26344276629243 160.9070197254191 0 0 0 0 212.75516761084236 8.1193580989138354 0 8.1193580989138354 3.2821507586904772 0 0 0 0 870.38571444820991 -499.79942736483918 0 -499.79942736483918 108.3275093426837 0 0 0 0 522.13455053848884 -178.20867019531443 0 -178.20867019531443 243.67725497526408 0 0 0 0 435.3260216671224 -421.41496930743779 0 -421.41496930743779 392.24190453197571 0 0 0 0 451.36873260294556 -169.25352585450784 0 -169.25352585450784 135.3599826848822 0 0 0 0 234.85179083881667 -214.60508210330045 0 -214.60508210330045 152.51540153211681 0 0 0 0 132.60895506672387 -87.901985373094249 0 -87.901985373094249 189.61815232802383 0 0 0 0 216.71560403351032 51.473076783832767 0 51.473076783832767 27.115399146699929 0 0 0 0 230.48399122227784 121.55408535041806 0 121.55408535041806 29.804525103618744 0 0 0 0 74.165848607966836 146.5785224997785 0 146.5785224997785 240.20158233202528 0 0 0 0 178.37588779328507 238.68296455760992 0 238.68296455760992 -241.9786549062228 0 0 0 0 109.78005184398353 137.94125283063022 0 137.94125283063022 -219.8884590189391 0 0 0 0 -59.232121717228438 95.725722486296945 0 95.725722486296945 28.051298112728091 0 0 0 0 -142.41041970863444 188.36155391477769 0 188.36155391477769 -198.67553820813191 0 0 0 0 -27.406513795991486 147.00245133397038 0 147.00245133397038 -566.56725656274102 0 0 0 0 -346.7523833876985 239.13892982662401 0 239.13892982662401 -238.55696674503633 0 0 0 0 31.417582663882058 -30.610107481154046 0 -30.610107481154046 -8.9211382601952209 0 0 0 0 61.934434921618958 70.794121674975031 0 70.794121674975031 -333.97836011283289 0 0 0 0 37.19826181721146 147.58679497052435 0 147.58679497052435 -166.14118684421555 0 0 0 0 49.829451229310507 31.861134159660651 0 31.861134159660651 -494.65618839123999 0 0 0 0 -252.21075697876586 217.13472897277006 0 217.13472897277006 -347.24868942012836 0 0 0 0 430.48428349096503 49.399619872492622 0 49.399619872492622 12.117901216577593 0 0 0 0 -115.6760990994153 421.62048899449701 0 421.62048899449701 -591.94356243348193 0 0 0 0 467.95934370280884 -713.44001559195749 0 -713.44001559195749 852.97711922625058 0 0 0 0 4.0552352290364553 1.7794794565031147 0 1.7794794565031147 1.4478486919619549 0 0 0 0 13.928636500884664 1.4490081695622088 0 1.4490081695622088 0.077307752884287595 0 0 0 0 95.155647613559267 -283.88019167304083 0 -283.88019167304083 752.11842116910066 0 0 0 0 485.82408694487822 -223.08859191972533 0 -223.08859191972533 -88.980835884021872 0 0 0 0 208.5844994365616 -166.92995752443949 0 -166.92995752443949 544.05576340392145 0 0 0 0 303.57708650791392 25.556529108263931 0 25.556529108263931 -178.94522261327802 0 0 0 0 950.16123054089257 -376.72484063238153 0 -376.72484063238153 109.93335070396643 0 0 0 0 445.88630973108229 -238.87129444118909 0 -238.87129444118909 107.47121463043368 0 0 0 0 331.33207160692837 -89.180137617795481 0 -89.180137617795481 -275.59810638135968 0 0 0 0 298.15781108950614 65.715083408738792 0 65.715083408738792 -466.60351129429364 0 0 0 0 317.53614656788341 -277.24926514067624 0 -277.24926514067624 -35.148136325609812 0 0 0 0 260.47015523508708 6.0387070918936843 0 6.0387070918936843 -281.04983682162492 0 0 0 0 249.19814683504228 -115.33434131922149 0 -115.33434131922149 -419.08861168660769 0 0 0 0 174.59030958783478 -269.89798261968008 0 -269.89798261968008 -254.07477746284349 0 0 0 0 96.953666662127944 54.732257202085748 0 54.732257202085748 -370.16944447063634 0 0 0 0 -44.202699633984594 -13.170672461890717 0 -13.170672461890717 209.21019962529772 0 0 0 0 14.267332054438 1.0635402262595051 0 1.0635402262595051 1.7684344937940253 0 0 0 0 141.51944353670842 -418.26584267632006 0 -418.26584267632006 416.27629970027192 0 0 0 0 242.62521065449255 -108.46389536765673 0 -108.46389536765673 128.55369640970457 0 0 0 0 11.644484730490753 -5.7195559289582931 0 -5.7195559289582931 -8.39563978975821 0 0 0 0 -529.95575253248535 810.31295421670575 0 810.31295421670575 -645.58593609552554 0 0 0 0 214.01152101583102 345.32984237945857 0 345.32984237945857 -1166.0584785450028 0 0 0 0 -10.086532865872869 181.84845094127832 0 181.84845094127832 -237.41657751655657 0 0 0 0 272.72773623862304 108.24531506348103 0 108.24531506348103 -654.95968444729533 0 0 0 0 156.66036953913863 408.61887844753983 0 408.61887844753983 -595.54408732218508 0 0 0 0 380.01795580708131 194.00705000862399 0 194.00705000862399 -527.56487994590134 0 0 0 0 391.69749786501052 36.559341946644054 0 36.559341946644054 -390.1603212235259 0 0 0 0 527.2852059963916 -202.01267312229902 0 -202.01267312229902 63.454464136959359 0 0 0 0 417.94410773045092 121.72109291077322 0 121.72109291077322 -281.0413384358726 0 0 0 0 232.9006017444699 238.90057624417386 0 238.90057624417386 -262.20811442499689 0 0 0 0 583.85450372123887 39.373628800547522 0 39.373628800547522 -384.34271651460722 0 0 0 0 301.95945517431028 246.56407874827755 0 246.56407874827755 -306.3412176177153 0 0 0 0 672.53102261805179 -275.41245592060113 0 -275.41245592060113 -114.91023240571121 0 0 0 0 382.24994801872526 -177.43955325166644 0 -177.43955325166644 219.01068779605157 0 0 0 0 952.89039231049901 -194.84532494217501 0 -194.84532494217501 208.24360590916694 0 0 0 0 499.21957403022748 -644.00135559462456 0 -644.00135559462456 485.0668599639248 0 0 0 0 321.60599041848764 -368.89848820353654 0 -368.89848820353654 664.54900452025686 0 0 0 0 -24.148431779034581 72.57534098880933 0 72.57534098880933 167.98686105491652 0 0 0 0 213.5872296910602 -201.14533016102087 0 -201.14533016102087 239.16510858846004 0 0 0 0 -141.44235380784448 -225.65785583171328 0 -225.65785583171328 -391.46944785264895 0 0 0 0 248.07497295106441 -1.7528674025206783 0 -1.7528674025206783 354.86959932119589 0 0 0 0 1149.1623694486989 81.531765858263498 0 81.531765858263498 216.60365012481998 0 0 0 0 789.59800972502126 -940.31367973852139 0 -940.31367973852139 587.54707547683756 0 0 0 0 5.0094937856408563 1.5550828853622569 0 1.5550828853622569 -0.018218791542921053 0 0 0 0 -217.83241024662129 563.90845627940325 0 563.90845627940325 -230.28971572321097 0 0 0 0 -41.942161238584958 548.15665505134166 0 548.15665505134166 -234.4835898395304 0 0 0 0 569.17547636805284 98.495812891152582 0 98.495812891152582 144.15359796594566 0 0 0 0 398.63481755023167 346.05600614696232 0 346.05600614696232 -141.7923767730299 0 0 0 0 460.0785703201982 -20.374261525699239 0 -20.374261525699239 295.18646654261102 0 0 0 0 400.7491672127835 203.25481795935571 0 203.25481795935571 160.68779077038926 0 0 0 0 336.20846442665788 133.87449238530485 0 133.87449238530485 299.79553392368143 0 0 0 0 341.80666653909793 113.37897965303091 0 113.37897965303091 122.74149294673975 0 0 0 0 337.8977345694293 93.092199012591664 0 93.092199012591664 314.68027011696381 0 0 0 0 299.8008380135343 218.53073520132193 0 218.53073520132193 222.78354819188644 0 0 0 0 364.78148112379859 245.56006334869244 0 245.56006334869244 119.81810811043761 0 0 0 0 380.59325499244005 135.11026550120732 0 135.11026550120732 240.59620926803635 0 0 0 0 283.93336639635163 -7.8828988522727741 0 -7.8828988522727741 342.57627548519667 0 0 0 0 460.46053874544305 23.922786666347747 0 23.922786666347747 200.44186601387446 0 0 0 0 731.58356172081676 78.924043703578377 0 78.924043703578377 318.92062029924818 0 0 0 0 454.33617005126871 -33.060983058261172 0 -33.060983058261172 482.65215715052591 0 0 0 0 883.18238901038512 -264.63552844142441 0 -264.63552844142441 255.08429474386321 0 0 0 0 628.70082065243696 -122.57850326172411 0 -122.57850326172411 179.03551531908693 0 0 0 0 586.3341520539052 9.9252742768653661 0 9.9252742768653661 64.957094139548644 0 0 0 0 395.74952526288325 -30.741532089763041 0 -30.741532089763041 263.29110450128428 0 0 0 0 234.43134948698571 -42.967795212061446 0 -42.967795212061446 118.30481332504132 0 0 0 0 36.929095995229616 -57.964008964801678 0 -57.964008964801678 70.517420826612636 0 0 0 0 332.19727506712661 96.455468752082197 0 96.455468752082197 159.40678151399425 0 0 0 0 283.11191661565681 136.70218266943198 0 136.70218266943198 170.25481619943093 0 0 0 0 494.70351393713281 53.936304689180474 0 53.936304689180474 162.12591165835511 0 0 0 0 751.69788922712905 92.723636317195201 0 92.723636317195201 30.948860417706555 0 0 0 0 32.150064773088559 -51.431980813074098 0 -51.431980813074098 64.879528155577106 0 0 0 0 -720.83928678204143 -527.16812270509445 0 -527.16812270509445 39.963834426383983 0 0 0 0 460.86895451956207 -2.6418132569925206 0 -2.6418132569925206 136.74565366864863 0 0 0 0 451.34299037724759 -37.591562838825723 0 -37.591562838825723 43.769767174646404 0 0 0 0 925.10818582558386 -114.41378445994724 0 -114.41378445994724 8.5703508066831091 0 0 0 0 999.64109379842921 -3.7375931090077756 0 -3.7375931090077756 -12.508600663108837 0 0 0 0 743.14103548414641 -78.797453503931933 0 -78.797453503931933 2.4514656019778727 0 0 0 0 792.74336513063099 40.5514756328635 0 40.5514756328635 13.069329462667056 0 0 0 0 1064.6832919780375 -126.53739670858477 0 -126.53739670858477 -27.04495788594329 0 0 0 0 1122.180296579274 174.04837828476801 0 174.04837828476801 64.960522374102041 0 0 0 0 806.95793740341469 63.118735441631983 0 63.118735441631983 34.66992579217532 0 0 0 0 26.135779379759242 -41.094676829299466 0 -41.094676829299466 51.459877337522926 0 0 0 0 -644.87274807716733 -396.77657882639642 0 -396.77657882639642 -101.16122702498433 0 0 0 0 -93.108590837236534 -171.62073610933749 0 -171.62073610933749 -178.87234914125611 0 0 0 0 -41.786087290907744 -375.40413569298198 0 -375.40413569298198 -151.85172126340331 0 0 0 0 -235.66725155661902 -249.98061688285816 0 -249.98061688285816 -177.77604910942773 0 0 0 0 -89.263151672764707 -128.49708963998592 0 -128.49708963998592 -151.76549957617135 0 0 0 0 -301.29993658013359 -489.36768497571109 0 -489.36768497571109 -154.93457277280777 0 0 0 0 -959.15660250768269 -476.17720293558614 0 -476.17720293558614 -17.22906224693088 0 0 0 0 -258.75361607130981 -127.98452739281174 0 -127.98452739281174 9.6666219508269933 0 0 0 0 -154.88539548131041 -408.8034526660785 0 -408.8034526660785 453.66433236918238 0 0 0 0 -133.56290414202064 -195.80949217748991 0 -195.80949217748991 318.60046768646771 0 0 0 0 -399.31554683441573 -373.9157558407062 0 -373.9157558407062 521.59076373720382 0 0 0 0 -449.70348893324694 -584.22280177044001 0 -584.22280177044001 771.87726618016859 0 0 0 0 108.63039635684436 -833.86362214160704 0 -833.86362214160704 654.52888952845683 0 0 0 0 49.898327384285949 -580.82337707012698 0 -580.82337707012698 568.15327638209055 0 0 0 0 32.040801611279633 -287.90975747598134 0 -287.90975747598134 541.83166533136591 0 0 0 0 1302.8006265020358 420.60396200683851 0 420.60396200683851 88.514419304065768 0 0 0 0 1195.501717947187 -900.73540934148764 0 -900.73540934148764 305.82397763937456 0 0 0 0 168.07888443881143 -306.35885239941405 0 -306.35885239941405 18.005602645045656 0 0 0 0 22.854484568226326 -953.60928703745503 0 -953.60928703745503 971.47280706498213 0 0 0 0 -1068.1646034139503 -365.53976667660527 0 -365.53976667660527 850.3017646759414 0 0 0 0 2715.2576572955431 232.746178945037 0 232.746178945037 73.495259424009873 0 0 0 0 6.7585692801971682 -9.3119734832815304 0 -9.3119734832815304 13.756762119242808 0 0 0 0 1387.2794743053564 173.29973604651263 0 173.29973604651263 39.424690450182652 0 0 0 0 18.050533022085219 -27.702247974850504 0 -27.702247974850504 34.887183072401591 0 0 0 0 1193.3030168674795 53.257812516332706 0 53.257812516332706 56.383740930750037 0 0 0 0 1306.3237374040518 -10.067109481487478 0 -10.067109481487478 28.82357495492505 0 0 0 0 967.92944468344285 -372.14055945757138 0 -372.14055945757138 179.31717125130078 0 0 0 0 700.94321582063412 -212.65907116654171 0 -212.65907116654171 197.98240705918943 0 0 0 0 724.5975316084423 -132.3968844375587 0 -132.3968844375587 427.73483868078756 0 0 0 0 1522.6493076009056 -745.37280192008723 0 -745.37280192008723 604.00806996189567 0 0 0 0 526.42716004856265 -0.42470359687808923 0 -0.42470359687808923 1094.5979154590518 0 0 0 0 601.2667271856576 238.28865534477336 0 238.28865534477336 -61.601012844701472 0 0 0 0 171.25896384427324 -126.97278700231607 0 -126.97278700231607 578.01040966702476 0 0 0 0 233.15064601106133 370.7974072459524 0 370.7974072459524 168.04173984559293 0 0 0 0 -3.292484212043334 1.2534340319437973 0 1.2534340319437973 -1.2249742635956706 0 0 0 0 254.0951202104643 239.28301746350223 0 239.28301746350223 171.66249875268062 0 0 0 0 217.41704468737407 319.09165332675855 0 319.09165332675855 11.001720957336147 0 0 0 0 113.23518140518354 195.15918723210996 0 195.15918723210996 124.26500930515658 0 0 0 0 137.15919299827056 8.0628583056868592 0 8.0628583056868592 -382.62730475128774 0 0 0 0 -9.4921805121175566 103.25878212532598 0 103.25878212532598 73.570918203893825 0 0 0 0 115.14761194347375 37.052011785577861 0 37.052011785577861 93.395718207136497 0 0 0 0 212.82693162945361 -131.95853660081667 0 -131.95853660081667 327.06809576873781 0 0 0 0 332.2839616758265 -38.452935673986701 0 -38.452935673986701 271.8835131119987 0 0 0 0 104.38421381566877 75.861990279732112 0 75.861990279732112 246.59801903970913 0 0 0 0 103.44856887233254 60.320777219796071 0 60.320777219796071 260.28167724500366 0 0 0 0 332.0882021536363 -34.186123565146772 0 -34.186123565146772 34.856896663495036 0 0 0 0 391.97152917844505 29.776825438694516 0 29.776825438694516 -8.7138114435692842 0 0 0 0 106.88819061923823 2.3204361915884419 0 2.3204361915884419 120.34476990702751 0 0 0 0 685.06609735756865 -73.183288191755878 0 -73.183288191755878 -0.32239570690592245 0 0 0 0 396.83275214123569 1.6331248010126274 0 1.6331248010126274 8.0399179370097045 0 0 0 0 342.20039592251032 -1.0774854336497128 0 -1.0774854336497128 101.94780259871322 0 0 0 0 609.26214716464165 -187.02566140465836 0 -187.02566140465836 174.8818142416367 0 0 0 0 729.11181482635038 -92.125474509679776 0 -92.125474509679776 74.582118153130295 0 0 0 0 905.87019321462867 -87.008726067547968 0 -87.008726067547968 -28.692426592288257 0 0 0 0 902.20016828562166 -74.819725072300713 0 -74.819725072300713 -53.268658663909264 0 0 0 0 730.53604961876226 -176.50389892315263 0 -176.50389892315263 40.678826122816247 0 0 0 0 771.29519911904572 -26.506382650742466 0 -26.506382650742466 42.333686235529967 0 0 0 0 853.42966976538082 -144.44502389484296 0 -144.44502389484296 -84.877955652216087 0 0 0 0 946.60108805206528 -114.11404486725667 0 -114.11404486725667 -61.814730878828868 0 0 0 0 903.40440037839016 -85.872861845585362 0 -85.872861845585362 -30.625181526790584 0 0 0 0 982.45525418054967 -112.8395301881244 0 -112.8395301881244 -38.99631277918661 0 0 0 0 919.75170212277226 -111.70492893886217 0 -111.70492893886217 59.869436952125795 0 0 0 0 899.44317047415825 53.274610814967673 0 53.274610814967673 -1.5730447831338097 0 0 0 0 778.72900292632403 -7.8679501442843502 0 -7.8679501442843502 50.55578767949828 0 0 0 0 114.89639589479702 -169.07751369390689 0 -169.07751369390689 119.60545755982093 0 0 0 0 2.6891985873492814 2.0733306735502914 0 2.0733306735502914 -0.48222647475029845 0 0 0 0 443.06960827709554 206.5125233942274 0 206.5125233942274 -68.239143245825346 0 0 0 0 507.6933632709206 -154.80884642367801 0 -154.80884642367801 21.267867371429929 0 0 0 0 -5.7061763087876898 66.59359247056409 0 66.59359247056409 60.60322752961315 0 0 0 0 16.832535400882989 -0.74281116969495997 0 -0.74281116969495997 54.198419429022351 0 0 0 0 727.87746170727587 -96.435673893682178 0 -96.435673893682178 -69.75851548614628 0 0 0 0 9.638920117192221 -5.899741407228305 0 -5.899741407228305 -3.5053553973142879 0 0 0 0 23.39461579806084 -7.0235178057195071 0 -7.0235178057195071 -12.670521370375354 0 0 0 0 -40.789684511684754 -78.487883611052439 0 -78.487883611052439 23.256275525576498 0 0 0 0 62.622884803667603 -55.903529897394037 0 -55.903529897394037 -93.316018637869092 0 0 0 0 -46.044584998715436 9.036068205451329 0 9.036068205451329 -20.094627828387274 0 0 0 0 15.287591533935661 -11.678921741913506 0 -11.678921741913506 -12.597606948596724 0 0 0 0 3.6666001469119891 -2.8534568212436806 0 -2.8534568212436806 -1.8605167029315144 0 0 0 0 24.892695562092086 -6.0104354141594678 0 -6.0104354141594678 -2.0824495090386579 0 0 0 0 35.158204919946002 -10.158577653048496 0 -10.158577653048496 -16.222293710652053 0 0 0 0 31.538961047761404 -12.456384390494918 0 -12.456384390494918 -16.810093189990994 0 0 0 0 30.162485687247681 -10.249422186765059 0 -10.249422186765059 -19.600657501665637 0 0 0 0 34.543883805476071 -4.543125785908785 0 -4.543125785908785 -29.480614556872297 0 0 0 0 36.066027051707351 3.7598537621347532 0 3.7598537621347532 -19.309389706439561 0 0 0 0 44.743574561078276 -11.889260112518059 0 -11.889260112518059 -24.197211350241787 0 0 0 0 49.040778775124636 -8.3086930365716398 0 -8.3086930365716398 -49.939415984069456 0 0 0 0 34.227206863972242 12.154935999137706 0 12.154935999137706 -39.67234917757321 0 0 0 0 -4.723875888832481 -39.979925278365727 0 -39.979925278365727 46.562178759250401 0 0 0 0 24.568438935289997 2.6104310490872109 0 2.6104310490872109 -5.368534085139574 0 0 0 0 813.0873948764347 293.14443316181223 0 293.14443316181223 -516.67889499716875 0 0 0 0 28.156841006739526 0.25421768006919532 0 0.25421768006919532 -1.0806525726042906 0 0 0 0 21.845843365917972 0.24581110119788718 0 0.24581110119788718 2.5141676009498042 0 0 0 0 30.435752785218938 -7.4787430812664297 0 -7.4787430812664297 -13.276616615509397 0 0 0 0 16.816548330035083 5.4209773824643115 0 5.4209773824643115 -2.5886643921995098 0 0 0 0 -758.81417070158204 -608.71069129036596 0 -608.71069129036596 679.72905932450863 0 0 0 0 322.47446882085387 -44.281947714190437 0 -44.281947714190437 -58.714324532125374 0 0 0 0 209.42579220584958 -66.972459820190579 0 -66.972459820190579 -60.838381199753996 0 0 0 0 -239.49984545526422 161.78459995579709 0 161.78459995579709 41.692021906827904 0 0 0 0 7.9449639196421202 -4.9762659207965108 0 -4.9762659207965108 -1.3967792023933385 0 0 0 0 140.30425596146415 71.27507957140233 0 71.27507957140233 49.156948656731856 0 0 0 0 284.59420759373324 50.648575320008945 0 50.648575320008945 -23.961989928446656 0 0 0 0 181.48062065498016 31.558576067174045 0 31.558576067174045 -24.159374127193168 0 0 0 0 208.57240454453961 -60.592498348633491 0 -60.592498348633491 -51.295676675397999 0 0 0 0 132.93709024296822 -18.122874957022304 0 -18.122874957022304 -73.921130946694404 0 0 0 0 -86.989471803857668 -13.630551565632743 0 -13.630551565632743 -52.619248968162992 0 0 0 0 -62.68269476952446 33.788860307027164 0 33.788860307027164 -25.459709204477292 0 0 0 0 187.46990694677697 90.164352478123178 0 90.164352478123178 -65.68219876154825 0 0 0 0 13.217356682434001 10.417787729694766 0 10.417787729694766 52.581466569200529 0 0 0 0 -68.984942821958612 49.308161589317208 0 49.308161589317208 3.4355245777590842 0 0 0 0 1.4181015718677088 0.0057127718324103682 0 0.0057127718324103682 3.9407960250763789 0 0 0 0 4.5160515934942502 -0.16085534828274461 0 -0.16085534828274461 -1.9967700077101584 0 0 0 0 8.2679842705397384 -8.8824004383049662 0 -8.8824004383049662 3.895480970098272 0 0 0 0 -76.644860557487846 -31.701197720730647 0 -31.701197720730647 31.493336356518967 0 0 0 0 28.61212928920213 -7.5001579439408488 0 -7.5001579439408488 4.3661648783056535 0 0 0 0 98.090552084235696 -43.401700966439009 0 -43.401700966439009 8.2715148775307625 0 0 0 0 -14.813917957155354 17.789887666963523 0 17.789887666963523 27.399313545598488 0 0 0 0 96.143343172841924 116.88030621169167 0 116.88030621169167 -51.310090903964124 0 0 0 0 -55.310340596888636 -22.914172045771657 0 -22.914172045771657 99.343813483276804 0 0 0 0 -1.1860331077995667 0.68250209833425757 0 0.68250209833425757 2.3553370152004947 0 0 0 0 -4.9523875335653429 -52.748329125323551 0 -52.748329125323551 329.9348275145162 0 0 0 0 -122.33988440034591 93.545633067557901 0 93.545633067557901 207.70870762397249 0 0 0 0 -24.4568736582969 24.884040748729831 0 24.884040748729831 49.225929754074087 0 0 0 0 -21.806652904155271 99.188769134626114 0 99.188769134626114 129.68439637212714 0 0 0 0 1.2823209261368902 155.14222041610651 0 155.14222041610651 265.19875050329756 0 0 0 0 33.166025895385246 128.99116054001456 0 128.99116054001456 -93.104025858013301 0 0 0 0 -49.430752262429451 51.853449969055418 0 51.853449969055418 -59.057424861182881 0 0 0 0 -59.669212989956577 73.719695855650343 0 73.719695855650343 114.97148477805285 0 0 0 0 -41.496095255517048 100.58375281823902 0 100.58375281823902 -34.948920163611547 0 0 0 0 0.25101653858837381 50.65154253838989 0 50.65154253838989 -165.87287656136232 0 0 0 0 58.870768172186217 53.283880539567008 0 53.283880539567008 28.416813234795484 0 0 0 0 -9.2483382097159961 8.5714589458420747 0 8.5714589458420747 1.1402835192346272 0 0 0 0 21.426440201233639 9.4144237635348738 0 9.4144237635348738 3.0911684437128146 0 0 0 0 -261.59513311831324 1770.6603210332964 0 1770.6603210332964 -475.30141502127753 0 0 0 0 507.20044682345724 -539.33055415591582 0 -539.33055415591582 387.2365193120047 0 0 0 0 -234.1058481703285 932.15616165584549 0 932.15616165584549 -787.186194069257 0 0 0 0 -119.1041542003004 762.99475677505779 0 762.99475677505779 -765.36863983293915 0 0 0 0 -1.5179428836290754 480.82611747692448 0 480.82611747692448 244.93480752433729 0 0 0 0 3.3191492223503527 7.4747520629850932 0 7.4747520629850932 8.9890720592903506 0 0 0 0 122.18061880934692 -1804.5116095756227 0 -1804.5116095756227 -113.74477688540935 0 0 0 0 549.02492065069237 555.70031903120434 0 555.70031903120434 93.27337100331863 0 0 0 0 1137.4241281397981 -263.98402015689737 0 -263.98402015689737 -60.375379066795574 0 0 0 0 263.77541332098167 -332.80439552215842 0 -332.80439552215842 20.65067232380909 0 0 0 0 546.57838541683304 -105.67241950046946 0 -105.67241950046946 -142.87968128721164 0 0 0 0 561.80799336934615 -231.65765951239604 0 -231.65765951239604 -168.4722508522307 0 0 0 0 545.5120905450076 -285.42996752565193 0 -285.42996752565193 117.11297778167386 0 0 0 0 546.59783899412628 -50.663174175230722 0 -50.663174175230722 44.375096895900356 0 0 0 0 296.3784509822035 -133.0559927688264 0 -133.0559927688264 34.592309703483124 0 0 0 0 732.26850380463111 -16.016850293961568 0 -16.016850293961568 -106.82275424702203 0 0 0 0 200.75389272960456 -58.101536875109332 0 -58.101536875109332 126.64835083704907 0 0 0 0 432.6918079940433 319.72776855514712 0 319.72776855514712 221.8352894205309 0 0 0 0 117.57492499792716 -36.851662627693031 0 -36.851662627693031 156.14298700194433 0 0 0 0 -134.55945918642465 61.658548903673022 0 61.658548903673022 212.60666933053648 0 0 0 0 -46.983100215133163 161.23038265806122 0 161.23038265806122 260.52362893705242 0 0 0 0 1.572211364699335 2.3056385151949712 0 2.3056385151949712 4.9402048385476611 0 0 0 0 -115.78377529055888 115.68367707107194 0 115.68367707107194 242.56188836916806 0 0 0 0 324.10333947879553 230.07764093925198 0 230.07764093925198 151.71268668229945 0 0 0 0 4.093486577897238 20.445877978924795 0 20.445877978924795 14.55592692690422 0 0 0 0 71.264842001123725 9.7309258182770293 0 9.7309258182770293 75.449155360890018 0 0 0 0 -0.87337024983322475 -0.66291619785851097 0 -0.66291619785851097 -1.6735380050013045 0 0 0 0 446.14444858543357 -338.41051219914368 0 -338.41051219914368 373.30324122590395 0 0 0 0 20.161640049694142 -195.03537279200751 0 -195.03537279200751 169.83825405489316 0 0 0 0 -46.638880629427149 -151.7924721233006 0 -151.7924721233006 223.00379048655407 0 0 0 0 48.620000049575538 -44.338663986724896 0 -44.338663986724896 504.85066542737422 0 0 0 0 38.346009185828734 -171.054617753152 0 -171.054617753152 199.4382014197131 0 0 0 0 128.431038258218 -319.50612422311605 0 -319.50612422311605 -128.80619118163185 0 0 0 0 60.942918687094789 -123.65682911577002 0 -123.65682911577002 224.56696858426005 0 0 0 0 153.72741717989447 -98.925387181818849 0 -98.925387181818849 167.46127040911176 0 0 0 0 23.458244782967085 -192.43163073169896 0 -192.43163073169896 238.43621909631071 0 0 0 0 93.549350190509358 -225.09001301846652 0 -225.09001301846652 220.05476485901886 0 0 0 0 233.94719284173698 -126.54509561995292 0 -126.54509561995292 146.7842660532051 0 0 0 0 126.84892885534828 -226.88233058525904 0 -226.88233058525904 89.057432842549815 0 0 0 0 295.77668694206329 -138.91062815882083 0 -138.91062815882083 55.396631841336045 0 0 0 0 229.08509483699891 -225.43696808317463 0 -225.43696808317463 325.93537745380456 0 0 0 0 75.801041892354988 -82.868514660976516 0 -82.868514660976516 196.17489646730692 0 0 0 0 1383.9575549346041 -69.664614972305571 0 -69.664614972305571 -1647.3176581973053 0 0 0 0 45.091850743579776 10.580395428622104 0 10.580395428622104 -0.65786770132586336 0 0 0 0 154.32764335638149 -4.1706209384013491 0 -4.1706209384013491 -201.79311354734605 0 0 0 0 1261.6559806569749 -1390.789968736698 0 -1390.789968736698 -1273.2233452635819 0 0 0 0 861.28330856731736 -81.994372108936659 0 -81.994372108936659 351.97910308429346 0 0 0 0 932.21983119307424 -376.86973167635711 0 -376.86973167635711 28.89477720206196 0 0 0 0 781.15033704243433 -411.59072818174798 0 -411.59072818174798 -433.38380012684252 0 0 0 0 347.16958021406026 -553.58849028918462 0 -553.58849028918462 2018.2155053354941 0 0 0 0 1159.1248964927072 925.94787352547928 0 925.94787352547928 1230.0462709973115 0 0 0 0 -666.00646857297306 1174.236312564859 0 1174.236312564859 1330.0853164580567 0 0 0 0 -997.44963267321236 2241.3731754582259 0 2241.3731754582259 1090.5745469741155 0 0 0 0 396.02912393955921 -1837.1383303910761 0 -1837.1383303910761 140.26848212409232 0 0 0 0 2386.9729532564534 -901.16493807591633 0 -901.16493807591633 -782.84604223639269 0 0 0 0 3085.6089839593387 -1144.7849124162406 0 -1144.7849124162406 -1037.1154252272765 0 0 0 0 916.03160813629052 -37.127880723354906 0 -37.127880723354906 -607.32559775921152 0 0 0 0 1016.6792374229653 -785.88791920562676 0 -785.88791920562676 -181.27323645504924 0 0 0 0 2216.2051964012535 -2014.1901200783634 0 -2014.1901200783634 821.18819429029054 0 0 0 0 3494.2932689067538 -2005.8010544451561 0 -2005.8010544451561 309.81637767083396 0 0 0 0 2660.4061032460968 -2411.1162162192904 0 -2411.1162162192904 1031.5542329322113 0 0 0 0 22.316069436638546 1.8478503285568255 0 1.8478503285568255 0.060261990182660652 0 0 0 0 680.97132168350981 717.14209920663723 0 717.14209920663723 17.964372999671866 0 0 0 0 11.730797253973833 -409.49889151365801 0 -409.49889151365801 306.66563393195008 0 0 0 0 1035.0702950442339 -396.98525258938054 0 -396.98525258938054 369.50077171557268 0 0 0 0 3491.7435083220262 366.22807130594583 0 366.22807130594583 -312.76501062403065 0 0 0 0 1149.7192343720144 -117.40534106416177 0 -117.40534106416177 -224.5617983695841 0 0 0 0 3494.1970140901799 -748.0548505194439 0 -748.0548505194439 -145.71945419132607 0 0 0 0 1053.7182127450742 -993.03417884332077 0 -993.03417884332077 681.45506760532544 0 0 0 0 21.873659349906177 0.048493538963644056 0 0.048493538963644056 1.939892064405069 0 0 0 0 1933.7832980581152 1621.0412464893307 0 1621.0412464893307 1293.7741750729297 0 0 0 0 3493.1734515265453 1321.4048357777624 0 1321.4048357777624 -163.35964449989874 0 0 0 0 179.23413873090612 508.25855642386506 0 508.25855642386506 619.83368209187711 0 0 0 0 -181.36922391865119 66.187414347809408 0 66.187414347809408 477.38356743532444 0 0 0 0 8.3811371773195269 -3.2870711416237057 0 -3.2870711416237057 -6.952972061330648 0 0 0 0 -72.524512991702977 115.36919142993952 0 115.36919142993952 112.12523827951696 0 0 0 0 50.65982174126475 27.570191073594629 0 27.570191073594629 28.790773486217631 0 0 0 0 142.36425894026615 -86.773116579398106 0 -86.773116579398106 -118.25193620648159 0 0 0 0 108.41531293058824 100.26498410876411 0 100.26498410876411 -205.80379605677558 0 0 0 0 49.241662641026473 -6.0501996268852487 0 -6.0501996268852487 -3.4505206709367422 0 0 0 0 206.91324648964292 -166.37951268790076 0 -166.37951268790076 -29.313608738592563 0 0 0 0 -2.0786216616147044 -1.4572683903142387 0 -1.4572683903142387 0.99293615842454863 0 0 0 0 39.449502801162453 -89.236702456553957 0 -89.236702456553957 118.77486615779048 0 0 0 0 430.2813202062498 193.14970902884619 0 193.14970902884619 80.076934116142922 0 0 0 0 28.992420824719375 -40.207135957546313 0 -40.207135957546313 -29.28755622595412 0 0 0 0 -36.560157712701766 7.4462858697739307 0 7.4462858697739307 3.4687415952788001 0 0 0 0 6.3036737372730656 -20.299350685827889 0 -20.299350685827889 -6.2093835675067535 0 0 0 0 34.435227988065861 -7.2371390747653486 0 -7.2371390747653486 -2.8809671926009854 0 0 0 0 36.381812964553319 12.943428523485636 0 12.943428523485636 -63.273526185851324 0 0 0 0 15.905559147513664 -0.036324281020547744 0 -0.036324281020547744 -2.6946661005037287 0 0 0 0 34.362709594595799 36.382274801368624 0 36.382274801368624 -41.085641084083363 0 0 0 0 38.254001745746791 -23.428528819650523 0 -23.428528819650523 -3.622733709878986 0 0 0 0 4.0648444911088824 -2.2706725003052313 0 -2.2706725003052313 -1.4345131459271157 0 0 0 0 -427.35975277959369 26.116795475364597 0 26.116795475364597 48.352160336025577 0 0 0 0 19.251542929203424 -10.521875998264477 0 -10.521875998264477 -67.731081803283359 0 0 0 0 1054.5261906959495 -50.030641797341161 0 -50.030641797341161 -163.95835267948456 0 0 0 0 -266.81200844347586 -30.802145244240648 0 -30.802145244240648 173.42096408147927 0 0 0 0 472.38719895749819 -12.130769662137027 0 -12.130769662137027 -181.9501580773906 0 0 0 0 480.93678580718279 -62.900746305542626 0 -62.900746305542626 113.87804689072368 0 0 0 0 2460.0977071870075 191.15413385279689 0 191.15413385279689 -339.93584913488598 0 0 0 0 1040.1233421617071 192.31488502765677 0 192.31488502765677 -167.38177354257823 0 0 0 0 3500.7104399612435 379.65648829456762 0 379.65648829456762 -840.3901922919099 0 0 0 0 2394.7217103168487 704.49685700672717 0 704.49685700672717 -463.35782708089505 0 0 0 0 2398.9701401048123 822.26550109423329 0 822.26550109423329 -235.16237021070754 0 0 0 0 411.21670361200722 -50.016842769537107 0 -50.016842769537107 14.260420935319416 0 0 0 0 437.2087459999475 -21.324496945942883 0 -21.324496945942883 -37.53487851542377 0 0 0 0 142.4447238398825 -56.754527718285317 0 -56.754527718285317 19.636437309489338 0 0 0 0 95.561104243792897 56.298901397088684 0 56.298901397088684 59.749504077299207 0 0 0 0 -62.645530050176603 -55.136570899239814 0 -55.136570899239814 75.618183405713353 0 0 0 0 71.399192915470849 85.43063272868585 0 85.43063272868585 -66.736233891452684 0 0 0 0 286.70526590709596 -17.668595894574537 0 -17.668595894574537 4.6726250828833145 0 0 0 0 331.17389648576636 -129.91336149729523 0 -129.91336149729523 50.404841653573385 0 0 0 0 669.90020714221464 -4.2807666874014103 0 -4.2807666874014103 -63.95593909602394 0 0 0 0 607.75678594718738 128.61800897922149 0 128.61800897922149 238.72423197762691 0 0 0 0 641.86303265308015 -85.771556318871262 0 -85.771556318871262 49.104612436163734 0 0 0 0 52.975698655482347 67.239934850691156 0 67.239934850691156 69.309868751801332 0 0 0 0 0.52922794027561881 -0.35821053364628597 0 -0.35821053364628597 1.5507950433265592 0 0 0 0 436.39714526600801 -66.612826397473327 0 -66.612826397473327 -4.2647873553364661 0 0 0 0 609.2506454298782 -35.221639294763918 0 -35.221639294763918 -17.567490028799511 0 0 0 0 418.90248069180006 -46.336916317891792 0 -46.336916317891792 85.231210187290344 0 0 0 0 413.44839883138957 -21.853327350179825 0 -21.853327350179825 -5.808919003588926 0 0 0 0 0.68345935572823757 -1.4104278047579957 0 -1.4104278047579957 4.3850313189246179 0 0 0 0 463.23685084079716 -48.623508214821413 0 -48.623508214821413 7.7214884645090933 0 0 0 0 8.0754852621721511 7.3624715574503625 0 7.3624715574503625 18.746129056973587 0 0 0 0 1.7207203077711615 -3.4387702529689399 0 -3.4387702529689399 6.5059423939643111 0 0 0 0 270.56215441688346 -36.594289358146852 0 -36.594289358146852 28.839444407244628 0 0 0 0 501.90556552297039 -107.54533520754831 0 -107.54533520754831 -4.0450473034143215 0 0 0 0 437.91413570403529 31.944306663176576 0 31.944306663176576 7.7280290185681224 0 0 0 0 503.9453194936068 -28.889973959348026 0 -28.889973959348026 -22.296379355428144 0 0 0 0 406.88726060584486 40.884874387032141 0 40.884874387032141 37.22532898548161 0 0 0 0 459.9980168820548 -57.897784994465837 0 -57.897784994465837 -30.009305310950367 0 0 0 0 441.30876984432325 -90.362355568689964 0 -90.362355568689964 29.535666147409756 0 0 0 0 1.5359346370224678 1.3218551494077815 0 1.3218551494077815 0.56515496931713116 0 0 0 0 132.18869390744658 116.49346058051287 0 116.49346058051287 -23.428162537706157 0 0 0 0 275.03614116768222 -210.10735219982234 0 -210.10735219982234 149.62987380742197 0 0 0 0 25.949368353405589 -44.665622161428473 0 -44.665622161428473 64.686735067371046 0 0 0 0 39.975112828743477 -23.562877002201731 0 -23.562877002201731 -16.759037985109899 0 0 0 0 7.861421344563567 -6.2176854201418976 0 -6.2176854201418976 -2.5238910312185183 0 0 0 0 27.57147041200135 2.6404664516364633 0 2.6404664516364633 -0.02158173497011262 0 0 0 0 167.78512934333412 25.117050959181142 0 25.117050959181142 1.3335730084445458 0 0 0 0 83.475315411597109 2.0063541223876769 0 2.0063541223876769 -21.069787887347047 0 0 0 0 37.83644294070109 -9.5095587339965277 0 -9.5095587339965277 -8.6639523491812724 0 0 0 0 69.852023814521374 -15.311636784917997 0 -15.311636784917997 -29.28916738115332 0 0 0 0 46.183028797623003 7.8023120818159057 0 7.8023120818159057 -14.059936059874012 0 0 0 0 29.188754330953916 -15.040298984861039 0 -15.040298984861039 -12.402480570445746 0 0 0 0 6.4016197198400215 2.5236025624729486 0 2.5236025624729486 -19.36330248228137 0 0 0 0 11.849833239769641 -2.5971070134289675 0 -2.5971070134289675 -3.3826679939013502 0 0 0 0 32.876699340144114 -18.433040095333126 0 -18.433040095333126 -30.443864160359226 0 0 0 0 138.14181384704443 1.5314298177572709 0 1.5314298177572709 -40.292145791780058 0 0 0 0 28.536638845029302 -4.9955634276957426 0 -4.9955634276957426 3.8541025970971532 0 0 0 0 122.05610546184107 19.34231527575912 0 19.34231527575912 -29.190386373882575 0 0 0 0 86.727616567111909 2.8060299014177872 0 2.8060299014177872 -30.394900920555301 0 0 0 0 133.4671827600796 -4.9264196826898115 0 -4.9264196826898115 -30.201685580751473 0 0 0 0 24.747086724738892 -39.440446703011276 0 -39.440446703011276 -7.0290447963525367 0 0 0 0 41.532543729947065 -21.555576958098754 0 -21.555576958098754 -67.562256953721771 0 0 0 0 37.866423474824842 40.67236928942657 0 40.67236928942657 -37.155172278060036 0 0 0 0 74.815955369407675 8.9442087107113366 0 8.9442087107113366 -37.287975752851708 0 0 0 0 75.712589548367419 17.921945830784303 0 17.921945830784303 -7.069362162125878 0 0 0 0 73.669429456276703 9.2873180787064484 0 9.2873180787064484 -25.336249543570375 0 0 0 0 113.59113827363763 -18.148043093651722 0 -18.148043093651722 -90.252309871141279 0 0 0 0 82.488584488251163 3.3938108351076686 0 3.3938108351076686 -4.2937038006631809 0 0 0 0 86.584307304587128 10.590463324577286 0 10.590463324577286 -32.080659425284921 0 0 0 0 63.288046914922234 28.161070505161661 0 28.161070505161661 -30.814014066590289 0 0 0 0 57.992439571864452 16.829515325379361 0 16.829515325379361 -11.647619923009188 0 0 0 0 47.967310567949141 19.028382103877568 0 19.028382103877568 -20.22104890950904 0 0 0 0 83.169193427645951 13.87735795111621 0 13.87735795111621 -32.472954307089822 0 0 0 0 68.215057091130802 -37.520793262340476 0 -37.520793262340476 42.726303353455819 0 0 0 0 61.10983158865713 2.5837274795463401 0 2.5837274795463401 11.217800671900704 0 0 0 0 82.223225044994251 -47.893342427966559 0 -47.893342427966559 -34.616331103299103 0 0 0 0 75.347495746978893 -39.299237899796935 0 -39.299237899796935 35.956592025535485 0 0 0 0 111.023165772639 -77.761695134877897 0 -77.761695134877897 -177.20850043740063 0 0 0 0 44.165502241528884 -7.73409760965842 0 -7.73409760965842 -10.868504364398177 0 0 0 0 115.71644617596212 2.7158975946740611 0 2.7158975946740611 -15.599467008946704 0 0 0 0 75.963998959895434 -12.056119427990325 0 -12.056119427990325 -11.061251578821611 0 0 0 0 49.780622573727754 18.364526301383361 0 18.364526301383361 -26.21126332032803 0 0 0 0 18.625867731308052 -2.3724140702504108 0 -2.3724140702504108 -18.001506589882297 0 0 0 0 37.904131011920981 41.010412092182378 0 41.010412092182378 34.62547116785754 0 0 0 0 46.978992427885998 27.646297101637174 0 27.646297101637174 -27.350125503791787 0 0 0 0 77.92648521488627 51.384396908040799 0 51.384396908040799 -42.150787111282625 0 0 0 0 86.420266757946138 52.315929788289395 0 52.315929788289395 -117.78055027904156 0 0 0 0 639.00940767441352 748.94868436750312 0 748.94868436750312 -49.533675683016554 0 0 0 0 -735.97135101786989 -412.63950708982725 0 -412.63950708982725 -28.422165436825708 0 0 0 0 123.29441667374221 22.261305913810556 0 22.261305913810556 -37.639055951135632 0 0 0 0 67.001145040526637 19.644836775707695 0 19.644836775707695 -21.439471331136733 0 0 0 0 122.92684452063577 -5.7983905502751192 0 -5.7983905502751192 -70.06046861627101 0 0 0 0 71.68179675652209 22.057997248788524 0 22.057997248788524 -32.924922523361602 0 0 0 0 98.499557185057213 -7.320046751460394 0 -7.320046751460394 -31.507538683534719 0 0 0 0 96.832394086409863 192.09710284609585 0 192.09710284609585 -526.37558691507593 0 0 0 0 39.60866840010857 -4.6387674109148236 0 -4.6387674109148236 -1.5758576716182029 0 0 0 0 -393.44890915616998 -497.79704884263356 0 -497.79704884263356 -387.08445530842124 0 0 0 0 2.733483687612221 -2.2416181169301908 0 -2.2416181169301908 2.3899468006575066 0 0 0 0 -235.19945581130742 89.551643519102527 0 89.551643519102527 -489.52203984969265 0 0 0 0 988.79355187506007 251.30478348309953 0 251.30478348309953 187.69811816617403 0 0 0 0 109.87753963444993 -166.27249432424935 0 -166.27249432424935 -520.685780550039 0 0 0 0 513.96277809486492 693.91223526047338 0 693.91223526047338 129.66308312011006 0 0 0 0 157.73747613223532 125.38702826650319 0 125.38702826650319 587.5176347473157 0 0 0 0 136.54883577665635 47.379527138116444 0 47.379527138116444 -31.054879628027049 0 0 0 0 490.84810515082427 602.07349326494375 0 602.07349326494375 -195.11620281636533 0 0 0 0 96.955683774378286 -3.4776049676145977 0 -3.4776049676145977 -0.23266890379220515 0 0 0 0 221.80202985664073 43.834581827966304 0 43.834581827966304 -544.99316427415908 0 0 0 0 114.02014297290073 -0.99490045835538377 0 -0.99490045835538377 -6.1098432481125355 0 0 0 0 24.52522588267675 37.481485882508991 0 37.481485882508991 -306.94496067252612 0 0 0 0 135.6705791180284 67.563713067975641 0 67.563713067975641 -368.3595112333382 0 0 0 0 96.927163348867907 4.2853544418683214 0 4.2853544418683214 -302.79518985470236 0 0 0 0 60.810456855411758 -112.25278402896606 0 -112.25278402896606 -16.103574111174225 0 0 0 0 77.150958939822885 114.05646955786324 0 114.05646955786324 -29.69814130640134 0 0 0 0 4.6426327606241102 -3.6981145079162161 0 -3.6981145079162161 36.436012145990389 0 0 0 0 244.05153408185288 136.18457681962695 0 136.18457681962695 62.432829092023894 0 0 0 0 -0.18228011896280805 17.646206817842085 0 17.646206817842085 -0.3974075654954845 0 0 0 0 7.4545762162051972 -6.92455302715301 0 -6.92455302715301 6.1032643727192291 0 0 0 0 27.606791320249613 -115.50121233586697 0 -115.50121233586697 -364.10804759724124 0 0 0 0 -199.17854500978137 612.10718039104222 0 612.10718039104222 281.26038432425867 0 0 0 0 574.39310970524821 330.35648273134666 0 330.35648273134666 -492.95306157879941 0 0 0 0 1233.8251982980437 -279.51192651831025 0 -279.51192651831025 116.10861606743765 0 0 0 0 2.383748622002102 -4.7735436016820074 0 -4.7735436016820074 6.43690524023474 0 0 0 0 67.244510839467694 -1118.86293985665 0 -1118.86293985665 1183.6927465638225 0 0 0 0 5.9277982085669407 -1.8288056336673009 0 -1.8288056336673009 -1.242691886701075 0 0 0 0 -182.23441273687058 -21.881225895809166 0 -21.881225895809166 -129.87436420240556 0 0 0 0 538.73139770245325 357.47688130765482 0 357.47688130765482 -193.32481513029688 0 0 0 0 963.66788991432259 371.98559554419444 0 371.98559554419444 -159.99447502644671 0 0 0 0 570.04112519166665 539.75555960655947 0 539.75555960655947 88.679706219815671 0 0 0 0 825.22251656878507 306.56935021580875 0 306.56935021580875 -49.380951104329142 0 0 0 0 335.696890736348 471.85602708195574 0 471.85602708195574 85.748688495918032 0 0 0 0 500.24395960806578 274.81537491178551 0 274.81537491178551 -52.090829506857062 0 0 0 0 432.47182559248358 392.04764536241578 0 392.04764536241578 -104.11188785159356 0 0 0 0 375.65327965378674 236.23243108376209 0 236.23243108376209 22.670976414745382 0 0 0 0 2.9656497778890838 2.1616807493509356 0 2.1616807493509356 0.33249418178265699 0 0 0 0 327.12128995875469 86.190828512887634 0 86.190828512887634 -185.14439458269499 0 0 0 0 339.41660535556002 266.25809158940319 0 266.25809158940319 124.05443826709416 0 0 0 0 547.70217383103318 211.49551518812152 0 211.49551518812152 -132.58957107483002 0 0 0 0 28.667960663675331 21.704430602021148 0 21.704430602021148 -11.156109246091319 0 0 0 0 25.599625269023818 16.838926779885696 0 16.838926779885696 -17.758458719290957 0 0 0 0 71.035251289538749 28.938731861516715 0 28.938731861516715 -6.3200842574758198 0 0 0 0 22.373080553319596 95.53918452095013 0 95.53918452095013 -85.278651462541347 0 0 0 0 212.78075433999493 59.64643175989022 0 59.64643175989022 -213.39193457142756 0 0 0 0 182.80857971163459 168.37105338182482 0 168.37105338182482 -321.24805881659631 0 0 0 0 83.999114386860896 40.363522389597961 0 40.363522389597961 -11.890245525505044 0 0 0 0 -343.79310652428831 261.36900205846496 0 261.36900205846496 44.071939313539588 0 0 0 0 -137.69879638306156 142.01681344714234 0 142.01681344714234 -34.096378933884353 0 0 0 0 135.85114404964082 52.948292947558798 0 52.948292947558798 -29.641050023651012 0 0 0 0 -5.6461700333922238 23.803424126094747 0 23.803424126094747 -2.1447576075166808 0 0 0 0 65.479361629856612 42.581136022894498 0 42.581136022894498 -60.195325945051309 0 0 0 0 -35.684863000366022 -321.94016918315242 0 -321.94016918315242 -309.76391165092355 0 0 0 0 90.370223357844225 335.13090995758466 0 335.13090995758466 -82.388590263779406 0 0 0 0 384.18346195081176 -147.49666683156556 0 -147.49666683156556 -90.733589037412457 0 0 0 0 5.4913924282305899 -2.9660103244182068 0 -2.9660103244182068 0.66912405169617561 0 0 0 0 177.96213586106387 302.1877739501424 0 302.1877739501424 439.52679818508477 0 0 0 0 14.363652384428587 17.776645525322376 0 17.776645525322376 -4.9095908993947743 0 0 0 0 -59.487234766575511 168.2642657771421 0 168.2642657771421 46.953891144294175 0 0 0 0 295.23727404495679 77.331518752766613 0 77.331518752766613 402.63621573245837 0 0 0 0 277.7975639179748 -143.71396643102088 0 -143.71396643102088 98.523505791919888 0 0 0 0 662.83268716030307 108.84799071238194 0 108.84799071238194 -92.200461361660928 0 0 0 0 392.19124726389964 -216.77969159570603 0 -216.77969159570603 156.21390281819913 0 0 0 0 166.320084523486 69.00302368974917 0 69.00302368974917 -94.373598669598323 0 0 0 0 312.1537872519948 -73.041435911900408 0 -73.041435911900408 -78.181009016105236 0 0 0 0 159.59243379433701 -229.06856040221646 0 -229.06856040221646 40.083591843980685 0 0 0 0 117.87180320261746 -116.32833836555665 0 -116.32833836555665 -187.56555205734003 0 0 0 0 199.80700844392231 -147.77853651904297 0 -147.77853651904297 -94.030277067979114 0 0 0 0 150.20663312134275 -81.738981786380464 0 -81.738981786380464 -179.93920726386932 0 0 0 0 357.75139308939788 23.398348956449354 0 23.398348956449354 -211.82697249984267 0 0 0 0 118.16577466303534 7.4853605170628725 0 7.4853605170628725 -204.8877630048637 0 0 0 0 71.252204722295573 38.492400908299715 0 38.492400908299715 -44.616816183253832 0 0 0 0 159.67541009866181 4.741484822116945 0 4.741484822116945 -222.6704837643174 0 0 0 0 99.644424269528542 0.61945655012098655 0 0.61945655012098655 -7.9372146461844935 0 0 0 0 73.519675059488691 44.1428147257418 0 44.1428147257418 -43.420912134492028 0 0 0 0 67.658010334496879 14.596771634667885 0 14.596771634667885 -9.8644317279768163 0 0 0 0 236.65205242749653 -121.35415359968829 0 -121.35415359968829 19.71921529152678 0 0 0 0 61.200166271681155 8.9643122325487639 0 8.9643122325487639 11.196911573177204 0 0 0 0 69.089795120046745 -19.87499234937604 0 -19.87499234937604 3.961470642378778 0 0 0 0 14.476681423981717 11.861209352541749 0 11.861209352541749 -8.2248138169048808 0 0 0 0 3.0075485041888896 127.12098841596435 0 127.12098841596435 8.0200355760352977 0 0 0 0 83.241453805018111 -18.376119781701334 0 -18.376119781701334 2.8946529114160526 0 0 0 0 37.62772076646381 0.75844344275418862 0 0.75844344275418862 0.82935841337643978 0 0 0 0 41.306914065313322 4.9709659925838423 0 4.9709659925838423 -2.1724991316250453 0 0 0 0 42.654066666771541 -5.4343928832122401 0 -5.4343928832122401 6.0114413212668296 0 0 0 0 41.961175677407795 -0.35481053321896461 0 -0.35481053321896461 -1.205143351581393 0 0 0 0 76.735225422813528 12.547173450611808 0 12.547173450611808 -19.106417498313021 0 0 0 0 38.611134973549269 -40.203674031180526 0 -40.203674031180526 30.684481145413883 0 0 0 0 -29.049073652133529 -184.01600127422307 0 -184.01600127422307 -128.73646218741123 0 0 0 0 -40.625196157994651 -169.09426811942831 0 -169.09426811942831 -56.129992669615604 0 0 0 0 44.224610814001906 -19.807246593392808 0 -19.807246593392808 6.4428043928659164 0 0 0 0 47.271779156069897 -7.2466125444152567 0 -7.2466125444152567 31.448769634496102 0 0 0 0 28.491142008206225 -26.065085796296444 0 -26.065085796296444 53.000366724960259 0 0 0 0 40.679163743602864 -16.844471501385186 0 -16.844471501385186 22.601151301947588 0 0 0 0 73.086666309791326 -26.872437805046502 0 -26.872437805046502 80.385520288429689 0 0 0 0 9.7448520726298753 -3.3387199133682479 0 -3.3387199133682479 -1.4307664645282649 0 0 0 0 71.69302725109992 -12.676583792647762 0 -12.676583792647762 9.0847968534399115 0 0 0 0 40.949214515834726 -11.911497036029491 0 -11.911497036029491 6.9312961078948945 0 0 0 0 43.368403366024722 -11.499324354365399 0 -11.499324354365399 24.114678323770022 0 0 0 0 33.434443925147164 -14.199472032932366 0 -14.199472032932366 17.481668417425109 0 0 0 0 48.526519685496169 -20.164124400949731 0 -20.164124400949731 10.86802653241466 0 0 0 0 51.567837067292658 -9.1634334651024574 0 -9.1634334651024574 18.198319718765561 0 0 0 0 51.654065399621686 1.7960307592979916 0 1.7960307592979916 8.5621982070406375 0 0 0 0 17.112469693695509 -4.4350561665609689 0 -4.4350561665609689 12.218880405967468 0 0 0 0 44.027282634615403 -9.2000748312789256 0 -9.2000748312789256 21.299385934336897 0 0 0 0 15.043824135914591 4.6755074978687539 0 4.6755074978687539 15.073787247886724 0 0 0 0 23.496802950417987 11.826525032724557 0 11.826525032724557 56.88668046271038 0 0 0 0 9.1826576429234592 5.2816457858780765 0 5.2816457858780765 3.8329687133647683 0 0 0 0 113.20881126218228 -5.3802659367601109 0 -5.3802659367601109 22.155779402393705 0 0 0 0 56.406761852249474 -59.986867341461164 0 -59.986867341461164 21.534941408428523 0 0 0 0 80.468972530120482 28.839473231772711 0 28.839473231772711 25.183796041962708 0 0 0 0 42.095369077063211 -18.6062004772112 0 -18.6062004772112 10.631327827796518 0 0 0 0 74.719574801642011 -24.205800403113244 0 -24.205800403113244 21.241075659145281 0 0 0 0 56.026486525861401 -6.7056246478118737 0 -6.7056246478118737 55.555118099007814 0 0 0 0 48.161606813261969 -30.613537674328388 0 -30.613537674328388 17.967117530014374 0 0 0 0 17.546315580128066 -8.2559853300908799 0 -8.2559853300908799 104.40478312436971 0 0 0 0 122.76262379238779 -29.302822062535597 0 -29.302822062535597 -10.846162471039861 0 0 0 0 110.41181602066172 -29.384664960834925 0 -29.384664960834925 6.0269355655927939 0 0 0 0 37.51484063656244 -55.558961526453459 0 -55.558961526453459 29.429356688526241 0 0 0 0 -5.7443454920976365 -46.845298932212245 0 -46.845298932212245 71.43327306365336 0 0 0 0 -21.278907075877214 8.7287041809941002 0 8.7287041809941002 30.398195427689643 0 0 0 0 63.236810682934447 -52.039601996495549 0 -52.039601996495549 72.699240289031877 0 0 0 0 49.006106207249104 11.765050798258017 0 11.765050798258017 -51.659270883865247 0 0 0 0 1.3431819700454071 -6.7699858525165837 0 -6.7699858525165837 35.656176546395727 0 0 0 0 -15.248261471238948 2.2305221554834134 0 2.2305221554834134 35.423246898451907 0 0 0 0 -13.307152471301379 18.974710729811704 0 18.974710729811704 1.8028749174482073 0 0 0 0 85.595124391154968 -14.337246318547841 0 -14.337246318547841 -33.986100403959426 0 0 0 0 50.734866507642437 9.2184059425653686 0 9.2184059425653686 37.104801944442443 0 0 0 0 102.18821444606283 25.223455339800239 0 25.223455339800239 5.068721520514373 0 0 0 0 -95.333124615579436 -17.074914782271662 0 -17.074914782271662 101.60093265092837 0 0 0 0 3.6443624244489392 -6.4060506028724644 0 -6.4060506028724644 5.4783517247933275 0 0 0 0 30.013151085152824 -21.6095541727171 0 -21.6095541727171 10.098174030259983 0 0 0 0 14.69616538044238 -49.702707251452466 0 -49.702707251452466 -9.6722986943368596 0 0 0 0 38.121824075524273 -59.06971038328993 0 -59.06971038328993 -28.304566796531162 0 0 0 0 -2.3101822312473814 -56.869700599503176 0 -56.869700599503176 7.9455122391209443 0 0 0 0 -3.832967549604291 -55.341382305857223 0 -55.341382305857223 15.766286135228711 0 0 0 0 89.514985251951657 -70.002962124767691 0 -70.002962124767691 10.85540082992884 0 0 0 0 12.043319511534719 -17.252419757322059 0 -17.252419757322059 6.461631421004995 0 0 0 0 18.544457284364398 -42.57573983893235 0 -42.57573983893235 0.75187917418588768 0 0 0 0 73.835011095931804 -95.538001475194505 0 -95.538001475194505 3.7322001747015747 0 0 0 0 12.27599089532513 -2.0717980369635001 0 -2.0717980369635001 -1.4668366902145706 0 0 0 0 162.45996329083891 -64.508605438181803 0 -64.508605438181803 -28.698391283209276 0 0 0 0 -150.68859327131577 -198.12883697720463 0 -198.12883697720463 76.089264139727675 0 0 0 0 -10.607933558523655 -112.82458096461232 0 -112.82458096461232 141.80233274896818 0 0 0 0 -15.537921070131233 -85.419029410039911 0 -85.419029410039911 13.153942121214641 0 0 0 0 -68.876440392585209 -160.85195673425915 0 -160.85195673425915 57.412440275614244 0 0 0 0 36.607525354115751 -115.28086381814137 0 -115.28086381814137 -60.568432013464189 0 0 0 0 -114.93753519281518 -74.088402132622377 0 -74.088402132622377 -95.08761566441899 0 0 0 0 -269.18683030807051 -118.66129687356351 0 -118.66129687356351 84.491541873374445 0 0 0 0 80.536733939286933 -18.251243199811142 0 -18.251243199811142 4.1076907229380595 0 0 0 0 129.03019362134364 555.06289191612996 0 555.06289191612996 -64.234893538697179 0 0 0 0 193.58508123914362 274.99894210410912 0 274.99894210410912 4.4391633035720588 0 0 0 0 -451.76360440252029 561.07385316133059 0 561.07385316133059 -119.65819832344278 0 0 0 0 168.80697633551972 203.19068874430377 0 203.19068874430377 -917.26872020296832 0 0 0 0 30.630367840960389 -116.33735613193085 0 -116.33735613193085 -194.70177198089914 0 0 0 0 186.1895579689583 442.69164965473766 0 442.69164965473766 -114.63381520866642 0 0 0 0 13.812279668586896 2.9708966730878559 0 2.9708966730878559 0.87490373511116815 0 0 0 0 824.25278342661477 -777.21288857173658 0 -777.21288857173658 697.92536322785327 0 0 0 0 665.47064060924095 587.85674824800117 0 587.85674824800117 -356.55734859577933 0 0 0 0 937.18308100137801 312.48492103364424 0 312.48492103364424 -312.7612475011756 0 0 0 0 331.43699884726448 -808.19851487866163 0 -808.19851487866163 379.47501386683371 0 0 0 0 12.145989686349921 -24.16853481942681 0 -24.16853481942681 36.942991965713944 0 0 0 0 35.736971205143163 -8.2351003229903128 0 -8.2351003229903128 41.646229653990844 0 0 0 0 383.02434903856556 751.7892925310889 0 751.7892925310889 100.06927745565372 0 0 0 0 79.855258224481076 -33.363407382549326 0 -33.363407382549326 40.900309118192183 0 0 0 0 37.359952699367568 1.4087626696107871 0 1.4087626696107871 84.142158642790463 0 0 0 0 27.860708304682703 54.244105429455885 0 54.244105429455885 105.81127108375586 0 0 0 0 61.821284828762145 -12.402112526002782 0 -12.402112526002782 -6.6657745216337787 0 0 0 0 49.321957469718669 -21.875448984008163 0 -21.875448984008163 9.006146038042889 0 0 0 0 -3.1260214821231784 -19.884692514111521 0 -19.884692514111521 83.257849467503547 0 0 0 0 -43.655709360723449 -3.6571479816739156 0 -3.6571479816739156 79.24034899497201 0 0 0 0 18.76346993816378 61.031065302304341 0 61.031065302304341 -3.0178597165067913 0 0 0 0 106.53700675162418 19.236104019691084 0 19.236104019691084 15.301701289046832 0 0 0 0 49.587358825167271 -29.588945441764562 0 -29.588945441764562 21.836927827149445 0 0 0 0 130.78714589938795 -10.725554172381862 0 -10.725554172381862 11.384627886505768 0 0 0 0 42.141749581056501 -15.816106159111996 0 -15.816106159111996 28.975545202890544 0 0 0 0 22.550412532133354 -23.482676910397515 0 -23.482676910397515 31.333556070329706 0 0 0 0 52.117150564403346 -5.6378596788309618 0 -5.6378596788309618 39.170697964434041 0 0 0 0 440.79075845643092 330.28579232832362 0 330.28579232832362 -253.9254267796814 0 0 0 0 322.25882162271228 149.23121866304064 0 149.23121866304064 -8.4043464123978993 0 0 0 0 438.20848771561623 345.48379318832013 0 345.48379318832013 77.726302621113064 0 0 0 0 418.82960163665848 283.43638989007377 0 283.43638989007377 330.63777608434793 0 0 0 0 -8.5903032367010752 -7.3436234599726333 0 -7.3436234599726333 17.368024085997522 0 0 0 0 328.34780327279441 205.62981151551412 0 205.62981151551412 278.68104530881465 0 0 0 0 399.21074875241538 21.400594981915674 0 21.400594981915674 279.86386280454462 0 0 0 0 521.03166170619807 106.59470218108981 0 106.59470218108981 248.42881391366495 0 0 0 0 346.80392211609797 105.2161334969669 0 105.2161334969669 286.09987482460747 0 0 0 0 377.40649767273862 270.42750721338507 0 270.42750721338507 24.193873296841048 0 0 0 0 289.12116992626397 167.85254446576255 0 167.85254446576255 252.37385484805486 0 0 0 0 157.62134871135845 377.70903915147039 0 377.70903915147039 195.0421310101774 0 0 0 0 38.025648824525646 -59.151878711534827 0 -59.151878711534827 69.408707752865695 0 0 0 0 -119.89818455533214 -165.63882840617725 0 -165.63882840617725 -4.4038454206765891 0 0 0 0 201.88041731015619 -19.965977244413352 0 -19.965977244413352 83.3241090270364 0 0 0 0 368.36721522929292 196.59359348573525 0 196.59359348573525 51.14535802408227 0 0 0 0 56.004105839144813 -130.34720460685412 0 -130.34720460685412 125.67141406212068 0 0 0 0 43.817252969492458 -57.237286325529581 0 -57.237286325529581 62.630236487607554 0 0 0 0 133.46133168902088 -178.32388323343912 0 -178.32388323343912 179.702030313676 0 0 0 0 177.75614126349501 31.768344997331042 0 31.768344997331042 48.082911200646777 0 0 0 0 14.3106096178999 -160.90161148231346 0 -160.90161148231346 -85.845213847914238 0 0 0 0 284.91047326007453 -141.50800531723905 0 -141.50800531723905 -126.3005957438636 0 0 0 0 277.41610244116964 49.97292658504648 0 49.97292658504648 -125.12550713899714 0 0 0 0 159.67247955491166 19.284867270771429 0 19.284867270771429 -14.212060422891227 0 0 0 0 197.98623315743225 -40.017045669052095 0 -40.017045669052095 -5.3668634924551952 0 0 0 0 -10.061058558907462 -45.401183425394265 0 -45.401183425394265 -8.6155572036441299 0 0 0 0 4.8225178627659346 -0.57786977885980662 0 -0.57786977885980662 -1.1516898934153588 0 0 0 0 -98.428889316781351 24.603525930162505 0 24.603525930162505 215.22070644149517 0 0 0 0 21.699168554084487 -18.788441382092323 0 -18.788441382092323 7.2655142887240274 0 0 0 0 -10.796358358535599 -134.34276294156825 0 -134.34276294156825 -71.326510710423463 0 0 0 0 -10.915874588085728 -28.742837913655819 0 -28.742837913655819 0.53899887993975426 0 0 0 0 -0.29472195101061516 -34.914055923049091 0 -34.914055923049091 -14.462638867606074 0 0 0 0 -1.6564597128891467 -16.651084642522807 0 -16.651084642522807 -4.2176161154418423 0 0 0 0 -11.648019642342291 -36.762541282856034 0 -36.762541282856034 0.36435860156052513 0 0 0 0 -5.0489178488542166 -34.523190749761852 0 -34.523190749761852 -2.3045750892706565 0 0 0 0 4.9771141657138287 -28.263954396090412 0 -28.263954396090412 -2.1893167339858337 0 0 0 0 8.1204920267155103 -42.451681984834067 0 -42.451681984834067 -216.31647760462329 0 0 0 0 15.302332741415967 -60.708203290509118 0 -60.708203290509118 -195.22437632380024 0 0 0 0 8.8442823014040997 -13.790841702222044 0 -13.790841702222044 9.9083412534741555 0 0 0 0 -33.077702152847138 -134.92426066728376 0 -134.92426066728376 -185.68533488736284 0 0 0 0 20.746556720032359 -15.373600951049442 0 -15.373600951049442 -2.1861342767544869 0 0 0 0 378.35474682411177 -11.046491378679093 0 -11.046491378679093 6.9769691223496011 0 0 0 0 4.0238267707398485 -6.4527868468577623 0 -6.4527868468577623 0.32953108856469271 0 0 0 0 107.61828989197966 100.37488826274785 0 100.37488826274785 -79.432155831884302 0 0 0 0 203.13596485623532 -145.73978546340777 0 -145.73978546340777 -203.96229106622559 0 0 0 0 154.03445382369591 -108.35829801180716 0 -108.35829801180716 88.354475410167652 0 0 0 0 282.14139148175946 2.3141838837691466 0 2.3141838837691466 -117.83210505765987 0 0 0 0 378.86647041382776 -12.112373883163855 0 -12.112373883163855 -179.77548779353492 0 0 0 0 210.90587098982519 -92.015414096685163 0 -92.015414096685163 -16.191536381942569 0 0 0 0 -434.17822645979504 -636.91949136524909 0 -636.91949136524909 64.74145648794547 0 0 0 0 61.171868017327142 58.348849075779981 0 58.348849075779981 -114.26409400583725 0 0 0 0 -7.8783259957731389 3.0822119232493606 0 3.0822119232493606 39.726872119166728 0 0 0 0 -14.531587562364621 -5.5803825258999495 0 -5.5803825258999495 30.411508933082587 0 0 0 0 -0.46913282169589365 6.5076026032556911 0 6.5076026032556911 22.605987759178788 0 0 0 0 -3.0348475324544779 2.7975017593853408 0 2.7975017593853408 23.514175101509409 0 0 0 0 -33.413851737602272 -35.189921221428449 0 -35.189921221428449 208.52451644075882 0 0 0 0 -83.332235361865969 -18.704224517563489 0 -18.704224517563489 47.735636724801225 0 0 0 0 -31.92718178758696 -36.479767857916158 0 -36.479767857916158 -15.105636651016994 0 0 0 0 -34.990738605565639 -83.155749648809433 0 -83.155749648809433 2.4810973435655796 0 0 0 0 7.1365201977150718 -48.785196414803977 0 -48.785196414803977 2.6323445215275569 0 0 0 0 1.498395952708961 -39.87053570257558 0 -39.87053570257558 -11.282255587551845 0 0 0 0 -8.3215524674942571 -37.683239970041541 0 -37.683239970041541 -0.96556278132447915 0 0 0 0 -1.7093245406949791 -35.78223360393531 0 -35.78223360393531 -5.6162628881374985 0 0 0 0 -2.6016409053218013 -30.228333248975105 0 -30.228333248975105 1.9474516238733486 0 0 0 0 -19.047983563575144 -31.539421838790076 0 -31.539421838790076 11.568482822084661 0 0 0 0 -1.6989115561906942 -35.223305585100434 0 -35.223305585100434 9.1857119706837693 0 0 0 0 9.0632341215009546 -17.394822357979592 0 -17.394822357979592 19.43404370169992 0 0 0 0 -3.3036430424845662 -20.005309116450917 0 -20.005309116450917 20.015338981233072 0 0 0 0 -2.8486628411155834 -25.439657305853871 0 -25.439657305853871 29.047147390434475 0 0 0 0 -1.300219692169776 -31.39275556739085 0 -31.39275556739085 2.7637465499719838 0 0 0 0 -0.56911322643236417 -17.504161414423834 0 -17.504161414423834 20.308232713523466 0 0 0 0 93.221035126408424 30.504949022039 0 30.504949022039 -381.51233312964814 0 0 0 0 1.6896355171122899 -10.942948752391569 0 -10.942948752391569 -6.144784862712946 0 0 0 0 -1.202117714436099 -13.00905464576681 0 -13.00905464576681 28.513823321150994 0 0 0 0 6.0065351572736247 -9.4258030395154861 0 -9.4258030395154861 -5.3595999362220965 0 0 0 0 94.158170872373375 100.77392680916455 0 100.77392680916455 -440.63024156763913 0 0 0 0 0.020029459324177878 -4.9419781781016354 0 -4.9419781781016354 19.765027675188321 0 0 0 0 7.8518672572417927 -9.0319465592829147 0 -9.0319465592829147 16.833444307148966 0 0 0 0 4.439655328266781 0.22426972107132315 0 0.22426972107132315 22.324767620891635 0 0 0 0 5.2178923934206978 1.7370450116932261 0 1.7370450116932261 9.3940593189454376 0 0 0 0 9.0097340778669768 -7.4790954414942945 0 -7.4790954414942945 -4.694988303031236 0 0 0 0 5.9859299367017229 -6.9801206203214861 0 -6.9801206203214861 15.370973835910263 0 0 0 0 7.0676919269899372 -8.0464388210502875 0 -8.0464388210502875 10.176402223711193 0 0 0 0 29.221039806230692 208.23671071765148 0 208.23671071765148 -474.74019573491205 0 0 0 0 -62.309659687176463 150.97181207638414 0 150.97181207638414 -224.55307576942869 0 0 0 0 -250.76732260568861 282.78491266211495 0 282.78491266211495 -308.42466523124313 0 0 0 0 66.592140531842233 -11.365456041943617 0 -11.365456041943617 -360.62396163288031 0 0 0 0 73.902157935941432 98.694476797166317 0 98.694476797166317 -264.11516018905968 0 0 0 0 174.39740680643263 8.5722253036019538 0 8.5722253036019538 -210.65421759000219 0 0 0 0 114.05143327700807 83.270710250671527 0 83.270710250671527 -346.87061663980421 0 0 0 0 -34.936444593110082 145.88952190252894 0 145.88952190252894 -347.96916228002374 0 0 0 0 -40.898294297408029 41.826691923743056 0 41.826691923743056 -289.76108663306513 0 0 0 0 156.53285162040083 7.7037428969360917 0 7.7037428969360917 -310.93136484767911 0 0 0 0 75.235332480453508 -7.5843931338135917 0 -7.5843931338135917 -205.04672643970844 0 0 0 0 207.31506435345727 -95.670155023590269 0 -95.670155023590269 -169.61660065700198 0 0 0 0 105.80244794532882 -31.032650136887241 0 -31.032650136887241 -225.50051033561249 0 0 0 0 196.64141077721433 20.732143265950981 0 20.732143265950981 -196.00299334572901 0 0 0 0 131.95996393300265 -11.99335219045679 0 -11.99335219045679 -68.194264047906472 0 0 0 0 298.72543473900805 39.7883966783088 0 39.7883966783088 -66.397970552161496 0 0 0 0 334.81657471362587 -60.824025499705385 0 -60.824025499705385 -92.661688882629278 0 0 0 0 177.23070142373126 -78.180245986734008 0 -78.180245986734008 -93.971744855110956 0 0 0 0 258.99432905715821 -61.139712355490701 0 -61.139712355490701 45.958867339708377 0 0 0 0 423.73121481198723 105.77386024917814 0 105.77386024917814 63.235268450034482 0 0 0 0 230.70626840188743 22.110039565513034 0 22.110039565513034 50.534753513064061 0 0 0 0 245.53514601997267 171.00482445522175 0 171.00482445522175 22.004656685166992 0 0 0 0 218.17096094442059 178.96477684063939 0 178.96477684063939 130.26390272995894 0 0 0 0 163.31463084482129 203.16018135430932 0 203.16018135430932 89.571044203808924 0 0 0 0 129.37556290635985 182.13847537352376 0 182.13847537352376 130.1563797528753 0 0 0 0 80.087473055134978 168.63354104207792 0 168.63354104207792 131.48875961464364 0 0 0 0 38.081628449523123 165.55150119019891 0 165.55150119019891 103.25418201859429 0 0 0 0 61.115672087381427 106.51782626877957 0 106.51782626877957 -65.357731313970362 0 0 0 0 153.0499318747934 74.108874525928968 0 74.108874525928968 -53.939443456194567 0 0 0 0 544.93653203897702 -38.73064673081717 0 -38.73064673081717 -148.72970316458304 0 0 0 0 509.06082844969819 -522.84674880595867 0 -522.84674880595867 -242.77525634871927 0 0 0 0 -395.30873601187432 -31.083817631108104 0 -31.083817631108104 351.05514912780563 0 0 0 0 -260.30100480112537 -265.07472532630527 0 -265.07472532630527 -9.7716326508561906 0 0 0 0 992.02960870201241 318.57461393384256 0 318.57461393384256 -43.432554109075454 0 0 0 0 3.3608094970901767 -3.4231974900438615 0 -3.4231974900438615 4.683526483374493 0 0 0 0 103.25038997778984 -416.76873522534697 0 -416.76873522534697 44.104407579186955 0 0 0 0 503.34406283013254 -444.90978364608418 0 -444.90978364608418 -126.01968994302842 0 0 0 0 122.12240557701352 -225.72163218732749 0 -225.72163218732749 -86.79014373913742 0 0 0 0 45.15821485379513 -162.47821366027529 0 -162.47821366027529 -138.6763083677688 0 0 0 0 44.329265459350381 -138.39366696167235 0 -138.39366696167235 -185.54746099795261 0 0 0 0 42.941778290826278 -153.44290878570609 0 -153.44290878570609 -131.84353647683747 0 0 0 0 99.099674899500314 -77.216794177547854 0 -77.216794177547854 -246.91166956601683 0 0 0 0 121.6459944838067 -133.05867842448947 0 -133.05867842448947 -192.47069284158715 0 0 0 0 141.95430879081005 -105.36704537851983 0 -105.36704537851983 -166.07084163003674 0 0 0 0 218.71719535798593 -175.93589524194749 0 -175.93589524194749 -121.57470477411698 0 0 0 0 199.3688752934745 -166.81463450007686 0 -166.81463450007686 -90.136744373457987 0 0 0 0 291.67030542394536 -162.35169095534457 0 -162.35169095534457 -16.221070364557818 0 0 0 0 308.79229753399511 -194.84201261671558 0 -194.84201261671558 -84.948309747718667 0 0 0 0 340.55177896679015 -232.29384766232761 0 -232.29384766232761 -127.21302579659721 0 0 0 0 256.30748599258732 -252.63624253234229 0 -252.63624253234229 -100.58776965085826 0 0 0 0 227.26919009550045 -283.07054013615607 0 -283.07054013615607 -121.66217644899552 0 0 0 0 282.64034877553536 -314.03840766059375 0 -314.03840766059375 -201.94442317500398 0 0 0 0 254.1968465011613 -319.57344842019393 0 -319.57344842019393 -179.74521352883312 0 0 0 0 266.09227054448331 -261.36497119908017 0 -261.36497119908017 -68.339721578608078 0 0 0 0 247.76587148197027 -208.57068893456562 0 -208.57068893456562 -220.29974086425671 0 0 0 0 -9.1963582576430092 -235.28473395483115 0 -235.28473395483115 -93.257042804831144 0 0 0 0 -90.731383917563562 -138.645846131084 0 -138.645846131084 -114.56551468344151 0 0 0 0 136.25412782608737 -213.30845935565139 0 -213.30845935565139 248.44497682611745 0 0 0 0 -19.236958417208825 -265.54609793072177 0 -265.54609793072177 104.57075267040364 0 0 0 0 171.21502229042881 -230.95505536845121 0 -230.95505536845121 84.767125688321585 0 0 0 0 222.22528984696262 -162.32462325764982 0 -162.32462325764982 -113.22158057735032 0 0 0 0 233.2766856371145 -216.81601235712606 0 -216.81601235712606 69.058003262942293 0 0 0 0 317.18190055344689 -138.70585538858859 0 -138.70585538858859 66.959874567914085 0 0 0 0 378.18736239372402 -227.81274419229976 0 -227.81274419229976 184.38362482381308 0 0 0 0 501.5038739403617 -162.54103929077064 0 -162.54103929077064 78.493771875768743 0 0 0 0 378.67614518224582 -113.4059675395165 0 -113.4059675395165 218.9169102186388 0 0 0 0 335.08323254534821 -157.12148265971291 0 -157.12148265971291 86.120290169628788 0 0 0 0 373.55462875952117 -175.81714037709799 0 -175.81714037709799 -89.882633927416464 0 0 0 0 441.89943119480085 -107.42844203141067 0 -107.42844203141067 -26.311285492685784 0 0 0 0 381.046541030757 -121.65215687264845 0 -121.65215687264845 96.986359415337574 0 0 0 0 500.07713956474436 -55.739997891434996 0 -55.739997891434996 194.731669396293 0 0 0 0 507.50770732716717 -17.486244709346224 0 -17.486244709346224 104.30468674567601 0 0 0 0 578.38245995226498 -23.463001261338377 0 -23.463001261338377 277.51889730306993 0 0 0 0 710.37799029159032 10.533393406774849 0 10.533393406774849 204.44155832117576 0 0 0 0 563.67192981932203 -202.13776760834924 0 -202.13776760834924 358.90883155814299 0 0 0 0 825.84651983330696 -178.50984366330476 0 -178.50984366330476 374.62433791823969 0 0 0 0 682.20818523132118 -122.71855684266478 0 -122.71855684266478 516.0237112062805 0 0 0 0 860.50978275261878 -201.02987559360008 0 -201.02987559360008 546.24245858724544 0 0 0 0 667.6328547661642 -252.38141785822455 0 -252.38141785822455 549.52270965170101 0 0 0 0 462.96934920158674 -95.602130939885683 0 -95.602130939885683 652.05997105117876 0 0 0 0 510.17051548026484 -102.98635549746086 0 -102.98635549746086 408.73848379986066 0 0 0 0 434.16035100789941 -89.336977104198922 0 -89.336977104198922 542.87176927601718 0 0 0 0 444.87986023187841 -195.89550517055545 0 -195.89550517055545 495.50688159574929 0 0 0 0 509.58188324707135 -110.15808197667229 0 -110.15808197667229 213.21013439378112 0 0 0 0 385.09516298704398 -212.93671476921622 0 -212.93671476921622 374.50416851998398 0 0 0 0 324.82692298565428 -119.61409940418935 0 -119.61409940418935 250.55868442806741 0 0 0 0 309.41199099012817 -247.40906046340427 0 -247.40906046340427 250.81717185001798 0 0 0 0 358.57572848478981 -249.42789945220966 0 -249.42789945220966 439.287205267535 0 0 0 0 336.59745035741508 -126.13603428101601 0 -126.13603428101601 498.48132317071577 0 0 0 0 427.92266150349315 -129.94914027969662 0 -129.94914027969662 380.97839574800435 0 0 0 0 379.67039232991237 -155.50618554394532 0 -155.50618554394532 516.08333462943028 0 0 0 0 265.45299947450735 -224.47008269030908 0 -224.47008269030908 519.55508678763817 0 0 0 0 361.12303304166608 -515.70005728534147 0 -515.70005728534147 697.17708774961579 0 0 0 0 190.34388615936928 -165.79228748583637 0 -165.79228748583637 397.86019895579966 0 0 0 0 217.73400182502064 -356.9270003659858 0 -356.9270003659858 390.3226742422612 0 0 0 0 268.39797763987372 -40.002988640734657 0 -40.002988640734657 11.378660936841698 0 0 0 0 364.91877173630655 328.94526761517182 0 328.94526761517182 217.86561456044092 0 0 0 0 8.5315163596242201 -11.991500902295229 0 -11.991500902295229 38.289807955966353 0 0 0 0 5.3127375091142994 -3.2344782529126768 0 -3.2344782529126768 4.2691413325289798 0 0 0 0 4.703969474216386 -0.96869933528496688 0 -0.96869933528496688 0.52691228634826714 0 0 0 0 68.239887607112905 184.07601152009238 0 184.07601152009238 460.37845527939317 0 0 0 0 -0.93432467575439659 59.100544245752189 0 59.100544245752189 254.89139834840535 0 0 0 0 130.82127430125092 244.17736595606766 0 244.17736595606766 242.91668655790272 0 0 0 0 394.87490915946273 303.98747055834338 0 303.98747055834338 211.34843873320824 0 0 0 0 402.7975004790934 31.514827146610955 0 31.514827146610955 231.08394984196457 0 0 0 0 367.21736140128269 -62.901467508738278 0 -62.901467508738278 42.076139880273331 0 0 0 0 406.64229635237098 41.850644689357978 0 41.850644689357978 142.96329365259953 0 0 0 0 580.92533945310151 107.02750214580828 0 107.02750214580828 157.379856151073 0 0 0 0 483.11375265919378 54.008883780363249 0 54.008883780363249 129.10493888642532 0 0 0 0 416.4151420720209 214.62929117359727 0 214.62929117359727 338.58158056682259 0 0 0 0 703.10279038624367 283.23863896637124 0 283.23863896637124 103.47402072573277 0 0 0 0 629.05148246659451 25.359772528275585 0 25.359772528275585 249.5840090413476 0 0 0 0 597.07336307078731 130.17782133597575 0 130.17782133597575 390.12830706849127 0 0 0 0 569.3607694756638 63.407643290345277 0 63.407643290345277 269.77464463576962 0 0 0 0 868.54413537313303 110.99888880918434 0 110.99888880918434 251.45753420972551 0 0 0 0 775.01794834655902 112.19455537237945 0 112.19455537237945 293.62395027796083 0 0 0 0 675.47968673930382 331.38682314879452 0 331.38682314879452 2.892952806426365 0 0 0 0 1257.4788092110921 -250.24892756887402 0 -250.24892756887402 94.345099351247427 0 0 0 0 515.73623088050158 -95.782215129990334 0 -95.782215129990334 32.743385344800117 0 0 0 0 423.95760179858735 251.24203748771515 0 251.24203748771515 312.45537049176392 0 0 0 0 85.907823462946908 -23.198330997102858 0 -23.198330997102858 71.545474619017114 0 0 0 0 50.716388668259242 -132.48049258884339 0 -132.48049258884339 140.02141175173915 0 0 0 0 1.1690061641866123 -2.0135693300494744 0 -2.0135693300494744 2.4914022271112852 0 0 0 0 62.188358699056153 -152.33174117759972 0 -152.33174117759972 299.2185174674305 0 0 0 0 20.34141682687914 -11.720455901635546 0 -11.720455901635546 97.260138992312932 0 0 0 0 35.067028449877398 -25.435259711217441 0 -25.435259711217441 30.851423686394128 0 0 0 0 14.425362359143946 -9.3155306398853099 0 -9.3155306398853099 45.157538328125156 0 0 0 0 41.994530933008718 -92.494442162210134 0 -92.494442162210134 -3.325719043987192 0 0 0 0 64.467994336828269 -59.941077838215733 0 -59.941077838215733 22.19117804018174 0 0 0 0 79.588129995445343 14.7016589065679 0 14.7016589065679 8.8329376274559763 0 0 0 0 62.880362398741624 16.471208835424235 0 16.471208835424235 2.5063065405778993 0 0 0 0 97.599390507864882 19.541837435958314 0 19.541837435958314 -0.60454034297117687 0 0 0 0 89.336230390425044 11.978514037265086 0 11.978514037265086 -2.8538186348732779 0 0 0 0 102.10248429443573 22.336999989708602 0 22.336999989708602 -2.561229783372255 0 0 0 0 11.653784114402583 -15.468396511745254 0 -15.468396511745254 4.092953296066689 0 0 0 0 12.982990971810068 -16.832352317032473 0 -16.832352317032473 26.491552572490036 0 0 0 0 -30.092979402761557 9.4228013914989788 0 9.4228013914989788 12.115805516235014 0 0 0 0 9.3807969800072897 -41.19977624639705 0 -41.19977624639705 -59.778349378284929 0 0 0 0 72.047295823380409 5.3837346146506206 0 5.3837346146506206 4.2466048958490319 0 0 0 0 0.49533299898757832 -47.814610370702439 0 -47.814610370702439 -38.908599346341362 0 0 0 0 8.9251964722891728 3.0417241898482175 0 3.0417241898482175 0.18671321910644068 0 0 0 0 28.919539906336873 -27.805872494679463 0 -27.805872494679463 -14.369437752412107 0 0 0 0 7.1579712551252328 -8.0581968890441047 0 -8.0581968890441047 -4.0069715079142085 0 0 0 0 -43.418853766754182 18.495536291221015 0 18.495536291221015 -13.969619331262493 0 0 0 0 -92.688559828198777 -30.875125828904856 0 -30.875125828904856 44.976457970429692 0 0 0 0 50.214535693408834 -6.1402948032068707 0 -6.1402948032068707 -33.946568348740584 0 0 0 0 93.48849737357159 25.654734093219304 0 25.654734093219304 18.298115337815034 0 0 0 0 111.83160440140546 35.125998411224373 0 35.125998411224373 6.5572461466799723 0 0 0 0 109.30946928542289 15.522504483413286 0 15.522504483413286 11.534060202064211 0 0 0 0 157.64548604762058 40.221211051404225 0 40.221211051404225 1.4514554554698407 0 0 0 0 -112.09302987722367 -75.994522088129315 0 -75.994522088129315 35.697996619481273 0 0 0 0 23.764116902026505 -31.740780667344907 0 -31.740780667344907 -13.898998021686523 0 0 0 0 20.242719309911081 3.8210975040522044 0 3.8210975040522044 7.5596537398869259 0 0 0 0 18.352792177163792 -2.3840680735775095 0 -2.3840680735775095 4.6930505148329758 0 0 0 0 10.544973035454667 -0.564870069337017 0 -0.564870069337017 3.781750264941131 0 0 0 0 8.1867155051423559 6.6883488032917668 0 6.6883488032917668 6.5114803625676458 0 0 0 0 37.149182080913306 27.267751636383764 0 27.267751636383764 22.923392368464192 0 0 0 0 85.045252852067279 10.393585289168186 0 10.393585289168186 3.5439281456929166 0 0 0 0 101.94004612574099 39.637020744259644 0 39.637020744259644 21.502900954041252 0 0 0 0 1.0340487686861195 1.2229360906715314 0 1.2229360906715314 1.858418534184807 0 0 0 0 122.5332603511506 139.1578066406837 0 139.1578066406837 110.40077333945919 0 0 0 0 57.300973419295133 6.5155657022141895 0 6.5155657022141895 69.103860592103956 0 0 0 0 8.6906150306012293 -2.5838554223808394 0 -2.5838554223808394 4.0702256973279134 0 0 0 0 158.04265145964655 157.50175527993997 0 157.50175527993997 96.310447601163105 0 0 0 0 133.10177242739474 193.56816445250251 0 193.56816445250251 59.073853500995028 0 0 0 0 134.77458058646334 204.89611241813509 0 204.89611241813509 135.24655011200764 0 0 0 0 91.722169590299927 420.86440215566972 0 420.86440215566972 41.710055804571311 0 0 0 0 613.44006302841899 228.95772704979663 0 228.95772704979663 -18.907607732480756 0 0 0 0 196.28413930317038 158.74491304152343 0 158.74491304152343 -55.627674066090549 0 0 0 0 -60.176021761208176 33.212074421292527 0 33.212074421292527 -0.48183183721994283 0 0 0 0 0.071333408693563527 1.1877532858462665 0 1.1877532858462665 2.0207124657032267 0 0 0 0 3.1551995813997564 6.1716488193916348 0 6.1716488193916348 7.1927938558619644 0 0 0 0 0.82841210763883311 1.7920714022149724 0 1.7920714022149724 5.9224549194990317 0 0 0 0 102.7701541585684 36.211329857736018 0 36.211329857736018 -11.427087010615651 0 0 0 0 102.44880668535552 36.256113536932389 0 36.256113536932389 2.6081837463327702 0 0 0 0 201.49365412673251 20.522578872020858 0 20.522578872020858 -42.699385819196323 0 0 0 0 25.18096252620245 -32.601595928961288 0 -32.601595928961288 -13.06078699745931 0 0 0 0 182.55944952064419 5.2192829606437954 0 5.2192829606437954 -34.893395199729639 0 0 0 0 178.35545835884204 -19.489225418637034 0 -19.489225418637034 -35.363093887524883 0 0 0 0 62.641493163893756 91.79440821452863 0 91.79440821452863 -46.952015669456159 0 0 0 0 174.45027915277387 -11.91070631374032 0 -11.91070631374032 -49.020645385662647 0 0 0 0 285.99915384842461 10.872366455654628 0 10.872366455654628 -46.064820552908941 0 0 0 0 281.16776969060174 97.966423439029313 0 97.966423439029313 -58.425310002499828 0 0 0 0 182.43673607661822 -57.229537661608902 0 -57.229537661608902 -40.930490241384177 0 0 0 0 181.65722450902103 -56.850218095393302 0 -56.850218095393302 -32.289240002446604 0 0 0 0 298.47889442791984 -44.465046246625207 0 -44.465046246625207 -36.71045347416657 0 0 0 0 183.9760814106412 -121.41271368673006 0 -121.41271368673006 44.701386086270759 0 0 0 0 296.57743731485243 -48.189489453667193 0 -48.189489453667193 -17.927343587002724 0 0 0 0 287.76177340553295 22.272744463138224 0 22.272744463138224 -97.214062348233711 0 0 0 0 412.15987468589265 -14.700265659131219 0 -14.700265659131219 -87.876755232235155 0 0 0 0 388.76635188247792 -4.7539639486162741 0 -4.7539639486162741 33.75640874045348 0 0 0 0 509.07851266145917 -82.155943587962611 0 -82.155943587962611 -136.74982191885101 0 0 0 0 1.9766287570494505 -0.83265422665967392 0 -0.83265422665967392 0.11446546889290765 0 0 0 0 -0.21654657960789336 -10.601600174619307 0 -10.601600174619307 -12.185800705919974 0 0 0 0 2.6452755087725288 -0.53584582090279298 0 -0.53584582090279298 -4.0611881411008781 0 0 0 0 510.38540611330609 41.829221834901546 0 41.829221834901546 -515.98275612170255 0 0 0 0 -216.20463844344886 140.01539745881473 0 140.01539745881473 5.2461618410379742 0 0 0 0 48.759325809432994 469.11578001370071 0 469.11578001370071 -431.53374437965249 0 0 0 0 370.11049430531784 103.38847727735083 0 103.38847727735083 -15.63450225847987 0 0 0 0 427.71413716171446 161.27573819787267 0 161.27573819787267 -314.57520800131533 0 0 0 0 431.37534676305313 100.95979863886896 0 100.95979863886896 -91.06830161704238 0 0 0 0 115.40563276564353 -45.287325910750951 0 -45.287325910750951 -68.657500580839042 0 0 0 0 183.28701441739395 -59.977623685389517 0 -59.977623685389517 -65.550657770824728 0 0 0 0 177.36522981458256 -18.459391997829698 0 -18.459391997829698 -72.918915697253397 0 0 0 0 183.87264052242244 58.888969551920127 0 58.888969551920127 -114.81138138225106 0 0 0 0 181.08559117743425 -24.959122669312819 0 -24.959122669312819 -84.370744693824236 0 0 0 0 136.18142977100069 64.562764570221589 0 64.562764570221589 -129.72306625367946 0 0 0 0 155.5350710187995 -10.553724709103335 0 -10.553724709103335 -92.402416578620432 0 0 0 0 67.596693069834146 -2.7661010890637954 0 -2.7661010890637954 -75.393723070648775 0 0 0 0 124.96660027569305 -60.089567952911239 0 -60.089567952911239 -58.523417414464348 0 0 0 0 75.572316731922911 -19.855794814224282 0 -19.855794814224282 -49.245406215908588 0 0 0 0 154.36936857420824 -26.944427655115987 0 -26.944427655115987 -35.031169938349194 0 0 0 0 130.56290963944684 -18.340921854964563 0 -18.340921854964563 -29.382571761558211 0 0 0 0 123.42979150268366 -50.350269495882458 0 -50.350269495882458 -68.151069351787555 0 0 0 0 32.965894583996487 -30.792961746132903 0 -30.792961746132903 -12.967847527121457 0 0 0 0 -15.389128546752545 -54.183402077183928 0 -54.183402077183928 32.595529647403964 0 0 0 0 37.869468689734276 -17.08763134478977 0 -17.08763134478977 -3.0364669583541399 0 0 0 0 19.876283173978663 -92.991557418069988 0 -92.991557418069988 -25.142726983838656 0 0 0 0 24.600520290354773 -33.378758485843711 0 -33.378758485843711 -12.972920048696643 0 0 0 0 96.188554036898495 -57.61593584446382 0 -57.61593584446382 -19.208665544549149 0 0 0 0 53.108102280319144 -37.460731230027704 0 -37.460731230027704 -33.094470672017906 0 0 0 0 98.934406627369754 -71.918369874708333 0 -71.918369874708333 -51.613095586133568 0 0 0 0 123.79365729892015 -64.337362296386345 0 -64.337362296386345 -56.310296862048745 0 0 0 0 63.658614050422329 -43.036145350722109 0 -43.036145350722109 -38.467278664377318 0 0 0 0 70.523506111898314 -94.099027031827518 0 -94.099027031827518 -49.943934783997975 0 0 0 0 51.882275719759491 -35.557476749168927 0 -35.557476749168927 -43.666573300230084 0 0 0 0 -64.815215240816542 -107.04776789488233 0 -107.04776789488233 -0.2625865344198246 0 0 0 0 166.49786877274892 -35.153170808578579 0 -35.153170808578579 -11.130081970293304 0 0 0 0 95.181062278341415 -87.198649937408845 0 -87.198649937408845 13.332301878812359 0 0 0 0 302.74309488536528 -40.116266445937072 0 -40.116266445937072 0.28550062299109413 0 0 0 0 164.98184605101051 -56.261441878920778 0 -56.261441878920778 118.788280847235 0 0 0 0 186.31793303591257 -51.278624188037384 0 -51.278624188037384 6.747813889536701 0 0 0 0 127.76629593226971 -72.966115602301215 0 -72.966115602301215 -37.990100704200813 0 0 0 0 205.97754913264725 -67.097477605341737 0 -67.097477605341737 -43.467473157053973 0 0 0 0 263.33126061899384 59.045804309753294 0 59.045804309753294 -57.980743176395663 0 0 0 0 267.67314674999216 -55.485211527374304 0 -55.485211527374304 -57.926046296701315 0 0 0 0 291.65817758897174 -74.339154995067474 0 -74.339154995067474 204.2559951369567 0 0 0 0 638.54137941164572 127.98733524696149 0 127.98733524696149 103.71097697381992 0 0 0 0 403.38027705084824 132.79635286288794 0 132.79635286288794 256.01346974706212 0 0 0 0 344.95791878708405 135.56127806934273 0 135.56127806934273 125.83812506803952 0 0 0 0 251.27644497930669 5.0325675326703276 0 5.0325675326703276 187.72936904619564 0 0 0 0 251.96571119872533 26.682563928432501 0 26.682563928432501 69.151235308372634 0 0 0 0 159.93890464884316 24.620090964681822 0 24.620090964681822 103.57686650483083 0 0 0 0 268.11632552712763 44.1614779779743 0 44.1614779779743 24.223265148304563 0 0 0 0 321.57568240026012 148.80879979645397 0 148.80879979645397 11.629007673586898 0 0 0 0 314.53038498470414 123.10558426781608 0 123.10558426781608 106.82916286659884 0 0 0 0 436.17823913558095 25.617374458961422 0 25.617374458961422 147.79056453205703 0 0 0 0 175.01171866530785 -6.4686711230278888 0 -6.4686711230278888 14.767253182249533 0 0 0 0 52.944605242630132 -55.962137053146307 0 -55.962137053146307 62.543074890998469 0 0 0 0 24.44450448360476 -11.04245349426651 0 -11.04245349426651 102.66316625491163 0 0 0 0 254.45270258417077 101.0676865901778 0 101.0676865901778 20.510694617136323 0 0 0 0 24.472101310309881 -59.743961320854169 0 -59.743961320854169 -7.2549638821437838 0 0 0 0 514.94582387833725 -86.69503994249726 0 -86.69503994249726 -38.051743783971688 0 0 0 0 1.4007015672370713 1.8200918178971364 0 1.8200918178971364 -0.47933023707248523 0 0 0 0 211.52385844244054 13.491000080388403 0 13.491000080388403 15.837443675255145 0 0 0 0 96.556852226087358 90.501997239118282 0 90.501997239118282 -27.165548752053382 0 0 0 0 214.08800601163603 11.508908702724966 0 11.508908702724966 -30.707299649583547 0 0 0 0 324.03942903308052 -48.811651515758967 0 -48.811651515758967 56.115666084353506 0 0 0 0 694.81862006103256 -115.62911820948557 0 -115.62911820948557 -61.250918155135878 0 0 0 0 -175.11638486605079 90.670966168337145 0 90.670966168337145 93.173988285995165 0 0 0 0 351.22841953470925 -4.9605265172385771 0 -4.9605265172385771 -82.07374464635177 0 0 0 0 332.56935416957276 68.602378808326193 0 68.602378808326193 -92.138875316433314 0 0 0 0 291.67785391392681 32.476502481486477 0 32.476502481486477 21.94672668003318 0 0 0 0 298.49689182653674 7.5074603324528653 0 7.5074603324528653 -33.780602180143433 0 0 0 0 81.920790836855303 80.470201135779007 0 80.470201135779007 -10.777311485703194 0 0 0 0 2.5612744992485617 3.4796941001832167 0 3.4796941001832167 -1.3148727717787914 0 0 0 0 283.45626639904367 16.794062021467653 0 16.794062021467653 -35.216940411796088 0 0 0 0 93.197774823285727 43.586716740862812 0 43.586716740862812 7.9633766787644618 0 0 0 0 333.66796560058719 -18.56911106106304 0 -18.56911106106304 -26.948174403497433 0 0 0 0 181.15489773467561 13.003819476667104 0 13.003819476667104 -7.3977308232556425 0 0 0 0 182.03399455600083 -15.315058790662988 0 -15.315058790662988 11.48610710087496 0 0 0 0 123.31658397290812 23.61710350939029 0 23.61710350939029 -7.8029078780368764 0 0 0 0 187.87649587247984 28.442962752088363 0 28.442962752088363 -11.757501908524318 0 0 0 0 169.05675398618041 12.915113357923474 0 12.915113357923474 -12.359954380402542 0 0 0 0 128.09497532528621 -6.4665036012752353 0 -6.4665036012752353 -16.539106653164708 0 0 0 0 188.49359231924245 -10.252209808100133 0 -10.252209808100133 -31.35357438417077 0 0 0 0 174.77207032142815 -7.199883556324437 0 -7.199883556324437 -31.163396969892347 0 0 0 0 158.75487873999009 -35.081777313496218 0 -35.081777313496218 -52.006817432536081 0 0 0 0 145.31308903368335 -25.218860131214569 0 -25.218860131214569 -6.4472201039875472 0 0 0 0 354.08848081574251 39.282991547612426 0 39.282991547612426 -30.648630888792013 0 0 0 0 195.85485208520913 8.807756007197213 0 8.807756007197213 -42.427173586155732 0 0 0 0 193.16609459534084 -14.532361249762289 0 -14.532361249762289 -68.499484841427375 0 0 0 0 2.7951004508486932 3.4848065442453091 0 3.4848065442453091 -2.3568557134390158 0 0 0 0 190.8568760819071 -26.675118624646529 0 -26.675118624646529 -59.039205876006235 0 0 0 0 1.826785363873249 1.9748527538712963 0 1.9748527538712963 -1.6265506663646043 0 0 0 0 805.2691209907025 -6.4912035239603938 0 -6.4912035239603938 -134.532307630574 0 0 0 0 -1.1007198057523055 228.90418054760084 0 228.90418054760084 -198.14451931346412 0 0 0 0 841.84996045795197 95.236833838113228 0 95.236833838113228 -327.28362993917267 0 0 0 0 383.37040502198579 479.50494890689203 0 479.50494890689203 -137.60631790661841 0 0 0 0 354.67287977516389 -233.37066047787948 0 -233.37066047787948 -15.362987893900083 0 0 0 0 336.99703420695823 -180.80902126027627 0 -180.80902126027627 -26.096778432739029 0 0 0 0 203.09555392920811 -50.527821080898036 0 -50.527821080898036 -129.86225901972955 0 0 0 0 211.11143853018075 -84.356337652966261 0 -84.356337652966261 -16.036458009269211 0 0 0 0 97.263238491907941 -52.964149837093359 0 -52.964149837093359 28.817284828229049 0 0 0 0 103.72251685759238 -95.458541288913239 0 -95.458541288913239 51.884104953661335 0 0 0 0 108.08236882907295 -89.855413554871575 0 -89.855413554871575 45.078345344459024 0 0 0 0 116.5758444576677 -181.36067535791153 0 -181.36067535791153 248.80342485873473 0 0 0 0 40.382451698715158 -81.599770444200203 0 -81.599770444200203 100.54958512853568 0 0 0 0 18.578106880605134 -7.4175979795179998 0 -7.4175979795179998 -8.5404069730136722 0 0 0 0 6.4648703479556389 4.2615799414442677 0 4.2615799414442677 -8.5901543818131358 0 0 0 0 10.641440144581793 -18.686542524429456 0 -18.686542524429456 7.1698756382893407 0 0 0 0 75.212180557795364 1.6163594673071202 0 1.6163594673071202 14.280588888392344 0 0 0 0 1697.6504472545785 638.92611242540443 0 638.92611242540443 -1806.1929664559175 0 0 0 0 52.962267297635663 -83.3654712146636 0 -83.3654712146636 55.05771322841656 0 0 0 0 952.97977024724969 717.96821015691239 0 717.96821015691239 -414.74034931265851 0 0 0 0 30.87309286461165 -18.643799267005168 0 -18.643799267005168 4.39178063946843 0 0 0 0 -351.99699782420066 359.07360236213663 0 359.07360236213663 153.03404491789706 0 0 0 0 2261.3868570408958 937.99512287032917 0 937.99512287032917 271.38229082716072 0 0 0 0 1372.8730850492548 519.99796450034069 0 519.99796450034069 -156.1420132052283 0 0 0 0 374.84680662515166 -840.67163766679869 0 -840.67163766679869 398.73758254712743 0 0 0 0 1041.5987668570524 -518.74322786252151 0 -518.74322786252151 98.459943609436962 0 0 0 0 136.86706903637605 -36.30476068053656 0 -36.30476068053656 79.225115733317352 0 0 0 0 28.858121771641891 -333.05801435262686 0 -333.05801435262686 700.91250140817328 0 0 0 0 11.728633360038074 -4.8586756374115652 0 -4.8586756374115652 2.537158854648919 0 0 0 0 24.436008842720184 -5.5147811437777818 0 -5.5147811437777818 8.9518976684587415 0 0 0 0 1626.4551271110995 -833.72675252472152 0 -833.72675252472152 237.54158979603773 0 0 0 0 1649.7274791038144 -820.039982392399 0 -820.039982392399 -19.857171503543213 0 0 0 0 1789.8881853560742 -274.71007046487034 0 -274.71007046487034 -631.92054365698937 0 0 0 0 4.4411801135118001 -9.2035796254898088 0 -9.2035796254898088 2.0772425879002885 0 0 0 0 773.14601732903975 277.54301330566932 0 277.54301330566932 116.77147549913752 0 0 0 0 4.5128119485009393 -1.1203430198565627 0 -1.1203430198565627 3.4553048546171627 0 0 0 0 26.542335849197116 -4.4626757333398928 0 -4.4626757333398928 -17.422060034731658 0 0 0 0 14.935417671133109 -13.048871755164527 0 -13.048871755164527 4.1588526041477962 0 0 0 0 27.584025635922444 -13.577670774062426 0 -13.577670774062426 -5.622105510043184 0 0 0 0 33.091153539397055 -5.9874576229549348 0 -5.9874576229549348 4.5723469208562619 0 0 0 0 39.702000745124678 -20.134945971637308 0 -20.134945971637308 0.42446799313711381 0 0 0 0 97.554160412262718 -47.153472248388425 0 -47.153472248388425 -3.6676482516866145 0 0 0 0 95.592337315203622 13.429662376896431 0 13.429662376896431 -5.5319565252093525 0 0 0 0 -0.8196982918577902 0.45754157770042525 0 0.45754157770042525 1.2923265650816447 0 0 0 0 51.240775273396139 9.0640081275801094 0 9.0640081275801094 -20.180345937645598 0 0 0 0 23.427179814494593 -5.3994469046765516 0 -5.3994469046765516 47.911145493510958 0 0 0 0 21.196875809138618 0.79245952968636857 0 0.79245952968636857 -9.3467831917537758 0 0 0 0 36.038853376578913 -22.30533958479954 0 -22.30533958479954 31.426014659145778 0 0 0 0 5.7550067426195426 -0.26254324924062189 0 -0.26254324924062189 3.7934393052587261 0 0 0 0 41.177155399898766 -24.378041588320343 0 -24.378041588320343 11.416298322690636 0 0 0 0 60.072303311602809 -27.346035478568638 0 -27.346035478568638 -5.293353833259971 0 0 0 0 25.762355587775801 -19.768300170905931 0 -19.768300170905931 19.058584025323398 0 0 0 0 25.773826474385302 5.0956174945961372 0 5.0956174945961372 -6.1618165101955045 0 0 0 0 54.19439851505922 -11.611801390669228 0 -11.611801390669228 18.970015960549858 0 0 0 0 61.916449350806943 -56.160897449057302 0 -56.160897449057302 52.840871666314229 0 0 0 0 41.71930231818078 -30.2567110138624 0 -30.2567110138624 39.869124948293575 0 0 0 0 81.026643772624084 -45.715873856137932 0 -45.715873856137932 27.877062275555772 0 0 0 0 82.12768001978111 -42.409260645763879 0 -42.409260645763879 37.807418502170606 0 0 0 0 65.875512060911205 -28.354097345563559 0 -28.354097345563559 32.088580334214384 0 0 0 0 63.21140306504094 -28.557320069990737 0 -28.557320069990737 40.975745655307946 0 0 0 0 65.686568259297928 -6.1931710013941483 0 -6.1931710013941483 28.844567185211417 0 0 0 0 60.666469564934232 -23.683557209562878 0 -23.683557209562878 39.251753748509145 0 0 0 0 18.701834985477035 0.14134639528478488 0 0.14134639528478488 11.303938417919085 0 0 0 0 15.291588938243649 7.9785918403589093 0 7.9785918403589093 6.6283158498756256 0 0 0 0 15.513066600866622 3.9419966755395919 0 3.9419966755395919 14.199700654602429 0 0 0 0 14.312231509308646 2.4242492951966099 0 2.4242492951966099 3.658021822134776 0 0 0 0 26.811830420562274 -10.111018811007817 0 -10.111018811007817 23.867750893028187 0 0 0 0 41.182287422561785 -13.18962607870094 0 -13.18962607870094 7.4082300691945306 0 0 0 0 2.6694589868127352 -7.7884361330639678 0 -7.7884361330639678 17.336458324816459 0 0 0 0 1106.4761930222812 -555.71688456894867 0 -555.71688456894867 -47.354820841521359 0 0 0 0 -87.860040283617309 -162.2068130109725 0 -162.2068130109725 580.49677166807942 0 0 0 0 2.5553917508120065 -0.029947965654436359 0 -0.029947965654436359 4.7234007607715363 0 0 0 0 30.577420213201549 -15.358503806770386 0 -15.358503806770386 24.400889587406709 0 0 0 0 1004.7426769900339 176.12030008421925 0 176.12030008421925 -17.009033131657816 0 0 0 0 -14.799795556275058 -5.6279546466385 0 -5.6279546466385 74.377107344408614 0 0 0 0 137.48162455996498 52.351624775598339 0 52.351624775598339 3.2921886003332475 0 0 0 0 -141.19161135582726 -32.670700419052423 0 -32.670700419052423 193.62020966102682 0 0 0 0 17.927550001317659 3.2434030009172616 0 3.2434030009172616 -0.031523817467231652 0 0 0 0 62.391279851605304 77.418384575640061 0 77.418384575640061 40.353991176096315 0 0 0 0 34.927774697483983 18.906088737952359 0 18.906088737952359 44.40164998063301 0 0 0 0 73.25653341305042 -43.662251520364521 0 -43.662251520364521 -5.7497972095188743 0 0 0 0 20.835402110802136 15.753938286991549 0 15.753938286991549 25.449948372937584 0 0 0 0 88.892841044289526 -22.413004432745765 0 -22.413004432745765 39.354313278383415 0 0 0 0 88.507135337218642 -37.165857128287826 0 -37.165857128287826 44.2904419063143 0 0 0 0 -3.7796248200707652 0.042218548008836621 0 0.042218548008836621 10.040818584900817 0 0 0 0 92.243023347044073 83.236877628653474 0 83.236877628653474 31.675233829846547 0 0 0 0 6.6895003134593454 6.1202132591738234 0 6.1202132591738234 0.73781963585081378 0 0 0 0 109.53148384074302 -41.784467437689727 0 -41.784467437689727 29.427449078087868 0 0 0 0 75.507510826202633 -30.369918558119025 0 -30.369918558119025 52.517883961616462 0 0 0 0 73.177189985959558 -22.907718872306305 0 -22.907718872306305 38.901819455755458 0 0 0 0 71.909194915315311 -12.86964688292619 0 -12.86964688292619 67.872955131469553 0 0 0 0 76.415183735545725 -23.870830852318704 0 -23.870830852318704 93.220453756742245 0 0 0 0 21.875009639516065 -0.082742900890025339 0 -0.082742900890025339 120.80880922344295 0 0 0 0 88.145059095404577 -5.9296631228171464 0 -5.9296631228171464 56.649227186525422 0 0 0 0 116.49971433941391 19.129237872984959 0 19.129237872984959 71.460108155487887 0 0 0 0 141.66257900200435 -22.758865352071552 0 -22.758865352071552 28.714639872798216 0 0 0 0 114.68884656059527 -13.22646549277033 0 -13.22646549277033 31.392078230535844 0 0 0 0 95.693558896346076 -16.711464666435859 0 -16.711464666435859 30.73188677125836 0 0 0 0 90.396346763365727 -22.638172165869491 0 -22.638172165869491 30.742615207131166 0 0 0 0 75.28041095824301 -17.268236810746657 0 -17.268236810746657 38.592672825177942 0 0 0 0 82.053594522047206 -10.379957925711096 0 -10.379957925711096 45.549196253966443 0 0 0 0 87.445689587064408 -9.4076407727211517 0 -9.4076407727211517 45.52053965225241 0 0 0 0 84.489458031530376 -19.429870971083801 0 -19.429870971083801 28.375562664214158 0 0 0 0 82.570223057511612 -22.298590629871796 0 -22.298590629871796 29.086557597544925 0 0 0 0 88.142630296999414 -26.457999632217707 0 -26.457999632217707 25.705755775010402 0 0 0 0 84.112515156593872 -19.352046163703562 0 -19.352046163703562 24.322384522220091 0 0 0 0 87.819083734357264 -26.702743267891947 0 -26.702743267891947 26.175093857693355 0 0 0 0 18.361884434279965 -2.6152669719863546 0 -2.6152669719863546 -2.486169818579139 0 0 0 0 54.627304182111402 -39.974574230635426 0 -39.974574230635426 11.727678622642088 0 0 0 0 21.054030167492719 1.5281440238902988 0 1.5281440238902988 10.640849461005908 0 0 0 0 13.108220829890342 10.173382968452188 0 10.173382968452188 -0.023627785512871924 0 0 0 0 42.892129319203811 1.3717986566252307 0 1.3717986566252307 1.242259504481507 0 0 0 0 33.254227887615201 7.8734112241935534 0 7.8734112241935534 16.748251975037853 0 0 0 0 49.693541700937203 -22.189333834759964 0 -22.189333834759964 39.04366262493204 0 0 0 0 36.520537387783406 0.01082476161991508 0 0.01082476161991508 32.822624693722901 0 0 0 0 85.466660188350943 -30.791883942179993 0 -30.791883942179993 26.331712001052438 0 0 0 0 91.752528835721023 -21.770020742923407 0 -21.770020742923407 24.208945579004649 0 0 0 0 63.941218094390933 -9.4971525899782137 0 -9.4971525899782137 20.390488235030716 0 0 0 0 121.48900804395453 -45.955392718128905 0 -45.955392718128905 26.373848760934379 0 0 0 0 85.718049472976418 -25.802254855620504 0 -25.802254855620504 21.473748673518458 0 0 0 0 85.77499384210023 -24.802553542449942 0 -24.802553542449942 38.809927741894171 0 0 0 0 70.834448857436655 -29.331109246692904 0 -29.331109246692904 41.040663794622105 0 0 0 0 68.002879029660107 -24.135594821628274 0 -24.135594821628274 50.378859312439999 0 0 0 0 70.530919527294827 -18.484602007809258 0 -18.484602007809258 45.119877712320886 0 0 0 0 71.119759881403297 -16.6313635807428 0 -16.6313635807428 47.036721556473367 0 0 0 0 59.86728835903341 -14.909710754505795 0 -14.909710754505795 36.500780373123689 0 0 0 0 76.379449788756574 -11.062198639651285 0 -11.062198639651285 37.259915375163473 0 0 0 0 66.910712791097467 -1.3314356102164311 0 -1.3314356102164311 29.040634312383418 0 0 0 0 70.895975892395654 -14.002992614453888 0 -14.002992614453888 33.633754833170087 0 0 0 0 87.253521236103552 -9.051397257631379 0 -9.051397257631379 30.780030166082724 0 0 0 0 92.855176531935285 -16.919086217697441 0 -16.919086217697441 23.06423786244909 0 0 0 0 124.6267795308795 -2.3059950510138378 0 -2.3059950510138378 10.143027071982942 0 0 0 0 65.06752351756586 18.219772551893584 0 18.219772551893584 18.70675667453088 0 0 0 0 96.566551464426084 9.332413813896892 0 9.332413813896892 17.935366542940756 0 0 0 0 99.612593107180146 5.3828939382447061 0 5.3828939382447061 8.8515749291701695 0 0 0 0 44.933504278433247 -9.4077531675663977 0 -9.4077531675663977 29.607167516222034 0 0 0 0 70.705030765362608 -4.9781441937429918 0 -4.9781441937429918 30.030385717099307 0 0 0 0 59.67531254045025 -12.218870995763154 0 -12.218870995763154 10.561613292451511 0 0 0 0 54.185379285972886 -0.28851765187346246 0 -0.28851765187346246 -41.371139488624067 0 0 0 0 16.174315391093842 -2.2553448372468665 0 -2.2553448372468665 11.410825193808705 0 0 0 0 95.348582246011574 40.007074356194948 0 40.007074356194948 -5.5267811992998759 0 0 0 0 38.198059494061454 -0.93984438118695834 0 -0.93984438118695834 12.538090979555136 0 0 0 0 7.0472252136869837 -17.663932249312118 0 -17.663932249312118 12.76753596551973 0 0 0 0 141.29398827244586 11.146650456972679 0 11.146650456972679 23.839811659828229 0 0 0 0 96.992581495851482 -24.352733587605599 0 -24.352733587605599 18.483804942944516 0 0 0 0 159.93293484284368 6.4668040417611792 0 6.4668040417611792 -35.223597762109421 0 0 0 0 90.950679254590796 -32.104609744123536 0 -32.104609744123536 16.596768992312718 0 0 0 0 77.066737360379193 -28.50481999056592 0 -28.50481999056592 25.429677136605164 0 0 0 0 75.858418411131424 -21.179376403118113 0 -21.179376403118113 28.050695171923508 0 0 0 0 75.962555361489649 -21.657930474551904 0 -21.657930474551904 26.081548163168918 0 0 0 0 80.126344826760032 -30.972452006002186 0 -30.972452006002186 4.2836462106643012 0 0 0 0 47.967874663845578 -23.578898922047301 0 -23.578898922047301 26.592407850616382 0 0 0 0 80.796677293328685 -26.813972069884585 0 -26.813972069884585 24.030529013250089 0 0 0 0 114.458163270363 -32.901696884641751 0 -32.901696884641751 -48.016801989823762 0 0 0 0 31.703054913312371 -45.747116950882628 0 -45.747116950882628 2.3513499084165232 0 0 0 0 90.440629888891635 -55.783676101003493 0 -55.783676101003493 -5.3912789008891195 0 0 0 0 142.17663246903885 -1.0482851366844557 0 -1.0482851366844557 -24.183801120074349 0 0 0 0 2.6057522001977871 -19.000839000663248 0 -19.000839000663248 7.7240015573604843 0 0 0 0 113.85187660478914 -103.53303045654911 0 -103.53303045654911 -123.87179017647804 0 0 0 0 99.979514980548629 -79.616494724051336 0 -79.616494724051336 -3.9388767856189588 0 0 0 0 89.776814749156983 -61.368391399761322 0 -61.368391399761322 -17.442851511623758 0 0 0 0 102.5440512182704 -37.264932949554293 0 -37.264932949554293 -23.658681196953012 0 0 0 0 45.641402659286541 20.64862267993044 0 20.64862267993044 -73.184695531625039 0 0 0 0 64.374234118602146 20.867347662722722 0 20.867347662722722 3.049129257408306 0 0 0 0 3950.6010894020437 420.49909138693693 0 420.49909138693693 1025.2221567087272 0 0 0 0 103.1507929874715 65.338845976862444 0 65.338845976862444 -318.96003029556755 0 0 0 0 130.03269054366501 -136.94245322143706 0 -136.94245322143706 -264.19137733114394 0 0 0 0 69.427683690406411 -73.941325455768038 0 -73.941325455768038 -60.928416849649693 0 0 0 0 147.60410963966933 -144.89843806763679 0 -144.89843806763679 -37.870233842005291 0 0 0 0 244.81828862663315 460.95849243818657 0 460.95849243818657 -395.96975057522889 0 0 0 0 23.031016993732919 -138.86152548741643 0 -138.86152548741643 -56.021533078970151 0 0 0 0 1486.2632176954485 -2617.0654839923286 0 -2617.0654839923286 527.47417349884597 0 0 0 0 1016.4932490942483 22.464814402212141 0 22.464814402212141 -196.47252039426667 0 0 0 0 27.187525283473164 4.8734515690942208 0 4.8734515690942208 -1.6018048079882643 0 0 0 0 537.82769209077378 -1064.9846989423709 0 -1064.9846989423709 -719.82332527027847 0 0 0 0 3479.3519039715075 402.06053034926117 0 402.06053034926117 -194.7622513383194 0 0 0 0 971.60232595470552 -1398.5916216615201 0 -1398.5916216615201 1386.842489886832 0 0 0 0 -1008.2755659653176 -415.41044862363321 0 -415.41044862363321 274.97481941472608 0 0 0 0 0.9446781187220914 1.3781616603371187 0 1.3781616603371187 -13.70808563355021 0 0 0 0 -284.7071783090978 32.527834381646187 0 32.527834381646187 39.114744299926315 0 0 0 0 177.67466072985178 -672.13190387613099 0 -672.13190387613099 723.34872708794319 0 0 0 0 132.04680208844366 -993.47667911321878 0 -993.47667911321878 1655.9060106466286 0 0 0 0 158.43681362898496 -203.42294160715392 0 -203.42294160715392 88.488043701496281 0 0 0 0 -89.86342422884627 -199.21431366145771 0 -199.21431366145771 1713.2729243358367 0 0 0 0 -59.757120075898456 145.23212107177284 0 145.23212107177284 552.71996562407639 0 0 0 0 27.309588139494366 -41.457648778881826 0 -41.457648778881826 18.905593078442003 0 0 0 0 12.536307157416063 -15.917554478585515 0 -15.917554478585515 -37.46734709997088 0 0 0 0 -90.256427682594222 -22.629168166728675 0 -22.629168166728675 21.083179914601715 0 0 0 0 11.545903588277724 -28.886724757786794 0 -28.886724757786794 -231.99140492495798 0 0 0 0 17.920701276377255 -29.584166887985113 0 -29.584166887985113 15.267727616168084 0 0 0 0 142.2161610442472 -135.81504632276574 0 -135.81504632276574 -29.667553453007599 0 0 0 0 498.26051890724284 -295.77183080214377 0 -295.77183080214377 -24.659625937483725 0 0 0 0 507.48752014445199 -164.45349910726918 0 -164.45349910726918 -119.9777434741527 0 0 0 0 296.0946706413597 -3.0576577739311688 0 -3.0576577739311688 -92.387156398826164 0 0 0 0 340.70563612703882 -348.48574087432104 0 -348.48574087432104 43.343415647806978 0 0 0 0 724.89090228989448 -561.24565524496052 0 -561.24565524496052 -101.32053627871755 0 0 0 0 732.05026276525314 -220.05339485572676 0 -220.05339485572676 -73.542418995401022 0 0 0 0 1551.996015660261 -559.4518701782381 0 -559.4518701782381 -204.49397966067954 0 0 0 0 958.82114476371862 -1149.3608060304728 0 -1149.3608060304728 35.583423499014316 0 0 0 0 902.62808463242254 -662.04312439769365 0 -662.04312439769365 -44.263189489447996 0 0 0 0 935.25627678284218 -538.29041645156531 0 -538.29041645156531 101.1718226884359 0 0 0 0 224.0413361164683 309.40691617619268 0 309.40691617619268 289.74406298376107 0 0 0 0 398.47791571506968 5.3078565302116658 0 5.3078565302116658 -184.84583804884551 0 0 0 0 1092.17651053601 -204.96231907535685 0 -204.96231907535685 -77.092047533071309 0 0 0 0 152.08961298660142 -92.568500542776746 0 -92.568500542776746 -56.359826228597058 0 0 0 0 618.52533159044106 -657.50684617024854 0 -657.50684617024854 58.214021949135713 0 0 0 0 533.32372333620151 -619.61414348285143 0 -619.61414348285143 41.369478597795933 0 0 0 0 376.06619939193479 -616.6037901606378 0 -616.6037901606378 160.54988470896933 0 0 0 0 248.84833151128259 -609.28328606082323 0 -609.28328606082323 180.11074093531352 0 0 0 0 -294.71519263008668 261.25516143348659 0 261.25516143348659 -149.74696456732778 0 0 0 0 123.27380129992343 46.24533135661423 0 46.24533135661423 -18.148785293545416 0 0 0 0 71.112847841331543 26.909386091264139 0 26.909386091264139 7.8187044049604157 0 0 0 0 -1434.1741600714959 -456.04890031727246 0 -456.04890031727246 574.7642154797777 0 0 0 0 2999.2437717612047 -3546.7543645199548 0 -3546.7543645199548 -55.640844715156163 0 0 0 0 -1245.8448132166814 -2140.0903283254574 0 -2140.0903283254574 583.15398597648164 0 0 0 0 4810.2439169852005 661.87796802577213 0 661.87796802577213 -560.90643767890469 0 0 0 0 10.008350601625366 -11.572210678015558 0 -11.572210678015558 14.224965231157611 0 0 0 0 2434.0985214631073 69.605141936332075 0 69.605141936332075 -134.63666796188454 0 0 0 0 774.86035271323635 -201.92622466355624 0 -201.92622466355624 -165.08354054424672 0 0 0 0 -147.8673084681941 -1281.8096306115203 0 -1281.8096306115203 51.654040495309346 0 0 0 0 1774.8218071481606 -1979.1275276936924 0 -1979.1275276936924 87.802392372337636 0 0 0 0 173.13232415664015 -273.1927059446013 0 -273.1927059446013 461.1734880998174 0 0 0 0 757.39775772031771 -322.03703461035775 0 -322.03703461035775 188.81118968525152 0 0 0 0 0.85606105936672527 -1.4952331474006542 0 -1.4952331474006542 5.135359343223076 0 0 0 0 566.5771916882677 -459.21000779951311 0 -459.21000779951311 262.37640777649722 0 0 0 0 588.74282632030565 -334.42426162350489 0 -334.42426162350489 543.12555757337304 0 0 0 0 516.20623163333289 -71.190173956243626 0 -71.190173956243626 461.60141134163769 0 0 0 0 492.83531176881604 -209.48206905678757 0 -209.48206905678757 381.59546372675572 0 0 0 0 433.8313799080679 -68.56352276259895 0 -68.56352276259895 515.00163922420506 0 0 0 0 537.61063441761507 -32.462991907619653 0 -32.462991907619653 404.47832747929647 0 0 0 0 619.67109848842119 -135.58678932746716 0 -135.58678932746716 347.62369191235803 0 0 0 0 788.44248095220064 -137.48128112935251 0 -137.48128112935251 368.54836001983654 0 0 0 0 648.9914158763936 -219.34319800290768 0 -219.34319800290768 558.96493248907348 0 0 0 0 639.98976103674522 -160.886251399679 0 -160.886251399679 204.15960206531372 0 0 0 0 617.83439462978276 -88.434232439424704 0 -88.434232439424704 124.80909538146653 0 0 0 0 590.8136074300545 -47.688808107960476 0 -47.688808107960476 109.04288687439748 0 0 0 0 567.01575273709477 124.48609509545793 0 124.48609509545793 222.52507435720895 0 0 0 0 594.29975711306861 -16.291228907879358 0 -16.291228907879358 286.55014694337729 0 0 0 0 533.5876530716896 -9.3439873452907705 0 -9.3439873452907705 286.37253683213009 0 0 0 0 430.21186748222425 -23.019123308062021 0 -23.019123308062021 669.74886485889147 0 0 0 0 452.241417272533 -123.33528097794351 0 -123.33528097794351 586.66365537645106 0 0 0 0 523.49336307914018 112.89632233086104 0 112.89632233086104 492.29769680104937 0 0 0 0 519.32791997519962 38.083963805047233 0 38.083963805047233 457.51390203749452 0 0 0 0 545.03756230745603 312.53169497998761 0 312.53169497998761 934.0571929274447 0 0 0 0 529.31708959621858 62.837360773612119 0 62.837360773612119 448.37681495378911 0 0 0 0 614.89306827987821 -314.19079334378466 0 -314.19079334378466 958.75147400690184 0 0 0 0 1087.3065684227331 921.36466448855936 0 921.36466448855936 1896.369983717138 0 0 0 0 1012.3144686925052 -668.08209456688701 0 -668.08209456688701 1685.6913465871203 0 0 0 0 632.71150647755712 138.52966524156022 0 138.52966524156022 609.18305954741663 0 0 0 0 1156.8238905450453 356.16430135230803 0 356.16430135230803 242.39307361230112 0 0 0 0 185.65160635895154 17.558837683127194 0 17.558837683127194 -159.48870207909931 0 0 0 0 425.80726873673848 -302.34145760559022 0 -302.34145760559022 -273.32217339042188 0 0 0 0 544.16825428907578 150.28095406938712 0 150.28095406938712 452.06754915702828 0 0 0 0 743.85379724141239 150.73633954221697 0 150.73633954221697 4.738999800672218 0 0 0 0 374.17734441559514 -227.90764731352249 0 -227.90764731352249 -116.90974419339273 0 0 0 0 585.92777967161965 15.218646143966339 0 15.218646143966339 3.6848883223934763 0 0 0 0 246.9213997117804 -188.47281209903986 0 -188.47281209903986 -126.2901701679537 0 0 0 0 324.95938544813453 -48.404348331167512 0 -48.404348331167512 -57.815733565879782 0 0 0 0 731.9916510631474 -85.185190054944314 0 -85.185190054944314 -123.1565715976144 0 0 0 0 152.28035990684475 82.157886742094888 0 82.157886742094888 57.110713679623586 0 0 0 0 690.65000386019074 -193.25712955254107 0 -193.25712955254107 -101.44892745484026 0 0 0 0 863.22583029276393 -194.99312633403861 0 -194.99312633403861 -161.29458367283587 0 0 0 0 888.21917165003833 -360.6442551078494 0 -360.6442551078494 -73.144117310971069 0 0 0 0 758.84038257614338 -235.3880925758254 0 -235.3880925758254 -107.16600965885345 0 0 0 0 754.3832190149808 -242.45271906417315 0 -242.45271906417315 -87.988417640553052 0 0 0 0 725.22683840563082 -209.45418423947416 0 -209.45418423947416 24.908796475851886 0 0 0 0 718.35358326718233 -176.6943471798113 0 -176.6943471798113 -115.86378606579154 0 0 0 0 637.33646655949633 -164.96057710426794 0 -164.96057710426794 -107.32008263656246 0 0 0 0 649.3821343509203 -124.02525381478688 0 -124.02525381478688 0.14872032646871958 0 0 0 0 653.43324271972415 -172.98690853660241 0 -172.98690853660241 118.11212114620044 0 0 0 0 673.95946765632721 -223.69530093841419 0 -223.69530093841419 244.86952536388958 0 0 0 0 671.85176711285703 -194.58924111019928 0 -194.58924111019928 20.859538839693869 0 0 0 0 706.44038884288852 -142.56563089565617 0 -142.56563089565617 -44.263953324058548 0 0 0 0 762.26617704247997 -299.93822233518881 0 -299.93822233518881 -7.0014828466405561 0 0 0 0 752.85006941237498 -256.76055446455803 0 -256.76055446455803 -69.139670887518605 0 0 0 0 748.22165139003755 -215.63879970719927 0 -215.63879970719927 -102.54068204115356 0 0 0 0 705.56005468943886 -226.09973851868983 0 -226.09973851868983 -10.009863488741757 0 0 0 0 693.09456595129814 -277.9664884484655 0 -277.9664884484655 -108.06845781443826 0 0 0 0 452.7651012672377 -176.94165420672107 0 -176.94165420672107 14.995150568423469 0 0 0 0 664.87325558039356 -5.8369007215319471 0 -5.8369007215319471 -23.473960402475313 0 0 0 0 708.19680372852963 -197.62476417183825 0 -197.62476417183825 -67.294195470558861 0 0 0 0 675.76911320683712 -396.92979012020913 0 -396.92979012020913 -211.08136562600066 0 0 0 0 1400.3129123595363 -301.70825089405025 0 -301.70825089405025 -244.0187256691936 0 0 0 0 4.080180843667252 3.4688551577666606 0 3.4688551577666606 4.7856551968834449 0 0 0 0 397.00728239981743 -287.58993472281395 0 -287.58993472281395 2.2310354651576745 0 0 0 0 278.19835940710084 62.65089919873725 0 62.65089919873725 66.771698174061157 0 0 0 0 963.6519502379108 -343.89566877815207 0 -343.89566877815207 105.86113741561303 0 0 0 0 861.22070594551064 79.760776980372384 0 79.760776980372384 -61.422214009638537 0 0 0 0 28.157535928770756 -0.22307983165819678 0 -0.22307983165819678 -5.4479626749739509 0 0 0 0 20.176842514039578 2.7189066276026779 0 2.7189066276026779 -2.6204911731419998 0 0 0 0 2121.5481119155393 286.70175833112444 0 286.70175833112444 144.49570796564512 0 0 0 0 1916.8403071479534 -517.0599969515315 0 -517.0599969515315 220.22489073796169 0 0 0 0 3.3057344430479705 0.16516622609917508 0 0.16516622609917508 -2.0316721451285176 0 0 0 0 -770.2354875181818 -105.999849685134 0 -105.999849685134 618.63022933651155 0 0 0 0 3.7446049446520813 5.9471022624863057 0 5.9471022624863057 -2.0622053776526279 0 0 0 0 -137.18319544488804 198.00245958265623 0 198.00245958265623 188.09387860777406 0 0 0 0 549.30460258839503 -316.21094892903011 0 -316.21094892903011 133.18232190055278 0 0 0 0 574.32284944863204 -435.85179150639874 0 -435.85179150639874 150.52262277231057 0 0 0 0 -34.873736038761876 -571.96195313972339 0 -571.96195313972339 755.122079157798 0 0 0 0 313.72170062831719 -97.375569947917938 0 -97.375569947917938 306.02852277433703 0 0 0 0 -23.569629899658594 -270.3685518536663 0 -270.3685518536663 331.53415546679389 0 0 0 0 -43.927127105235741 -397.00671836546371 0 -397.00671836546371 -443.5144033454053 0 0 0 0 4.7266403944574913 3.5826569114477955 0 3.5826569114477955 -0.57748923140645303 0 0 0 0 1086.1197897236852 -1590.3884210455399 0 -1590.3884210455399 -880.14400945018133 0 0 0 0 199.86463675475716 610.93794672320291 0 610.93794672320291 23.30986958636322 0 0 0 0 181.24234615806472 519.61129186642393 0 519.61129186642393 -388.94770914706476 0 0 0 0 1253.8582718824855 535.99215414093669 0 535.99215414093669 280.46517928683716 0 0 0 0 415.29259897308839 166.44426951893547 0 166.44426951893547 129.72512357143205 0 0 0 0 1798.7434910100542 -730.07681160528841 0 -730.07681160528841 212.95147528959569 0 0 0 0 296.36364974137814 -157.9142860201946 0 -157.9142860201946 1482.6871816405855 0 0 0 0 1603.2540441097819 -473.3348042154206 0 -473.3348042154206 -66.708489531554733 0 0 0 0 903.54961044823176 -924.58191729913915 0 -924.58191729913915 720.05059041482264 0 0 0 0 1322.3343923254229 320.46621162824135 0 320.46621162824135 3.8106151726933604 0 0 0 0 6.7938513691999987 -8.119736394324228 0 -8.119736394324228 11.807959174039407 0 0 0 0 -111.40454118211801 -248.5767993107512 0 -248.5767993107512 352.09099379198597 0 0 0 0 -25.529824147310137 -542.64794719372185 0 -542.64794719372185 947.29010239029321 0 0 0 0 399.29887754712581 -293.11876712052617 0 -293.11876712052617 -3.6129964604460838 0 0 0 0 30.388839605395333 -168.37358793675503 0 -168.37358793675503 -39.818381241822863 0 0 0 0 97.492003875726368 -183.95138527550989 0 -183.95138527550989 -178.84806481892156 0 0 0 0 -214.03349456143405 -203.93556445411377 0 -203.93556445411377 -140.28482575822818 0 0 0 0 37.87222167494474 -178.11600240207372 0 -178.11600240207372 -408.74695918123325 0 0 0 0 21.903157608569018 -175.80940855082372 0 -175.80940855082372 -196.39366257371876 0 0 0 0 228.20114880184337 -82.086160582035518 0 -82.086160582035518 -279.64404361440393 0 0 0 0 323.44249535339077 -214.74190397177881 0 -214.74190397177881 -222.64574602600442 0 0 0 0 328.83305621682848 -5.3545318709584535 0 -5.3545318709584535 -225.53423210874644 0 0 0 0 428.80667754945171 -29.480152074189391 0 -29.480152074189391 -265.73706581524618 0 0 0 0 362.26914769033419 44.205104431678592 0 44.205104431678592 -198.25496499766814 0 0 0 0 228.19835889803653 -86.187704660620511 0 -86.187704660620511 -260.57201276986621 0 0 0 0 508.58280232558536 -423.16275711415437 0 -423.16275711415437 143.25775686516499 0 0 0 0 62.383084670122116 87.749866964953981 0 87.749866964953981 -177.48082597958273 0 0 0 0 822.75151255976471 263.30384220555084 0 263.30384220555084 -165.98526756642968 0 0 0 0 -246.47056142467864 511.60536039547151 0 511.60536039547151 74.391339783815056 0 0 0 0 771.71837152817807 17.885917594473995 0 17.885917594473995 -189.0923500490353 0 0 0 0 1114.6011150652625 711.24651089299607 0 711.24651089299607 392.51473694552988 0 0 0 0 5.7565951149780314 9.7923367850948431 0 9.7923367850948431 -13.407901487505285 0 0 0 0 478.90917952857308 -88.408623523059759 0 -88.408623523059759 -205.1322543896149 0 0 0 0 372.41520681206089 160.28394518909363 0 160.28394518909363 -99.591635883603885 0 0 0 0 13.083109750729705 -3.3351563594551408 0 -3.3351563594551408 -0.42544921615626663 0 0 0 0 650.27670428454894 175.3611111415139 0 175.3611111415139 -98.773529639453045 0 0 0 0 5.1749619911225819 -3.132626209527011 0 -3.132626209527011 -6.0180831234380818 0 0 0 0 130.12631410286735 158.25936817462616 0 158.25936817462616 204.24630046904713 0 0 0 0 102.80027871381026 -551.18797784533353 0 -551.18797784533353 611.14772737740691 0 0 0 0 -443.12361081912968 -106.0281564801644 0 -106.0281564801644 400.09926891322448 0 0 0 0 -93.479303354466538 -0.14146669370302334 0 -0.14146669370302334 -23.176874363180104 0 0 0 0 0.52837129964783713 -3.965551597575157 0 -3.965551597575157 13.228365456134881 0 0 0 0 945.18394373487536 -657.21510560032493 0 -657.21510560032493 1261.591305611154 0 0 0 0 -635.18791148289893 114.78938021735621 0 114.78938021735621 173.4049052323353 0 0 0 0 3076.5171628015596 -1008.1390386905999 0 -1008.1390386905999 -174.50495244234446 0 0 0 0 1397.5946126022391 -100.71467340917206 0 -100.71467340917206 265.05361239451122 0 0 0 0 671.88558569291672 -428.37191242465758 0 -428.37191242465758 118.52938989461109 0 0 0 0 1033.8497020228351 -780.06041634683265 0 -780.06041634683265 188.68589092443381 0 0 0 0 390.78745577811787 -264.87232015437348 0 -264.87232015437348 6.3308314069242897 0 0 0 0 412.79817238119722 -579.5138744367855 0 -579.5138744367855 135.93521575543264 0 0 0 0 5.591493546715455 -23.709681482881237 0 -23.709681482881237 -21.086449514785372 0 0 0 0 128.42020925612451 -356.78241727462637 0 -356.78241727462637 128.95889176894616 0 0 0 0 -150.1530106753271 -75.948890599389415 0 -75.948890599389415 153.69033272706565 0 0 0 0 -39.49459517156356 39.93915228858674 0 39.93915228858674 -49.101221501785403 0 0 0 0 -54.877473982103766 115.08369279104066 0 115.08369279104066 -365.59842724588384 0 0 0 0 264.94957896074629 -41.137246398062416 0 -41.137246398062416 -796.37492351679794 0 0 0 0 332.65513790835394 -307.1962986334288 0 -307.1962986334288 -305.35373856657134 0 0 0 0 -264.10009071830427 -485.7262650437242 0 -485.7262650437242 734.23604314391923 0 0 0 0 1687.2232346110031 -1327.0419178431275 0 -1327.0419178431275 -222.97611134277668 0 0 0 0 -193.67920962890275 -898.00692339925695 0 -898.00692339925695 1189.6092018716299 0 0 0 0 -769.45069258020521 -487.80414417737302 0 -487.80414417737302 958.91593041404667 0 0 0 0 -143.81726188320681 -535.80157962947305 0 -535.80157962947305 712.66539951295408 0 0 0 0 -246.91051442687603 101.30305029986948 0 101.30305029986948 139.07941041898448 0 0 0 0 -3.9265825863621409 -9.49252269143728 0 -9.49252269143728 1.3927382882055674 0 0 0 0 1687.0589433639623 -1498.2505995364168 0 -1498.2505995364168 2891.5354148855513 0 0 0 0 -922.8717892150562 -229.38959624091967 0 -229.38959624091967 589.57655314309886 0 0 0 0 3169.8988000573627 -588.29698354011725 0 -588.29698354011725 -1707.1935566820284 0 0 0 0 7.6460669537547057 -0.30105959703045215 0 -0.30105959703045215 12.433807199299167 0 0 0 0 2535.4578949556198 -770.67181709780152 0 -770.67181709780152 3116.6746328843947 0 0 0 0 -215.95389420500214 -365.7658431324935 0 -365.7658431324935 319.76550484864492 0 0 0 0 -577.2133178995573 15.916710854309713 0 15.916710854309713 -62.449037238300662 0 0 0 0 -436.03482947035445 -230.69752036688169 0 -230.69752036688169 272.50449245960772 0 0 0 0 -22.073101940892229 -376.00150676279736 0 -376.00150676279736 -114.25645082445772 0 0 0 0 33.168136644620901 -30.464471815660509 0 -30.464471815660509 24.511935023512542 0 0 0 0 -92.615813144166168 -284.66748725033904 0 -284.66748725033904 -330.10702319870325 0 0 0 0 -120.27134192475933 -338.43062127700614 0 -338.43062127700614 -322.7285095385887 0 0 0 0 -156.46960975095863 -339.4796704826731 0 -339.4796704826731 -107.87391554681381 0 0 0 0 -215.32528472976992 -205.15305368302506 0 -205.15305368302506 -376.7884324069928 0 0 0 0 -0.1989050388895599 -4.7311464365543827 0 -4.7311464365543827 8.1703501889805494 0 0 0 0 2330.059491205704 60.489813753735234 0 60.489813753735234 2171.6017839284941 0 0 0 0 -145.50010030484555 37.930632385083754 0 37.930632385083754 -92.304923378780586 0 0 0 0 3037.5479511609774 483.09438837255584 0 483.09438837255584 136.80757657097456 0 0 0 0 -2.0649846228638182 2.4285645675934333 0 2.4285645675934333 9.4765506616194095 0 0 0 0 -415.13713779316822 -21.470546125317924 0 -21.470546125317924 -50.93728626801294 0 0 0 0 -330.81404271375504 1.6956993527219311 0 1.6956993527219311 39.197664431328121 0 0 0 0 -258.09679459992185 118.57308314849797 0 118.57308314849797 -16.40036683248627 0 0 0 0 -263.53595043688165 37.121637798094071 0 37.121637798094071 -91.544629948739384 0 0 0 0 -264.91942655599269 38.112476989083916 0 38.112476989083916 -31.52461695207694 0 0 0 0 1787.6070333009447 -222.05896224518608 0 -222.05896224518608 253.00987198471296 0 0 0 0 1687.9035099505782 -711.7814418875987 0 -711.7814418875987 400.35176433429115 0 0 0 0 -610.06374997520106 112.88893752959802 0 112.88893752959802 40.242904911032383 0 0 0 0 -2.1384922208253059 -8.8353268025502558 0 -8.8353268025502558 41.516077072135516 0 0 0 0 594.73544317176129 164.58840643539668 0 164.58840643539668 706.0295697081674 0 0 0 0 -407.2785945291871 -32.198473593089602 0 -32.198473593089602 -8.8961568197464658 0 0 0 0 -342.42246849420189 132.49590366516713 0 132.49590366516713 -90.127506436714611 0 0 0 0 -701.64322780491784 148.70834462137373 0 148.70834462137373 295.1986541890692 0 0 0 0 -116.95080092455828 88.563646039028299 0 88.563646039028299 -100.19955470123386 0 0 0 0 -3.9666151183635598 -9.4869663001963858 0 -9.4869663001963858 60.185565363548193 0 0 0 0 46.747896653570933 -361.52457291793326 0 -361.52457291793326 335.59872734301177 0 0 0 0 -345.06343039107742 103.02340606990856 0 103.02340606990856 256.79088420812832 0 0 0 0 -147.59761259065453 26.859342093356872 0 26.859342093356872 -15.12477751544975 0 0 0 0 0.49557294228392834 -1.2323687562656289 0 -1.2323687562656289 3.5003122453299369 0 0 0 0 1538.6039633109085 -250.17378120277067 0 -250.17378120277067 222.5351558058519 0 0 0 0 1882.0580216169255 -380.33371482603161 0 -380.33371482603161 -440.44338209395391 0 0 0 0 5.70310902388084 3.4680884778177301 0 3.4680884778177301 16.770386652288728 0 0 0 0 -56.896361039689509 -313.5781668423333 0 -313.5781668423333 -401.74269840159468 0 0 0 0 80.207288037644474 -20.498665488037055 0 -20.498665488037055 29.712781282620199 0 0 0 0 17.795485183278757 -3.1833916046553981 0 -3.1833916046553981 -2.0228966821108259 0 0 0 0 110.3588637192297 -16.799811373517514 0 -16.799811373517514 28.780411689209359 0 0 0 0 44.810088832156907 -72.360480868706418 0 -72.360480868706418 31.562399753835052 0 0 0 0 208.36842117688502 -36.392530563035507 0 -36.392530563035507 -16.335942288326805 0 0 0 0 719.04144475211069 -211.81038451101722 0 -211.81038451101722 308.37983677691409 0 0 0 0 1112.1565186345324 11.315766915920904 0 11.315766915920904 39.709861395369444 0 0 0 0 0.54282138643517042 0.34609361040674003 0 0.34609361040674003 5.3169692503118569 0 0 0 0 617.13958859455306 174.92831858222962 0 174.92831858222962 289.18132865399457 0 0 0 0 18.249935276602628 -79.69549145421206 0 -79.69549145421206 49.385439346568091 0 0 0 0 168.17384334672897 -69.942132567325643 0 -69.942132567325643 5.4029550431368989 0 0 0 0 152.5684026782219 102.38829017905937 0 102.38829017905937 253.00927253307327 0 0 0 0 255.41674276172125 182.53496216911481 0 182.53496216911481 112.95803154598525 0 0 0 0 712.36457376363978 89.488572087348984 0 89.488572087348984 -51.454703236529895 0 0 0 0 354.49160557402502 48.019156045282216 0 48.019156045282216 -32.263448248598252 0 0 0 0 384.21935219972875 -168.02328902596719 0 -168.02328902596719 215.07493587316822 0 0 0 0 8.4749332624523959 -136.62030073871938 0 -136.62030073871938 231.07856545175946 0 0 0 0 366.4800415134996 -93.206555788617607 0 -93.206555788617607 7.8167516545709077 0 0 0 0 -101.16508598162181 -184.08930184379733 0 -184.08930184379733 72.188630817133344 0 0 0 0 12.507924811221983 -76.74618061215115 0 -76.74618061215115 12.225586882900643 0 0 0 0 -475.53496966223975 -112.13507637438488 0 -112.13507637438488 255.90520330148274 0 0 0 0 540.69665211989923 53.654062699831229 0 53.654062699831229 177.72768554434697 0 0 0 0 453.04972847460704 -211.94835568435678 0 -211.94835568435678 23.871858052631069 0 0 0 0 542.58709921575428 -368.24940975388745 0 -368.24940975388745 131.15122089475517 0 0 0 0 7.174783061387906 -3.6918179578983068 0 -3.6918179578983068 1.7030768480749074 0 0 0 0 100.23425562703687 -143.08744277419692 0 -143.08744277419692 -57.824819440385909 0 0 0 0 4.0029561322654317 -0.50459915898923668 0 -0.50459915898923668 0.78952753717379842 0 0 0 0 -16.933061297678705 16.638525836100598 0 16.638525836100598 -17.856091620102234 0 0 0 0 236.52914844739485 16.848865534251217 0 16.848865534251217 -18.075240862071951 0 0 0 0 299.57545162650717 -151.71296485420567 0 -151.71296485420567 -57.908249867548875 0 0 0 0 342.81879037967838 8.0802227458671041 0 8.0802227458671041 -215.17061656122678 0 0 0 0 141.66822393197253 378.20656118017246 0 378.20656118017246 414.81148150842273 0 0 0 0 3.0506563346708759 7.1572847267727813 0 7.1572847267727813 -35.412036993616191 0 0 0 0 266.22713236604068 -145.70028277304209 0 -145.70028277304209 -0.14406810884247534 0 0 0 0 453.23537940723327 -554.13559013411032 0 -554.13559013411032 -137.96025553734489 0 0 0 0 -6.2791972398954385 -204.55628539447389 0 -204.55628539447389 -337.68293752167483 0 0 0 0 841.15602690154265 528.24516020749979 0 528.24516020749979 -453.54731633306073 0 0 0 0 186.91249777177472 -128.17814110176914 0 -128.17814110176914 -94.834582359017986 0 0 0 0 212.03777458182685 -183.84083839308732 0 -183.84083839308732 -83.099168464043032 0 0 0 0 18.162776479151859 -6.9688568462594205 0 -6.9688568462594205 -58.272846820064025 0 0 0 0 -0.57575553354945441 -50.468684154398943 0 -50.468684154398943 -52.44575073649321 0 0 0 0 77.569988730743717 -163.90056411316073 0 -163.90056411316073 49.789196552363137 0 0 0 0 246.5040801324285 48.084277416384793 0 48.084277416384793 -35.024887123159715 0 0 0 0 124.34402690981005 -72.528830412615207 0 -72.528830412615207 -151.46512061413159 0 0 0 0 324.19627749871597 5.5246865625122155 0 5.5246865625122155 -240.6694967812291 0 0 0 0 -73.830656101183195 -143.93740286336106 0 -143.93740286336106 -100.79093666635163 0 0 0 0 93.601296955295766 -196.93367853568179 0 -196.93367853568179 -254.94135723709041 0 0 0 0 -439.73062666769692 -373.34592552661343 0 -373.34592552661343 -190.98757731635123 0 0 0 0 24.962512536624146 -27.577123594358756 0 -27.577123594358756 27.292400843218246 0 0 0 0 18.837624631771352 -27.860369416973995 0 -27.860369416973995 25.48380383534392 0 0 0 0 -109.72314379883028 -217.67794893393875 0 -217.67794893393875 -79.25893067769357 0 0 0 0 30.69917166455707 -27.458547626112704 0 -27.458547626112704 24.34979079585537 0 0 0 0 82.313189803477144 -36.775748916035809 0 -36.775748916035809 40.531654276142945 0 0 0 0 5.5386372980246072 -23.663509030193509 0 -23.663509030193509 21.564946702333657 0 0 0 0 86.343107509434049 -44.237729835576829 0 -44.237729835576829 22.766740037568525 0 0 0 0 48.492029126959096 -28.628964068964706 0 -28.628964068964706 18.705208966133796 0 0 0 0 54.847698021083488 -39.682411004643654 0 -39.682411004643654 45.836775702820887 0 0 0 0 66.273164679932961 -32.091653039116864 0 -32.091653039116864 17.987279880242568 0 0 0 0 13.279484956594882 -7.1784965069866189 0 -7.1784965069866189 0.8756282157555475 0 0 0 0 55.707871732014155 -20.283912910046865 0 -20.283912910046865 28.333801617416611 0 0 0 0 70.391033135936595 -37.788279928427073 0 -37.788279928427073 20.779624176505422 0 0 0 0 19.032584140018152 6.1966472920850748 0 6.1966472920850748 -11.556309246541282 0 0 0 0 178.0994847187394 -55.725306687390002 0 -55.725306687390002 10.806548452514107 0 0 0 0 13.665196457243997 -14.911356157252868 0 -14.911356157252868 1.3130566935121806 0 0 0 0 198.38944202006678 -26.293141725282112 0 -26.293141725282112 11.210177066808683 0 0 0 0 52.933013005706016 23.734559797361271 0 23.734559797361271 -31.640625170286512 0 0 0 0 192.83283813526214 -35.302698119496199 0 -35.302698119496199 -3.389857805064139 0 0 0 0 0.38717328852590072 -1.7459899513748809 0 -1.7459899513748809 -0.63962472154531191 0 0 0 0 70.227523260749876 -76.887209752876515 0 -76.887209752876515 54.603911635230361 0 0 0 0 42.715049919432921 -20.598862587080895 0 -20.598862587080895 -7.7108338637733738 0 0 0 0 41.840990765437816 -40.869165799490766 0 -40.869165799490766 -23.391778337978074 0 0 0 0 179.99170328531181 -49.085392391698406 0 -49.085392391698406 -19.057679637393449 0 0 0 0 58.344277206815605 -43.397208662001958 0 -43.397208662001958 18.460432174848393 0 0 0 0 46.079907228370288 -51.186031892725936 0 -51.186031892725936 35.01761409089751 0 0 0 0 45.610835248106923 -58.03068143911446 0 -58.03068143911446 25.797315571973741 0 0 0 0 95.706412127041403 -13.670982384556737 0 -13.670982384556737 3.4808653941872763 0 0 0 0 15.518803658813813 -5.3109068604815199 0 -5.3109068604815199 -6.1374808603889974 0 0 0 0 -77.831518807700377 71.038273022099929 0 71.038273022099929 125.05449205776677 0 0 0 0 2.9881905065813044 -260.52173782901536 0 -260.52173782901536 786.05306569068853 0 0 0 0 -85.782022723840782 -210.83925290291154 0 -210.83925290291154 -117.56132330280161 0 0 0 0 319.6177998441317 17.37936015074456 0 17.37936015074456 -349.28877891983757 0 0 0 0 101.07179162829489 3.1871355446164422 0 3.1871355446164422 -2.652803352068549 0 0 0 0 111.55480794643518 34.17210173138119 0 34.17210173138119 -136.17862578609765 0 0 0 0 37.475238902439742 -4.7788913673712159 0 -4.7788913673712159 -17.914989957062062 0 0 0 0 61.360713701858337 -12.568949106392452 0 -12.568949106392452 -11.794686007200994 0 0 0 0 81.85508637316525 -6.1153850276878075 0 -6.1153850276878075 -34.268024639618034 0 0 0 0 30.044359624520567 3.3194148214568955 0 3.3194148214568955 -16.038270605686616 0 0 0 0 52.985898311726245 -9.0495499980342444 0 -9.0495499980342444 -14.093997295172537 0 0 0 0 82.915303266338015 36.440743606633987 0 36.440743606633987 -60.813034049581802 0 0 0 0 94.358388391352491 -2.0359465196697784 0 -2.0359465196697784 -104.00818155511297 0 0 0 0 162.68122421342559 62.9803829295779 0 62.9803829295779 -122.32670056728057 0 0 0 0 -45.926984971014463 165.83143042475058 0 165.83143042475058 58.477616472329828 0 0 0 0 193.70480344411044 -75.29878570531946 0 -75.29878570531946 -233.80666232555632 0 0 0 0 45.127706486076931 143.86012187557571 0 143.86012187557571 387.58603996174315 0 0 0 0 569.00829449253706 214.8183468410416 0 214.8183468410416 -109.97613028003252 0 0 0 0 70.033029831671229 56.340837233025923 0 56.340837233025923 99.427753242278413 0 0 0 0 144.91588345896889 104.25273647632184 0 104.25273647632184 58.276903032814516 0 0 0 0 81.765396218019305 37.591180861473731 0 37.591180861473731 -35.790100435893692 0 0 0 0 117.0616796584145 50.539803589336316 0 50.539803589336316 -33.394512477294484 0 0 0 0 42.510923239322437 19.301977571215957 0 19.301977571215957 74.149505413100087 0 0 0 0 79.905112743661448 -68.608094479450756 0 -68.608094479450756 90.508708519608149 0 0 0 0 58.868355277401861 55.981263835543814 0 55.981263835543814 130.86527475225557 0 0 0 0 17.064014691473858 19.523498772335643 0 19.523498772335643 10.383751838325679 0 0 0 0 35.666224241256714 -27.106526986764948 0 -27.106526986764948 19.550568489995612 0 0 0 0 38.946052751180105 2.0332067315450786 0 2.0332067315450786 -6.5162828139818885 0 0 0 0 9.7411818302827058 11.089743637906956 0 11.089743637906956 -8.8903826432422512 0 0 0 0 221.00316649581509 -81.758096259794911 0 -81.758096259794911 11.29435893909249 0 0 0 0 -0.27638901267438598 -9.9179434139802325 0 -9.9179434139802325 1.8967804343475549 0 0 0 0 64.714716243477596 46.357075519352293 0 46.357075519352293 2.8409149184317357 0 0 0 0 76.479262260751057 -20.80124988969169 0 -20.80124988969169 12.969552142736575 0 0 0 0 160.9998352255725 94.083438254015732 0 94.083438254015732 77.117850868740788 0 0 0 0 8.2894488761539904 -2.1338205724199497 0 -2.1338205724199497 4.1416427322248133 0 0 0 0 226.25192954084196 -86.5134137913019 0 -86.5134137913019 -3.0572126550869143 0 0 0 0 72.080866836960922 -25.984103277943177 0 -25.984103277943177 6.9518016288484432 0 0 0 0 4.8729841212301359 -25.143817198378542 0 -25.143817198378542 10.565442548454342 0 0 0 0 436.16540603671638 -0.61663698744541762 0 -0.61663698744541762 -64.391956685482 0 0 0 0 -0.33513183682081227 -0.16782568704181244 0 -0.16782568704181244 -0.3606589769735038 0 0 0 0 4.4417068765350027 -25.264430722611294 0 -25.264430722611294 5.7394084652312287 0 0 0 0 85.528006854608975 -16.144318405376453 0 -16.144318405376453 -1.3809881609709009 0 0 0 0 118.15625905524939 56.408827671175231 0 56.408827671175231 46.286768432893837 0 0 0 0 8.7015969749433673 -2.345316553440405 0 -2.345316553440405 0.2372178794205908 0 0 0 0 90.978380272703362 -22.643098836353147 0 -22.643098836353147 5.8036710638298246 0 0 0 0 225.65967636376081 -132.61853785564028 0 -132.61853785564028 -2.5765719634464403 0 0 0 0 11.10465464234391 3.7559524144872398 0 3.7559524144872398 -1.2903527140918314 0 0 0 0 16.35574052414384 -16.231562107570205 0 -16.231562107570205 1.7004332501890591 0 0 0 0 197.63330185771338 29.876216337886717 0 29.876216337886717 -37.071129529741484 0 0 0 0 0.79892399735533814 -1.0877657312549331 0 -1.0877657312549331 -0.92346826556060257 0 0 0 0 9.0137929480310603 -0.6002170747678548 0 -0.6002170747678548 0.14089580239179256 0 0 0 0 128.15451324519381 186.19523752595865 0 186.19523752595865 103.69574902918885 0 0 0 0 310.60626725687325 12.285908552880926 0 12.285908552880926 -194.66095945568213 0 0 0 0 -15.109553284681169 -33.093049738978607 0 -33.093049738978607 49.58310367096783 0 0 0 0 56.842158517003554 -5.4562496871101871 0 -5.4562496871101871 -12.815623321278565 0 0 0 0 35.330224075303704 -31.975111378662405 0 -31.975111378662405 -1.8901710626789736 0 0 0 0 35.937676203748197 -23.839560568109846 0 -23.839560568109846 9.7590730961101144 0 0 0 0 30.990295342253376 -17.431715490402667 0 -17.431715490402667 12.230528324077568 0 0 0 0 48.446667738393444 -13.69530625968639 0 -13.69530625968639 12.124075062292832 0 0 0 0 17.295131901126297 47.781128158756474 0 47.781128158756474 -79.776645002067482 0 0 0 0 98.002202387688158 -29.980701814166423 0 -29.980701814166423 -66.237333685565545 0 0 0 0 15.630420522294415 7.4489086274850678 0 7.4489086274850678 3.4017144168462909 0 0 0 0 -38.673548899318121 31.592190326906348 0 31.592190326906348 -13.967790342233457 0 0 0 0 324.02886292288167 26.978409812587643 0 26.978409812587643 -16.210312145321041 0 0 0 0 1.5167800440831343 -119.79306283196638 0 -119.79306283196638 -8.1628255391792663 0 0 0 0 223.47257132816594 -27.54752553907565 0 -27.54752553907565 -43.156714702733552 0 0 0 0 91.373624472871597 -121.19860216661118 0 -121.19860216661118 -76.395245631974831 0 0 0 0 120.60078767252526 -32.639025755400439 0 -32.639025755400439 -29.614240418241025 0 0 0 0 -112.4660742287524 -107.28730637727494 0 -107.28730637727494 -8.3791682266729879 0 0 0 0 54.77314155136537 -2.9598894833337823 0 -2.9598894833337823 6.9337744400982046 0 0 0 0 52.708369668916816 -102.60054222218842 0 -102.60054222218842 -69.584557237662011 0 0 0 0 13.45045899879743 -10.968474011158733 0 -10.968474011158733 7.0276258280956654 0 0 0 0 -92.950418000335048 -170.04749791851964 0 -170.04749791851964 22.143672010997761 0 0 0 0 -45.663803692876172 -80.722896863781216 0 -80.722896863781216 -1.4792696187996626 0 0 0 0 -70.462428447222919 -171.4240777772884 0 -171.4240777772884 -46.985301159554865 0 0 0 0 48.274950301769422 -161.08020912962365 0 -161.08020912962365 17.209241726337495 0 0 0 0 163.01421713128366 -133.15366925040325 0 -133.15366925040325 17.226601670782884 0 0 0 0 103.60146744593658 -65.907929966657548 0 -65.907929966657548 -10.749588820819554 0 0 0 0 -12.578274726507516 -67.778152508341464 0 -67.778152508341464 0.070346099395464989 0 0 0 0 394.28769320247375 -54.263581491472905 0 -54.263581491472905 -71.90862245540302 0 0 0 0 364.674003672053 51.450452040636151 0 51.450452040636151 -41.631397986573575 0 0 0 0 303.52080302493414 22.334098116908535 0 22.334098116908535 -51.411660654143816 0 0 0 0 328.45210433212924 26.281833634575378 0 26.281833634575378 -57.47995228484433 0 0 0 0 236.47605997309438 -74.44388859143146 0 -74.44388859143146 -68.640179820742674 0 0 0 0 385.86412836779709 97.26057354179602 0 97.26057354179602 -14.523069387876603 0 0 0 0 294.27420102457108 58.062878772566364 0 58.062878772566364 -29.95709919651199 0 0 0 0 344.69076769487583 44.805346288178043 0 44.805346288178043 -58.317215069364465 0 0 0 0 336.73916465981165 53.127674729890714 0 53.127674729890714 -43.332507579794765 0 0 0 0 260.49681820758269 5.7634451356357204 0 5.7634451356357204 -20.23117323077895 0 0 0 0 310.91133261643336 42.521306760199877 0 42.521306760199877 -44.433921254778397 0 0 0 0 327.36125683657883 -6.3494054229322501 0 -6.3494054229322501 -26.597748408941698 0 0 0 0 391.61787617934169 -33.348251279770921 0 -33.348251279770921 -35.566168690542781 0 0 0 0 334.92766078901604 36.892086763760631 0 36.892086763760631 -64.698822112175549 0 0 0 0 368.71690475253854 21.446477583747765 0 21.446477583747765 -55.091622706879207 0 0 0 0 332.89581052363792 24.759612633461074 0 24.759612633461074 -33.674871596769663 0 0 0 0 330.00921273841232 18.289238270499482 0 18.289238270499482 -58.544462897236372 0 0 0 0 385.00824956712313 32.179606488743957 0 32.179606488743957 -64.610315462468861 0 0 0 0 334.04849156520504 26.673598142250285 0 26.673598142250285 -51.412528528238909 0 0 0 0 367.43644437189505 17.959930064242599 0 17.959930064242599 -62.068480072834063 0 0 0 0 389.07255863587488 -2.6564658851220884 0 -2.6564658851220884 -44.749705443288804 0 0 0 0 323.25965230327711 4.5774378618784795 0 4.5774378618784795 -63.940320923829859 0 0 0 0 315.42316553094133 40.371223493532852 0 40.371223493532852 -53.452542017306314 0 0 0 0 275.77327560639242 47.992980379550318 0 47.992980379550318 -53.052402821449505 0 0 0 0 220.16319249723165 -21.513948499493381 0 -21.513948499493381 -53.414836711404405 0 0 0 0 210.75555783372329 33.399890826688534 0 33.399890826688534 -28.789048387439834 0 0 0 0 260.97862554704625 -9.5987912219725331 0 -9.5987912219725331 -19.919258450543111 0 0 0 0 330.43936728316476 27.383771854225415 0 27.383771854225415 -65.588446924271011 0 0 0 0 422.25746331016853 24.737975209463002 0 24.737975209463002 -44.371129296654544 0 0 0 0 417.64589919263381 44.03788394482126 0 44.03788394482126 -45.665421255319416 0 0 0 0 330.31906071669073 28.075605072272083 0 28.075605072272083 -40.437649062262608 0 0 0 0 289.59035515687719 65.135465452255175 0 65.135465452255175 33.095555754307497 0 0 0 0 425.15455882961396 86.165086386555231 0 86.165086386555231 12.659937867128065 0 0 0 0 515.32815482589649 -67.782778151772618 0 -67.782778151772618 48.183952504861281 0 0 0 0 409.06362557540706 12.552407199069876 0 12.552407199069876 16.056771475970891 0 0 0 0 712.3185621165394 61.563719743943011 0 61.563719743943011 11.266383493607918 0 0 0 0 613.95188200927805 -67.083361200525815 0 -67.083361200525815 15.162110367128207 0 0 0 0 572.01188113128592 38.511598647441133 0 38.511598647441133 24.994184427913524 0 0 0 0 244.97718114582676 128.93013980464548 0 128.93013980464548 155.69262089524636 0 0 0 0 26.541967203811822 -21.10015294112101 0 -21.10015294112101 16.26403920639347 0 0 0 0 136.84269926818251 -96.487372165425597 0 -96.487372165425597 14.287339249469369 0 0 0 0 5.4748302440057159 -231.19401605443943 0 -231.19401605443943 -216.9065121069591 0 0 0 0 28.984466146415798 -41.114688313115153 0 -41.114688313115153 -62.739040769647318 0 0 0 0 -14.747244218524429 -27.98529124331435 0 -27.98529124331435 2.8415120289926108 0 0 0 0 39.227288841100133 -32.667574811684979 0 -32.667574811684979 24.485771893085499 0 0 0 0 53.358516207714274 -73.126155042742994 0 -73.126155042742994 -116.42049918790917 0 0 0 0 123.06939808018069 -36.799855190472272 0 -36.799855190472272 -117.8591426971353 0 0 0 0 21.0702801167281 39.107050278586939 0 39.107050278586939 -34.73528596153011 0 0 0 0 117.86700623307865 56.196238169555592 0 56.196238169555592 -62.928125788593661 0 0 0 0 20.590984559778008 32.837676677785225 0 32.837676677785225 -77.391689383381447 0 0 0 0 -0.62645731664088089 70.008565403861951 0 70.008565403861951 -60.019624486669272 0 0 0 0 12.411514469495728 1.9174336525539104 0 1.9174336525539104 -9.4096020986058519 0 0 0 0 502.43328347415809 -306.14673565846033 0 -306.14673565846033 135.75307783879106 0 0 0 0 380.06787712563528 -276.82310008607487 0 -276.82310008607487 129.55059865895157 0 0 0 0 624.87320771228406 -287.6878198633276 0 -287.6878198633276 -2.4415418717380817 0 0 0 0 56.602191174191603 -17.057807015637785 0 -17.057807015637785 -61.108067993094664 0 0 0 0 20.459925561457297 -6.020418343373521 0 -6.020418343373521 -4.4750899211059725 0 0 0 0 28.683072251347767 17.977504116174714 0 17.977504116174714 -64.851714347305006 0 0 0 0 180.09490549669135 24.845205398934695 0 24.845205398934695 46.093824315576057 0 0 0 0 102.73335402084922 -50.047312842484644 0 -50.047312842484644 35.529678880984648 0 0 0 0 33.086778492562331 -29.950428620337835 0 -29.950428620337835 23.426011195309393 0 0 0 0 8.3130707923797615 -6.3071074130928935 0 -6.3071074130928935 1.1599481643372851 0 0 0 0 55.596518839345663 -59.016336351580776 0 -59.016336351580776 34.270643204849648 0 0 0 0 64.27110314870697 46.430956180665191 0 46.430956180665191 65.060293758126136 0 0 0 0 588.53399722681206 -60.639194192616287 0 -60.639194192616287 -47.395915974424724 0 0 0 0 588.42494576716854 -317.88260369874661 0 -317.88260369874661 37.216513989571922 0 0 0 0 694.31988904345053 -303.34939242156088 0 -303.34939242156088 3.8394983828129625 0 0 0 0 1067.5133782816065 -512.10869840702969 0 -512.10869840702969 120.59658584592762 0 0 0 0 660.8726634268387 -358.53976525988855 0 -358.53976525988855 455.3640767786992 0 0 0 0 122.56695832057812 -221.30811408855061 0 -221.30811408855061 394.54200366908162 0 0 0 0 -165.64913440660894 -109.16072590424983 0 -109.16072590424983 65.641990918486044 0 0 0 0 1.3641221527421443 -17.745666878899854 0 -17.745666878899854 40.00060593132045 0 0 0 0 941.00747131493699 94.901013813242571 0 94.901013813242571 46.914903249691861 0 0 0 0 -3.0255601992825802 -2.7811179187236377 0 -2.7811179187236377 9.4653522208616785 0 0 0 0 500.25974355711514 -305.65599242008784 0 -305.65599242008784 105.11741559069196 0 0 0 0 585.01858936961798 -370.45126705715165 0 -370.45126705715165 135.83865385584431 0 0 0 0 462.09139525714272 -309.77805397621569 0 -309.77805397621569 149.62743570582006 0 0 0 0 447.56476622993068 -278.43990548087186 0 -278.43990548087186 137.10900287769118 0 0 0 0 375.62505448369848 -293.56361724672206 0 -293.56361724672206 169.14346130492413 0 0 0 0 448.28115434205392 -336.50752461971115 0 -336.50752461971115 183.48237892289035 0 0 0 0 660.78196912875137 -312.83837864940142 0 -312.83837864940142 154.8100255588156 0 0 0 0 583.25365787297778 -361.29950253583729 0 -361.29950253583729 230.74514361700585 0 0 0 0 683.57132740477391 -466.7945242334622 0 -466.7945242334622 155.87344719472821 0 0 0 0 765.76970398183039 -417.16348936084734 0 -417.16348936084734 27.09214116121575 0 0 0 0 597.57551445894387 -358.52474394571595 0 -358.52474394571595 48.069519442484761 0 0 0 0 617.68617565757449 -379.5737985324231 0 -379.5737985324231 52.235031592690575 0 0 0 0 538.57065186950786 -274.37544247631547 0 -274.37544247631547 25.867390356401302 0 0 0 0 594.25727660463599 -379.06270750330486 0 -379.06270750330486 104.95024940743401 0 0 0 0 681.04728665923176 -404.43664487480072 0 -404.43664487480072 48.410848738566543 0 0 0 0 648.89145952191029 -399.38065899206492 0 -399.38065899206492 84.903284142296798 0 0 0 0 493.34952958853683 -344.01259047622057 0 -344.01259047622057 158.83161885354733 0 0 0 0 666.41069509883528 -421.02622248056889 0 -421.02622248056889 104.19544800170888 0 0 0 0 608.94392491404142 -497.6718365319478 0 -497.6718365319478 359.97620541738115 0 0 0 0 712.29757183114998 -411.15729676841607 0 -411.15729676841607 82.26477159396201 0 0 0 0 869.36098512508033 -510.54560250618169 0 -510.54560250618169 199.21375417465444 0 0 0 0 699.04799265919428 -460.00639495457364 0 -460.00639495457364 212.38219685154641 0 0 0 0 844.60698924060125 -336.52519150782302 0 -336.52519150782302 -2.2422536748117636 0 0 0 0 621.28372688584204 -209.94574872764201 0 -209.94574872764201 46.710854263926308 0 0 0 0 651.4281150070201 -80.59232790217095 0 -80.59232790217095 -57.0070220324194 0 0 0 0 408.3350986610094 -75.43876046450049 0 -75.43876046450049 105.21061338514082 0 0 0 0 293.79902664845577 31.387745523563467 0 31.387745523563467 -51.044403564915797 0 0 0 0 284.22714945563348 -48.262502894682257 0 -48.262502894682257 -25.690239598493008 0 0 0 0 547.1861341772892 -89.819034579556273 0 -89.819034579556273 -50.728798419170289 0 0 0 0 561.63119713470769 -248.08648332052348 0 -248.08648332052348 -15.462579703366373 0 0 0 0 566.45082949908101 -239.92684689098928 0 -239.92684689098928 -2.7525899908980964 0 0 0 0 442.96312288125046 -180.805774257351 0 -180.805774257351 -2.074177690235274 0 0 0 0 712.55245722934342 -324.20305766217132 0 -324.20305766217132 -12.634193584906825 0 0 0 0 134.46935141802533 887.27310025291604 0 887.27310025291604 -271.54390041525096 0 0 0 0 638.17382428365818 -610.04546753606292 0 -610.04546753606292 -467.39937501748568 0 0 0 0 783.85953012583195 -552.68678832499404 0 -552.68678832499404 -484.24216155388876 0 0 0 0 451.50775592161517 542.04978366334205 0 542.04978366334205 708.60989923998693 0 0 0 0 3.1632990462006845 -8.6129668561588346 0 -8.6129668561588346 4.0961626681290264 0 0 0 0 -659.74100453401479 -632.74355717318031 0 -632.74355717318031 -103.80831517375418 0 0 0 0 -371.75292684941087 -506.87869421402991 0 -506.87869421402991 -544.80872754840721 0 0 0 0 7.1093671985512117 -9.2503876120415782 0 -9.2503876120415782 -9.2873398902328486 0 0 0 0 65.228393048331782 -45.233994607498857 0 -45.233994607498857 62.01110042954133 0 0 0 0 -9.701298003696138 52.295075006440129 0 52.295075006440129 -944.76801573430191 0 0 0 0 1123.1101180383412 -892.86557043222535 0 -892.86557043222535 -501.52814898700279 0 0 0 0 48.136176400716067 -698.76380208382841 0 -698.76380208382841 -536.55943883915495 0 0 0 0 43.281033135630423 399.32195431439629 0 399.32195431439629 -617.5948297963763 0 0 0 0 1462.7536041586118 689.51068475538568 0 689.51068475538568 -571.58415874874322 0 0 0 0 1251.7807816684217 -40.036586465877235 0 -40.036586465877235 -946.58946022843566 0 0 0 0 172.12682619297993 198.04750883335737 0 198.04750883335737 -760.73695035882201 0 0 0 0 164.34509222244742 703.19062744515247 0 703.19062744515247 -66.398502562575118 0 0 0 0 276.00041182668065 542.51050477709396 0 542.51050477709396 -624.51944362955851 0 0 0 0 259.25291035883856 -100.17041306471981 0 -100.17041306471981 64.6869145331666 0 0 0 0 37.185719887260348 71.239879773869689 0 71.239879773869689 -112.97803238853885 0 0 0 0 163.52122890372266 -114.15810031445449 0 -114.15810031445449 -252.82546255067973 0 0 0 0 35.983716339307307 16.463389355973533 0 16.463389355973533 5.3995886930063497 0 0 0 0 41.978581136405602 -4.0858380367450593 0 -4.0858380367450593 -17.050749158306441 0 0 0 0 3.317370108587852 -3.1054046738795194 0 -3.1054046738795194 -4.7820913804128349 0 0 0 0 172.0873062164319 -61.846791511753509 0 -61.846791511753509 -8.619610349265713 0 0 0 0 21.137703900225461 72.909074128171142 0 72.909074128171142 -54.6493513906305 0 0 0 0 14.216604305802321 2.2420206041402935 0 2.2420206041402935 -9.815202860572299 0 0 0 0 26.411326766830541 4.2995025085783141 0 4.2995025085783141 -11.495080849576611 0 0 0 0 14.451448147119379 -2.1693976021393837 0 -2.1693976021393837 -11.769734525732666 0 0 0 0 10.494417596618611 1.7520865642456442 0 1.7520865642456442 2.5651691980528453 0 0 0 0 26.331242625594314 -22.332913450251056 0 -22.332913450251056 34.018998921992988 0 0 0 0 48.83040294014063 -12.778300970269065 0 -12.778300970269065 -56.350036196649718 0 0 0 0 427.34942071531987 -191.23165791174495 0 -191.23165791174495 111.83043380860624 0 0 0 0 338.5659784704676 -245.45109362765405 0 -245.45109362765405 123.02040688048874 0 0 0 0 384.80871084313549 -190.31386699919722 0 -190.31386699919722 40.922743365631504 0 0 0 0 430.30053122612298 -199.62372774103187 0 -199.62372774103187 35.122710267567527 0 0 0 0 428.1378062209842 -262.54013992245973 0 -262.54013992245973 109.50800565411737 0 0 0 0 513.40694082037953 -278.52455047906506 0 -278.52455047906506 37.24067133176959 0 0 0 0 535.15493756767319 -218.92013622873259 0 -218.92013622873259 -21.22059559126501 0 0 0 0 461.56062910103356 -156.63713256779488 0 -156.63713256779488 -28.722064573088574 0 0 0 0 280.287632397376 -130.30742647324132 0 -130.30742647324132 13.266309555366661 0 0 0 0 188.61609610119194 -115.20301134489046 0 -115.20301134489046 33.752248854238132 0 0 0 0 278.35737724284991 -100.78937184232018 0 -100.78937184232018 -23.042155943703619 0 0 0 0 77.56280536777922 -97.00887430307921 0 -97.00887430307921 67.593271211434512 0 0 0 0 200.27444112229568 -156.62392413926455 0 -156.62392413926455 61.012419930929809 0 0 0 0 381.36139982942859 -143.82664499215443 0 -143.82664499215443 -14.726722533576321 0 0 0 0 26.938332980540764 4.8867727620844761 0 4.8867727620844761 -10.109929611112943 0 0 0 0 -5.6781044772651512 89.792175962455985 0 89.792175962455985 18.159886116260168 0 0 0 0 299.12695528571203 -142.24202040412456 0 -142.24202040412456 51.727194255904124 0 0 0 0 -0.21332026615272071 2.4631999007846233 0 2.4631999007846233 -2.6586635175312923 0 0 0 0 51.636991976534773 66.981190271190883 0 66.981190271190883 -62.790189111196469 0 0 0 0 4.9361259691941086 18.358027005940585 0 18.358027005940585 21.289567124904806 0 0 0 0 288.28411738394061 -146.30889060561321 0 -146.30889060561321 104.10527159745834 0 0 0 0 424.32823533544433 -227.8601690825617 0 -227.8601690825617 86.209254924269771 0 0 0 0 342.83517270638549 -225.92015024129614 0 -225.92015024129614 162.43955119902239 0 0 0 0 355.89514216210955 -233.48630343969171 0 -233.48630343969171 165.2274150641806 0 0 0 0 335.9233936531964 -149.39451124616471 0 -149.39451124616471 60.701652633927665 0 0 0 0 22.340851250425501 5.6315761282715187 0 5.6315761282715187 -11.291793311667465 0 0 0 0 -12.874005341252541 113.16868533085349 0 113.16868533085349 -45.000212293999994 0 0 0 0 305.58142956306983 -307.85099964051005 0 -307.85099964051005 54.896668406780009 0 0 0 0 83.78173162706662 -47.466967780743744 0 -47.466967780743744 -87.389676771768563 0 0 0 0 107.42434223517193 0.50315635426068184 0 0.50315635426068184 -114.4009387117685 0 0 0 0 78.570167794532608 -36.181905182062565 0 -36.181905182062565 3.1939998999046111 0 0 0 0 135.24808125349227 -35.984635220970176 0 -35.984635220970176 -28.998919340268003 0 0 0 0 98.893435593228787 10.889107074882531 0 10.889107074882531 -44.021545896946918 0 0 0 0 195.82683486571477 -96.945539825478591 0 -96.945539825478591 -25.930949878334786 0 0 0 0 -7.5876857380935689 -29.556150583496901 0 -29.556150583496901 -7.5146733933329415 0 0 0 0 108.16843121965212 16.466454919923081 0 16.466454919923081 -43.212736321459488 0 0 0 0 129.70314615921234 -19.501890852496217 0 -19.501890852496217 -27.718174522456366 0 0 0 0 190.27237379690632 -108.94421519162665 0 -108.94421519162665 -51.42729847976625 0 0 0 0 382.27660680074769 -154.449308575749 0 -154.449308575749 -52.365933531917108 0 0 0 0 206.6812716480963 21.433367220023456 0 21.433367220023456 -77.601255983187912 0 0 0 0 -67.647400634094083 83.048602710405476 0 83.048602710405476 50.930443767761432 0 0 0 0 120.51627414838231 69.970111874568701 0 69.970111874568701 -54.600906096754443 0 0 0 0 389.08315788143227 -150.04323116125215 0 -150.04323116125215 31.955625859112843 0 0 0 0 324.53705633086884 -199.06359878536347 0 -199.06359878536347 136.99984818193661 0 0 0 0 58.171547040008591 -114.04799351253598 0 -114.04799351253598 150.67414478705859 0 0 0 0 336.5582135704899 -262.07762976502909 0 -262.07762976502909 44.4081361911567 0 0 0 0 421.92759437584755 -224.92257371181972 0 -224.92257371181972 -67.99053781829025 0 0 0 0 384.25981908070389 -180.15102585569116 0 -180.15102585569116 -116.36583222392073 0 0 0 0 421.12361684911593 -246.61192775647351 0 -246.61192775647351 -53.692325898378613 0 0 0 0 270.34908755194556 -187.64119581089631 0 -187.64119581089631 -37.708391084692266 0 0 0 0 333.30440948377509 -209.25383802218857 0 -209.25383802218857 -30.860113296666441 0 0 0 0 343.22818932017617 -280.98159476264414 0 -280.98159476264414 -53.602719008055828 0 0 0 0 441.71860189993458 -310.26551452629064 0 -310.26551452629064 -46.421300516908559 0 0 0 0 575.61100248379807 -230.41089097952408 0 -230.41089097952408 -103.18875987683577 0 0 0 0 423.47893865836886 -267.57760986568303 0 -267.57760986568303 -89.859582792707442 0 0 0 0 680.13513862014224 -358.07579202246779 0 -358.07579202246779 -65.775874112353449 0 0 0 0 492.60254739701486 -515.23853901224174 0 -515.23853901224174 303.44626295839407 0 0 0 0 228.89513860743318 -365.133871498384 0 -365.133871498384 218.1750111986089 0 0 0 0 21.635025456198548 0.038316914021166326 0 0.038316914021166326 -0.33021859967057021 0 0 0 0 66.897609672624185 -25.215294947301231 0 -25.215294947301231 -99.085025288559336 0 0 0 0 57.611457297105517 -208.94049769776848 0 -208.94049769776848 126.86143767010208 0 0 0 0 116.47041854439885 215.64120234880397 0 215.64120234880397 5.1190752027523558 0 0 0 0 -157.66581585368112 35.049967813745752 0 35.049967813745752 45.434125138485797 0 0 0 0 734.16155974152207 -21.654054804394946 0 -21.654054804394946 -121.86550822877689 0 0 0 0 410.33602226240691 1.2078795549475672 0 1.2078795549475672 -115.60023154975352 0 0 0 0 550.8731038669066 -142.93741303835395 0 -142.93741303835395 -154.63052002031873 0 0 0 0 -596.41700154277169 -1065.5676858086435 0 -1065.5676858086435 1029.9724483830582 0 0 0 0 768.39800792761525 276.43739348498082 0 276.43739348498082 -6.7520075192096556 0 0 0 0 1007.6318018905076 -328.43432809096021 0 -328.43432809096021 -85.429859930363364 0 0 0 0 28.449325458474902 -9.0497161484145039 0 -9.0497161484145039 0.11022924026497272 0 0 0 0 -13.553769470774569 -38.191828273142619 0 -38.191828273142619 -6.4964933339554705 0 0 0 0 -28.663447328855 28.841114463450992 0 28.841114463450992 61.88069223333423 0 0 0 0 162.46785570163775 3.7681236266216729 0 3.7681236266216729 -37.695929527064891 0 0 0 0 23.231552793746772 -6.4415281587453208 0 -6.4415281587453208 -1.3147131628347877 0 0 0 0 -112.95541501616935 -41.231554597363697 0 -41.231554597363697 -17.493372385561543 0 0 0 0 50.180678825781797 -30.09847324882594 0 -30.09847324882594 -38.155621468589288 0 0 0 0 307.3300635813066 -332.48867438013622 0 -332.48867438013622 400.98750471715823 0 0 0 0 466.77358274316794 -294.39224285062483 0 -294.39224285062483 191.48314496140847 0 0 0 0 29.36619342269114 11.963760618542779 0 11.963760618542779 -14.633099762183519 0 0 0 0 527.82557810799335 -496.48865417992056 0 -496.48865417992056 383.07915115489641 0 0 0 0 11.206804605799334 4.7565881407516315 0 4.7565881407516315 -10.384124237131495 0 0 0 0 27.010870836987209 6.0089833192214641 0 6.0089833192214641 -15.929966062835593 0 0 0 0 28.873944710750948 -7.7384515877583908 0 -7.7384515877583908 -11.40865274421094 0 0 0 0 19.331339373900846 -6.4821725128490471 0 -6.4821725128490471 12.350545706358844 0 0 0 0 16.796284081232443 -1.7685436159340497 0 -1.7685436159340497 -5.7873877685396167 0 0 0 0 42.025472590663412 54.063877031830089 0 54.063877031830089 406.38913119903464 0 0 0 0 18.619409333672763 -5.3338033242149478 0 -5.3338033242149478 -19.670876840851427 0 0 0 0 18.408613934487221 6.1918485036067068 0 6.1918485036067068 -15.897357290537855 0 0 0 0 4.5088705503145912 -6.976371632593299 0 -6.976371632593299 14.325238351538367 0 0 0 0 3561.8706108483821 -736.36533455781228 0 -736.36533455781228 -592.34649232572519 0 0 0 0 2962.9671717976016 -842.2227485545518 0 -842.2227485545518 -386.24739736726406 0 0 0 0 2969.2229235500199 -922.63812015439407 0 -922.63812015439407 638.64022676000604 0 0 0 0 1554.1300124459849 -1310.9732207575207 0 -1310.9732207575207 1604.7396136541465 0 0 0 0 2123.7527953822573 -211.4122533016216 0 -211.4122533016216 -378.38319201293598 0 0 0 0 677.34082027445402 -1253.8205844351705 0 -1253.8205844351705 1179.713328441645 0 0 0 0 2203.6772452277901 -1005.8780761515854 0 -1005.8780761515854 -6.3088212605762237 0 0 0 0 216.70710652234629 -527.11851868244844 0 -527.11851868244844 536.34518071303683 0 0 0 0 661.02014075830812 -754.00514756884058 0 -754.00514756884058 495.50310209171494 0 0 0 0 1128.0728959677945 -714.9830201556897 0 -714.9830201556897 -41.418218672578746 0 0 0 0 1078.8100934022004 -680.19891790333941 0 -680.19891790333941 -2.7792738146417832 0 0 0 0 934.96262104545895 -464.06316464152951 0 -464.06316464152951 -27.145295392465982 0 0 0 0 -5.2218606095638798 -11.28239686663548 0 -11.28239686663548 56.792343496718757 0 0 0 0 1630.9990929275373 -17.860699117684817 0 -17.860699117684817 -389.40410995807099 0 0 0 0 519.87645340093877 -82.851193567912105 0 -82.851193567912105 -77.96023725979876 0 0 0 0 1052.9565300011018 -296.23837427719627 0 -296.23837427719627 -108.31612619974749 0 0 0 0 1062.1515305964422 -355.23214566328079 0 -355.23214566328079 -89.584547240077882 0 0 0 0 1033.3818886953268 -315.10563008837767 0 -315.10563008837767 -50.576325358842951 0 0 0 0 951.67183272839975 -221.27489375734604 0 -221.27489375734604 146.26354405322581 0 0 0 0 1066.4365138202656 -390.17518737719627 0 -390.17518737719627 -12.700278286545654 0 0 0 0 767.71106450991647 -328.67199981097269 0 -328.67199981097269 94.86734295250335 0 0 0 0 607.58930891718046 -369.49570170586048 0 -369.49570170586048 154.48781255037375 0 0 0 0 296.77415669117909 -180.54577282267883 0 -180.54577282267883 157.3896629570574 0 0 0 0 371.97402825112658 -325.50186147593149 0 -325.50186147593149 238.99853217328473 0 0 0 0 -48.136858585421578 0.67734959245717619 0 0.67734959245717619 -14.335842867672426 0 0 0 0 22.829184214472761 0.014743233626603569 0 0.014743233626603569 -12.357379094305969 0 0 0 0 346.34804548142711 -258.80167556952892 0 -258.80167556952892 253.40197028267539 0 0 0 0 408.00376669326215 -547.72251064475131 0 -547.72251064475131 452.7875080376416 0 0 0 0 597.74349938577507 -455.18235737512396 0 -455.18235737512396 214.28410835710201 0 0 0 0 558.27686363561952 -321.66382933213936 0 -321.66382933213936 190.6623085802712 0 0 0 0 629.93546396016063 -491.87189742623377 0 -491.87189742623377 260.23575269158755 0 0 0 0 464.03624193200085 -426.7830496579295 0 -426.7830496579295 307.81286118287608 0 0 0 0 581.48068219731795 -443.62491468480403 0 -443.62491468480403 212.3482326241583 0 0 0 0 1945.1860314683145 900.71738755559227 0 900.71738755559227 289.74791711344483 0 0 0 0 1923.4395609818707 980.38776260211739 0 980.38776260211739 33.286057955805688 0 0 0 0 3499.9388424297595 1202.0058516025053 0 1202.0058516025053 -571.11508643797561 0 0 0 0 2794.752670571339 1601.249107584074 0 1601.249107584074 375.5984021563911 0 0 0 0 3495.1694590341176 2620.7712497228367 0 2620.7712497228367 1701.8669731404957 0 0 0 0 1840.9872771302671 1187.7455140296661 0 1187.7455140296661 460.55986087588951 0 0 0 0 1845.1631738558044 1163.318045783263 0 1163.318045783263 602.92372838802396 0 0 0 0 47.167040246193636 -11.788519999396051 0 -11.788519999396051 -2.198641180794128 0 0 0 0 118.61069729803057 28.039864333748163 0 28.039864333748163 -315.39995132551758 0 0 0 0 891.89304292040106 -229.79060245022055 0 -229.79060245022055 -59.517717614938533 0 0 0 0 1287.543712137247 208.43269571809856 0 208.43269571809856 21.353320073711924 0 0 0 0 63.254340895077284 -11.751814646093225 0 -11.751814646093225 -0.097830347883051783 0 0 0 0 17.580996762422956 12.442485176826994 0 12.442485176826994 -5.0649973868006528 0 0 0 0 494.52096240461469 791.37025036250429 0 791.37025036250429 535.30096571378272 0 0 0 0 1364.604225512574 876.96904075283783 0 876.96904075283783 423.14477571405513 0 0 0 0 1830.4545531865515 24.168723825124061 0 24.168723825124061 291.1270339871719 0 0 0 0 1962.6311155758376 477.91922158669445 0 477.91922158669445 651.23804299102267 0 0 0 0 174.8475798386271 -55.802368783072453 0 -55.802368783072453 888.57358152724623 0 0 0 0 1210.4266669677672 636.94918604082113 0 636.94918604082113 662.64319705640889 0 0 0 0 12.420285724631931 0.35785563063365444 0 0.35785563063365444 5.9064738500677523 0 0 0 0 162.08001633013168 -191.96778821703012 0 -191.96778821703012 342.81226448116649 0 0 0 0 251.47326696378047 250.37802435430712 0 250.37802435430712 313.14383459850342 0 0 0 0 241.77007852960884 55.648095524568049 0 55.648095524568049 371.64907476222788 0 0 0 0 1270.6624823118709 300.51953967413806 0 300.51953967413806 -46.858998089316856 0 0 0 0 1874.1908903056565 5.6986087138892572 0 5.6986087138892572 6.320966093412153 0 0 0 0 1226.9142141652846 111.8845777238032 0 111.8845777238032 67.293913563478895 0 0 0 0 2168.8840923313564 80.941754016196228 0 80.941754016196228 -164.44313488643218 0 0 0 0 2648.6339926834044 -92.638931257245986 0 -92.638931257245986 -473.25940927506144 0 0 0 0 2330.694082466367 -140.97137090035471 0 -140.97137090035471 -192.09240761418869 0 0 0 0 2438.4446873666984 230.39230806549807 0 230.39230806549807 -115.96302789609672 0 0 0 0 2152.843106661483 5.5688483493859167 0 5.5688483493859167 -163.71184726459711 0 0 0 0 2606.6269094093113 952.82735916876015 0 952.82735916876015 34.222585076703652 0 0 0 0 1961.7084851725799 530.75108616014109 0 530.75108616014109 -172.34801885056117 0 0 0 0 2997.68079801555 395.09073752290442 0 395.09073752290442 -661.9643628983099 0 0 0 0 3053.0651548189635 741.27013386452904 0 741.27013386452904 -827.21974900755936 0 0 0 0 2998.1250534100109 373.2930690602725 0 373.2930690602725 -1061.6316995553241 0 0 0 0 3396.7282516169162 798.08306377045108 0 798.08306377045108 -2635.1561530948065 0 0 0 0 3055.2861476031831 733.52773509691906 0 733.52773509691906 -1064.614966148916 0 0 0 0 2869.0663402365117 -263.64337238613814 0 -263.64337238613814 -746.41485284335727 0 0 0 0 5.0660566160631504 -1.3394355237976647 0 -1.3394355237976647 -5.5767887770987885 0 0 0 0 2850.4848375936672 -219.51472779739504 0 -219.51472779739504 -229.37104874855413 0 0 0 0 2841.554926480283 45.396980037298817 0 45.396980037298817 -1114.6853066449821 0 0 0 0 2763.5049292275526 78.317530811394818 0 78.317530811394818 -411.42086312877836 0 0 0 0 2731.1724814374429 -222.53037585220954 0 -222.53037585220954 -316.99715827291038 0 0 0 0 2732.0564972639004 142.27960815619917 0 142.27960815619917 353.86951479118216 0 0 0 0 2725.7432431436209 -180.08881698040659 0 -180.08881698040659 111.98933254008989 0 0 0 0 3502.5266294017165 167.97114831110096 0 167.97114831110096 -54.464640769821195 0 0 0 0 2521.6686574189152 -85.142966535745018 0 -85.142966535745018 44.0315340679781 0 0 0 0 2736.14637257195 -60.743921160129766 0 -60.743921160129766 -65.938552389374308 0 0 0 0 2542.3554742136257 7.7761062665913414 0 7.7761062665913414 114.98960727152462 0 0 0 0 3042.1047821451939 20.870669646106307 0 20.870669646106307 -138.10949329777668 0 0 0 0 3090.9620995976184 407.68376333617834 0 407.68376333617834 121.09104312810314 0 0 0 0 2529.2912578724245 -200.56144318797624 0 -200.56144318797624 -195.21425577912305 0 0 0 0 2537.627476924139 47.821968775531786 0 47.821968775531786 -169.25697966563979 0 0 0 0 2150.2238019787328 -58.001698823347397 0 -58.001698823347397 -6.3455545221531793 0 0 0 0 2146.5426621725383 -103.72725972519032 0 -103.72725972519032 -226.72626704569393 0 0 0 0 2029.6659872449109 243.70173522961613 0 243.70173522961613 -252.78591624526325 0 0 0 0 2143.1919639896551 -10.720867014340001 0 -10.720867014340001 2.1479097777310017 0 0 0 0 2596.0930767178797 80.455300709134917 0 80.455300709134917 -151.00998668521925 0 0 0 0 2457.2506603567708 -47.008766227762862 0 -47.008766227762862 245.49783017592199 0 0 0 0 2395.7900480659246 203.92215757072654 0 203.92215757072654 -121.47780610437076 0 0 0 0 1953.958922301872 92.399926498517743 0 92.399926498517743 7.1374619998259732 0 0 0 0 7.4991893484453636 -0.65607065625093242 0 -0.65607065625093242 -12.11844944340633 0 0 0 0 3499.2897943919106 367.97766155895874 0 367.97766155895874 334.91536895798811 0 0 0 0 3684.6970993227824 99.377566363855294 0 99.377566363855294 -250.33680259779567 0 0 0 0 3538.6852608262461 264.45022345271849 0 264.45022345271849 102.49281639272257 0 0 0 0 2607.7618364568857 14.463369978455944 0 14.463369978455944 29.087484022649733 0 0 0 0 2988.6190341488436 70.306249812587339 0 70.306249812587339 -127.0425502909311 0 0 0 0 3131.6980861052079 -301.32733186065434 0 -301.32733186065434 185.40276190669556 0 0 0 0 3226.3282341637337 -293.3524554739223 0 -293.3524554739223 -871.00407415882466 0 0 0 0 3602.761758584576 482.00285206794331 0 482.00285206794331 -564.57088121922902 0 0 0 0 5.3836344890603351 0.7160946170348037 0 0.7160946170348037 -6.5742669086525103 0 0 0 0 2745.3755550378637 323.60025251450816 0 323.60025251450816 -100.46397718837943 0 0 0 0 2750.0923442909816 261.65310868697134 0 261.65310868697134 532.97953796492197 0 0 0 0 2431.0127029338573 78.596142743352175 0 78.596142743352175 -200.06787202310898 0 0 0 0 2246.905434324708 335.46692778113311 0 335.46692778113311 -117.84160566829382 0 0 0 0 1861.363488587629 137.46509468350496 0 137.46509468350496 -113.39180215469059 0 0 0 0 2051.8207486875026 363.5897875865893 0 363.5897875865893 -159.85929666286665 0 0 0 0 2727.6406639217239 409.73432519378321 0 409.73432519378321 -223.95097941767494 0 0 0 0 2357.1059340287384 -32.607706732734414 0 -32.607706732734414 -471.0173474674848 0 0 0 0 1477.2877121745023 -231.58422880749822 0 -231.58422880749822 46.437316545829049 0 0 0 0 1910.7551662194519 -85.142012496499518 0 -85.142012496499518 -224.28455674261386 0 0 0 0 2710.6057547540249 -884.73819443374236 0 -884.73819443374236 -438.5539167249002 0 0 0 0 1907.156740143233 -312.40493328694561 0 -312.40493328694561 -629.48144873100182 0 0 0 0 3145.3526229420249 -111.72439405978464 0 -111.72439405978464 -1139.9844743319859 0 0 0 0 3500.0975884730765 -587.98949431668007 0 -587.98949431668007 -1986.4470259100576 0 0 0 0 2864.0827283822 -791.46137477433001 0 -791.46137477433001 -1580.4209751277181 0 0 0 0 1373.3281837440773 484.06061646799753 0 484.06061646799753 -96.339560428148616 0 0 0 0 903.93718321871347 100.33512313949041 0 100.33512313949041 -214.19378864297823 0 0 0 0 851.85712521021196 129.03415054819902 0 129.03415054819902 -159.47015227982047 0 0 0 0 62.022807239815393 139.48717352998744 0 139.48717352998744 -518.97001999439908 0 0 0 0 142.21041882005738 -208.30138015136708 0 -208.30138015136708 -202.13805303226172 0 0 0 0 916.604812047628 -55.42577239023808 0 -55.42577239023808 -430.10573730944293 0 0 0 0 3.6747393566792894 9.0958812302380956 0 9.0958812302380956 -1.0884398717084829 0 0 0 0 -125.84581345909828 -120.59366213659814 0 -120.59366213659814 716.75278635584073 0 0 0 0 480.61356716591945 -239.66327034813094 0 -239.66327034813094 150.70745330424143 0 0 0 0 7.6131453522405597 12.800976883622267 0 12.800976883622267 7.3501944421969307 0 0 0 0 1378.1878925760866 472.53846400900511 0 472.53846400900511 -72.06278881673461 0 0 0 0 999.35196750982414 146.93011695762038 0 146.93011695762038 205.82046701948286 0 0 0 0 989.30715935016997 366.02788489602585 0 366.02788489602585 220.83727690162505 0 0 0 0 1162.5578028996797 149.44992489942422 0 149.44992489942422 -9.7376706399440991 0 0 0 0 1518.0741299609508 88.459188194248327 0 88.459188194248327 -256.0233750151624 0 0 0 0 1485.7650973099635 140.64568820726981 0 140.64568820726981 -16.061812621669105 0 0 0 0 1246.3639138036724 250.46202544685866 0 250.46202544685866 -51.204958712080952 0 0 0 0 1230.4011753225441 308.51882383291286 0 308.51882383291286 -177.08465813318981 0 0 0 0 1760.5013799317294 165.08078602124669 0 165.08078602124669 -245.86824724074881 0 0 0 0 1334.1882873501345 151.60984652519346 0 151.60984652519346 -120.75655915739071 0 0 0 0 1512.6881461654702 312.83766796186819 0 312.83766796186819 -167.48071302541121 0 0 0 0 1334.4661219584996 208.48366980514083 0 208.48366980514083 -51.172854561147233 0 0 0 0 1725.1897199023224 321.93223790344405 0 321.93223790344405 -112.82690315540822 0 0 0 0 1154.1395610846184 361.19322740129587 0 361.19322740129587 -137.94741376292677 0 0 0 0 1332.5875944477539 229.45396806633244 0 229.45396806633244 -192.10892454306509 0 0 0 0 684.32381476250521 195.1809345614306 0 195.1809345614306 -56.45804881017466 0 0 0 0 594.44525458450744 -23.529127058752465 0 -23.529127058752465 -110.57694990129858 0 0 0 0 335.300139664173 236.82488315728847 0 236.82488315728847 -20.784736366324978 0 0 0 0 481.96865880002542 667.61580624018336 0 667.61580624018336 -363.74608546450509 0 0 0 0 -127.70324901461481 122.1767145735439 0 122.1767145735439 85.801157224533199 0 0 0 0 1894.2672859431191 296.35617351375834 0 296.35617351375834 -203.61212215147771 0 0 0 0 845.99535112673402 185.11318576682697 0 185.11318576682697 -73.308166386414541 0 0 0 0 1491.600022310211 350.67156020804578 0 350.67156020804578 -381.0246445519997 0 0 0 0 1611.6496394089518 102.03489075952484 0 102.03489075952484 -90.913607325458088 0 0 0 0 1892.1152941283644 -161.71978574871912 0 -161.71978574871912 -249.71322880731714 0 0 0 0 1669.2872249947077 201.3297967747751 0 201.3297967747751 -236.10254484959614 0 0 0 0 1220.7783192380393 -63.58636470475335 0 -63.58636470475335 -191.41678923469703 0 0 0 0 156.29608896097307 -186.59049350029613 0 -186.59049350029613 -145.65958586618581 0 0 0 0 1172.9693380513143 167.1693250802137 0 167.1693250802137 -805.95629524612195 0 0 0 0 -8.4345725877086934 2.1978762790618083 0 2.1978762790618083 -1.4610749203015669 0 0 0 0 118.47179345631844 322.24299407164631 0 322.24299407164631 -1186.6622285814074 0 0 0 0 -152.53165216144521 535.52667892555087 0 535.52667892555087 -128.60866587158171 0 0 0 0 -36.490698595281856 181.43581398081824 0 181.43581398081824 -429.81887126510992 0 0 0 0 -119.49303659755788 199.47102156563233 0 199.47102156563233 -239.74615889710782 0 0 0 0 -119.78974421835119 153.62043564816577 0 153.62043564816577 -261.73384121785375 0 0 0 0 -63.321994495832769 113.31892316426762 0 113.31892316426762 35.330162165950696 0 0 0 0 -44.407773713433926 -21.508117553594957 0 -21.508117553594957 42.496291466786261 0 0 0 0 -72.827986497935854 49.003916704898529 0 49.003916704898529 182.83024683977612 0 0 0 0 25.999269414762704 14.188618630152886 0 14.188618630152886 2.544546714787117 0 0 0 0 56.367030375640752 170.83630611580611 0 170.83630611580611 96.288078832381643 0 0 0 0 -28.046369130619496 223.0456299122759 0 223.0456299122759 -50.05557111094646 0 0 0 0 3.8028440457383113 58.280164500342721 0 58.280164500342721 -102.28104608803415 0 0 0 0 19.343667826709488 12.21488159597944 0 12.21488159597944 -2.5165774111578489 0 0 0 0 20.81076553844855 32.382074526489305 0 32.382074526489305 15.141607693197329 0 0 0 0 13.98704103801083 24.914040541151394 0 24.914040541151394 7.4206473641870616 0 0 0 0 653.17717728765763 1394.3854762133151 0 1394.3854762133151 -1438.9455579747655 0 0 0 0 11.914591286514739 18.674103141321957 0 18.674103141321957 -4.9451606582879055 0 0 0 0 272.65777097590512 472.35535615308163 0 472.35535615308163 -1749.3490462792033 0 0 0 0 -65.378946476292185 51.731672110637192 0 51.731672110637192 -5.7925507709942394 0 0 0 0 16.920843095870396 34.276303845956562 0 34.276303845956562 -10.902728950359233 0 0 0 0 -188.68322818476338 272.41387482057871 0 272.41387482057871 -1141.2632294224695 0 0 0 0 27.002186836594319 25.798263100894673 0 25.798263100894673 0.99111410447369508 0 0 0 0 17.225992561742096 20.937508468435091 0 20.937508468435091 11.226244875428733 0 0 0 0 -52.680672442213108 35.275123263117166 0 35.275123263117166 34.568454039902747 0 0 0 0 23.177631403217674 21.109715938095007 0 21.109715938095007 -2.5762063736660821 0 0 0 0 9.4385272119134243 29.499757645303475 0 29.499757645303475 -5.5342006532461596 0 0 0 0 75.666180804528267 -43.862286550151907 0 -43.862286550151907 -15.645866339304007 0 0 0 0 10.401733636501376 106.27871186351095 0 106.27871186351095 41.115421159775678 0 0 0 0 8.3138497303875738 31.604241867209225 0 31.604241867209225 -1.6370818650200363 0 0 0 0 -14.184368189300177 15.807869134236441 0 15.807869134236441 5.033516725740621 0 0 0 0 13.092626143688495 14.022292133648829 0 14.022292133648829 0.86662539874156086 0 0 0 0 -27.598827518966573 79.335752278570737 0 79.335752278570737 -45.156395744186575 0 0 0 0 28.461929505603919 24.076291204375909 0 24.076291204375909 11.119622244033144 0 0 0 0 -24.178364549334319 13.690395255388891 0 13.690395255388891 4.1722818739138621 0 0 0 0 -84.006528157175126 150.40781075276868 0 150.40781075276868 -252.02592233129235 0 0 0 0 -85.871969667464725 189.12283770289912 0 189.12283770289912 -235.4737617587125 0 0 0 0 13.763495777303248 20.42906930741249 0 20.42906930741249 14.440292043579166 0 0 0 0 -155.56092363981588 140.56883097594527 0 140.56883097594527 45.740578249507848 0 0 0 0 -47.186967111191734 202.60484559060569 0 202.60484559060569 -358.01213013509096 0 0 0 0 33.615454838289224 -116.892771768022 0 -116.892771768022 85.549197171011201 0 0 0 0 -374.29461103858193 -100.2505711997955 0 -100.2505711997955 274.30821643976469 0 0 0 0 -122.51357537520926 37.969584833990666 0 37.969584833990666 -201.76282531833454 0 0 0 0 -293.49704737525462 -5.2220410007138298 0 -5.2220410007138298 -39.325503905717142 0 0 0 0 -140.5840007563711 -60.710041047452023 0 -60.710041047452023 -289.50208202663362 0 0 0 0 -105.73576628941237 112.60100709091301 0 112.60100709091301 -14.416250020904954 0 0 0 0 -99.22477351350949 83.060817096811149 0 83.060817096811149 -90.169243772927985 0 0 0 0 -109.37921170311074 152.16764963662899 0 152.16764963662899 -16.500483006477225 0 0 0 0 -86.722438562578191 144.5957908320396 0 144.5957908320396 -11.827674355835825 0 0 0 0 -96.185594181889087 106.51039574431559 0 106.51039574431559 47.586955255356088 0 0 0 0 -190.76007677865164 116.67651072122308 0 116.67651072122308 148.01989091771651 0 0 0 0 -244.9472167887734 114.6588841825469 0 114.6588841825469 142.88839813821869 0 0 0 0 -115.01705038092859 198.92694280087949 0 198.92694280087949 143.74713593517299 0 0 0 0 -93.241880561028665 248.47135562141102 0 248.47135562141102 213.46959696168869 0 0 0 0 -46.81145392464714 236.91791546614331 0 236.91791546614331 166.35354405518865 0 0 0 0 -116.45534819788918 164.83428164758948 0 164.83428164758948 167.21348442442104 0 0 0 0 -88.655284626238881 136.64789798910232 0 136.64789798910232 115.69505519284075 0 0 0 0 -91.096603689462427 198.65134856885697 0 198.65134856885697 188.21144898463763 0 0 0 0 0.64617638162962976 200.26538870911645 0 200.26538870911645 169.37217915332258 0 0 0 0 -54.256706384377139 185.58659811170673 0 185.58659811170673 176.25018855209964 0 0 0 0 149.87790099530139 347.02029581929969 0 347.02029581929969 146.57733835144495 0 0 0 0 84.083701943911365 349.74129673234802 0 349.74129673234802 230.80974112905005 0 0 0 0 -25.529372664527727 249.24185183933469 0 249.24185183933469 165.57588338515961 0 0 0 0 -119.56727899401676 130.40621799523251 0 130.40621799523251 177.06725088238113 0 0 0 0 -109.99356194061068 90.110414566576367 0 90.110414566576367 201.84346617563369 0 0 0 0 -88.796202628552521 82.724924100506541 0 82.724924100506541 200.32461309341784 0 0 0 0 -64.644785220585618 105.38958536632435 0 105.38958536632435 188.19346995718251 0 0 0 0 -97.992056869289598 100.09077510237057 0 100.09077510237057 194.92488660202525 0 0 0 0 -78.295359818395809 127.82144145472193 0 127.82144145472193 181.85027261605489 0 0 0 0 -30.777009939637992 153.34426629699669 0 153.34426629699669 168.44847799628224 0 0 0 0 -86.867062899556402 115.72719041125561 0 115.72719041125561 147.44786262148773 0 0 0 0 -64.317978929910623 169.67190973504046 0 169.67190973504046 133.9799344808971 0 0 0 0 -104.07610785353154 143.73413302725385 0 143.73413302725385 168.06558943254475 0 0 0 0 -116.23716426567626 161.62499140674174 0 161.62499140674174 98.382094041766891 0 0 0 0 -134.65182930411629 143.79774058848579 0 143.79774058848579 118.21021161251883 0 0 0 0 -149.37974447268334 128.46603207255794 0 128.46603207255794 184.54848913323758 0 0 0 0 -110.49044917528522 149.02721753689775 0 149.02721753689775 119.32789377632957 0 0 0 0 -100.96432865989846 122.59875267707683 0 122.59875267707683 109.12311755553537 0 0 0 0 -125.60311186949025 180.76467567607119 0 180.76467567607119 21.087850893467021 0 0 0 0 -124.03465175436395 119.31545832178608 0 119.31545832178608 108.71427592121924 0 0 0 0 -99.63397248553531 138.11539601993491 0 138.11539601993491 -22.055290951538154 0 0 0 0 -89.927701735281516 142.38849191468302 0 142.38849191468302 23.022128491218837 0 0 0 0 -111.29597789457239 107.18768544416662 0 107.18768544416662 11.250169638531702 0 0 0 0 -74.076373556964654 152.16339604909354 0 152.16339604909354 -107.41587890372466 0 0 0 0 -49.626739579013702 144.57858012249994 0 144.57858012249994 -268.62053173530012 0 0 0 0 -88.956410089071142 175.13161772695003 0 175.13161772695003 -92.153273991726564 0 0 0 0 -102.78901736962257 214.75920863650822 0 214.75920863650822 -114.90705939731924 0 0 0 0 -53.5778611862861 181.83747111615912 0 181.83747111615912 -246.88885080187583 0 0 0 0 -103.7678879086443 179.98647483360662 0 179.98647483360662 -62.768254574381899 0 0 0 0 -55.489507485717695 238.33664167357188 0 238.33664167357188 -236.48183096356016 0 0 0 0 -110.56186557612182 321.72428756379736 0 321.72428756379736 -118.31398231695027 0 0 0 0 -70.026017541479632 182.04108750466889 0 182.04108750466889 -278.97162519751282 0 0 0 0 -165.83369558430104 210.27520391690948 0 210.27520391690948 193.26669949319717 0 0 0 0 -128.41069885596039 151.25617313670386 0 151.25617313670386 119.12025014575875 0 0 0 0 -128.95625065689126 228.09541538227575 0 228.09541538227575 -38.288786454155797 0 0 0 0 -89.112518257722513 66.625451641546533 0 66.625451641546533 234.61880860523411 0 0 0 0 -190.68835560924708 331.80048523237787 0 331.80048523237787 224.81561596992492 0 0 0 0 -79.876752918875354 58.391890386721343 0 58.391890386721343 635.0019377109503 0 0 0 0 -130.0815905690215 66.203927700173836 0 66.203927700173836 293.80753874123673 0 0 0 0 -85.953412182569764 120.94102848877972 0 120.94102848877972 358.95745693783465 0 0 0 0 -80.011087084643805 -36.288136087866405 0 -36.288136087866405 413.89309012771696 0 0 0 0 -39.512136951406319 -44.718475895111624 0 -44.718475895111624 282.0226835189203 0 0 0 0 -124.31031153118465 39.214709818027814 0 39.214709818027814 325.7868852042975 0 0 0 0 53.986543939119656 -164.03456579360409 0 -164.03456579360409 551.5943181475476 0 0 0 0 -9.9877544953506003 -39.722327376901148 0 -39.722327376901148 328.67968150365596 0 0 0 0 18.694893898882583 -93.571630192404882 0 -93.571630192404882 353.1853762827418 0 0 0 0 -138.14492510743003 151.05059421948886 0 151.05059421948886 119.9535642375813 0 0 0 0 -164.0443689589838 129.66962551522818 0 129.66962551522818 234.93416036985036 0 0 0 0 -184.30463668960647 143.45329985041752 0 143.45329985041752 303.17309058561932 0 0 0 0 -147.78768764820052 142.58021232072974 0 142.58021232072974 160.82135334959912 0 0 0 0 -148.29049915669657 62.460337858480216 0 62.460337858480216 270.73948819650195 0 0 0 0 -123.89653847408226 30.680490245711098 0 30.680490245711098 289.06521648855323 0 0 0 0 -88.552078611242905 0.93921403424519667 0 0.93921403424519667 277.07024608399797 0 0 0 0 -114.07881416333794 105.64288796920891 0 105.64288796920891 180.14365479530761 0 0 0 0 -98.781441529159565 49.94157680931221 0 49.94157680931221 236.9542053246696 0 0 0 0 -146.33977131833649 88.313582610070853 0 88.313582610070853 226.44291726306801 0 0 0 0 -130.02462495815143 71.257261108493367 0 71.257261108493367 227.066737025046 0 0 0 0 -58.960009943291425 16.569986743907066 0 16.569986743907066 223.72016262698594 0 0 0 0 30.935913177836028 -29.90966852459951 0 -29.90966852459951 158.96815279544171 0 0 0 0 -108.83612654366804 71.080975663009895 0 71.080975663009895 211.56453606677496 0 0 0 0 -111.42062224030587 35.63038388209543 0 35.63038388209543 228.29853486306274 0 0 0 0 -75.712289061399133 1.1773725410771476 0 1.1773725410771476 228.34458312535571 0 0 0 0 -68.789689551661013 3.7406861771723925 0 3.7406861771723925 226.03746391687037 0 0 0 0 -71.364133589195632 37.050843857663949 0 37.050843857663949 195.32515258924104 0 0 0 0 -54.900234896364964 51.745288255429841 0 51.745288255429841 179.71656363048896 0 0 0 0 47.90569173209451 -1.2010467670434082 0 -1.2010467670434082 109.55760622885202 0 0 0 0 202.73964255020837 -200.68915858137188 0 -200.68915858137188 274.5886801923989 0 0 0 0 218.47946732430319 -165.75369835576748 0 -165.75369835576748 142.06252353681339 0 0 0 0 71.130560998110013 -24.58005719274388 0 -24.58005719274388 206.2103772205719 0 0 0 0 168.9492201316225 -86.465301929996713 0 -86.465301929996713 244.89871321135615 0 0 0 0 -39.115173233002679 -40.543435018004402 0 -40.543435018004402 314.54279758154189 0 0 0 0 95.777884285001164 120.5079699416055 0 120.5079699416055 -155.67842030047655 0 0 0 0 69.190070657787388 38.051508802609142 0 38.051508802609142 17.935625221816849 0 0 0 0 -36.007003101513718 139.23346187416792 0 139.23346187416792 7.453090758851431 0 0 0 0 0.21467583500910337 25.000295457135962 0 25.000295457135962 61.055818200231442 0 0 0 0 -58.004823717693057 53.697308486864131 0 53.697308486864131 180.7412223438987 0 0 0 0 -46.779089794121319 57.215022804723048 0 57.215022804723048 137.68624994359925 0 0 0 0 -27.946568131941603 70.661442884196731 0 70.661442884196731 146.17526765150023 0 0 0 0 4.2914099548174818 28.794309751348919 0 28.794309751348919 141.82621582322201 0 0 0 0 -58.800048995081795 49.825764177209408 0 49.825764177209408 182.9560560435857 0 0 0 0 84.991920043640675 41.410776729426289 0 41.410776729426289 113.5300666578496 0 0 0 0 63.192778417106183 74.204768133124162 0 74.204768133124162 153.18669486389808 0 0 0 0 70.225102960918775 -2.8081931170067946 0 -2.8081931170067946 139.21559545987839 0 0 0 0 73.121824048453163 1.8957945021138585 0 1.8957945021138585 133.38770558118995 0 0 0 0 230.55701912003497 -5.0425198362008814 0 -5.0425198362008814 86.703850486715965 0 0 0 0 253.43820624641012 -47.400588642447474 0 -47.400588642447474 69.702617421773539 0 0 0 0 446.30098260769773 232.68225337875174 0 232.68225337875174 103.26439588630456 0 0 0 0 559.68665371461611 32.443705690620845 0 32.443705690620845 17.173522621913435 0 0 0 0 383.89412207398618 188.42772177600273 0 188.42772177600273 43.150837033947028 0 0 0 0 211.37586895327468 119.22633978020895 0 119.22633978020895 104.6223745619609 0 0 0 0 267.3402429578673 85.705847361508859 0 85.705847361508859 62.796368812338187 0 0 0 0 251.78661853770245 85.426477902186889 0 85.426477902186889 63.856558343812139 0 0 0 0 249.52169873324601 26.163403675976951 0 26.163403675976951 106.04963242068879 0 0 0 0 113.25210642290767 122.35740220443131 0 122.35740220443131 104.92404341042129 0 0 0 0 240.09294076696824 187.65042128283676 0 187.65042128283676 101.49115010905371 0 0 0 0 240.19504128777044 200.46378561578513 0 200.46378561578513 42.333736719404385 0 0 0 0 163.14239635589729 291.58821347859066 0 291.58821347859066 160.53553765423953 0 0 0 0 151.66842232042836 337.31170069252278 0 337.31170069252278 137.40047142451658 0 0 0 0 75.175523078253605 127.71320114167543 0 127.71320114167543 155.02792889741613 0 0 0 0 58.135482277574738 209.1533199685523 0 209.1533199685523 128.36299116501141 0 0 0 0 100.21343881189205 199.82493350043751 0 199.82493350043751 122.64522968612619 0 0 0 0 61.064107925398275 193.66397621605392 0 193.66397621605392 170.16382538202424 0 0 0 0 -23.0246497204962 138.5777489607467 0 138.5777489607467 159.6440446247525 0 0 0 0 -20.292416188300194 130.25255769281102 0 130.25255769281102 181.95048806988137 0 0 0 0 -70.716193136844993 76.897380023834558 0 76.897380023834558 191.98663113596376 0 0 0 0 -47.684442777876711 86.536809377022109 0 86.536809377022109 195.7795606139407 0 0 0 0 -62.429500550795069 53.099311072574892 0 53.099311072574892 218.44446863231497 0 0 0 0 -8.9867672169948492 72.966678705416598 0 72.966678705416598 187.86170394947931 0 0 0 0 -53.597530092018815 47.275584321622091 0 47.275584321622091 182.76695147274586 0 0 0 0 4.2832005027935338 63.924518121700658 0 63.924518121700658 157.77978291295585 0 0 0 0 67.072045635975883 123.86683430228186 0 123.86683430228186 153.23276434950822 0 0 0 0 -0.68914981005752907 -0.32220467769429728 0 -0.32220467769429728 2.7286222935798738 0 0 0 0 342.65039828034787 227.21737243480061 0 227.21737243480061 -235.79082568877175 0 0 0 0 564.82044561238399 69.176810399823808 0 69.176810399823808 -606.32618759289471 0 0 0 0 872.83676546203424 293.53845832349043 0 293.53845832349043 -249.33758338574646 0 0 0 0 427.91998082433929 345.71941554026489 0 345.71941554026489 -51.825634995728251 0 0 0 0 416.50854575355697 392.91245152674173 0 392.91245152674173 -105.06068652223985 0 0 0 0 377.86889522677302 111.21827435113664 0 111.21827435113664 -243.068342213535 0 0 0 0 391.90889665600844 459.51276892872738 0 459.51276892872738 74.831944217642558 0 0 0 0 278.11054562841673 353.20738986975903 0 353.20738986975903 16.135849922082116 0 0 0 0 327.56616899346682 282.94273937704202 0 282.94273937704202 -2.8167263202030881 0 0 0 0 403.25425357849417 242.27330772098139 0 242.27330772098139 3.8141890725219127 0 0 0 0 404.98340461622138 267.8815894039808 0 267.8815894039808 -162.53933567173772 0 0 0 0 216.89877862654612 188.53569411406897 0 188.53569411406897 98.184306406208634 0 0 0 0 354.68165208481241 232.78420415994606 0 232.78420415994606 19.155600477070038 0 0 0 0 476.82923164505883 203.86715873966932 0 203.86715873966932 25.853013609590562 0 0 0 0 356.01047032149836 373.06672401859123 0 373.06672401859123 329.31056225163047 0 0 0 0 -15.437690019584807 -106.6092322252598 0 -106.6092322252598 -44.640382895578227 0 0 0 0 22.265168179508834 -11.933615336096201 0 -11.933615336096201 4.9832040712481778 0 0 0 0 234.10048223490617 -40.719144740767319 0 -40.719144740767319 19.040104330136273 0 0 0 0 6.7204773290686717 -49.611767159482952 0 -49.611767159482952 -51.578473835473687 0 0 0 0 58.238250172576045 -48.127342956746361 0 -48.127342956746361 -111.25138043929383 0 0 0 0 4.2360843902488341 -65.518406803612379 0 -65.518406803612379 -72.60479658683289 0 0 0 0 66.035406652561505 -59.069896578901421 0 -59.069896578901421 -18.659118310245958 0 0 0 0 60.479844119907284 -33.591822037362363 0 -33.591822037362363 -83.690155450749444 0 0 0 0 2.0506817664324117 -0.06829398671771747 0 -0.06829398671771747 -7.2768283208685798 0 0 0 0 47.963107096896856 -11.898742782266069 0 -11.898742782266069 -51.386596855054705 0 0 0 0 90.55422498180269 62.251389938344801 0 62.251389938344801 22.39737946785317 0 0 0 0 66.864980235561234 -5.9595376623010452 0 -5.9595376623010452 -53.087695473219924 0 0 0 0 30.176375509905743 -19.411852636833196 0 -19.411852636833196 -3.3611106557563062 0 0 0 0 14.211672895329684 -485.54710347238108 0 -485.54710347238108 -325.99759244512688 0 0 0 0 35.559045712718216 -42.23852105507558 0 -42.23852105507558 -58.631969315467359 0 0 0 0 8.3937515119880999 -1.5127688237360921 0 -1.5127688237360921 -7.3726920697141471 0 0 0 0 -313.37025066202932 -201.78671739258317 0 -201.78671739258317 192.7825775854526 0 0 0 0 99.314146750077271 105.33058413189303 0 105.33058413189303 68.697793140129761 0 0 0 0 -29.527401557528719 -131.41564143135963 0 -131.41564143135963 -23.506613586831918 0 0 0 0 407.61900683554813 -134.14473648973967 0 -134.14473648973967 -174.0309450821851 0 0 0 0 2.5448484007907837 -0.83389138436666954 0 -0.83389138436666954 -0.90949523351588013 0 0 0 0 202.92608830604877 145.19793326139052 0 145.19793326139052 -5.0079127274721031 0 0 0 0 -186.78390803603179 -456.76115884120441 0 -456.76115884120441 -192.19453570951327 0 0 0 0 12.805103637818775 -149.25561657862477 0 -149.25561657862477 -2.1721002030271848 0 0 0 0 51.084478302673233 19.49049305935165 0 19.49049305935165 33.392086403791836 0 0 0 0 -51.788151000393555 -109.54316064488717 0 -109.54316064488717 33.206096746087496 0 0 0 0 -85.982243044882125 -45.057260693190642 0 -45.057260693190642 -1.8270651671205087 0 0 0 0 -157.57034123390622 -85.788245297426101 0 -85.788245297426101 192.31925094485314 0 0 0 0 -96.001852759454778 -145.96159500699957 0 -145.96159500699957 8.129083884768761 0 0 0 0 -83.813413851232326 -2.3316719343114301 0 -2.3316719343114301 64.889398232120158 0 0 0 0 -83.675459153610063 -2.6557581288081735 0 -2.6557581288081735 -64.248340361867122 0 0 0 0 322.14453110103932 129.27729795506269 0 129.27729795506269 94.212259045389601 0 0 0 0 59.443078729178524 102.01604915448843 0 102.01604915448843 248.55225488059949 0 0 0 0 142.18117959441952 -19.022733228778748 0 -19.022733228778748 83.205637013235219 0 0 0 0 349.58934779388892 80.325789182037397 0 80.325789182037397 104.96864470950163 0 0 0 0 513.99023041717192 316.38416170282477 0 316.38416170282477 242.43469484646698 0 0 0 0 946.63543670821855 207.75971064163019 0 207.75971064163019 -72.898830701305997 0 0 0 0 1088.4390920455262 266.81936083080745 0 266.81936083080745 32.926534018617474 0 0 0 0 933.17358452260305 144.88252174774738 0 144.88252174774738 -59.335290998941332 0 0 0 0 1470.3491900975314 240.03786569093893 0 240.03786569093893 15.767403884216492 0 0 0 0 837.09639376332234 621.91870992168492 0 621.91870992168492 694.20787844227516 0 0 0 0 725.85504958487581 342.90754476663005 0 342.90754476663005 203.24766574752653 0 0 0 0 399.3084688480958 89.576970328358584 0 89.576970328358584 1001.0443819631116 0 0 0 0 337.73171256200658 -184.14684976933268 0 -184.14684976933268 418.50766972057784 0 0 0 0 1588.9347906714593 -119.99773435975487 0 -119.99773435975487 33.519681942445914 0 0 0 0 492.43033028482569 34.273616182485853 0 34.273616182485853 12.381045755264495 0 0 0 0 159.54780440034529 448.09001522097469 0 448.09001522097469 166.57319328867743 0 0 0 0 354.54362155867784 588.39317806236249 0 588.39317806236249 267.52256490520404 0 0 0 0 611.73474572065697 583.87735527863333 0 583.87735527863333 70.791674029143905 0 0 0 0 401.85223140646485 539.41253075213854 0 539.41253075213854 103.56560599055183 0 0 0 0 340.84571123588466 695.58359627744107 0 695.58359627744107 455.04346380543376 0 0 0 0 983.86405902796287 808.19937786760408 0 808.19937786760408 211.46917423323794 0 0 0 0 7.3789814296360419 418.56471252514876 0 418.56471252514876 327.54193648047249 0 0 0 0 47.798503637401154 382.45178123540984 0 382.45178123540984 265.96719410995183 0 0 0 0 6.8216884631293127 6.3918436702854002 0 6.3918436702854002 7.6232494323180253 0 0 0 0 -149.71180988839296 327.25808667686169 0 327.25808667686169 269.64446583241761 0 0 0 0 -227.63746148995779 229.35282023806189 0 229.35282023806189 291.52552663191665 0 0 0 0 1148.6573275678675 16.485756998305078 0 16.485756998305078 -40.38997700980326 0 0 0 0 57.87289653366679 499.48156879585758 0 499.48156879585758 388.92093597034307 0 0 0 0 0.69112433290230157 -0.13245362250600579 0 -0.13245362250600579 0.49450020585156862 0 0 0 0 1220.7015559383053 14.694108111253513 0 14.694108111253513 -137.12709502940811 0 0 0 0 465.42970780095129 -240.72522947065977 0 -240.72522947065977 -10.652532826641846 0 0 0 0 847.91404099893043 -68.474714064762679 0 -68.474714064762679 -145.33848407416991 0 0 0 0 1.1125448853790409 0.70133988164277028 0 0.70133988164277028 0.29370804088747537 0 0 0 0 -17.137029387971779 116.91662143877105 0 116.91662143877105 166.76484647401219 0 0 0 0 984.40314409763232 135.05950924116405 0 135.05950924116405 -178.82830617943105 0 0 0 0 940.14585073045146 -14.676514012728902 0 -14.676514012728902 -63.581099883521915 0 0 0 0 596.44455045683753 62.518891843376224 0 62.518891843376224 -39.20090954233541 0 0 0 0 1014.2736900926993 168.39581477369083 0 168.39581477369083 -155.9308669409279 0 0 0 0 149.23398606217415 -156.37941108361821 0 -156.37941108361821 70.260945430339007 0 0 0 0 6.6265135650762375 1.0846416163507016 0 1.0846416163507016 -1.1835546148426346 0 0 0 0 549.34892068828776 310.23722481243408 0 310.23722481243408 193.74924884401224 0 0 0 0 613.06136739426984 -52.911164813674532 0 -52.911164813674532 -104.20295201351325 0 0 0 0 697.09075126666494 309.9437166006411 0 309.9437166006411 -317.03629171719939 0 0 0 0 68.513747273265835 50.295036606994131 0 50.295036606994131 -19.055239576871372 0 0 0 0 192.17950589615975 72.404650157116237 0 72.404650157116237 -15.469180612788477 0 0 0 0 536.47153986340209 175.68696850449973 0 175.68696850449973 -376.40028921146484 0 0 0 0 361.21851699586296 509.9363237058825 0 509.9363237058825 18.592005374003691 0 0 0 0 344.54109373027313 457.22114454746088 0 457.22114454746088 -123.29571763206508 0 0 0 0 -8.675526149729194 354.55301051653487 0 354.55301051653487 -392.63550403039335 0 0 0 0 -0.20613790023228518 -0.77542806235846484 0 -0.77542806235846484 -3.7530971846545658 0 0 0 0 337.52209489773577 199.80713253903514 0 199.80713253903514 -68.777367448714017 0 0 0 0 385.29743992760632 81.004290300463481 0 81.004290300463481 192.19553941531291 0 0 0 0 342.30154145152073 10.067284310849956 0 10.067284310849956 46.026248892350964 0 0 0 0 427.55173723981716 233.61713665412461 0 233.61713665412461 100.65196239982697 0 0 0 0 -96.313958313025068 3.0361542083954305 0 3.0361542083954305 98.255695054567838 0 0 0 0 -125.58281102741262 140.00234892121037 0 140.00234892121037 51.32060164494726 0 0 0 0 -37.019381347749004 17.16157553484237 0 17.16157553484237 127.26959621730043 0 0 0 0 -95.680305300080363 6.3557319331467852 0 6.3557319331467852 -72.212488383159553 0 0 0 0 -40.771117744927324 49.468730631917538 0 49.468730631917538 -54.196039856426523 0 0 0 0 -4.741483328238246 9.4179751411982124 0 9.4179751411982124 27.851729033101719 0 0 0 0 -0.33195184096225105 -5.8196310807238163 0 -5.8196310807238163 -9.0779862172925636 0 0 0 0 7.2176044487005129 -24.061382189214441 0 -24.061382189214441 -122.85542614363658 0 0 0 0 -287.46054804947926 -26.615839159772349 0 -26.615839159772349 -75.73854007504616 0 0 0 0 9.033829901520221 -10.354604856915557 0 -10.354604856915557 -7.4762586678937168 0 0 0 0 5.7952357261004792 -13.01478148886812 0 -13.01478148886812 -2.3114382131113942 0 0 0 0 51.984323370333414 -12.946560292769391 0 -12.946560292769391 -8.8446609664053994 0 0 0 0 11.085672324638047 -5.8982734744507255 0 -5.8982734744507255 -4.630569878314903 0 0 0 0 42.767399702888724 17.940064679348211 0 17.940064679348211 -23.441010584571814 0 0 0 0 11.614046483584389 -4.4594604868389069 0 -4.4594604868389069 -5.4287477669849977 0 0 0 0 21.780750256636424 0.70734946346140504 0 0.70734946346140504 -14.900553032918026 0 0 0 0 14.922900440287314 -12.143463626589828 0 -12.143463626589828 -6.7266819221672396 0 0 0 0 0.63956692547802163 3.5246797201329905 0 3.5246797201329905 -9.2809285308474543 0 0 0 0 119.16291327512772 16.61605468980224 0 16.61605468980224 -56.320018775903009 0 0 0 0 -7.1965869113355438 -83.052848711218729 0 -83.052848711218729 -399.55825798639125 0 0 0 0 4.8849029954462821 -8.1971973530733067 0 -8.1971973530733067 9.4000732533859264 0 0 0 0 -151.07976671796132 -163.31399812983352 0 -163.31399812983352 -129.39440872398336 0 0 0 0 4.1128117206144417 2.5173217686190164 0 2.5173217686190164 -3.2265465482204174 0 0 0 0 205.24495350727557 22.756771415785373 0 22.756771415785373 -314.3843714552483 0 0 0 0 61.653980377806874 -62.180654654041177 0 -62.180654654041177 -147.61652857921615 0 0 0 0 43.114193723667995 -112.63639651336575 0 -112.63639651336575 -231.91034260588685 0 0 0 0 -112.07807068833426 -81.471643368762443 0 -81.471643368762443 -21.876012862299831 0 0 0 0 -29.70642702663099 -222.33457689460317 0 -222.33457689460317 -347.31420767216241 0 0 0 0 167.78571657992234 -50.703781849236464 0 -50.703781849236464 -450.12676225588189 0 0 0 0 7.4138771472280496 -53.379438646897128 0 -53.379438646897128 -400.98521270561071 0 0 0 0 -542.47694220429366 -655.85113979543144 0 -655.85113979543144 -239.07542897522291 0 0 0 0 89.888890308660848 -266.57073060120251 0 -266.57073060120251 -316.61620837819993 0 0 0 0 225.68297100358541 -540.04157251056108 0 -540.04157251056108 -402.57375454925602 0 0 0 0 85.461176937786149 -480.37499897469326 0 -480.37499897469326 -26.901531839662312 0 0 0 0 331.86418792495169 90.684411738059111 0 90.684411738059111 -6.5189559776488295 0 0 0 0 682.34411191209438 -78.949401818224601 0 -78.949401818224601 -431.29448215828552 0 0 0 0 793.94780001937852 -728.25050929154952 0 -728.25050929154952 544.67842830458176 0 0 0 0 1.4924596310430234 1.8829695241759579 0 1.8829695241759579 1.7076257915732036 0 0 0 0 -334.24328809154804 -160.03657853465796 0 -160.03657853465796 -23.975724351471229 0 0 0 0 -403.46709228842519 -298.84676108435281 0 -298.84676108435281 134.53972597831927 0 0 0 0 -328.78773284718409 -623.27992346220606 0 -623.27992346220606 613.51862825507624 0 0 0 0 30.671002723909623 -35.408086817464209 0 -35.408086817464209 -1.5175875283430287 0 0 0 0 242.23966262483009 43.240581365294588 0 43.240581365294588 -22.146232611204596 0 0 0 0 -2.4114457821683626 2.2982625511910442 0 2.2982625511910442 -1.4987007971204029 0 0 0 0 -123.29662171519249 -46.283017471920743 0 -46.283017471920743 10.029834925711839 0 0 0 0 4.4330027835968462 1.5286686217607279 0 1.5286686217607279 6.0364076572844709 0 0 0 0 87.111522499803868 -114.07437367941773 0 -114.07437367941773 -28.894798843701778 0 0 0 0 22.228135670256364 -3.6589849225098874 0 -3.6589849225098874 3.920568745334549 0 0 0 0 15.394310459594568 -8.8223779370595974 0 -8.8223779370595974 7.3850941467052333 0 0 0 0 16.83520734339163 -85.352126039499126 0 -85.352126039499126 -31.114505682600793 0 0 0 0 -9.3166834365620161 -14.712599249325649 0 -14.712599249325649 -4.8800003913902401 0 0 0 0 68.977842241249164 -31.703978702254062 0 -31.703978702254062 -73.450318731664993 0 0 0 0 47.329527620109729 7.0443614772984802 0 7.0443614772984802 -60.1212312727057 0 0 0 0 107.57638493180639 -31.002522611443055 0 -31.002522611443055 -43.05210518363856 0 0 0 0 25.860978147054198 -12.659654417025195 0 -12.659654417025195 -4.1976556725689989 0 0 0 0 24.998083219552509 -14.300806394573826 0 -14.300806394573826 3.8124029372905195 0 0 0 0 26.049015495009087 -5.3964845028112904 0 -5.3964845028112904 0.84079481049275273 0 0 0 0 26.061392783750989 -2.141258783311514 0 -2.141258783311514 -0.60525010178116645 0 0 0 0 34.920332470045622 -0.54392333991427222 0 -0.54392333991427222 -5.4316386356099429 0 0 0 0 28.048936440587738 -0.020512575929387822 0 -0.020512575929387822 -4.4298384642652309 0 0 0 0 3.8165766913942538 -2.1027086133278248 0 -2.1027086133278248 -13.060020865549241 0 0 0 0 50.326254846152665 -7.1669093140480982 0 -7.1669093140480982 -9.9823743396073041 0 0 0 0 48.258620491364354 4.8447695798367931 0 4.8447695798367931 -6.2956267318913888 0 0 0 0 53.735164159219039 -13.232114150711823 0 -13.232114150711823 -1.41382382537995 0 0 0 0 37.882971323576839 -10.264010474554425 0 -10.264010474554425 -7.8395778451958904 0 0 0 0 35.537046601684551 -10.951523031156285 0 -10.951523031156285 -4.9964576188590399 0 0 0 0 5.9581387987707952 -3.7966948658393238 0 -3.7966948658393238 -8.9729305010043579 0 0 0 0 7.5001156362991299 -0.68172033573020197 0 -0.68172033573020197 -2.4290005654078577 0 0 0 0 37.759124804408202 -21.772525529920586 0 -21.772525529920586 -2.2978912812654926 0 0 0 0 50.142141889131835 -16.530711829284428 0 -16.530711829284428 -0.14186885734693533 0 0 0 0 14.040924241620573 -18.509973750178006 0 -18.509973750178006 -14.962664479945397 0 0 0 0 -251.79398267315628 -64.061733716237086 0 -64.061733716237086 77.400930254510058 0 0 0 0 -154.05911727339844 -13.353928958067627 0 -13.353928958067627 -67.018128632382968 0 0 0 0 -177.499594779365 -63.596571155405854 0 -63.596571155405854 24.362850790889297 0 0 0 0 -157.70015874116507 -23.897258599834686 0 -23.897258599834686 -15.337264666139049 0 0 0 0 -134.23332151463546 -57.577479146524865 0 -57.577479146524865 -120.23472025206138 0 0 0 0 -275.56606443610508 -7.8151853700810534 0 -7.8151853700810534 -6.6647032690161723 0 0 0 0 -138.07514271053515 121.42866812709076 0 121.42866812709076 -74.654594861413216 0 0 0 0 -3.3666209032710199 -2.918078352423354 0 -2.918078352423354 0.086416535565926322 0 0 0 0 11.913878561818734 -9.4899963318841927 0 -9.4899963318841927 -3.8734221725007671 0 0 0 0 -67.232892821321002 -8.5952963794881043 0 -8.5952963794881043 -69.14686333106647 0 0 0 0 7.4972431599325375 -17.965531763570617 0 -17.965531763570617 -9.6259263018643004 0 0 0 0 -152.78897296487412 -59.09203886939622 0 -59.09203886939622 -26.476582843020878 0 0 0 0 -153.73164626889047 -56.569090262393274 0 -56.569090262393274 9.9487935787331025 0 0 0 0 37.028968237320896 -10.842086542512789 0 -10.842086542512789 -28.171465709326924 0 0 0 0 29.980388231834091 -14.941454957740708 0 -14.941454957740708 -24.071614965749895 0 0 0 0 33.135576490318044 9.7313636561752901 0 9.7313636561752901 -24.288878883255165 0 0 0 0 -202.61105100643181 32.995448518658577 0 32.995448518658577 120.47021726578032 0 0 0 0 53.093266581659918 -9.8491208038442437 0 -9.8491208038442437 -37.615909391469813 0 0 0 0 40.61079402620912 8.5961513604392614 0 8.5961513604392614 -3.6255879531728721 0 0 0 0 40.830975563224683 -12.470392572301989 0 -12.470392572301989 -32.963124935552514 0 0 0 0 38.861154233648449 33.780506505059293 0 33.780506505059293 -32.775200972968378 0 0 0 0 139.72279380588407 12.307721381932652 0 12.307721381932652 -96.153944021365874 0 0 0 0 51.422449318803977 -4.7768963491469414 0 -4.7768963491469414 -16.176732496358834 0 0 0 0 43.61323865352847 -16.733822496221705 0 -16.733822496221705 -51.908867339274366 0 0 0 0 58.258618932743047 70.50593073953587 0 70.50593073953587 22.290457793608766 0 0 0 0 41.344689666092123 2.0285144307581504 0 2.0285144307581504 -7.7875676600424413 0 0 0 0 -3.1944723442466056 -4.5198561700344726 0 -4.5198561700344726 13.711137691451313 0 0 0 0 4.5797717725981784 7.986924041349539 0 7.986924041349539 -33.046815720294944 0 0 0 0 19.876913851036079 33.395727785782583 0 33.395727785782583 6.9971841033387818 0 0 0 0 14.658301780398595 8.8301475588603822 0 8.8301475588603822 -19.769888771843675 0 0 0 0 8.2514755800511566 -0.29482699371228005 0 -0.29482699371228005 -9.3867114272937968 0 0 0 0 121.22165206445447 -52.320477326096807 0 -52.320477326096807 3.2593962623959669 0 0 0 0 41.372352512082344 1.0264575020883058 0 1.0264575020883058 -7.9487988175037572 0 0 0 0 31.43432477165004 9.8799528799381733 0 9.8799528799381733 -9.7503119091707049 0 0 0 0 38.3339765184584 -2.2923928948875982 0 -2.2923928948875982 -0.35971081405841687 0 0 0 0 52.605053663578019 8.3167746359595185 0 8.3167746359595185 -7.3325077675981447 0 0 0 0 9.3364060003390925 11.706029410763051 0 11.706029410763051 -5.0349080457210107 0 0 0 0 51.55564645126509 0.39762056937161105 0 0.39762056937161105 -10.854804737676204 0 0 0 0 0.92444458260362961 3.9146353367432383 0 3.9146353367432383 -1.3220459459216256 0 0 0 0 48.780163506463396 17.42135909509534 0 17.42135909509534 -20.666941557539758 0 0 0 0 31.438967900576245 15.336269116432959 0 15.336269116432959 -10.948740290965361 0 0 0 0 24.256539173633755 6.4714435368430614 0 6.4714435368430614 -13.956595967046788 0 0 0 0 31.981455983961574 13.332102269165594 0 13.332102269165594 -9.3826651126832061 0 0 0 0 51.779982390071382 11.605395654338281 0 11.605395654338281 -17.522809197408606 0 0 0 0 23.243833681105571 56.199948060999304 0 56.199948060999304 -76.795586043499043 0 0 0 0 24.795743940468846 2.6036691269766585 0 2.6036691269766585 -6.2105139326130789 0 0 0 0 9.1999448538063007 37.831344526078283 0 37.831344526078283 -1.0480658613560081 0 0 0 0 18.105029147362711 14.523398122733518 0 14.523398122733518 -14.322889592708563 0 0 0 0 0.97275702010397325 -1.6126924499816937 0 -1.6126924499816937 -2.229089976620104 0 0 0 0 67.796876083302323 72.002658889756276 0 72.002658889756276 53.676317425584784 0 0 0 0 4.341400689103466 3.5637088497933291 0 3.5637088497933291 -15.15837965798346 0 0 0 0 17.714201608149718 14.516567092850259 0 14.516567092850259 -14.790575458977798 0 0 0 0 21.726098805931542 -15.855414376384488 0 -15.855414376384488 -63.149272228667087 0 0 0 0 30.087852485377869 13.108847905885805 0 13.108847905885805 -12.024876796872455 0 0 0 0 53.396749152849281 12.089335773363928 0 12.089335773363928 -12.936427729102434 0 0 0 0 45.391510100929736 11.899660982223395 0 11.899660982223395 -23.871393578559946 0 0 0 0 33.937719246995982 6.0732332060629943 0 6.0732332060629943 -32.412573029362441 0 0 0 0 16.837557035488992 19.26487042527987 0 19.26487042527987 -7.8357592853123776 0 0 0 0 28.381473695873865 16.748041233739059 0 16.748041233739059 -14.570377950220063 0 0 0 0 32.85530174626183 9.9282384866710345 0 9.9282384866710345 -12.744244227797026 0 0 0 0 10.138293186524606 -21.995763816832323 0 -21.995763816832323 -31.708084071422149 0 0 0 0 8.3236127851878337 -10.970606099080157 0 -10.970606099080157 86.148010237773462 0 0 0 0 145.45946542695674 -35.835117691816777 0 -35.835117691816777 -124.5150683209875 0 0 0 0 131.78319458941405 59.9544911382755 0 59.9544911382755 -111.25789989036838 0 0 0 0 103.47448323774734 19.65136976112808 0 19.65136976112808 -168.40673871065064 0 0 0 0 33.810702990433995 6.395192318516969 0 6.395192318516969 -2.6591274197981658 0 0 0 0 29.276542553532636 0.26651458639935299 0 0.26651458639935299 -37.176383095898927 0 0 0 0 37.396288256732703 16.560192966345955 0 16.560192966345955 -4.3259514033432538 0 0 0 0 59.155914463113731 -24.487734345021636 0 -24.487734345021636 -155.30293010887181 0 0 0 0 64.997495839818072 9.0244919322027002 0 9.0244919322027002 -13.192073240315775 0 0 0 0 132.49294761524652 53.373352313539726 0 53.373352313539726 -136.57893168747614 0 0 0 0 45.050469941590563 -15.316495987545295 0 -15.316495987545295 -59.619620802002828 0 0 0 0 43.215700065236888 12.037098571114257 0 12.037098571114257 -16.908353414974044 0 0 0 0 6.4516860990697751 72.892402493345799 0 72.892402493345799 -48.124557719919721 0 0 0 0 36.849746018676747 12.825844450175138 0 12.825844450175138 0.22212101602198686 0 0 0 0 29.592963517905446 19.93412417255422 0 19.93412417255422 -21.279314572541807 0 0 0 0 105.0669598870445 78.788384989886254 0 78.788384989886254 -72.515530841589282 0 0 0 0 50.34323406538897 40.508805960050267 0 40.508805960050267 -81.763018469619055 0 0 0 0 -8.4958667933460674 53.464048548583378 0 53.464048548583378 -73.082184102237079 0 0 0 0 -48.950912051252089 66.127634004020365 0 66.127634004020365 -43.14480588501101 0 0 0 0 29.388421163799649 115.08795965351965 0 115.08795965351965 -22.219152301200666 0 0 0 0 85.864367877577024 160.69647766740491 0 160.69647766740491 11.941867628747787 0 0 0 0 1.3292842959776863 -155.844171764706 0 -155.844171764706 224.94900402870553 0 0 0 0 -59.065022132264858 98.100780258485429 0 98.100780258485429 -6.9117948294478992 0 0 0 0 0.91743512776274372 3.2950737731302002 0 3.2950737731302002 0.66751974673021808 0 0 0 0 76.422099304276344 2.4134946846206731 0 2.4134946846206731 -51.085365279166581 0 0 0 0 154.56286794507105 -84.976698119388629 0 -84.976698119388629 44.138492905240128 0 0 0 0 258.60336386362906 51.159195778822323 0 51.159195778822323 -81.668545445382733 0 0 0 0 133.51657272071134 52.469891764489375 0 52.469891764489375 -4.2731206683783967 0 0 0 0 62.061648843569856 43.412598161981123 0 43.412598161981123 136.36994639018326 0 0 0 0 49.491818042599334 -66.538054344521015 0 -66.538054344521015 34.755807012942569 0 0 0 0 74.984640300431238 -56.3280402251429 0 -56.3280402251429 -13.837318171731567 0 0 0 0 42.751929988006765 -7.1610572125124072 0 -7.1610572125124072 -10.499712075268828 0 0 0 0 28.128266530027759 -27.537335164796104 0 -27.537335164796104 -18.642235349350642 0 0 0 0 -62.343019377301061 218.95363302652993 0 218.95363302652993 -134.40641185939603 0 0 0 0 11.454116839813651 37.592322370071997 0 37.592322370071997 90.437968914333169 0 0 0 0 5.6625571324486828 -0.34325491193321334 0 -0.34325491193321334 -2.3674289121486232 0 0 0 0 41.347910267468251 56.745414887862125 0 56.745414887862125 -22.174788415319199 0 0 0 0 12.360504446182581 2.2377608648474663 0 2.2377608648474663 -4.0104867335194001 0 0 0 0 -75.730232672431157 55.224074350081537 0 55.224074350081537 -19.100911785388234 0 0 0 0 40.83261466116528 -17.720410110546254 0 -17.720410110546254 -57.733288119996359 0 0 0 0 143.16397931369283 87.362721471738041 0 87.362721471738041 -215.32215989901943 0 0 0 0 13.961113855137228 5.5246826988968678 0 5.5246826988968678 -10.64708495711875 0 0 0 0 13.822032829726083 3.9624944897980159 0 3.9624944897980159 -10.2289851885368 0 0 0 0 40.601270026709244 130.61976539927127 0 130.61976539927127 31.942266769761773 0 0 0 0 14.359440466525374 10.322843498437038 0 10.322843498437038 -11.450546885551205 0 0 0 0 54.724538588769065 18.76775017468799 0 18.76775017468799 -37.387916982610477 0 0 0 0 5.3419236136036616 27.31428750130911 0 27.31428750130911 -20.141929982843038 0 0 0 0 -23.899713085462281 -1.0416880497650709 0 -1.0416880497650709 -106.40903473283834 0 0 0 0 -0.77592022844539521 2.2394846644180326 0 2.2394846644180326 -1.0129329544188508 0 0 0 0 37.770598570576112 210.31721026707055 0 210.31721026707055 -73.671448239463643 0 0 0 0 171.10050015595698 36.954161327843394 0 36.954161327843394 15.75170817002072 0 0 0 0 93.023052193882904 -29.399408716801418 0 -29.399408716801418 -46.141409491473496 0 0 0 0 90.186543555461057 5.1432490958420303 0 5.1432490958420303 -4.8916234582996916 0 0 0 0 90.085051725218364 -8.3591748636681587 0 -8.3591748636681587 -88.482088038574602 0 0 0 0 304.48523380708684 -45.41326863839322 0 -45.41326863839322 -46.850883497639188 0 0 0 0 3.7705626859260519 -3.936505887744147 0 -3.936505887744147 -12.787548391997007 0 0 0 0 220.30521227781719 186.40468015416855 0 186.40468015416855 -185.52464183908523 0 0 0 0 3.9411443636524837 -0.14277797455493513 0 -0.14277797455493513 -0.77218935089448948 0 0 0 0 40.562121408529492 -82.34702849812561 0 -82.34702849812561 57.742818549747881 0 0 0 0 217.01588319576695 388.77020570247942 0 388.77020570247942 -75.878125488349724 0 0 0 0 87.325370957416453 222.38081211246219 0 222.38081211246219 113.19611314687972 0 0 0 0 62.377339212845072 -447.95526614008793 0 -447.95526614008793 99.374657920361187 0 0 0 0 413.53849740159058 59.070028373075047 0 59.070028373075047 -28.622707887448996 0 0 0 0 259.05639755596349 -237.35193415564117 0 -237.35193415564117 211.09079396549555 0 0 0 0 5.3802376353643524 2.6081609545669195 0 2.6081609545669195 1.586947467650254 0 0 0 0 -93.307497001984302 38.947324427253079 0 38.947324427253079 1.474612362408152 0 0 0 0 4.3163966823970839 3.5665888649232116 0 3.5665888649232116 -0.96018336256400971 0 0 0 0 -102.30233164287347 74.291994369221129 0 74.291994369221129 121.11906806099114 0 0 0 0 50.785846056100127 158.8800900068818 0 158.8800900068818 126.13110725655042 0 0 0 0 3.6649668500270991 -2.2069638452679321 0 -2.2069638452679321 0.56712815523885673 0 0 0 0 9.7151116129243746 -22.233583464592357 0 -22.233583464592357 -28.043882787401344 0 0 0 0 31.491866109907278 -0.43704213500859623 0 -0.43704213500859623 -24.209896022818157 0 0 0 0 -1.9528993225685554 3.2902262360726127 0 3.2902262360726127 -15.569886262794171 0 0 0 0 14.463533576339042 3.9403973720104282 0 3.9403973720104282 -9.2650769568454052 0 0 0 0 27.406667618000938 -10.127414185768885 0 -10.127414185768885 -11.409256406441273 0 0 0 0 14.443775342879235 -16.642938897953172 0 -16.642938897953172 -0.64228165973145224 0 0 0 0 32.627762886488256 -7.208490966084625 0 -7.208490966084625 -13.583426748951583 0 0 0 0 77.12731604210785 5.6828044463456422 0 5.6828044463456422 -30.164601474309421 0 0 0 0 68.005595503521363 40.905483873031756 0 40.905483873031756 10.707678625653898 0 0 0 0 61.808616009591788 32.964147218677681 0 32.964147218677681 2.3040943782389149 0 0 0 0 70.266179335027118 27.588055545243606 0 27.588055545243606 -5.4472091643669955 0 0 0 0 76.492267405734765 44.66492595696711 0 44.66492595696711 10.555047124384771 0 0 0 0 62.625760140872444 25.68883283912669 0 25.68883283912669 16.899836145993277 0 0 0 0 126.89570644285413 54.170851045376821 0 54.170851045376821 8.4342978566476177 0 0 0 0 79.655418948080296 24.384885363165466 0 24.384885363165466 -10.345295604520061 0 0 0 0 38.008912177516322 6.57757585156196 0 6.57757585156196 -26.290890630173635 0 0 0 0 41.883394126536587 0.91829418379802519 0 0.91829418379802519 -20.627236722797534 0 0 0 0 27.016485641877807 2.5197822677523618 0 2.5197822677523618 -19.346260555073059 0 0 0 0 32.886769302607362 -0.63161499869290338 0 -0.63161499869290338 -16.796062135075609 0 0 0 0 61.833411987709724 45.461477807251264 0 45.461477807251264 70.336077121158041 0 0 0 0 14.318408355292746 -5.5284030446754002 0 -5.5284030446754002 -10.38489997567806 0 0 0 0 76.324333314725664 46.079676064095452 0 46.079676064095452 17.896490282791525 0 0 0 0 123.67443695050315 24.612930572220648 0 24.612930572220648 -23.888047562409511 0 0 0 0 20.84073552792961 -3.6480788181973978 0 -3.6480788181973978 -0.92867623491324147 0 0 0 0 33.433389657760614 4.9106348533172408 0 4.9106348533172408 -5.1990629747876262 0 0 0 0 81.090109557651886 28.810198410545127 0 28.810198410545127 4.8104135737157776 0 0 0 0 69.475323588638275 -3.2959806536366614 0 -3.2959806536366614 -23.329187920701315 0 0 0 0 44.190675240533892 -2.4182538797431334 0 -2.4182538797431334 -22.00229146150582 0 0 0 0 8.8583088185405359 -3.362288547836215 0 -3.362288547836215 13.369981335146349 0 0 0 0 36.869206699740445 -11.816109829556638 0 -11.816109829556638 -1.6150206992133889 0 0 0 0 8.1044363315450028 8.4933059865907126 0 8.4933059865907126 -8.190827638585688 0 0 0 0 10.81912291121489 13.996858910828429 0 13.996858910828429 0.43795923358246469 0 0 0 0 44.271877694915645 20.707477860602964 0 20.707477860602964 -19.921910457385103 0 0 0 0 30.550644415430725 10.516588802533079 0 10.516588802533079 -1.2552302307376522 0 0 0 0 12.183556196442261 -1.7691453027652102 0 -1.7691453027652102 0.0013310192029685197 0 0 0 0 76.508524828866939 23.01066430193373 0 23.01066430193373 5.0521415231773972 0 0 0 0 76.007014865856036 24.85982366880512 0 24.85982366880512 -1.7628833287115242 0 0 0 0 58.116496136707099 -12.698618035937464 0 -12.698618035937464 -18.284769289818247 0 0 0 0 95.700809670039234 40.173876071849008 0 40.173876071849008 15.475968053934594 0 0 0 0 133.18359240909922 -23.574695951001445 0 -23.574695951001445 -29.430255529959595 0 0 0 0 57.15244384676771 19.208894851014975 0 19.208894851014975 52.934165248517388 0 0 0 0 62.262707207187304 -1.2607975355339818 0 -1.2607975355339818 1.5234148967915644 0 0 0 0 16.286426696249322 -16.920756592687646 0 -16.920756592687646 -8.8219328208054737 0 0 0 0 30.863601971865137 -12.101273709022109 0 -12.101273709022109 33.66681227065169 0 0 0 0 161.92476695324513 -140.03374851424246 0 -140.03374851424246 116.85159051528581 0 0 0 0 106.79076229820203 -18.050464501653209 0 -18.050464501653209 30.724850216821721 0 0 0 0 63.00670114544846 25.63650859171284 0 25.63650859171284 -10.206398945550745 0 0 0 0 61.868281788814784 23.003972277303092 0 23.003972277303092 -4.2362525149919747 0 0 0 0 53.072389692191791 -14.171695743566715 0 -14.171695743566715 -14.498941848798438 0 0 0 0 15.438900676577958 -14.178458039181102 0 -14.178458039181102 -14.656307917979579 0 0 0 0 107.50061697214915 149.52385562129075 0 149.52385562129075 5.9047629350284296 0 0 0 0 97.641636819282212 72.818847139664271 0 72.818847139664271 -45.090829375433941 0 0 0 0 249.17874274963833 222.44864230840983 0 222.44864230840983 -0.94967296669301504 0 0 0 0 110.07973283077445 189.59312141962482 0 189.59312141962482 -45.352286379192265 0 0 0 0 135.43189018515113 249.67096817683233 0 249.67096817683233 -101.39503577377324 0 0 0 0 235.47942494785093 204.49145625253888 0 204.49145625253888 -88.099660179764541 0 0 0 0 325.39798650303237 21.724887522254036 0 21.724887522254036 -53.772098480893419 0 0 0 0 411.44909997580999 -210.72125437506091 0 -210.72125437506091 102.31523797601434 0 0 0 0 -104.01459037574386 278.73139205903624 0 278.73139205903624 -94.898637968977098 0 0 0 0 0.29644234215473375 1.8133487171246543 0 1.8133487171246543 2.322651631285725 0 0 0 0 519.395770984931 52.493742440987994 0 52.493742440987994 3.1244182315169269 0 0 0 0 251.29778498964151 28.438428234289887 0 28.438428234289887 37.672028436148132 0 0 0 0 370.16506849865254 -3.6749593956702 0 -3.6749593956702 44.296155784556284 0 0 0 0 19.793735358868041 -6.6250071143902289 0 -6.6250071143902289 -21.625727218261833 0 0 0 0 164.12503109562022 81.597090717968115 0 81.597090717968115 165.80513194101661 0 0 0 0 167.98113083145472 66.524166289288701 0 66.524166289288701 102.24287525059518 0 0 0 0 188.53568618286954 101.51794540514673 0 101.51794540514673 29.991855253515752 0 0 0 0 207.1386073179965 79.582425473512231 0 79.582425473512231 36.739172119892714 0 0 0 0 200.2182589021395 71.723987102133378 0 71.723987102133378 59.596340620905664 0 0 0 0 299.09241975819168 122.30026108082691 0 122.30026108082691 85.267146771013472 0 0 0 0 295.64932465204038 224.92537324948819 0 224.92537324948819 208.08472120339638 0 0 0 0 58.80007406637742 10.147499826040075 0 10.147499826040075 -14.239857630366487 0 0 0 0 61.549365979115464 30.769022253931411 0 30.769022253931411 20.037505126714677 0 0 0 0 51.460258553212043 22.273326772508426 0 22.273326772508426 14.040809762163462 0 0 0 0 53.151493142459003 -9.1122152677342001 0 -9.1122152677342001 -48.878577504375244 0 0 0 0 69.063137474231553 -47.961533442704763 0 -47.961533442704763 -28.017209216266565 0 0 0 0 46.792298895037675 -9.98171810252461 0 -9.98171810252461 49.690731222261093 0 0 0 0 37.339639185545821 3.1806237043824694 0 3.1806237043824694 -6.7999358914325967 0 0 0 0 154.77175569855535 75.068306477327042 0 75.068306477327042 -60.48881514575794 0 0 0 0 147.96349840816401 92.627895058503384 0 92.627895058503384 13.111010182227801 0 0 0 0 158.84577955139684 109.92818140502379 0 109.92818140502379 25.925604356184706 0 0 0 0 76.892275887865253 55.395127859236709 0 55.395127859236709 -26.249951717275053 0 0 0 0 63.104428960381675 10.785323911520015 0 10.785323911520015 -14.90208015112586 0 0 0 0 63.324699986755149 -38.101567978897947 0 -38.101567978897947 -63.585702093640521 0 0 0 0 42.501279630821955 -15.070466320106789 0 -15.070466320106789 -50.943841888232782 0 0 0 0 84.334881035932995 93.342307393716283 0 93.342307393716283 75.732246978287094 0 0 0 0 32.675727064002785 -106.60834657028499 0 -106.60834657028499 -166.63151262378324 0 0 0 0 135.66759411196108 84.331230029604455 0 84.331230029604455 -62.376886021131995 0 0 0 0 111.29360078153017 5.1798369379555247 0 5.1798369379555247 -16.893905835830267 0 0 0 0 0.16709615110671905 21.086392140093217 0 21.086392140093217 -1.0670493178386031 0 0 0 0 81.71874094636587 19.165318906959527 0 19.165318906959527 -67.211009967115217 0 0 0 0 134.83659613535565 -56.296790235381849 0 -56.296790235381849 -166.34602619710682 0 0 0 0 143.50263968402442 -244.12073508573712 0 -244.12073508573712 -502.90988948000904 0 0 0 0 7.8968086229600551 -3.3839290291839008 0 -3.3839290291839008 0.98899445201369218 0 0 0 0 -958.05028786579715 378.19171607176941 0 378.19171607176941 -79.298675834063033 0 0 0 0 655.68793704868676 538.33450797402293 0 538.33450797402293 215.92422210036602 0 0 0 0 212.57731599439285 -34.328686002216728 0 -34.328686002216728 -266.37184437132385 0 0 0 0 114.81725502636016 7.8379852685716482 0 7.8379852685716482 -9.0078799720577543 0 0 0 0 167.07065120288462 53.884273277007765 0 53.884273277007765 -205.40395871429124 0 0 0 0 202.67087697594616 -32.500683453714366 0 -32.500683453714366 -127.8626374619322 0 0 0 0 168.27200165540489 -153.1507753449641 0 -153.1507753449641 147.91786515583328 0 0 0 0 167.88584869462647 24.767366946129101 0 24.767366946129101 -72.074062722332826 0 0 0 0 16.04038707302243 4.7560532862946303 0 4.7560532862946303 -73.14590910278946 0 0 0 0 201.78244170414109 -83.643775214325899 0 -83.643775214325899 -40.815865224122888 0 0 0 0 326.64117761387024 -11.736769111837219 0 -11.736769111837219 -17.379244307220318 0 0 0 0 225.71379593736492 -39.081992219118419 0 -39.081992219118419 -23.121160242072918 0 0 0 0 268.19096345655271 18.458798208164836 0 18.458798208164836 1.4484429570466943 0 0 0 0 221.63363875078176 55.14975679643107 0 55.14975679643107 -17.808857936687389 0 0 0 0 185.17529710501549 58.525318895536941 0 58.525318895536941 -5.9722931648881854 0 0 0 0 211.11714818861219 70.347780589710112 0 70.347780589710112 -1.9959394252330185 0 0 0 0 238.36518709639495 99.950680812835827 0 99.950680812835827 30.025793019008702 0 0 0 0 171.62542520690477 110.47616060533841 0 110.47616060533841 25.293019757039474 0 0 0 0 201.13258906989358 97.256271246648112 0 97.256271246648112 21.626358501894913 0 0 0 0 187.28333575782017 90.364239626772587 0 90.364239626772587 39.00157016383654 0 0 0 0 191.72119439017843 84.877330536465706 0 84.877330536465706 8.6496437608586234 0 0 0 0 194.37473151365703 94.281644370135709 0 94.281644370135709 21.295209887695592 0 0 0 0 178.07211952802027 100.43808736009146 0 100.43808736009146 19.698193450024945 0 0 0 0 177.94413784064818 94.937964327747807 0 94.937964327747807 2.2175428372821386 0 0 0 0 170.24533099213295 91.26529368370521 0 91.26529368370521 9.4486407095597542 0 0 0 0 168.0669073253157 88.072445935244772 0 88.072445935244772 8.5963590015584259 0 0 0 0 181.67862919019535 53.818859565799073 0 53.818859565799073 -80.179092053589898 0 0 0 0 142.26178372577124 64.74024851851965 0 64.74024851851965 -13.16225778721153 0 0 0 0 179.4939109494735 75.859730833129703 0 75.859730833129703 -23.436483507759135 0 0 0 0 201.3627511344821 12.109646522085768 0 12.109646522085768 -77.880864807556407 0 0 0 0 194.47503767512444 31.65778593364654 0 31.65778593364654 -94.605657208385878 0 0 0 0 -83.089593227040496 160.8074544402036 0 160.8074544402036 -66.518151456460998 0 0 0 0 -87.600828769700456 234.76111898489 0 234.76111898489 -202.51013976635514 0 0 0 0 -70.944434917837498 194.79209109205195 0 194.79209109205195 -219.56854079854793 0 0 0 0 111.43436786151142 -112.57516220166457 0 -112.57516220166457 -99.705085425048068 0 0 0 0 23.238385506369738 -2.8838985021217418 0 -2.8838985021217418 -4.9345042034484363 0 0 0 0 71.816140068433015 -49.731092527462508 0 -49.731092527462508 90.217354603373408 0 0 0 0 122.28833115731686 -41.510160979498025 0 -41.510160979498025 -21.430300732555168 0 0 0 0 52.858366371310694 -110.92572974900254 0 -110.92572974900254 -44.3546253935273 0 0 0 0 123.71023948755465 -75.22169779341111 0 -75.22169779341111 -85.092967218003707 0 0 0 0 694.38312662250792 -208.63182618530846 0 -208.63182618530846 -60.555597124630367 0 0 0 0 111.31543163401443 14.158534967105044 0 14.158534967105044 -4.9444381606705843 0 0 0 0 1719.0145911627696 -70.684850490819372 0 -70.684850490819372 -366.45611346069927 0 0 0 0 36.917487394349337 -185.31852893427822 0 -185.31852893427822 -33.641109337397211 0 0 0 0 1046.5378701627506 343.42330702203617 0 343.42330702203617 -77.738625878868334 0 0 0 0 859.1834197668868 319.76648783878045 0 319.76648783878045 53.353531694934645 0 0 0 0 1110.5424467398584 28.303410451906529 0 28.303410451906529 -129.7190810021566 0 0 0 0 525.53468895289279 38.267782190470825 0 38.267782190470825 -24.628996186769655 0 0 0 0 97.031904432431475 -170.20226323559109 0 -170.20226323559109 69.564934668094793 0 0 0 0 612.63088954483192 -79.087729112773559 0 -79.087729112773559 33.106402988731134 0 0 0 0 37.998454156750086 -94.791677226128741 0 -94.791677226128741 140.48336761808969 0 0 0 0 -124.89211245211118 33.620887907116412 0 33.620887907116412 168.14340164106852 0 0 0 0 48.12404522568545 -40.455114966754536 0 -40.455114966754536 113.90168661719144 0 0 0 0 -201.46769030575888 -126.63040323045425 0 -126.63040323045425 116.31429427714829 0 0 0 0 -474.0289696069849 103.08156773843803 0 103.08156773843803 1.6070487564647919 0 0 0 0 -223.1362480402708 221.36988996895752 0 221.36988996895752 -114.89156422915403 0 0 0 0 -568.24794863337502 478.01715104630921 0 478.01715104630921 -244.98721984920121 0 0 0 0 92.711543199500184 56.28005781159429 0 56.28005781159429 20.245367932023264 0 0 0 0 -55.834078853350334 113.15510323816034 0 113.15510323816034 82.840088801698585 0 0 0 0 -151.98269214795025 96.892451057745347 0 96.892451057745347 89.817514430407755 0 0 0 0 -104.98263867912962 187.15639008355902 0 187.15639008355902 48.513586834196758 0 0 0 0 75.93865719980198 50.58282039450652 0 50.58282039450652 26.970712340736497 0 0 0 0 2.1769678020536958 211.79651611559802 0 211.79651611559802 -179.15958470576939 0 0 0 0 -12.178972968575181 198.56051806292851 0 198.56051806292851 -53.130043428465967 0 0 0 0 94.580107677084015 127.70175993260798 0 127.70175993260798 -157.73257107847033 0 0 0 0 78.750940829699175 199.7281738881324 0 199.7281738881324 130.28615874973352 0 0 0 0 54.471723307906359 123.87978230093046 0 123.87978230093046 -93.320099800050258 0 0 0 0 -3.9846762961897184 118.78864593535741 0 118.78864593535741 -133.39768628802381 0 0 0 0 18.03835085490573 18.929978052420154 0 18.929978052420154 22.586548563246076 0 0 0 0 -15.908826458111434 136.58793985924916 0 136.58793985924916 43.403417147198539 0 0 0 0 -33.962225438248424 41.197896517059945 0 41.197896517059945 52.463153469660995 0 0 0 0 47.229452924122597 -4.574859598285407 0 -4.574859598285407 142.87755416753123 0 0 0 0 24.412157464719712 40.089517384773117 0 40.089517384773117 77.234206460934388 0 0 0 0 -11.867387892121769 -7.0881114794295854 0 -7.0881114794295854 137.7930752038917 0 0 0 0 13.843034325938788 -17.948948988908512 0 -17.948948988908512 51.012880199833397 0 0 0 0 -25.839230877842056 37.372322992546458 0 37.372322992546458 46.308265430646031 0 0 0 0 -64.373747056924913 19.335066568675074 0 19.335066568675074 37.875766722802325 0 0 0 0 -44.411226262622222 80.293128616778546 0 80.293128616778546 -214.78279097216634 0 0 0 0 -13.655929394553823 45.7571105740126 0 45.7571105740126 -43.714372869958908 0 0 0 0 -72.954693255076563 100.91313127298217 0 100.91313127298217 -14.903182611963402 0 0 0 0 -173.33300486432199 76.801480002417165 0 76.801480002417165 -47.887004873781564 0 0 0 0 -55.609323990338453 126.86954832982366 0 126.86954832982366 -10.099620891387758 0 0 0 0 1.6147631194980931 104.4977367858919 0 104.4977367858919 -47.673383796782758 0 0 0 0 151.36061765689374 101.19508974460905 0 101.19508974460905 -6.9147328582988052 0 0 0 0 11.589523500297219 52.691853807404073 0 52.691853807404073 19.071443579730612 0 0 0 0 273.85024734960462 -25.985497825035736 0 -25.985497825035736 39.051222742778464 0 0 0 0 45.452788965354557 -18.204723346687373 0 -18.204723346687373 74.92974337559906 0 0 0 0 5.0490789745545044 -0.76745143828330242 0 -0.76745143828330242 95.069626404516043 0 0 0 0 9.6609726138340193 45.430609054142082 0 45.430609054142082 25.131100936626581 0 0 0 0 2.7000756703041304 -0.13006830628411548 0 -0.13006830628411548 0.11004376589366571 0 0 0 0 52.615621296359677 -59.284830725737095 0 -59.284830725737095 142.160898056934 0 0 0 0 69.744877436132811 116.24674097997126 0 116.24674097997126 165.42856350684156 0 0 0 0 121.19048088980708 57.566186619526206 0 57.566186619526206 -24.718397896875103 0 0 0 0 169.40260045744844 111.98884213095783 0 111.98884213095783 36.689637440465049 0 0 0 0 8.0609138533327496 42.694139425479307 0 42.694139425479307 77.918858644462489 0 0 0 0 -35.392338535290037 56.897718246349555 0 56.897718246349555 48.286628919772852 0 0 0 0 35.40660305677271 35.163443801262019 0 35.163443801262019 16.880971609843471 0 0 0 0 59.618810887410291 7.4621143295260026 0 7.4621143295260026 19.382222027812531 0 0 0 0 100.057031171571 38.974717777932256 0 38.974717777932256 -23.160540021418711 0 0 0 0 25.466608609594687 -14.611961415704883 0 -14.611961415704883 -3.7227408223746536 0 0 0 0 -11.075840229350433 10.90422913697947 0 10.90422913697947 221.8318019962621 0 0 0 0 -25.620210812687219 53.070690343838933 0 53.070690343838933 110.2891595722084 0 0 0 0 -13.879935696415487 33.889710631472923 0 33.889710631472923 -17.021474159495568 0 0 0 0 18.284507608012063 131.39536906394085 0 131.39536906394085 38.044844221629234 0 0 0 0 38.174999049203009 28.160317263585235 0 28.160317263585235 7.1406603332167986 0 0 0 0 85.412906111982011 199.97918403527888 0 199.97918403527888 -10.952505256440674 0 0 0 0 59.349191923731269 79.887641319536002 0 79.887641319536002 -200.49808107301601 0 0 0 0 69.733940456395572 3.0260406415673775 0 3.0260406415673775 -1.1450238951507223 0 0 0 0 7.7826592681901445 6.4928769274930733 0 6.4928769274930733 1.5551883731014966 0 0 0 0 61.813610683617298 -63.36868067356653 0 -63.36868067356653 107.37231846772818 0 0 0 0 9.1772117906330095 -4.214457007618762 0 -4.214457007618762 68.933921656840766 0 0 0 0 40.812126168211762 -55.102412629283151 0 -55.102412629283151 -44.408745603071338 0 0 0 0 8.8816274257103203 -2.2413113472509494 0 -2.2413113472509494 -0.22944729965291932 0 0 0 0 25.711970922988257 -118.02064321177218 0 -118.02064321177218 235.54792478106077 0 0 0 0 220.71241632010288 -125.94472256042367 0 -125.94472256042367 224.42640761191569 0 0 0 0 237.86013390987864 55.477043403698246 0 55.477043403698246 -203.13094306332223 0 0 0 0 59.16766267398387 -1.2261833397799209 0 -1.2261833397799209 -0.18684268951454575 0 0 0 0 486.24025013436403 -5.1105912990045681 0 -5.1105912990045681 -425.02635286916461 0 0 0 0 41.971075802081032 27.175689031052642 0 27.175689031052642 254.7796548980387 0 0 0 0 974.76717908756109 118.96372255359239 0 118.96372255359239 0.39122046541820055 0 0 0 0 594.92739548973623 -104.27860057293279 0 -104.27860057293279 148.68893787769341 0 0 0 0 50.484493857809866 12.573005343531122 0 12.573005343531122 296.98601051488953 0 0 0 0 54.110492870582675 -25.710249044606655 0 -25.710249044606655 112.89770030300411 0 0 0 0 2064.1188494745584 -843.01126907558637 0 -843.01126907558637 -396.88442959296975 0 0 0 0 2798.320710732005 -852.74280884730604 0 -852.74280884730604 -441.88860399246096 0 0 0 0 1088.8805836280662 -425.26976218221898 0 -425.26976218221898 59.939429410994308 0 0 0 0 79.781291237100959 -357.74202575138656 0 -357.74202575138656 591.47850495127898 0 0 0 0 2065.2877501037874 -788.7277142981842 0 -788.7277142981842 113.73934370516514 0 0 0 0 3493.424636938038 -1503.6268385792507 0 -1503.6268385792507 -191.59954142485276 0 0 0 0 1618.3722436057869 1573.9044875184391 0 1573.9044875184391 1134.3785322943238 0 0 0 0 25.968932767155536 -0.54440474820966367 0 -0.54440474820966367 2.1942320912812701 0 0 0 0 1545.3290658938713 -1805.1422307987948 0 -1805.1422307987948 1325.1437559345406 0 0 0 0 471.31274418196699 1047.0230717963138 0 1047.0230717963138 1062.0145713327834 0 0 0 0 2041.6683176589577 618.83642750728859 0 618.83642750728859 -174.67983584577379 0 0 0 0 3491.7541159525063 1386.5805894468288 0 1386.5805894468288 74.539463224169253 0 0 0 0 1894.4886396489492 599.38529628094636 0 599.38529628094636 -171.81545116463852 0 0 0 0 3502.9082806874344 -83.382530302890046 0 -83.382530302890046 -537.68743802798667 0 0 0 0 1516.6189926651568 -359.26435560831652 0 -359.26435560831652 -500.81435923143516 0 0 0 0 1381.8309682547078 87.200774179064098 0 87.200774179064098 -7.5302095980006811 0 0 0 0 1230.8505353999899 -40.791427422173712 0 -40.791427422173712 42.637433040748988 0 0 0 0 660.55812758555476 408.06836186052203 0 408.06836186052203 392.34535513146045 0 0 0 0 132.78931216972705 80.499991798357385 0 80.499991798357385 168.57421673939101 0 0 0 0 236.36665404529413 -58.384527896663243 0 -58.384527896663243 264.73997285614115 0 0 0 0 290.81773622122637 301.25097822618756 0 301.25097822618756 233.31705898056771 0 0 0 0 582.36970803075656 -232.84961244743459 0 -232.84961244743459 203.31231719395601 0 0 0 0 190.92490469686527 126.90733827491957 0 126.90733827491957 -68.321274302087687 0 0 0 0 106.77595476011084 165.28777630835535 0 165.28777630835535 -58.274041388874252 0 0 0 0 193.40339814622257 -199.46024037461532 0 -199.46024037461532 -668.87721221014147 0 0 0 0 253.67814351333072 159.96588117937554 0 159.96588117937554 -215.9073854168646 0 0 0 0 275.86506982563151 269.02439365156977 0 269.02439365156977 -144.92114017605505 0 0 0 0 311.05177448552058 -1334.5039109413324 0 -1334.5039109413324 124.23222081342766 0 0 0 0 20.60857268079458 -2.9048948902403886 0 -2.9048948902403886 0.38449518192082877 0 0 0 0 3490.0443230209221 -1114.3997664692756 0 -1114.3997664692756 -424.41697878602696 0 0 0 0 3500.5561245530262 -868.09616979586269 0 -868.09616979586269 340.59340335368915 0 0 0 0 3458.5118188361012 -870.9808222213984 0 -870.9808222213984 474.82597931709557 0 0 0 0 3505.8864817364738 -776.01161836545964 0 -776.01161836545964 -189.22038547131353 0 0 0 0 659.94974580354028 357.20590207192765 0 357.20590207192765 9.9060165105644273 0 0 0 0 2929.8819065494463 -1399.2077114223607 0 -1399.2077114223607 323.61071443871015 0 0 0 0 -163.90561268039164 -495.72587020297578 0 -495.72587020297578 392.29426666093082 0 0 0 0 398.01240579411387 115.85901746162574 0 115.85901746162574 -197.39071459329944 0 0 0 0 9.1386288989916977 -6.6174657987728125 0 -6.6174657987728125 5.5353916883520702 0 0 0 0 4223.5385016100226 158.41946562057313 0 158.41946562057313 -349.06435052205205 0 0 0 0 1391.3329826963163 154.14559193587453 0 154.14559193587453 -116.57338786689515 0 0 0 0 47.524574575683801 -161.30410881556963 0 -161.30410881556963 -252.26566829242074 0 0 0 0 16.799025135626067 -15.923729067834628 0 -15.923729067834628 13.343164410034122 0 0 0 0 299.0043594132585 111.03659601843073 0 111.03659601843073 163.41971615293338 0 0 0 0 754.40006112182164 -478.85781293168844 0 -478.85781293168844 47.754841913576996 0 0 0 0 1579.4713023170625 -601.16369017770091 0 -601.16369017770091 19.116257348440513 0 0 0 0 3085.4113539516911 -952.75644758633302 0 -952.75644758633302 -143.7828282010901 0 0 0 0 3143.6257379953895 -849.2051127197243 0 -849.2051127197243 29.121905213201785 0 0 0 0 4014.2512599904585 -855.21128106551737 0 -855.21128106551737 -286.39358231651011 0 0 0 0 3490.0861775738304 -1253.2789392346103 0 -1253.2789392346103 15.135557227305425 0 0 0 0 3500.339872339966 -536.8374674794444 0 -536.8374674794444 1232.1243365868722 0 0 0 0 3418.7829128396115 -1724.1724637758396 0 -1724.1724637758396 239.8278175062602 0 0 0 0 1604.168436734828 1094.5724996470794 0 1094.5724996470794 463.21027361854908 0 0 0 0 25.556351770756862 -1.1419305011191963 0 -1.1419305011191963 1.2520049681306804 0 0 0 0 3500.9871313599851 -380.64204783964783 0 -380.64204783964783 -593.38976066163264 0 0 0 0 3709.9537689142817 -1071.7689548719482 0 -1071.7689548719482 434.76367090703394 0 0 0 0 1565.1626617768197 -101.71230999784774 0 -101.71230999784774 -44.294862852677056 0 0 0 0 3732.3977775898729 541.94736590563286 0 541.94736590563286 -439.7781862113369 0 0 0 0 2499.3332653381804 128.27627763437309 0 128.27627763437309 -353.12644107117535 0 0 0 0 -22.479172802195535 82.801836321677627 0 82.801836321677627 151.76887159218973 0 0 0 0 504.1076095550161 204.34598665799075 0 204.34598665799075 165.74348984952985 0 0 0 0 1431.2359420133062 511.88195930580201 0 511.88195930580201 208.29632649182778 0 0 0 0 -90.447008495037153 -239.19599461218934 0 -239.19599461218934 247.92373467963949 0 0 0 0 -1.9588788828297652 -0.27188372319118059 0 -0.27188372319118059 -0.19893550849128849 0 0 0 0 141.10598092809232 -70.40161575960056 0 -70.40161575960056 -54.704833770094751 0 0 0 0 59.925712083706458 18.009232945932354 0 18.009232945932354 -57.756811636800762 0 0 0 0 60.356784783997085 1.8493024559888118 0 1.8493024559888118 -1.5701806105892804 0 0 0 0 353.82082501146942 152.9208400389457 0 152.9208400389457 -285.72343664123196 0 0 0 0 5.3136133080557642 -8.7509974763522678 0 -8.7509974763522678 -3.8034221190102535 0 0 0 0 -71.521630493640259 -165.89048821814953 0 -165.89048821814953 -111.97626459486742 0 0 0 0 1359.7792539774382 -1683.7910556222955 0 -1683.7910556222955 1557.0446589766516 0 0 0 0 1412.5087777702647 -705.81280504636004 0 -705.81280504636004 375.55748099596883 0 0 0 0 -110.97808825405446 142.2399856541663 0 142.2399856541663 514.36586842421707 0 0 0 0 -133.70887896418571 80.890918079114954 0 80.890918079114954 226.87713611114708 0 0 0 0 -112.52905896288576 -138.72513601021856 0 -138.72513601021856 210.37772365345299 0 0 0 0 -114.72758471606357 -115.46154135709321 0 -115.46154135709321 41.543241397436603 0 0 0 0 -137.90990588252316 113.38241813742366 0 113.38241813742366 -11.675236326908305 0 0 0 0 48.601953113560739 -6.7991922220688821 0 -6.7991922220688821 -6.4505031880203205 0 0 0 0 38.883322423820346 -1.9402060171422875 0 -1.9402060171422875 2.9568064296574748 0 0 0 0 9.5694411415529146 1.2461351191891481 0 1.2461351191891481 0.69589261403156044 0 0 0 0 43.110579763902933 17.192106509007772 0 17.192106509007772 68.903562795394464 0 0 0 0 186.74936793054076 48.920763497729695 0 48.920763497729695 -54.725589348950962 0 0 0 0 194.1212013039476 -22.019518417328072 0 -22.019518417328072 -96.420076069065544 0 0 0 0 -29.062176363659091 -30.830524410316684 0 -30.830524410316684 139.848029372356 0 0 0 0 155.70282541943016 76.973566317803488 0 76.973566317803488 194.49916140238383 0 0 0 0 28.095379415617828 3.1007857844804221 0 3.1007857844804221 -6.7677042433263495 0 0 0 0 146.96603957316256 -84.639593010913813 0 -84.639593010913813 -70.53301638976518 0 0 0 0 -1.1153814465214964 -116.15202617740306 0 -116.15202617740306 -63.334842595089867 0 0 0 0 39.342042018075006 -4.201263454287627 0 -4.201263454287627 7.2826429990736603 0 0 0 0 25.095758981992731 6.0743685455766041 0 6.0743685455766041 -6.5357924493279604 0 0 0 0 34.19307181364303 -9.3920368352796828 0 -9.3920368352796828 1.7696994004239617 0 0 0 0 79.082729599045706 6.6596134524902482 0 6.6596134524902482 -36.953940817915282 0 0 0 0 96.688422723877011 -18.712223019254452 0 -18.712223019254452 -53.127675277342405 0 0 0 0 74.218308399809757 29.328801756155599 0 29.328801756155599 57.805080466434447 0 0 0 0 39.689315117015212 -9.0434185406293182 0 -9.0434185406293182 -6.7207021934464137 0 0 0 0 58.820963417892926 -23.580208695584645 0 -23.580208695584645 -1.287212962600961 0 0 0 0 22.544793879482313 -16.264985878354537 0 -16.264985878354537 -12.042913159901218 0 0 0 0 40.768501669562482 -11.271974801727005 0 -11.271974801727005 7.0846863161257527 0 0 0 0 133.04619017842924 -133.50536605920479 0 -133.50536605920479 33.857081633401322 0 0 0 0 8.8762031645363777 -7.7762819284713771 0 -7.7762819284713771 -2.55332590485843 0 0 0 0 90.681969422206748 58.066275117589612 0 58.066275117589612 -21.233789983032693 0 0 0 0 23.053792213613633 -16.798922141791991 0 -16.798922141791991 -11.762930874761878 0 0 0 0 35.606003887242821 -18.708363813784711 0 -18.708363813784711 10.398317889000889 0 0 0 0 15.522040195831153 -0.27660734657308694 0 -0.27660734657308694 -10.111104472591986 0 0 0 0 11.502081832615659 -11.696427972559377 0 -11.696427972559377 -16.950175822698839 0 0 0 0 55.178089075314347 77.487346854905809 0 77.487346854905809 -40.98745571783229 0 0 0 0 35.723050114377713 -28.67934390276687 0 -28.67934390276687 15.988809020941355 0 0 0 0 27.291955805063481 -15.847023532550224 0 -15.847023532550224 79.743402452311329 0 0 0 0 151.30619085989019 -60.986818539008425 0 -60.986818539008425 16.302778009609483 0 0 0 0 59.264665755370515 -36.443176777997792 0 -36.443176777997792 10.280065602144305 0 0 0 0 98.733628286834573 -4.1880476753647145 0 -4.1880476753647145 3.5293843616125287 0 0 0 0 62.395761129795574 -42.54691219930487 0 -42.54691219930487 21.244525668906249 0 0 0 0 38.761797274384321 -6.6398329439646426 0 -6.6398329439646426 -1.3294694884062301 0 0 0 0 46.623586180916391 -31.901826970621244 0 -31.901826970621244 5.7370527849045629 0 0 0 0 55.399720176748815 -39.603146148557585 0 -39.603146148557585 8.4711527475034245 0 0 0 0 83.630827062705066 -102.22071027911915 0 -102.22071027911915 57.513597735650023 0 0 0 0 60.109133527483209 -48.072402952652965 0 -48.072402952652965 -12.700726608968012 0 0 0 0 55.962095240989584 -36.827533599177059 0 -36.827533599177059 10.284409951675968 0 0 0 0 42.8259186543346 -3.4212598234235543 0 -3.4212598234235543 7.6606464004223653 0 0 0 0 58.494605327156023 -54.79592950971626 0 -54.79592950971626 31.893815320231624 0 0 0 0 32.216113988770303 -42.690333434896424 0 -42.690333434896424 57.525405258126455 0 0 0 0 15.533441015744756 -30.811308061298206 0 -30.811308061298206 49.51147813499783 0 0 0 0 32.341297270177165 -35.604856073445603 0 -35.604856073445603 136.66159044387655 0 0 0 0 65.362535471314914 17.291381103532558 0 17.291381103532558 17.260409615837489 0 0 0 0 31.982611860029323 10.075089304029447 0 10.075089304029447 13.797560302833212 0 0 0 0 10.7889955070018 6.2972371947196351 0 6.2972371947196351 21.982118367521537 0 0 0 0 29.627032167154539 -5.3057831089903402 0 -5.3057831089903402 29.096595760351761 0 0 0 0 56.993335152921645 19.588703549875277 0 19.588703549875277 14.137497378971602 0 0 0 0 33.732544456320284 -3.497043513874047 0 -3.497043513874047 -2.7155004298585848 0 0 0 0 13.287594744051667 4.7248816217915817 0 4.7248816217915817 11.999312278443119 0 0 0 0 -10.466730194337288 8.8337251439011908 0 8.8337251439011908 -3.0313382159896491 0 0 0 0 17.113489647686947 66.746933026055672 0 66.746933026055672 10.742117502660676 0 0 0 0 -3.662597517541144 65.978003387159333 0 65.978003387159333 13.990275443097516 0 0 0 0 34.32369618404482 71.598000333758591 0 71.598000333758591 6.931448007382869 0 0 0 0 24.256223454372957 50.791273729111026 0 50.791273729111026 5.4764383510778316 0 0 0 0 35.88145892394823 41.560649954903852 0 41.560649954903852 -11.93639999770096 0 0 0 0 -16.671917740924982 53.481256614915537 0 53.481256614915537 17.06372106664594 0 0 0 0 -4.9485240021022037 44.893746399154452 0 44.893746399154452 5.8228688452883262 0 0 0 0 29.457662283886748 19.760297469062493 0 19.760297469062493 -30.154777356613067 0 0 0 0 49.523840124398703 43.247604336594065 0 43.247604336594065 -11.779473407141154 0 0 0 0 52.243110054964461 -8.1073747435255417 0 -8.1073747435255417 -1.7167788119335619 0 0 0 0 45.492812698212219 -4.3289415657372956 0 -4.3289415657372956 0.064737896099757108 0 0 0 0 46.71503928580205 -13.846074060296132 0 -13.846074060296132 19.334656116611541 0 0 0 0 27.383866893571394 -10.59129076285555 0 -10.59129076285555 2.9728308878554301 0 0 0 0 49.043507713322469 1.235857438978428 0 1.235857438978428 -15.186579164514114 0 0 0 0 27.124436026611136 -8.22551506549968 0 -8.22551506549968 0.37638497574418195 0 0 0 0 30.433827420232404 -15.055871069732348 0 -15.055871069732348 5.2036947693598865 0 0 0 0 16.771670179266948 -10.047845831310042 0 -10.047845831310042 -6.0054706717155568 0 0 0 0 47.061227229570918 -2.6244908875095092 0 -2.6244908875095092 -6.5122417824645069 0 0 0 0 24.298431934497785 -16.022179006009537 0 -16.022179006009537 -13.315977457335975 0 0 0 0 28.069065366474149 -21.259455488301359 0 -21.259455488301359 6.5593363656197425 0 0 0 0 23.501948312885361 -15.374267799196787 0 -15.374267799196787 -13.565927548144828 0 0 0 0 29.183170288858193 1.2523212996194104 0 1.2523212996194104 -5.4415709084345476 0 0 0 0 21.874646604876034 -6.3154973384116602 0 -6.3154973384116602 -6.4013809432435664 0 0 0 0 28.810021388955647 -35.994563398131504 0 -35.994563398131504 15.66175443508024 0 0 0 0 30.642433494347642 -8.9447863231094971 0 -8.9447863231094971 13.108193665507315 0 0 0 0 34.053996266113245 -11.003948765805944 0 -11.003948765805944 -0.77580547618941864 0 0 0 0 22.244654523296049 -43.855907439417251 0 -43.855907439417251 28.416988146214862 0 0 0 0 103.98822218112764 -81.512357776294266 0 -81.512357776294266 -26.938049058350771 0 0 0 0 11.642272774889761 -6.0863134231081091 0 -6.0863134231081091 2.1680120921795538 0 0 0 0 27.911366159110287 -16.686877018569604 0 -16.686877018569604 3.1585557596884977 0 0 0 0 38.884195289893796 -1.0639614626453309 0 -1.0639614626453309 -12.397790736523348 0 0 0 0 39.011990378296105 -3.5691918152426538 0 -3.5691918152426538 -41.162107731378455 0 0 0 0 46.98214184679091 -49.248265393477141 0 -49.248265393477141 -91.518598536167701 0 0 0 0 34.691994700486248 -60.608054172354059 0 -60.608054172354059 3.5056942616429296 0 0 0 0 89.729391671775375 -15.385830902298039 0 -15.385830902298039 -119.1730257761792 0 0 0 0 6.0199787266028579 -117.93261077576926 0 -117.93261077576926 -460.63105720274507 0 0 0 0 5.4961776416166686 -92.281958694098194 0 -92.281958694098194 -139.51464926601238 0 0 0 0 8.9332747553363561 -5.0838910861745319 0 -5.0838910861745319 1.5630800411663639 0 0 0 0 45.342826063233588 -36.583098067396918 0 -36.583098067396918 -44.155516397688643 0 0 0 0 28.914858158101254 0.65611090742115152 0 0.65611090742115152 -10.51867689376067 0 0 0 0 46.688692689946038 -26.842478904078234 0 -26.842478904078234 1.3058485847946031 0 0 0 0 18.791814512544079 -112.08050157289836 0 -112.08050157289836 -23.197038069006794 0 0 0 0 24.941596893913811 15.78510872195784 0 15.78510872195784 -22.099190019244361 0 0 0 0 -55.66705169074703 -125.15356649544628 0 -125.15356649544628 107.29555803145126 0 0 0 0 48.328902470137109 -29.302487179083982 0 -29.302487179083982 19.265252566356139 0 0 0 0 45.439641033604858 -18.539812938151954 0 -18.539812938151954 2.8049284255275779 0 0 0 0 49.639230263177069 -12.546399867865702 0 -12.546399867865702 -44.519160523113896 0 0 0 0 23.440342179841764 -16.401363867063964 0 -16.401363867063964 14.499578330827328 0 0 0 0 52.452240420563612 20.660545022199585 0 20.660545022199585 -38.193183540162863 0 0 0 0 84.171352622885024 25.980870177649422 0 25.980870177649422 -66.740579898674241 0 0 0 0 62.66144268700009 67.047460961201409 0 67.047460961201409 -128.64439030845551 0 0 0 0 142.96849133208161 136.55251543067152 0 136.55251543067152 -99.2443856761804 0 0 0 0 -48.935280989462626 104.2251870916856 0 104.2251870916856 -12.911648975081789 0 0 0 0 -44.49955976671481 9.023797358123602 0 9.023797358123602 -5.5497506536181618 0 0 0 0 22.834967105284363 -15.769268220565394 0 -15.769268220565394 6.7865443617252268 0 0 0 0 43.534423570570652 31.126563970462939 0 31.126563970462939 -45.067025685929366 0 0 0 0 53.930582921726455 58.394178916565579 0 58.394178916565579 -34.502898820649534 0 0 0 0 -22.631361914158333 358.72944887425365 0 358.72944887425365 -644.28529577528479 0 0 0 0 -469.93591946709603 890.72879262054562 0 890.72879262054562 87.555251695494007 0 0 0 0 169.0432444542821 225.48607075401878 0 225.48607075401878 173.50857889977033 0 0 0 0 15.387315161380684 157.60039005446743 0 157.60039005446743 11.873047861214218 0 0 0 0 56.315983201551717 2.6188847814685232 0 2.6188847814685232 -67.59590503492916 0 0 0 0 61.686103409330826 -61.93045042316453 0 -61.93045042316453 519.81507889148702 0 0 0 0 59.818061024445342 -275.29544817924182 0 -275.29544817924182 190.75727930920976 0 0 0 0 21.109456934371337 -21.164911635934615 0 -21.164911635934615 17.34543203738836 0 0 0 0 65.62554787233239 -307.73966386251811 0 -307.73966386251811 370.90672747729025 0 0 0 0 267.25321003484714 -34.90272599555783 0 -34.90272599555783 -748.64917319053575 0 0 0 0 -304.28277468400211 -881.61309110100763 0 -881.61309110100763 796.83134559881 0 0 0 0 490.964573260615 -577.30915528864261 0 -577.30915528864261 -31.269203705611289 0 0 0 0 6.2598517489357732 4.7598500719522008 0 4.7598500719522008 3.8277429808314167 0 0 0 0 490.2684193624882 -640.49198607035578 0 -640.49198607035578 -313.62855835868686 0 0 0 0 -271.57552573067369 149.79922831283875 0 149.79922831283875 220.10570183010407 0 0 0 0 -157.73820418961986 102.31028227285105 0 102.31028227285105 124.78893978793803 0 0 0 0 -198.33682944903558 221.94632580267535 0 221.94632580267535 -34.454158928053403 0 0 0 0 351.64226990734824 140.26677648648916 0 140.26677648648916 -253.40204813403943 0 0 0 0 88.638637737589306 -25.702703402179395 0 -25.702703402179395 -54.445747224883235 0 0 0 0 111.76425176869816 41.732476351818605 0 41.732476351818605 -95.712954673974309 0 0 0 0 141.34642076215823 31.045683209869594 0 31.045683209869594 -145.51777020087684 0 0 0 0 100.50304544695155 -13.545321641488329 0 -13.545321641488329 -122.23694183061343 0 0 0 0 102.84159244347939 -29.503628381070712 0 -29.503628381070712 -263.88227144206576 0 0 0 0 -2.5162168542592553 113.23951782920449 0 113.23951782920449 -52.341065867689395 0 0 0 0 -11.637081813678378 82.1781967848774 0 82.1781967848774 -156.16344328302148 0 0 0 0 104.28123119086376 59.480136741722163 0 59.480136741722163 -80.300172613164023 0 0 0 0 122.79843572352547 76.05433120949192 0 76.05433120949192 -73.87518792265837 0 0 0 0 160.50821580403135 63.681128132204321 0 63.681128132204321 -168.4818586218953 0 0 0 0 105.24972479880671 57.262553753917928 0 57.262553753917928 -80.643957095506948 0 0 0 0 100.72968253528234 53.133906080019187 0 53.133906080019187 -54.128766205838474 0 0 0 0 86.501424481772119 26.629110717281037 0 26.629110717281037 -96.58656950375007 0 0 0 0 120.69596882199403 49.801791954716464 0 49.801791954716464 -89.888910795576066 0 0 0 0 105.8568679293021 60.512225134275468 0 60.512225134275468 -81.792441186369615 0 0 0 0 142.42130353070388 94.613728194771284 0 94.613728194771284 -63.772401789082323 0 0 0 0 132.12351644862792 64.853867617722244 0 64.853867617722244 -101.91470022550902 0 0 0 0 80.067490822639229 117.15424686924143 0 117.15424686924143 -3.2816528582297906 0 0 0 0 62.6881548033125 48.269581700688832 0 48.269581700688832 -39.260690010296457 0 0 0 0 106.37675994208621 51.357450471674611 0 51.357450471674611 -48.81657185698532 0 0 0 0 65.996092764340574 71.121170136711953 0 71.121170136711953 -11.14761471336351 0 0 0 0 71.549545611065696 22.809353418934734 0 22.809353418934734 -14.316520872696856 0 0 0 0 47.546340735192643 27.745493959645501 0 27.745493959645501 -13.855771162177007 0 0 0 0 76.207600831185118 22.679969217788312 0 22.679969217788312 -17.680785196530223 0 0 0 0 27.014938565764169 -7.4499852577470165 0 -7.4499852577470165 3.2012315836018388 0 0 0 0 -1.7846830280759605 -133.23135210682653 0 -133.23135210682653 -173.82060492130859 0 0 0 0 60.407431157276733 12.52266521308411 0 12.52266521308411 -17.845217922008374 0 0 0 0 0.51681945633036008 4.8146173207438494 0 4.8146173207438494 -8.4275020535733915 0 0 0 0 102.83292589827033 -10.832409616107725 0 -10.832409616107725 -30.633751071194411 0 0 0 0 99.028069517749827 6.5273435100580173 0 6.5273435100580173 -109.58391908184331 0 0 0 0 125.24967776850099 140.0431055119343 0 140.0431055119343 -74.228617410598417 0 0 0 0 308.74610438206582 147.06308554694351 0 147.06308554694351 -129.38911773417431 0 0 0 0 213.09167724299186 321.02312667620618 0 321.02312667620618 80.421609861038633 0 0 0 0 45.385460466713994 115.79463916846089 0 115.79463916846089 130.84799078235892 0 0 0 0 324.44156784535789 -46.313005147208003 0 -46.313005147208003 -471.48380528316648 0 0 0 0 881.44257546565495 388.81070583699056 0 388.81070583699056 -560.68475246357957 0 0 0 0 40.814519043902692 -6.998224030131837 0 -6.998224030131837 -5.2905782551729317 0 0 0 0 21.600386131807682 10.419896345750729 0 10.419896345750729 -12.336493114334189 0 0 0 0 4.773730698481593 5.9420996067142084 0 5.9420996067142084 -12.342134494642876 0 0 0 0 131.27799041419348 374.09456408856204 0 374.09456408856204 779.98955286059481 0 0 0 0 7.4839830047618534 3.6029419582005744 0 3.6029419582005744 2.1958085967708669 0 0 0 0 74.297636358369346 -360.17386766734478 0 -360.17386766734478 283.78327204011384 0 0 0 0 275.40514943408925 -247.40176858523978 0 -247.40176858523978 -263.19027795330294 0 0 0 0 4.7358273234647754 6.7132143706676004 0 6.7132143706676004 -6.0350062723406257 0 0 0 0 60.572865259164246 50.640476107774703 0 50.640476107774703 135.73411770706207 0 0 0 0 -6.7395708397962153 31.609541967453197 0 31.609541967453197 0.045182085475971689 0 0 0 0 68.674174917279743 81.822655236232094 0 81.822655236232094 15.284281155361214 0 0 0 0 120.85695666977517 105.29298872835597 0 105.29298872835597 -63.807141896548274 0 0 0 0 88.479441338309243 10.519761152613 0 10.519761152613 -68.388069376627755 0 0 0 0 47.561428169399733 30.36941187626644 0 30.36941187626644 -61.802989362384324 0 0 0 0 55.619794619822642 9.7460154427608359 0 9.7460154427608359 -29.37491653462348 0 0 0 0 50.616670887131477 -9.6332144988937216 0 -9.6332144988937216 -77.676674330465175 0 0 0 0 56.282296763049089 -27.292649163614215 0 -27.292649163614215 -41.049669332514895 0 0 0 0 41.364212598156882 -6.2487492533691693 0 -6.2487492533691693 -57.592058003717739 0 0 0 0 19.179482039558934 -12.561402297430163 0 -12.561402297430163 -43.013564121364652 0 0 0 0 154.75026304899802 -88.124659498468645 0 -88.124659498468645 -48.326569391937483 0 0 0 0 63.598340606600686 -9.1708673032652914 0 -9.1708673032652914 -1.2960588427384594 0 0 0 0 6.4770189553528326 -63.076195994489353 0 -63.076195994489353 169.68564151511418 0 0 0 0 24.963243685220135 10.553307151183894 0 10.553307151183894 4.7750361552203762 0 0 0 0 98.090326966121211 87.821152440425976 0 87.821152440425976 36.510324316403967 0 0 0 0 125.2575910549931 84.489260704557637 0 84.489260704557637 -57.081982594629153 0 0 0 0 77.686965919296199 -54.604626629849278 0 -54.604626629849278 -35.983929390535877 0 0 0 0 99.566054642928066 19.20358741604457 0 19.20358741604457 -59.306485219109732 0 0 0 0 105.78423183345876 -3.2090435944925844 0 -3.2090435944925844 -105.46224903970287 0 0 0 0 76.986212357398472 54.54545379012103 0 54.54545379012103 -16.198953107893431 0 0 0 0 83.508348346287676 72.113858203611045 0 72.113858203611045 13.036734232566687 0 0 0 0 -73.847549809244811 -239.17125308794462 0 -239.17125308794462 -16.237264970057723 0 0 0 0 369.25607551969006 158.40895147908032 0 158.40895147908032 38.960317724035718 0 0 0 0 246.33154016877961 -12.629481912930999 0 -12.629481912930999 -53.155683442498912 0 0 0 0 115.19546181167243 -38.746262861716048 0 -38.746262861716048 5.2832187804172008 0 0 0 0 59.617406028410187 -34.312141794715728 0 -34.312141794715728 -9.4536343922170545 0 0 0 0 120.82565295972563 -69.231632622724788 0 -69.231632622724788 10.229472315391149 0 0 0 0 24.774205792506109 -56.305516720255241 0 -56.305516720255241 69.1728630431748 0 0 0 0 335.7199940255814 -116.06132130201775 0 -116.06132130201775 19.091846909293224 0 0 0 0 5.8652906836852878 -1.9008218137646722 0 -1.9008218137646722 0.76552186339336792 0 0 0 0 72.27603305815137 -71.268617231490225 0 -71.268617231490225 68.071139419237923 0 0 0 0 167.50123804045143 327.09536813066313 0 327.09536813066313 157.73390096192736 0 0 0 0 -6.9658044854731997 -19.294839405692983 0 -19.294839405692983 54.168005535963971 0 0 0 0 -27.915116878451954 45.239250881605557 0 45.239250881605557 176.10298293167489 0 0 0 0 155.52804916968307 -153.48035592871494 0 -153.48035592871494 -247.35116387659048 0 0 0 0 56.42356356427878 -15.10073264631837 0 -15.10073264631837 -15.770966670797726 0 0 0 0 53.018728489418166 -14.583534127598185 0 -14.583534127598185 -15.160320647980081 0 0 0 0 576.18263720301911 206.22084006008487 0 206.22084006008487 -374.69315971669482 0 0 0 0 -204.37270190462732 -139.03849564703171 0 -139.03849564703171 611.67927760548059 0 0 0 0 13.073110461005776 3.5407332440566393 0 3.5407332440566393 -7.6257605168403275 0 0 0 0 34.414884418045403 -5.9784811699916531 0 -5.9784811699916531 9.5726885112057971 0 0 0 0 49.486777265534329 -17.88049911911321 0 -17.88049911911321 -0.91153638009097904 0 0 0 0 58.167471767446841 -20.200393772806819 0 -20.200393772806819 -11.321506252491645 0 0 0 0 46.143291666419827 -5.2721824893385616 0 -5.2721824893385616 -25.769811186233312 0 0 0 0 -14.229963152376513 14.28761737326905 0 14.28761737326905 27.821602875978215 0 0 0 0 16.04671256201982 16.959220272180971 0 16.959220272180971 -17.128289947879125 0 0 0 0 20.508384062421101 -13.202773644719969 0 -13.202773644719969 16.869511749756157 0 0 0 0 17.15345458680531 -17.941264533420508 0 -17.941264533420508 26.011976904210286 0 0 0 0 66.47822308998002 -26.272038281726566 0 -26.272038281726566 -18.164689932915508 0 0 0 0 23.725829099945258 -7.131489382395614 0 -7.131489382395614 10.019453804137584 0 0 0 0 57.101751555099327 5.4862324930301725 0 5.4862324930301725 -11.713706857620863 0 0 0 0 15.832388522091378 -1.4640467609656298 0 -1.4640467609656298 -0.17470260298250651 0 0 0 0 49.28931873808142 12.98201202191775 0 12.98201202191775 -18.905663959670392 0 0 0 0 40.169093756172515 -37.494332250219145 0 -37.494332250219145 -32.502352959462371 0 0 0 0 66.336780401994474 -38.229461616204162 0 -38.229461616204162 -58.411715873590992 0 0 0 0 57.866661082143764 -41.114658461760712 0 -41.114658461760712 -32.164599287694614 0 0 0 0 71.915106531297994 -4.9003436112824765 0 -4.9003436112824765 -4.939381777450782 0 0 0 0 138.90792872916791 36.075600504159411 0 36.075600504159411 -119.89479651280999 0 0 0 0 118.67856532904261 43.586528000638509 0 43.586528000638509 -18.712143022117743 0 0 0 0 12.945336620075977 10.904470091363237 0 10.904470091363237 -25.41876787219644 0 0 0 0 98.241976343415445 -20.559809251513798 0 -20.559809251513798 31.120775681958548 0 0 0 0 48.508479358046316 7.7719452828989688 0 7.7719452828989688 -18.850660977948849 0 0 0 0 33.320323680703041 4.0633399045415075 0 4.0633399045415075 -17.586113549384436 0 0 0 0 33.004526552346448 5.460607208819777 0 5.460607208819777 -2.4180561095523072 0 0 0 0 28.191168128059303 3.9818004008535723 0 3.9818004008535723 -9.2581787172511323 0 0 0 0 29.892153884200326 12.576888657443575 0 12.576888657443575 -15.68066575457893 0 0 0 0 26.687599799828604 5.8925632003916917 0 5.8925632003916917 -17.888226071573911 0 0 0 0 57.01793114666836 -1.4912525044134384 0 -1.4912525044134384 -10.639505890674098 0 0 0 0 35.679345904267393 2.5890090987104486 0 2.5890090987104486 -6.9054089236724394 0 0 0 0 51.327969571179707 -0.54507709749081812 0 -0.54507709749081812 -10.587129346074269 0 0 0 0 53.613507615462545 9.4067479277983779 0 9.4067479277983779 -5.5736003828067124 0 0 0 0 39.276006151514594 6.4830484159772368 0 6.4830484159772368 -3.8635436634158395 0 0 0 0 42.54598118962727 -0.72511163848389515 0 -0.72511163848389515 -19.397369731798801 0 0 0 0 36.944499096334198 4.7133532869889052 0 4.7133532869889052 -9.6873060130428641 0 0 0 0 36.485301673595188 2.3955258643879125 0 2.3955258643879125 -9.892797469381577 0 0 0 0 67.345722089485207 4.5896650335666891 0 4.5896650335666891 -19.946738047074177 0 0 0 0 10.443600230923039 0.87262613672805855 0 0.87262613672805855 -14.755411003990957 0 0 0 0 94.439872850954998 18.641187122575275 0 18.641187122575275 -8.6523376181388869 0 0 0 0 16.777661251363121 0.24270984151281993 0 0.24270984151281993 -0.22394169116943186 0 0 0 0 104.38532012733049 -5.3584959256811544 0 -5.3584959256811544 -1.3333947162945208 0 0 0 0 36.019915744277 2.9820446820436288 0 2.9820446820436288 -2.0513816625081986 0 0 0 0 32.505659167552949 12.833078840495091 0 12.833078840495091 -25.39415176737657 0 0 0 0 59.058651083993027 -15.51360428557814 0 -15.51360428557814 -69.129334107344221 0 0 0 0 31.759479561573755 5.0783913032266348 0 5.0783913032266348 -2.9985930812460175 0 0 0 0 47.508436576419626 0.44342467973956445 0 0.44342467973956445 -7.1939922541591841 0 0 0 0 51.897851855079352 10.29506962716988 0 10.29506962716988 1.645615555884433 0 0 0 0 87.948243524937425 15.310540238361227 0 15.310540238361227 -0.57508318642317136 0 0 0 0 64.950306311584427 -5.1368107454622987 0 -5.1368107454622987 18.240471432992535 0 0 0 0 46.124102469984791 7.343013585379822 0 7.343013585379822 7.7134689854863154 0 0 0 0 107.9066252141929 -11.995670130523706 0 -11.995670130523706 8.7459050781199039 0 0 0 0 15.475082768271612 5.7242161049504432 0 5.7242161049504432 -6.0856747447813895 0 0 0 0 97.484172401374963 -22.737188465604476 0 -22.737188465604476 -0.045106759854661505 0 0 0 0 3.507552296481542 6.391777820279728 0 6.391777820279728 -7.2517258978395525 0 0 0 0 23.674601927086769 17.072736457512292 0 17.072736457512292 -3.3401558587077034 0 0 0 0 96.734285136197286 -16.00106923483861 0 -16.00106923483861 -21.36748222072265 0 0 0 0 69.341629547430784 -2.7195638822288402 0 -2.7195638822288402 6.5787120750217127 0 0 0 0 74.039414428152668 0.96180802883912975 0 0.96180802883912975 -22.456741584171141 0 0 0 0 38.774062687765763 40.15017364254993 0 40.15017364254993 -39.35880877249906 0 0 0 0 46.046684697908859 2.7404636026547848 0 2.7404636026547848 -26.814813862347819 0 0 0 0 31.384957210986073 8.2753468014247176 0 8.2753468014247176 -5.1759643323805991 0 0 0 0 48.533580093771889 147.23888688933721 0 147.23888688933721 -138.61973838590575 0 0 0 0 49.24056758662482 -22.367805602317503 0 -22.367805602317503 -1.9634393805683885 0 0 0 0 61.673429170492454 8.816379165135146 0 8.816379165135146 -21.678121535674563 0 0 0 0 33.059232150595918 8.7053753330477406 0 8.7053753330477406 -3.55866433628103 0 0 0 0 168.82800777827288 -75.001271292632737 0 -75.001271292632737 -67.740915287440203 0 0 0 0 78.701449416788819 -42.354752756429434 0 -42.354752756429434 72.084963009748435 0 0 0 0 1.7884376754409459 49.083496659335651 0 49.083496659335651 39.513810967936706 0 0 0 0 30.826235272649313 5.1658729764953506 0 5.1658729764953506 -8.2928060754040818 0 0 0 0 36.613923083488771 51.09424820353297 0 51.09424820353297 -123.26277319437122 0 0 0 0 37.419337716133768 12.464704213256482 0 12.464704213256482 -2.1768143820497148 0 0 0 0 16.086761593767733 30.367472714363089 0 30.367472714363089 -22.236324553701138 0 0 0 0 32.662066716089612 25.723803847863564 0 25.723803847863564 9.8139554192789547 0 0 0 0 15.272393369792553 12.121511895647359 0 12.121511895647359 8.2110869601507375 0 0 0 0 24.660431042709092 8.2411806734315149 0 8.2411806734315149 -6.5114446084669426 0 0 0 0 23.809898816121859 -7.4790122884851371 0 -7.4790122884851371 -2.9975259279781312 0 0 0 0 33.143067213295581 -13.893861266642375 0 -13.893861266642375 6.3869036053474701 0 0 0 0 50.848732563699741 29.361313511149092 0 29.361313511149092 -19.598808539255515 0 0 0 0 50.580596481588145 15.102575381305314 0 15.102575381305314 -77.139852401878187 0 0 0 0 52.326684427418513 14.426680177118214 0 14.426680177118214 -39.439536101467752 0 0 0 0 36.501332597504756 8.0021237503767964 0 8.0021237503767964 1.0321687206911536 0 0 0 0 36.15015947473421 43.328852261891882 0 43.328852261891882 -5.7482512278172635 0 0 0 0 35.91909910387767 41.335171764069287 0 41.335171764069287 -6.3777723234045425 0 0 0 0 93.554818777964101 91.67109721002214 0 91.67109721002214 36.666910581920661 0 0 0 0 114.47620996739715 32.918434840351324 0 32.918434840351324 -42.998232717254382 0 0 0 0 76.871191272934084 22.474554680933323 0 22.474554680933323 -40.342281357341278 0 0 0 0 43.128902852411557 23.1834136283519 0 23.1834136283519 -46.694519470350315 0 0 0 0 95.417395805627166 35.249003968010811 0 35.249003968010811 -45.196260520789338 0 0 0 0 117.22285767986614 -1.0655270772344068 0 -1.0655270772344068 -76.428959567284238 0 0 0 0 64.955365609479486 -28.32930694993729 0 -28.32930694993729 -78.475479506983447 0 0 0 0 65.82874847666244 -38.933810210676029 0 -38.933810210676029 -48.902184047148467 0 0 0 0 66.436527458688943 -21.337468752032692 0 -21.337468752032692 -65.21871700486281 0 0 0 0 53.503747849732463 6.6457820322765429 0 6.6457820322765429 -24.894563463888971 0 0 0 0 11.344696294358016 0.32283711185186803 0 0.32283711185186803 -1.2547476983771411 0 0 0 0 9.0766587469824671 0.46626752689709861 0 0.46626752689709861 -13.204745304601083 0 0 0 0 43.285310060669872 -30.132718173338702 0 -30.132718173338702 -72.997983932427815 0 0 0 0 28.570881664883927 8.6611609440420807 0 8.6611609440420807 -58.66482302797607 0 0 0 0 73.279481453362678 -44.069092346489555 0 -44.069092346489555 -88.002597039029581 0 0 0 0 255.47382668726459 -127.89394311657934 0 -127.89394311657934 -15.536377742983859 0 0 0 0 259.22189502421907 118.3477855868291 0 118.3477855868291 4.3789767422576915 0 0 0 0 -8.7087586569032283 -198.11005855337828 0 -198.11005855337828 141.5668592360696 0 0 0 0 -0.76315440785818112 -0.55122179141460492 0 -0.55122179141460492 -9.7195263556966935 0 0 0 0 -159.34003616994596 -109.9943107597835 0 -109.9943107597835 137.00519688798659 0 0 0 0 -0.84504029606760866 0.36306381921454545 0 0.36306381921454545 -8.4378956801048695 0 0 0 0 75.803022246371256 179.77637095579257 0 179.77637095579257 42.262619726200512 0 0 0 0 256.48695912602489 24.300251784561965 0 24.300251784561965 -62.907567009949616 0 0 0 0 2.7492142076409607 3.2331882881352882 0 3.2331882881352882 2.2527555146938734 0 0 0 0 156.647042282646 -104.98968733618176 0 -104.98968733618176 61.851143786755188 0 0 0 0 8.8752598389364721 0.79171343673982619 0 0.79171343673982619 1.1390248463139869 0 0 0 0 -2.0168634194251354 24.632442055600904 0 24.632442055600904 61.535998728403911 0 0 0 0 54.993747640386573 85.538285351502395 0 85.538285351502395 117.88111731478483 0 0 0 0 36.723217751132324 -11.448403399017479 0 -11.448403399017479 -5.9385425854284222 0 0 0 0 91.270164511805888 -18.23314075694941 0 -18.23314075694941 -25.124386272420452 0 0 0 0 69.847702503670007 24.771922808638237 0 24.771922808638237 -37.501587640067328 0 0 0 0 63.368838108312048 42.968939189564594 0 42.968939189564594 -35.384713863905745 0 0 0 0 -110.36645089316153 40.544929078063205 0 40.544929078063205 44.161643807805831 0 0 0 0 29.244468960881932 23.843215627742666 0 23.843215627742666 -20.159735994925086 0 0 0 0 96.941231838289241 13.828990131398314 0 13.828990131398314 -37.420840588945794 0 0 0 0 54.950119214721781 17.510784806404672 0 17.510784806404672 -36.168572554281127 0 0 0 0 48.243564007672035 8.1092272527055087 0 8.1092272527055087 -2.3866723661916849 0 0 0 0 51.622343181603355 6.761706669074556 0 6.761706669074556 -63.8299606387111 0 0 0 0 51.841302502354665 18.59146270474298 0 18.59146270474298 -26.770562111837535 0 0 0 0 77.474514646877651 -8.8154915449633791 0 -8.8154915449633791 -38.314817988677987 0 0 0 0 95.99463033968641 -4.8840122618512396 0 -4.8840122618512396 -60.881183016587784 0 0 0 0 96.650212389802618 -47.036399113912296 0 -47.036399113912296 1.4633546157724595 0 0 0 0 66.586996706580976 46.493745606694915 0 46.493745606694915 -47.564161792000505 0 0 0 0 -16.948681197492988 -137.67534662313341 0 -137.67534662313341 -151.18077784361788 0 0 0 0 70.363291489033145 54.212200478148191 0 54.212200478148191 -31.807858163836144 0 0 0 0 11.110402897220354 5.7606823940744505 0 5.7606823940744505 -0.2115089034176405 0 0 0 0 87.363845999716432 2.7710194133787809 0 2.7710194133787809 -35.65644166013783 0 0 0 0 65.827923851347407 8.4134175016892652 0 8.4134175016892652 -0.89811601306371669 0 0 0 0 53.13107178867358 12.966096937122984 0 12.966096937122984 -8.6830284947200198 0 0 0 0 28.616446405544593 -6.445203874251078 0 -6.445203874251078 -12.440874589877639 0 0 0 0 69.266744291609939 -7.9173133754568426 0 -7.9173133754568426 -29.060544061203018 0 0 0 0 70.181256633833982 -21.118267598001978 0 -21.118267598001978 -183.99178179416504 0 0 0 0 45.567096519169752 3.289648486671215 0 3.289648486671215 -0.38032580241313196 0 0 0 0 132.29160728897841 -46.643317438171266 0 -46.643317438171266 -183.53710919086029 0 0 0 0 148.26456824062916 -45.598813426122945 0 -45.598813426122945 -183.72581116737501 0 0 0 0 60.202352242456982 -104.27476154628843 0 -104.27476154628843 -44.235673512277685 0 0 0 0 60.898042383312713 -51.882954344699641 0 -51.882954344699641 -62.697278192928898 0 0 0 0 206.14067950879689 -77.287367074391909 0 -77.287367074391909 -73.250286949577458 0 0 0 0 198.91500673588598 -116.88294686710378 0 -116.88294686710378 -99.511548423721933 0 0 0 0 81.957147086039186 -87.740062081878989 0 -87.740062081878989 -188.22617993014558 0 0 0 0 -11.224835565357353 23.511411624386625 0 23.511411624386625 -76.667100607380348 0 0 0 0 -31.121729332138784 31.258265480831355 0 31.258265480831355 98.165676915228005 0 0 0 0 -13.567968433126225 -36.13106843281696 0 -36.13106843281696 21.235687973976383 0 0 0 0 6.5056708951597102 -58.935007381877668 0 -58.935007381877668 114.06408605228899 0 0 0 0 -17.737519371410599 7.1494234174745088 0 7.1494234174745088 101.31585308479248 0 0 0 0 6.750056712470041 -1.4021183116932932 0 -1.4021183116932932 0.77344731547285961 0 0 0 0 51.072225184427225 -101.17137050907593 0 -101.17137050907593 375.14210938867348 0 0 0 0 95.69425289654464 -131.61466831581146 0 -131.61466831581146 112.4722715320508 0 0 0 0 91.273521006340161 -90.082929789812738 0 -90.082929789812738 104.65490788836948 0 0 0 0 128.13616424860083 -173.37532775390576 0 -173.37532775390576 285.55593557387044 0 0 0 0 -18.511625389714027 -5.4312130644815397 0 -5.4312130644815397 254.62458712762736 0 0 0 0 5.2695004862877113 -0.52871027438085605 0 -0.52871027438085605 0.16530034012282649 0 0 0 0 104.91646058156039 -98.697019233978011 0 -98.697019233978011 118.77607872785202 0 0 0 0 -296.66845691361232 110.95713810715131 0 110.95713810715131 381.9482850091652 0 0 0 0 284.96662110762554 -181.42727837342568 0 -181.42727837342568 112.27310681515138 0 0 0 0 250.67146771855187 -150.74107091947843 0 -150.74107091947843 73.602834937843951 0 0 0 0 114.87178788851816 -99.219845854801108 0 -99.219845854801108 77.101797573335304 0 0 0 0 121.64804535642907 -77.758120769989603 0 -77.758120769989603 82.239493534414891 0 0 0 0 18.658731598223085 -4.7556676801119266 0 -4.7556676801119266 1.3724434004335666 0 0 0 0 1157.9120146219502 -149.60376462772587 0 -149.60376462772587 -13.869556747037592 0 0 0 0 350.8327322131081 312.15504024265147 0 312.15504024265147 -23.564866162464909 0 0 0 0 604.64126811511233 -129.83647979514691 0 -129.83647979514691 -47.467318783263991 0 0 0 0 323.79472821406671 -16.573100783264806 0 -16.573100783264806 -88.213425345632288 0 0 0 0 -112.15393816794676 111.305732456613 0 111.305732456613 91.037212645727053 0 0 0 0 218.2057130414978 13.428800773123188 0 13.428800773123188 -46.715294734013249 0 0 0 0 208.98254205937701 -9.3061646123430357 0 -9.3061646123430357 -0.20618185675095918 0 0 0 0 248.83797073626192 -26.673645390801656 0 -26.673645390801656 -0.042540667289359846 0 0 0 0 220.84076243551681 -98.48659878316171 0 -98.48659878316171 19.308195349958169 0 0 0 0 138.88596504370798 -85.34052897329255 0 -85.34052897329255 37.187145977442214 0 0 0 0 370.47774217966071 -119.84722556195058 0 -119.84722556195058 -6.1836450244986736 0 0 0 0 247.84989842263167 -48.505888486874412 0 -48.505888486874412 -45.210893608960802 0 0 0 0 16.298273819076712 0.069585130985877972 0 0.069585130985877972 -0.0011047086710835267 0 0 0 0 2.7838798255753545 -1.6489182049738247 0 -1.6489182049738247 0.11700128809981181 0 0 0 0 -81.583668409235543 -39.091621335643488 0 -39.091621335643488 -4.8647899124608642 0 0 0 0 27.197356105665278 -5.9910478461292556 0 -5.9910478461292556 0.31375815407145069 0 0 0 0 77.282440151480841 -4.7718006235290886 0 -4.7718006235290886 -73.533452185950864 0 0 0 0 40.368080870888662 3.3133582820903484 0 3.3133582820903484 -4.3942959328027342 0 0 0 0 10.045202777401755 16.853781691997145 0 16.853781691997145 -6.2032634527549817 0 0 0 0 16.40523292144718 3.6439476814790339 0 3.6439476814790339 -4.9011006822823431 0 0 0 0 9.916842975304462 13.896389560020566 0 13.896389560020566 -20.408135079461317 0 0 0 0 -1.7628246370295528 32.295429905395679 0 32.295429905395679 6.3126712792365751 0 0 0 0 -3.2825192382242676 6.3301021346799802 0 6.3301021346799802 -2.7744502839254892 0 0 0 0 5.6246930177439936 9.2183268124222195 0 9.2183268124222195 -4.7670722356104989 0 0 0 0 7.2892443913588068 -83.395676146049937 0 -83.395676146049937 124.50422644553521 0 0 0 0 2.4271912513611369 0.58890862484304307 0 0.58890862484304307 -0.5703059150169637 0 0 0 0 129.63291964089149 18.775188962302821 0 18.775188962302821 -63.047369635139205 0 0 0 0 60.904877895896789 47.543688493048649 0 47.543688493048649 0.7805452192641269 0 0 0 0 162.16381902420835 -99.18637625462577 0 -99.18637625462577 -134.0785619211656 0 0 0 0 129.2877136522111 -140.16715153277673 0 -140.16715153277673 92.447016945238602 0 0 0 0 5.9700609131809586 2.7848133695371473 0 2.7848133695371473 -1.9086954126713236 0 0 0 0 103.71181744323985 -15.703304630515618 0 -15.703304630515618 -55.63720136207462 0 0 0 0 4.9123822253921432 3.4620822779831713 0 3.4620822779831713 -7.2785748436381787 0 0 0 0 17.91752134145645 2.0307723735882064 0 2.0307723735882064 -8.5477808973319043 0 0 0 0 11.473376675217878 7.6074330091661864 0 7.6074330091661864 -22.680259984677946 0 0 0 0 12.691819521802245 11.389291289415837 0 11.389291289415837 -10.941981042464171 0 0 0 0 67.21695371158421 -21.307580819559917 0 -21.307580819559917 -41.849085234947779 0 0 0 0 7.1550659753805519 3.8996731564861875 0 3.8996731564861875 -6.5407950285329708 0 0 0 0 73.292674554366386 111.02887632655529 0 111.02887632655529 -53.942155123751832 0 0 0 0 -8.1932343684020452 40.024801664490042 0 40.024801664490042 -87.127618641104675 0 0 0 0 27.152378868311644 4.3967794852014777 0 4.3967794852014777 21.547556949791215 0 0 0 0 -81.10326147602791 74.385712810722509 0 74.385712810722509 -4.595493499842064 0 0 0 0 20.084575720392934 15.200888687437171 0 15.200888687437171 4.0069553322649361 0 0 0 0 -42.011550003080629 67.188982977296007 0 67.188982977296007 17.242943263051416 0 0 0 0 -83.540805441269185 32.947154163420748 0 32.947154163420748 -9.1524150760512839 0 0 0 0 -59.286735191824846 31.239664249155453 0 31.239664249155453 32.637824643470594 0 0 0 0 -50.85185528904185 49.11720620912677 0 49.11720620912677 -24.487384059380815 0 0 0 0 -33.158120786305517 27.520631709586667 0 27.520631709586667 15.005067776025896 0 0 0 0 18.359403049602406 1.4602052656777005 0 1.4602052656777005 -11.664057227903314 0 0 0 0 10.458857651163356 4.2851612973015847 0 4.2851612973015847 -4.1254859984775107 0 0 0 0 6.4129176994611043 2.5480154012035641 0 2.5480154012035641 -0.26769578105864866 0 0 0 0 24.179129581364457 2.6409822672788152 0 2.6409822672788152 -4.6780594825271944 0 0 0 0 4.8707004262660689 5.3422240900176661 0 5.3422240900176661 -1.3220758763174345 0 0 0 0 3.9482567231560992 6.1680348070537718 0 6.1680348070537718 0.72058476280682582 0 0 0 0 15.285681389701494 2.1827148901046201 0 2.1827148901046201 -1.9132812277775315 0 0 0 0 32.163947898254264 2.4572993823128968 0 2.4572993823128968 -4.3832718357408744 0 0 0 0 4.3772879101299225 -1.0057978593748942 0 -1.0057978593748942 -0.11286586986051794 0 0 0 0 13.090542187283916 0.44681747905911351 0 0.44681747905911351 -0.9044290187754207 0 0 0 0 13.588193918709294 4.5346369207716535 0 4.5346369207716535 -3.6809685385104558 0 0 0 0 -36.376928440266056 10.132686615314881 0 10.132686615314881 32.710958487129517 0 0 0 0 -59.040571580349933 3.3160186468503738 0 3.3160186468503738 46.050353794042337 0 0 0 0 -54.111634013985167 6.853220161811997 0 6.853220161811997 14.365532592702465 0 0 0 0 2.5379370352559363 -0.27310372306641284 0 -0.27310372306641284 0.49655945014882363 0 0 0 0 5.6191977793823753 0.39082641887773267 0 0.39082641887773267 0.11469832599004674 0 0 0 0 1.9194199803157375 0.3898877388718347 0 0.3898877388718347 0.072301288264599112 0 0 0 0 11.686699941361439 0.37433130110502461 0 0.37433130110502461 0.001094148451119364 0 0 0 0 15.745176415855894 1.4913403911121312 0 1.4913403911121312 -0.34539477339356739 0 0 0 0 503.56584827195911 161.29882029978822 0 161.29882029978822 -51.893012035308914 0 0 0 0 1.7298018063883092 -0.13123426462301069 0 -0.13123426462301069 -0.064736560371220261 0 0 0 0 2.6054806884967547 -0.22650089080985622 0 -0.22650089080985622 -0.0010848768132234268 0 0 0 0 -23.980943448172184 -94.533953407061134 0 -94.533953407061134 -46.801677887586621 0 0 0 0 2.6046306260686833 -0.22376116615619498 0 -0.22376116615619498 0.0019099197735489026 0 0 0 0 -8.7803584339126246 -18.093466263042082 0 -18.093466263042082 59.876761434211417 0 0 0 0 110.56724279483024 117.24170205238792 0 117.24170205238792 144.34989162843013 0 0 0 0 -72.76784600033352 -23.10496330081639 0 -23.10496330081639 156.21229980788516 0 0 0 0 336.67567574771238 -28.764555363350375 0 -28.764555363350375 42.171907004888595 0 0 0 0 159.33826802796102 46.558042802739095 0 46.558042802739095 67.109293311041256 0 0 0 0 -33.750667092390358 28.145355981755813 0 28.145355981755813 101.00336374755125 0 0 0 0 51.352034527430078 85.901738801654801 0 85.901738801654801 44.196581275442099 0 0 0 0 -16.516485854401253 55.056261338510581 0 55.056261338510581 -27.762549750019389 0 0 0 0 -41.105500018282328 99.663771928407414 0 99.663771928407414 18.344327670419659 0 0 0 0 -21.584071816243522 51.949847035659985 0 51.949847035659985 32.563836809172017 0 0 0 0 12.418094647146063 86.037829177338267 0 86.037829177338267 -15.318298430810501 0 0 0 0 36.538130107786856 49.876971996930024 0 49.876971996930024 -25.490242213110832 0 0 0 0 -150.43913004989736 169.96912178057789 0 169.96912178057789 -20.310235472353497 0 0 0 0 -8.9826931947318371 108.10081202957576 0 108.10081202957576 -36.902651216749518 0 0 0 0 119.64358735336282 -3.791709138229578 0 -3.791709138229578 18.96497732355067 0 0 0 0 27.74996795077459 44.026955538521975 0 44.026955538521975 39.531600553602743 0 0 0 0 124.72487298105261 60.012532816953353 0 60.012532816953353 -45.031272937990252 0 0 0 0 137.01938302999315 -47.144213400406251 0 -47.144213400406251 60.624862163754415 0 0 0 0 146.82971675442241 50.680304486563216 0 50.680304486563216 13.233536690504934 0 0 0 0 9.5741897011976107 117.61298350802062 0 117.61298350802062 -65.097691224961409 0 0 0 0 -60.866159541481466 149.34268510561054 0 149.34268510561054 -25.02612834333263 0 0 0 0 85.076921344989387 -2.0252277920037614 0 -2.0252277920037614 -6.9359676459771435 0 0 0 0 -100.87393156788312 34.169270550955844 0 34.169270550955844 25.748144243315892 0 0 0 0 91.793323326695827 -21.71521559350299 0 -21.71521559350299 -91.469095108628153 0 0 0 0 -245.88500833802391 -65.025166783967506 0 -65.025166783967506 301.16368517078899 0 0 0 0 381.26161935093114 107.08792011411515 0 107.08792011411515 -112.58135330536243 0 0 0 0 12.316326531393685 5.4868717488639049 0 5.4868717488639049 -3.5090579273280404 0 0 0 0 138.65705295288353 284.26477432808451 0 284.26477432808451 -137.51380810857995 0 0 0 0 159.42555497580906 47.937388805798037 0 47.937388805798037 -130.58167321987412 0 0 0 0 20.146126718094564 18.066180666135182 0 18.066180666135182 13.078719771071238 0 0 0 0 1.186777890746157 7.2846878560321642 0 7.2846878560321642 7.0013629355399196 0 0 0 0 -116.49108339188388 -170.45624461055559 0 -170.45624461055559 -255.49721122043502 0 0 0 0 -32.157850710795174 -71.190905003263765 0 -71.190905003263765 16.569564429499223 0 0 0 0 12.462852115015266 18.254195455880563 0 18.254195455880563 -45.183036526961814 0 0 0 0 -121.9654817925184 57.663745665928673 0 57.663745665928673 3.4484548013224412 0 0 0 0 12.109368620706135 2.3061470156775954 0 2.3061470156775954 -5.5140680071695902 0 0 0 0 24.950838259883795 18.60554633466208 0 18.60554633466208 7.988958511081008 0 0 0 0 12.640648963798213 5.4462561863703201 0 5.4462561863703201 -5.9539492171707309 0 0 0 0 62.06106161288335 141.24700007117644 0 141.24700007117644 -12.338201230016239 0 0 0 0 6.2047486986703007 8.7152224757819567 0 8.7152224757819567 -6.5501269341036732 0 0 0 0 36.748741567542311 28.508642942252663 0 28.508642942252663 8.1397452959433281 0 0 0 0 86.111583271442214 -10.685611410865931 0 -10.685611410865931 -65.059939427846984 0 0 0 0 13.087036901873276 3.9805442101446431 0 3.9805442101446431 -9.4759309061652459 0 0 0 0 12.762398044464135 13.365172086963412 0 13.365172086963412 -11.740936275506101 0 0 0 0 11.768031498504431 8.6086368375386257 0 8.6086368375386257 -1.6321175032820943 0 0 0 0 23.396331363735953 14.968106496753535 0 14.968106496753535 -29.159931273621623 0 0 0 0 7.0314515430145548 10.734472178025953 0 10.734472178025953 -5.3021826231306477 0 0 0 0 6.9365358736666849 5.770967746940201 0 5.770967746940201 -1.955816280210616 0 0 0 0 7.6829015382467105 11.053564890876793 0 11.053564890876793 -0.39033676649869431 0 0 0 0 5.2686050401825923 13.918272749353491 0 13.918272749353491 -25.604098791706747 0 0 0 0 27.084747945838899 26.850567349817993 0 26.850567349817993 -26.765143350397921 0 0 0 0 -2.6981944088365708 35.620435830930319 0 35.620435830930319 -48.751793334180547 0 0 0 0 37.623206854135788 16.678518059258749 0 16.678518059258749 -34.077898600465232 0 0 0 0 5.6426816828567752 7.074259662362266 0 7.074259662362266 -12.830850393523349 0 0 0 0 129.77555544348797 34.290269891721664 0 34.290269891721664 -21.997282252592413 0 0 0 0 7.7538386733616065 1.4434443622320146 0 1.4434443622320146 -9.0646766679559612 0 0 0 0 0.39154766919482142 4.2103205350574626 0 4.2103205350574626 -10.381091483279782 0 0 0 0 45.068777232532739 -18.469309222950642 0 -18.469309222950642 14.454800089279161 0 0 0 0 76.014459544481724 6.4660127470931457 0 6.4660127470931457 -17.556999070753591 0 0 0 0 22.786598854378099 4.0552359498751684 0 4.0552359498751684 -4.1758873464486896 0 0 0 0 8.7621887868481281 37.682935075579508 0 37.682935075579508 -8.3236443908972433 0 0 0 0 33.475092638473143 24.77422854557517 0 24.77422854557517 -2.4614128333978442 0 0 0 0 2.7710161915747449 61.748999187428581 0 61.748999187428581 4.3868311606893258 0 0 0 0 -49.805043653963367 84.061968159961907 0 84.061968159961907 10.29368484441602 0 0 0 0 33.336601449904265 101.5328873776748 0 101.5328873776748 6.7997658011790918 0 0 0 0 611.74863447633106 343.46897634905235 0 343.46897634905235 -510.07365218994164 0 0 0 0 -561.89167208784784 120.2011436179564 0 120.2011436179564 349.03469039227821 0 0 0 0 21.334116485448874 17.618565509069199 0 17.618565509069199 12.732868026146662 0 0 0 0 258.10020701712347 -118.47482625075372 0 -118.47482625075372 -109.10164531767077 0 0 0 0 -312.06107599318784 257.07599815416688 0 257.07599815416688 7.9050099885571399 0 0 0 0 3.1319905332679525 4.1442456721451038 0 4.1442456721451038 1.3490689957613995 0 0 0 0 18.512443219355191 197.55140602475058 0 197.55140602475058 -118.21099218572999 0 0 0 0 -278.5188197104635 -354.13847543180509 0 -354.13847543180509 190.71345525648212 0 0 0 0 -31.551437186601106 12.195397120997768 0 12.195397120997768 -17.672464935565586 0 0 0 0 -271.04431821651815 -305.41712370039932 0 -305.41712370039932 356.61363335519491 0 0 0 0 430.53379008986303 -359.18734903241341 0 -359.18734903241341 -130.29604327419656 0 0 0 0 1.5418388556835794 3.3705420012683192 0 3.3705420012683192 4.8507794411467557 0 0 0 0 -42.532483180970303 54.062469894956848 0 54.062469894956848 374.42489214097441 0 0 0 0 339.09835233510239 -182.98306608719213 0 -182.98306608719213 51.592488416527829 0 0 0 0 97.551578321028501 100.56822980984543 0 100.56822980984543 -55.167539541905171 0 0 0 0 130.42872218681441 -79.676758869652531 0 -79.676758869652531 81.255803720348013 0 0 0 0 305.59476461526174 82.72834433422986 0 82.72834433422986 -301.54737143006241 0 0 0 0 -74.506771506978112 366.96164792345519 0 366.96164792345519 -102.2978625015021 0 0 0 0 413.58368102839449 -229.27675684175483 0 -229.27675684175483 -48.001011461052258 0 0 0 0 0.90836038927136542 1.1929895710800906 0 1.1929895710800906 1.4935874833738687 0 0 0 0 -226.98869896309043 -54.994176978724681 0 -54.994176978724681 248.83948639290975 0 0 0 0 15.902348404159454 13.296922250064881 0 13.296922250064881 9.9196612386099297 0 0 0 0 414.77193401101977 0.48788145344951772 0 0.48788145344951772 46.024791563084364 0 0 0 0 -21.362390816262632 99.926350495844531 0 99.926350495844531 247.84884276398043 0 0 0 0 1.2927178788388716 1.099219692640645 0 1.099219692640645 0.80124577088083981 0 0 0 0 683.85005536151584 -368.57115714020074 0 -368.57115714020074 175.75630888379919 0 0 0 0 180.93022316955467 -76.570293392143981 0 -76.570293392143981 -242.02544272544537 0 0 0 0 61.394144252422848 252.76369551933522 0 252.76369551933522 -321.50231290705483 0 0 0 0 670.63800635490043 -235.16526392375175 0 -235.16526392375175 183.81333189706655 0 0 0 0 959.44171082143293 -1532.7784334781077 0 -1532.7784334781077 932.3920806094909 0 0 0 0 1692.5110622366228 -423.153583800033 0 -423.153583800033 12.138187811729665 0 0 0 0 331.58173687369708 -199.49430089879729 0 -199.49430089879729 383.74142106150748 0 0 0 0 1365.2133206550207 -702.81714577368564 0 -702.81714577368564 108.95609062790987 0 0 0 0 531.30223896622192 -121.65510294200523 0 -121.65510294200523 -40.042147483119692 0 0 0 0 574.5921233337067 -138.58120960334304 0 -138.58120960334304 -74.60685060828655 0 0 0 0 1.0103466087335846 0.16530389753771146 0 0.16530389753771146 3.6634597409401266 0 0 0 0 447.11968244608579 9.9894683298617792 0 9.9894683298617792 -35.932582564240874 0 0 0 0 85.952690386257018 91.742240382900263 0 91.742240382900263 -9.064004818898411 0 0 0 0 82.981888903283107 -11.622523664516279 0 -11.622523664516279 91.301168124796277 0 0 0 0 285.56272968866688 -70.192965697656746 0 -70.192965697656746 -44.993068166525291 0 0 0 0 275.45772447096533 -79.276529081805734 0 -79.276529081805734 119.23648548470675 0 0 0 0 1570.479278685496 -230.58021321881776 0 -230.58021321881776 0.093000131030984312 0 0 0 0 318.3552950971789 -43.413272008811305 0 -43.413272008811305 90.188939347238573 0 0 0 0 327.21514554873283 -30.784199803702791 0 -30.784199803702791 -30.699778569687567 0 0 0 0 655.38319327503268 -340.31857489403137 0 -340.31857489403137 172.78667424988521 0 0 0 0 0.99545494941835955 -0.59788475021323961 0 -0.59788475021323961 4.3612565077193288 0 0 0 0 1081.3708348720047 -342.27120159549895 0 -342.27120159549895 213.70929967325628 0 0 0 0 1.196222474414526 -0.48578915284701907 0 -0.48578915284701907 1.8509258441278282 0 0 0 0 570.10537589275918 -119.64909325456588 0 -119.64909325456588 -12.328657626410816 0 0 0 0 387.60513612167051 40.684133243719842 0 40.684133243719842 28.033679059145811 0 0 0 0 990.98663379619393 -366.33216821595101 0 -366.33216821595101 207.87227266891011 0 0 0 0 1019.2296664946043 -329.14489632123491 0 -329.14489632123491 116.44977476837141 0 0 0 0 2348.3695580038147 -472.16948595449588 0 -472.16948595449588 -160.45038660342735 0 0 0 0 1476.755198934995 -637.38468528012095 0 -637.38468528012095 108.04404254019903 0 0 0 0 1506.16282826721 -397.14212496103642 0 -397.14212496103642 -28.431781498226314 0 0 0 0 2378.0923467614211 -688.27706050123209 0 -688.27706050123209 -105.38033356943242 0 0 0 0 3062.4975363075719 -457.67887803818348 0 -457.67887803818348 -262.81133053980017 0 0 0 0 3498.1490971849853 -478.32680119930495 0 -478.32680119930495 -368.49758261570264 0 0 0 0 2907.0522980129535 -112.92841889287843 0 -112.92841889287843 -0.093334381062786242 0 0 0 0 3144.3388196883716 -664.1658069524193 0 -664.1658069524193 99.222472755166919 0 0 0 0 2258.8592795651493 -1044.4293379608666 0 -1044.4293379608666 37.652941091509888 0 0 0 0 3262.8150931754062 -845.39726903802443 0 -845.39726903802443 -13.244133367536932 0 0 0 0 3056.6910490729279 -894.92049486680037 0 -894.92049486680037 1009.0527491855739 0 0 0 0 10.724463617218191 -9.6935425861536686 0 -9.6935425861536686 9.6500207003584073 0 0 0 0 3790.9196970525954 -294.60534228105007 0 -294.60534228105007 -47.724915814037992 0 0 0 0 -477.637520053142 -662.02091068798575 0 -662.02091068798575 673.66066034476501 0 0 0 0 3571.6031792650074 -1280.3895300586098 0 -1280.3895300586098 205.40437043300051 0 0 0 0 3267.3943462882235 -630.75194706253512 0 -630.75194706253512 105.25231167788186 0 0 0 0 73.352306196415157 24.36984605118414 0 24.36984605118414 31.682042501160765 0 0 0 0 181.89901120762806 -17.482638431558826 0 -17.482638431558826 -8.6469094256481185 0 0 0 0 116.32842970489583 -42.451967344416516 0 -42.451967344416516 -16.520925930351041 0 0 0 0 179.89198447777744 -1.8458403414242639 0 -1.8458403414242639 -31.083505826804412 0 0 0 0 193.95898363029846 0.67780516551715664 0 0.67780516551715664 -54.74079465405157 0 0 0 0 168.31031070381596 74.287606456578203 0 74.287606456578203 20.70803119295033 0 0 0 0 126.38213277127943 51.452284069649977 0 51.452284069649977 27.986556509972615 0 0 0 0 120.66071285466751 61.482275865633255 0 61.482275865633255 30.785902469780467 0 0 0 0 75.7978064755589 27.725558791095636 0 27.725558791095636 27.35909965096107 0 0 0 0 61.148125669460569 33.581019718828884 0 33.581019718828884 36.778744030028975 0 0 0 0 2.3860776565592836 0.36330800607130698 0 0.36330800607130698 -1.2280314271075419 0 0 0 0 55.729768694876839 -46.946255294156515 0 -46.946255294156515 54.929530594876269 0 0 0 0 248.36278405141366 -280.29675418333869 0 -280.29675418333869 161.0876258785529 0 0 0 0 130.43708328224602 28.961634184500326 0 28.961634184500326 27.085036501206559 0 0 0 0 3.0954502838356461 0.46116823912734617 0 0.46116823912734617 -0.69587067925591839 0 0 0 0 50.251043776072038 102.43433663399537 0 102.43433663399537 64.395284189169843 0 0 0 0 347.02300161624589 140.38305194978875 0 140.38305194978875 33.951499197398334 0 0 0 0 274.07294531069056 -151.77648676152603 0 -151.77648676152603 104.18204026762112 0 0 0 0 611.26566985561976 -238.06091304492116 0 -238.06091304492116 -9.2609372287915903 0 0 0 0 166.4430546964868 -189.73025984141168 0 -189.73025984141168 84.643465123641363 0 0 0 0 1013.0598614485643 -276.01660911921135 0 -276.01660911921135 -254.86066892469626 0 0 0 0 635.53072181453035 -11.777055331671278 0 -11.777055331671278 -342.05947637576992 0 0 0 0 1.8830662692074611 0.42738877186141622 0 0.42738877186141622 -0.3211670877745938 0 0 0 0 38.276807013397047 12.170053000815187 0 12.170053000815187 -54.86038076843306 0 0 0 0 -39.544130949063401 -18.241785710673412 0 -18.241785710673412 46.631451019682572 0 0 0 0 104.08805807988756 63.429115567326789 0 63.429115567326789 80.798312987599274 0 0 0 0 103.10921966117894 -46.648417704592703 0 -46.648417704592703 8.1722017824304203 0 0 0 0 100.84288849739823 -49.856363758177395 0 -49.856363758177395 10.912116997360954 0 0 0 0 -8.7709283626973047 -40.180635447823079 0 -40.180635447823079 45.964519188618397 0 0 0 0 51.781364420945465 -66.237057139840999 0 -66.237057139840999 13.081810777695864 0 0 0 0 10.406960833235644 -61.670803016564605 0 -61.670803016564605 93.917444650571952 0 0 0 0 119.63452318632335 -203.2473185310937 0 -203.2473185310937 238.64384959396011 0 0 0 0 428.11054996591702 -112.36762870348139 0 -112.36762870348139 7.7603276814988931 0 0 0 0 -0.28722883919823516 -1.3780428177366701 0 -1.3780428177366701 10.331518836538343 0 0 0 0 741.84082982913242 -298.11020227202607 0 -298.11020227202607 -13.877327105095901 0 0 0 0 124.06122602819232 -89.581973572136121 0 -89.581973572136121 -4.4660061913641584 0 0 0 0 225.28810963069554 -64.246232560926728 0 -64.246232560926728 1.871406618216497 0 0 0 0 173.45148651882482 -97.744036224174124 0 -97.744036224174124 3.0662948957756271 0 0 0 0 68.29233659485908 -96.710993124347624 0 -96.710993124347624 5.2874174050957663 0 0 0 0 145.01356558327097 -170.08359699974153 0 -170.08359699974153 74.6659551940038 0 0 0 0 1642.488019305456 -967.20610383697249 0 -967.20610383697249 395.62256193779365 0 0 0 0 20.166036504975636 43.145230504796842 0 43.145230504796842 129.25152501828029 0 0 0 0 -26.310693712948705 -91.126362266473507 0 -91.126362266473507 85.165099260767477 0 0 0 0 -707.89648158932505 -140.73534153760647 0 -140.73534153760647 334.735602995519 0 0 0 0 -618.22084018096939 191.47436534553685 0 191.47436534553685 180.45837635074213 0 0 0 0 -289.2670574040967 -23.577328598616987 0 -23.577328598616987 216.70427437927719 0 0 0 0 -287.77311131884926 137.24952503341774 0 137.24952503341774 137.56302544802838 0 0 0 0 -933.811265069402 -412.45254753280005 0 -412.45254753280005 175.52257916501065 0 0 0 0 1.8382035531664798 -8.4694982232024643 0 -8.4694982232024643 23.443623437208615 0 0 0 0 -195.9800314258755 208.13076659244348 0 208.13076659244348 -236.13691673555877 0 0 0 0 1221.8802979260763 -764.85594257194987 0 -764.85594257194987 514.4511120766349 0 0 0 0 287.06528706979589 188.11915241368544 0 188.11915241368544 -217.59404013107951 0 0 0 0 0.21325896295654445 0.79569898737122458 0 0.79569898737122458 10.306625291754559 0 0 0 0 1406.7349896758678 -442.05249534355789 0 -442.05249534355789 -427.83004631518475 0 0 0 0 -604.52273665784742 230.22191954924142 0 230.22191954924142 923.73377188455243 0 0 0 0 1378.869738084757 12.28352010837699 0 12.28352010837699 47.002553625309247 0 0 0 0 59.310219356300877 -148.45295601288501 0 -148.45295601288501 -43.875154025525262 0 0 0 0 -308.88052388547658 -215.71731364077004 0 -215.71731364077004 -12.160269170862648 0 0 0 0 3.7314903867970415 -11.256884915050051 0 -11.256884915050051 23.946562433211128 0 0 0 0 918.43874434768077 65.145435129411908 0 65.145435129411908 -27.875203308452228 0 0 0 0 0.60675495219038567 -702.24509531214176 0 -702.24509531214176 33.923074323498327 0 0 0 0 1377.3206775670478 -357.04465053827596 0 -357.04465053827596 -224.31626008053263 0 0 0 0 185.5833571024632 -114.18577814891546 0 -114.18577814891546 -79.733415963371044 0 0 0 0 245.44364416386816 -66.514103739430539 0 -66.514103739430539 -77.185803001073907 0 0 0 0 136.58958586820518 -108.72577869722409 0 -108.72577869722409 -61.365816641534593 0 0 0 0 175.01841945758497 -141.6242335941588 0 -141.6242335941588 -143.5733243293962 0 0 0 0 333.54553740640404 -32.681408240507608 0 -32.681408240507608 -111.28260265113431 0 0 0 0 113.84522101364928 -272.40962427805334 0 -272.40962427805334 -105.77782861652986 0 0 0 0 195.46525345233385 -16.777283410801147 0 -16.777283410801147 -41.657152615357518 0 0 0 0 254.35548610919795 0.30304081304666397 0 0.30304081304666397 -20.600416675925771 0 0 0 0 514.3905404446341 20.843252196462572 0 20.843252196462572 -21.892393270860339 0 0 0 0 320.6452921111453 -314.58857509759179 0 -314.58857509759179 363.61703392402296 0 0 0 0 594.89611283942941 -337.96113847543802 0 -337.96113847543802 358.60060796526483 0 0 0 0 329.79996309339617 -1.055370144512338 0 -1.055370144512338 155.0924190321266 0 0 0 0 656.19000903626147 -326.01257010682014 0 -326.01257010682014 302.87543217982875 0 0 0 0 441.67692504424485 -233.24789433215557 0 -233.24789433215557 633.24292973400452 0 0 0 0 683.36990272395951 50.226196723838143 0 50.226196723838143 -13.292148192742388 0 0 0 0 2.3378051862427682 -4.7609379420910756 0 -4.7609379420910756 10.45317098303464 0 0 0 0 1995.6694161429332 -583.67026048293724 0 -583.67026048293724 10.599777522969589 0 0 0 0 1491.286653864634 -109.23738736419932 0 -109.23738736419932 -234.31225184979803 0 0 0 0 124.91282075180789 -0.98469562808418232 0 -0.98469562808418232 -49.36077033452267 0 0 0 0 62.991565957694547 -876.67194936057058 0 -876.67194936057058 1145.8184261829076 0 0 0 0 -677.74238079677161 -220.04305323234678 0 -220.04305323234678 833.95167354866385 0 0 0 0 724.4481343934749 60.202385512077086 0 60.202385512077086 738.56650744647959 0 0 0 0 1109.0479327591202 -394.8835794554106 0 -394.8835794554106 -15.151408322912403 0 0 0 0 -1341.5922069159496 -460.63384123383958 0 -460.63384123383958 727.72521553006391 0 0 0 0 1.9784917915640108 -716.3877766977663 0 -716.3877766977663 724.77749731719496 0 0 0 0 324.20576548371901 40.168156891466083 0 40.168156891466083 -207.10579433286694 0 0 0 0 488.86056546518012 -300.23012978237591 0 -300.23012978237591 -8.0481135946456561 0 0 0 0 798.85809518414317 -557.31615229636509 0 -557.31615229636509 -482.87320300305663 0 0 0 0 1159.2311220915435 -515.56950279371267 0 -515.56950279371267 467.97819103937638 0 0 0 0 1305.1208621727856 -739.57444205352215 0 -739.57444205352215 809.59524930285704 0 0 0 0 1061.7996821307534 94.177733146975299 0 94.177733146975299 -107.09872464180404 0 0 0 0 1.3335404975294338 -3.2166085012483308 0 -3.2166085012483308 3.9038962126207415 0 0 0 0 1820.0652857602981 -358.03782548721199 0 -358.03782548721199 150.77909828380018 0 0 0 0 1158.722852283754 -478.4755982247525 0 -478.4755982247525 110.21180369840945 0 0 0 0 937.08215943331015 -494.30027412648133 0 -494.30027412648133 469.25230535131789 0 0 0 0 979.71614314070212 -645.10902256836391 0 -645.10902256836391 336.53043905957588 0 0 0 0 644.76535881646123 -521.99824149198957 0 -521.99824149198957 466.67255772762428 0 0 0 0 728.2147773683173 -639.14901509317906 0 -639.14901509317906 617.39324389255978 0 0 0 0 647.31464143650373 -547.39067300144154 0 -547.39067300144154 364.01858878946092 0 0 0 0 -25.433790960254555 79.169786797410296 0 79.169786797410296 -200.08317887732125 0 0 0 0 11.240324289041212 1.2217101512643893 0 1.2217101512643893 -6.016356764349867 0 0 0 0 -72.378296961556771 127.91078186244135 0 127.91078186244135 101.12162392797734 0 0 0 0 -47.102258477651048 -85.55603222644595 0 -85.55603222644595 -147.93010320749733 0 0 0 0 42.191278526501264 13.737754546971473 0 13.737754546971473 -60.365790699882155 0 0 0 0 -0.28780769357518921 -0.94872804406345068 0 -0.94872804406345068 1.9587004660455616 0 0 0 0 155.3958138126327 280.0819433534158 0 280.0819433534158 -103.33811278706594 0 0 0 0 159.31894913939072 79.471357721220343 0 79.471357721220343 64.203615347374125 0 0 0 0 1118.1499668281194 -810.79096919772007 0 -810.79096919772007 631.23805934393579 0 0 0 0 52.062416379339993 385.04999400059796 0 385.04999400059796 89.609139312442494 0 0 0 0 5.4802696522181407 0.4304714495750801 0 0.4304714495750801 -2.341941639260305 0 0 0 0 -386.63593718792254 -22.218032842703565 0 -22.218032842703565 140.55595172558628 0 0 0 0 219.61277151513059 74.252004632826583 0 74.252004632826583 39.144073996904353 0 0 0 0 241.16965015194728 114.18395893096158 0 114.18395893096158 104.46868641782225 0 0 0 0 66.945472028617587 24.943691391156477 0 24.943691391156477 25.360467492188945 0 0 0 0 90.05223864436266 101.51762439779145 0 101.51762439779145 84.225999548606524 0 0 0 0 99.344781071584293 78.200906562225612 0 78.200906562225612 44.913834699340441 0 0 0 0 116.82643127106712 55.2009918761064 0 55.2009918761064 29.339797149681658 0 0 0 0 328.09044202501536 52.004826504718494 0 52.004826504718494 -35.713087336936269 0 0 0 0 160.83642290165881 96.207197209283777 0 96.207197209283777 49.462316867290156 0 0 0 0 54.735726155086013 7.3314884419783084 0 7.3314884419783084 0.91976622337301706 0 0 0 0 2.1506371945053893 0.50110049051679084 0 0.50110049051679084 1.0281562553071453 0 0 0 0 3.214365891259348 -4.2654530209460972 0 -4.2654530209460972 4.1837345931218968 0 0 0 0 13.714247009062092 -11.362891102512322 0 -11.362891102512322 3.0411125444745721 0 0 0 0 47.891564969118917 35.630681722842382 0 35.630681722842382 39.168062650249908 0 0 0 0 -2.5372909593206714 -6.4680417482483108 0 -6.4680417482483108 31.003537682014667 0 0 0 0 1.3711844025119433 -2.5890394961301695 0 -2.5890394961301695 3.3808078879132455 0 0 0 0 -2.6690038812230341 -9.2170473602877792 0 -9.2170473602877792 7.6417336072169064 0 0 0 0 14.682548458236852 -1.2558759590873692 0 -1.2558759590873692 3.0229832896624202 0 0 0 0 39.721556591663102 -7.5717170954179664 0 -7.5717170954179664 -12.61899376731742 0 0 0 0 0.51880988317056165 2.8406242688060956 0 2.8406242688060956 1.6284133299975299 0 0 0 0 -2.7351098195213126 -41.942911377610869 0 -41.942911377610869 11.998229544330343 0 0 0 0 18.226652219731477 5.414955303558088 0 5.414955303558088 -81.713298113159567 0 0 0 0 -23.463318180451097 17.238232015268082 0 17.238232015268082 -50.613164334177554 0 0 0 0 33.232260524346202 23.573996569367125 0 23.573996569367125 -51.403363172233838 0 0 0 0 239.41367049306518 48.023513561098412 0 48.023513561098412 -105.6833611160921 0 0 0 0 0.76273529482769931 2.3413081201387484 0 2.3413081201387484 0.2569818941148494 0 0 0 0 485.30316042114282 -22.266914141633663 0 -22.266914141633663 -56.285053065966963 0 0 0 0 -121.11276566314336 171.14729516925189 0 171.14729516925189 46.670308388441128 0 0 0 0 113.46463158506594 -111.79669311605653 0 -111.79669311605653 204.25379160733519 0 0 0 0 231.09501272817215 -183.59725026129559 0 -183.59725026129559 -35.595492951531128 0 0 0 0 111.16266121870285 32.209425632638954 0 32.209425632638954 -55.324141808254097 0 0 0 0 -45.169900622873683 10.947831909644492 0 10.947831909644492 -172.51849047122133 0 0 0 0 623.10424819962645 220.27078929901745 0 220.27078929901745 177.733842413307 0 0 0 0 939.03791907137202 558.09355678533052 0 558.09355678533052 -292.30529508253994 0 0 0 0 -149.8084576180554 -337.12298536667038 0 -337.12298536667038 226.29856953949911 0 0 0 0 9.5572650357783857 -7.4356840789131482 0 -7.4356840789131482 6.202254395860062 0 0 0 0 348.36084629935795 -332.75326115231303 0 -332.75326115231303 -405.28244151659419 0 0 0 0 113.60680848676566 -510.91191823950254 0 -510.91191823950254 267.77283175108926 0 0 0 0 23.80928872596408 6.940528411982676 0 6.940528411982676 1.5672948349879645 0 0 0 0 27.601695647317683 19.62816078472315 0 19.62816078472315 -22.208025341647954 0 0 0 0 729.50020847131964 -1116.0060567850414 0 -1116.0060567850414 -468.55575788360761 0 0 0 0 118.26397802209249 -352.67909175696536 0 -352.67909175696536 -89.604094422766138 0 0 0 0 139.50654721940373 -59.133466334697687 0 -59.133466334697687 18.903923859295901 0 0 0 0 14.641542624260182 -44.357502767274127 0 -44.357502767274127 6.7717443348051347 0 0 0 0 26.934573804680895 72.042288270711907 0 72.042288270711907 -28.725832410815656 0 0 0 0 56.297930376953445 -3.9437039439153523 0 -3.9437039439153523 -42.723194555926739 0 0 0 0 4.7509380803830368 0.76109389860931742 0 0.76109389860931742 -1.415949870151568 0 0 0 0 50.956739703782659 -11.920386748437295 0 -11.920386748437295 1.9868896657966957 0 0 0 0 0.91155032489631083 3.067299972861278 0 3.067299972861278 3.9455913628427588 0 0 0 0 32.384942419310391 -25.872332844089897 0 -25.872332844089897 17.485684746641709 0 0 0 0 20.017167707199405 -3.1109187525376001 0 -3.1109187525376001 3.3324297717147147 0 0 0 0 8.2816761598115676 1.1983522900785459 0 1.1983522900785459 -0.25332486087526007 0 0 0 0 20.396851721627172 4.8901435116413268 0 4.8901435116413268 4.8936960873397766 0 0 0 0 -7.6909256003413589 7.0792840176992087 0 7.0792840176992087 8.3378148452560144 0 0 0 0 35.279916279396275 -48.02448619231518 0 -48.02448619231518 58.711664477576505 0 0 0 0 -0.8242353995495364 -0.23525832578006423 0 -0.23525832578006423 1.3891884389784526 0 0 0 0 132.61873882398322 45.330790770457611 0 45.330790770457611 -25.269134567648962 0 0 0 0 684.55728910907783 -92.190647092497784 0 -92.190647092497784 -112.21618044246816 0 0 0 0 690.46696879185038 -227.91374239056154 0 -227.91374239056154 -109.36063575892854 0 0 0 0 -317.58158633416224 36.724030282551723 0 36.724030282551723 345.74466596582533 0 0 0 0 616.88781452224794 161.18915976254402 0 161.18915976254402 -105.74087480122489 0 0 0 0 675.53817844549485 -537.38367720176029 0 -537.38367720176029 369.50809811365184 0 0 0 0 8.7098429152561891 1.4661610216910717 0 1.4661610216910717 -0.14223266707919446 0 0 0 0 99.805698692129226 -35.563382553922565 0 -35.563382553922565 0.68169100680779593 0 0 0 0 103.33652558101858 -75.011013799018997 0 -75.011013799018997 -59.481976878657861 0 0 0 0 93.470370533514142 -99.369737749514371 0 -99.369737749514371 55.683008690776205 0 0 0 0 75.898857770069299 -0.70509222575606145 0 -0.70509222575606145 26.216470514310458 0 0 0 0 32.773951230490638 -12.94063710262526 0 -12.94063710262526 30.014781178409521 0 0 0 0 68.370208923017344 -11.987094565879374 0 -11.987094565879374 14.694919110886985 0 0 0 0 27.2504169078817 9.558037102663846 0 9.558037102663846 4.7742611926874279 0 0 0 0 65.761348397156326 -6.3283400172296638 0 -6.3283400172296638 -43.079711196494259 0 0 0 0 239.40755391726998 -165.21214878058242 0 -165.21214878058242 -635.37751808779831 0 0 0 0 8.0901694633931669 2.4239163004440911 0 2.4239163004440911 4.9725948502682984 0 0 0 0 54.387140641661972 -14.042188192593301 0 -14.042188192593301 5.8720211167837988 0 0 0 0 54.551676521221452 -11.74321751305888 0 -11.74321751305888 9.0934408901393908 0 0 0 0 71.023785158555256 -12.464616994325752 0 -12.464616994325752 0.48176309635528014 0 0 0 0 8.5935858076042972 -12.253772331782386 0 -12.253772331782386 -1.0586723216314056 0 0 0 0 34.821101770998212 -97.154400008712855 0 -97.154400008712855 2388.7076392979066 0 0 0 0 6.6802327278939799 -1.15258693429044 0 -1.15258693429044 -0.40474488915755202 0 0 0 0 1044.2428184079472 322.26827635127256 0 322.26827635127256 -353.64359952256314 0 0 0 0 8.8010634377335357 -6.021054619030096 0 -6.021054619030096 4.5790448465569114 0 0 0 0 62.05596451414749 -4.1066134630250417 0 -4.1066134630250417 -0.091819024814867589 0 0 0 0 28.440486641772679 1.2643623821268477 0 1.2643623821268477 -1.4424627348082444 0 0 0 0 52.591121416844544 -9.9928531698710685 0 -9.9928531698710685 -3.1047153638501186 0 0 0 0 55.371254584806593 0.83035394242619986 0 0.83035394242619986 -2.5346991213700676 0 0 0 0 28.259194985589509 0.84687384715618919 0 0.84687384715618919 -5.7975218343973776 0 0 0 0 49.620900864340001 0.011270149737583779 0 0.011270149737583779 2.3964956409990918 0 0 0 0 4.3015134053010371 0.47945686664432685 0 0.47945686664432685 -0.32335848077747897 0 0 0 0 53.022580935386941 -5.5214374339316237 0 -5.5214374339316237 -1.4688354359923323 0 0 0 0 40.773810379780116 -0.63653271324596972 0 -0.63653271324596972 -1.7906528179546513 0 0 0 0 47.666865849548969 1.9360996559991364 0 1.9360996559991364 -1.584246793333191 0 0 0 0 64.701623307097407 1.2365831091864337 0 1.2365831091864337 -3.5649246731400086 0 0 0 0 15.015220840724851 -6.1173834009650392 0 -6.1173834009650392 -1.991869792801193 0 0 0 0 136.97712088371918 -1.8379369754275103 0 -1.8379369754275103 -38.901333461882643 0 0 0 0 71.266906061115151 -13.583959413988396 0 -13.583959413988396 -7.0069475623286053 0 0 0 0 69.056203408781585 -14.948808604779856 0 -14.948808604779856 -5.973112429599496 0 0 0 0 83.286459893381107 -42.620859599238429 0 -42.620859599238429 45.463595894744003 0 0 0 0 151.18596186480397 -37.731981341367003 0 -37.731981341367003 -25.771192309030084 0 0 0 0 93.520308420054789 -14.934984175415593 0 -14.934984175415593 -33.6972771881874 0 0 0 0 11.274976767194488 -6.4895733486899019 0 -6.4895733486899019 -1.7105894728721633 0 0 0 0 83.551841253472958 -9.7535785656082226 0 -9.7535785656082226 -31.417894395778603 0 0 0 0 46.25191268157505 25.621396587116351 0 25.621396587116351 -51.852221269000438 0 0 0 0 40.820879936624905 1.7419833179905879 0 1.7419833179905879 -4.6778025289877574 0 0 0 0 88.460057954948752 55.907943530366282 0 55.907943530366282 -64.961267147839862 0 0 0 0 51.2848243710323 7.2104666523391643 0 7.2104666523391643 -40.525076386331875 0 0 0 0 36.574780244114891 10.636213157875369 0 10.636213157875369 0.23565114473294191 0 0 0 0 151.61495155877645 23.987474368506668 0 23.987474368506668 -52.357312972064392 0 0 0 0 4.5569303507353993 4.7422913879875601 0 4.7422913879875601 -2.3872200122922331 0 0 0 0 32.418369201215683 78.785776350659035 0 78.785776350659035 40.465983046019119 0 0 0 0 41.465290251820988 33.782396717015217 0 33.782396717015217 -21.914619959910624 0 0 0 0 34.318224732651288 36.787512360501921 0 36.787512360501921 -22.811121845238631 0 0 0 0 84.990153983235359 47.978994230391436 0 47.978994230391436 -15.773302432650325 0 0 0 0 34.538989605087409 30.199886117664391 0 30.199886117664391 -7.4106523979016856 0 0 0 0 41.112266608099162 33.480150254480066 0 33.480150254480066 -15.655672499993443 0 0 0 0 61.079048675004742 8.7552529461503923 0 8.7552529461503923 -19.925780935007879 0 0 0 0 40.256302861191216 22.881743203931762 0 22.881743203931762 -10.523436179254588 0 0 0 0 5.8346994888595063 -6.6301752670525218 0 -6.6301752670525218 -16.09935031993658 0 0 0 0 50.213143199554906 -37.36263440878281 0 -37.36263440878281 -14.124402277218906 0 0 0 0 22.128050957966479 -10.239147598278805 0 -10.239147598278805 -25.497205903434633 0 0 0 0 1.5664337332769946 -2.631931059056754 0 -2.631931059056754 -4.0852384615784629 0 0 0 0 -21.680702927245875 -12.253396800704195 0 -12.253396800704195 33.405067773948986 0 0 0 0 20.158277590297573 -7.604776957546207 0 -7.604776957546207 -13.949209663564009 0 0 0 0 86.897780461235016 0.58391514935669875 0 0.58391514935669875 -22.659258219635376 0 0 0 0 103.38741230184132 -17.941216830652706 0 -17.941216830652706 -38.377913836994139 0 0 0 0 117.31569365557516 8.0143006130265348 0 8.0143006130265348 -24.907588884251254 0 0 0 0 73.154718623685767 5.5629618316534106 0 5.5629618316534106 -8.8912088959983748 0 0 0 0 93.85857978103013 10.818133166174903 0 10.818133166174903 -15.254264961324225 0 0 0 0 74.054618541209493 8.5187357825234358 0 8.5187357825234358 -12.601253199392886 0 0 0 0 97.324466372316238 28.811101729576876 0 28.811101729576876 3.7083707135461736 0 0 0 0 108.09281126032874 -1.925189846541798 0 -1.925189846541798 -1.8918975455669624 0 0 0 0 161.6501283881953 49.533707255565332 0 49.533707255565332 -1.2011854736783789 0 0 0 0 82.168088804086437 26.050301309132465 0 26.050301309132465 -14.831460317716846 0 0 0 0 89.904024362156633 11.430160489733225 0 11.430160489733225 -16.143931768156108 0 0 0 0 111.92835384448699 21.784382116669804 0 21.784382116669804 -62.034084903322764 0 0 0 0 110.67852797666274 10.279319568343908 0 10.279319568343908 -10.756712472297522 0 0 0 0 183.80183457645762 57.015791367814018 0 57.015791367814018 -51.579047324157159 0 0 0 0 204.76823666543351 -70.278802653834191 0 -70.278802653834191 -24.609371437019945 0 0 0 0 50.826738567360735 73.976416339369507 0 73.976416339369507 39.437340918179643 0 0 0 0 2.3908934246361753 0.85406748534121135 0 0.85406748534121135 0.40463733168946026 0 0 0 0 100.41077895176568 161.32861817980404 0 161.32861817980404 148.53167447532201 0 0 0 0 4.6332608246685183 2.4011513410608387 0 2.4011513410608387 -6.6641969667194534 0 0 0 0 24.12216102531238 9.0452122820784098 0 9.0452122820784098 -13.273219902156825 0 0 0 0 -33.29142537797452 23.607358450447123 0 23.607358450447123 333.48623097914742 0 0 0 0 345.77463372703642 153.48114745172438 0 153.48114745172438 -159.68764594688855 0 0 0 0 17.823691055105883 7.8425165213923265 0 7.8425165213923265 -2.6922687124676372 0 0 0 0 1.6214250090871545 1.4092677959148006 0 1.4092677959148006 -6.1119870901563109 0 0 0 0 29.938074137609874 0.81781012249186347 0 0.81781012249186347 -8.4404668154043065 0 0 0 0 9.9902748513683406 -5.9693672987228581 0 -5.9693672987228581 -13.775480371799102 0 0 0 0 91.250680394063238 -20.859390789370423 0 -20.859390789370423 -60.663029298253605 0 0 0 0 156.16143922329866 -12.264662578270872 0 -12.264662578270872 -156.74479002865883 0 0 0 0 33.758603478621808 5.4814847643422127 0 5.4814847643422127 -17.375372301797597 0 0 0 0 38.751829627064581 13.144126548619283 0 13.144126548619283 -6.3388945669564691 0 0 0 0 16.919028846785295 3.1627336807725044 0 3.1627336807725044 -12.577712572136463 0 0 0 0 15.765983651856743 -0.056085555690629008 0 -0.056085555690629008 -14.205956711534995 0 0 0 0 32.999510483386985 11.028268212320654 0 11.028268212320654 -6.8203295513452531 0 0 0 0 12.332961542357566 3.2117792771459044 0 3.2117792771459044 -1.1623217879358756 0 0 0 0 31.875300628911646 7.9379343748751126 0 7.9379343748751126 -15.315248497437096 0 0 0 0 26.685885231658176 19.947620748948452 0 19.947620748948452 -9.0553567254494283 0 0 0 0 26.960690840802272 24.970596709834354 0 24.970596709834354 22.180642456528176 0 0 0 0 344.46006620325352 203.30902290934341 0 203.30902290934341 134.10855489439291 0 0 0 0 151.85025343368034 16.606560359464311 0 16.606560359464311 23.544607003792407 0 0 0 0 331.71408413903555 -147.84795954208585 0 -147.84795954208585 -36.709697651283932 0 0 0 0 640.42854865449044 -198.10958235677072 0 -198.10958235677072 -50.853902792584449 0 0 0 0 2.1256874782080786 -3.1740940104606707 0 -3.1740940104606707 2.9539066129649676 0 0 0 0 183.07642505299009 -253.85055659217642 0 -253.85055659217642 308.21012718819566 0 0 0 0 66.41602452184452 -39.888992012967719 0 -39.888992012967719 272.88429400898258 0 0 0 0 -31.469258555167471 -19.79548299354019 0 -19.79548299354019 -8.8056664073073421 0 0 0 0 59.006621711901971 -84.724652405674988 0 -84.724652405674988 7.8383658136954182 0 0 0 0 42.759261659120966 21.195765177675412 0 21.195765177675412 -1.6624703496636357 0 0 0 0 -90.843703628153889 -12.62117534681056 0 -12.62117534681056 36.244066592839772 0 0 0 0 11.119363466043197 20.227648262979756 0 20.227648262979756 4.4796063726708368 0 0 0 0 -22.037237194090267 8.8312827848362758 0 8.8312827848362758 -7.6564869118726619 0 0 0 0 -0.89187373829803107 -0.084587109235016555 0 -0.084587109235016555 0.39040902710789993 0 0 0 0 9.43120401896158 33.147094081128671 0 33.147094081128671 5.0370828756222181 0 0 0 0 8.3277964249842995 19.60585160022147 0 19.60585160022147 -7.5044494586806252 0 0 0 0 58.759978931688238 7.7551095633566547 0 7.7551095633566547 -8.5381669402745501 0 0 0 0 71.090976271053478 26.031849210068799 0 26.031849210068799 -10.31883598843433 0 0 0 0 -125.69775301950722 77.258675879823841 0 77.258675879823841 100.90139041691782 0 0 0 0 -66.343920373677975 124.16921283188549 0 124.16921283188549 137.84690055618648 0 0 0 0 0.64788436019507856 0.75389438966550415 0 0.75389438966550415 -0.59885388422048891 0 0 0 0 49.635452677881403 -17.023092867712421 0 -17.023092867712421 -57.07593759275187 0 0 0 0 51.910262697958387 51.795962265901835 0 51.795962265901835 45.695244734893095 0 0 0 0 32.040660137037776 4.2953271227556797 0 4.2953271227556797 -43.246011044257102 0 0 0 0 47.268735283127171 48.1414459954417 0 48.1414459954417 -18.324621977055358 0 0 0 0 58.226452002432779 79.649892090068533 0 79.649892090068533 -64.07038825364134 0 0 0 0 61.496633184364327 41.44128858329168 0 41.44128858329168 -13.299576836531287 0 0 0 0 22.52066991164611 7.1204302823645094 0 7.1204302823645094 -10.337350980538218 0 0 0 0 5.487874599499122 6.1371923877390895 0 6.1371923877390895 -4.3439429392446547 0 0 0 0 4.2493306760297855 20.286536312775866 0 20.286536312775866 -13.500827435023893 0 0 0 0 31.504994203511785 1.7371066064165639 0 1.7371066064165639 -9.7161911782022727 0 0 0 0 64.31922649207263 37.583014054479918 0 37.583014054479918 -99.744041923746408 0 0 0 0 14.068177467624352 14.977756932010408 0 14.977756932010408 -20.034975749882015 0 0 0 0 -17.597018330408901 55.355227967303108 0 55.355227967303108 -54.433374381230351 0 0 0 0 52.812457518841256 28.618402989741298 0 28.618402989741298 -105.45177439268491 0 0 0 0 44.634138390232692 -61.597349281204515 0 -61.597349281204515 -201.81739361227483 0 0 0 0 6.3410215245156962 4.571966826673922 0 4.571966826673922 -2.4281333860778282 0 0 0 0 107.67847463238286 34.569268384248971 0 34.569268384248971 -125.26635969592826 0 0 0 0 58.142023790664098 14.295600282356645 0 14.295600282356645 -26.657695882395274 0 0 0 0 112.21142926554603 47.707986139745117 0 47.707986139745117 -100.40035746273134 0 0 0 0 236.62348449504134 -38.156880097014437 0 -38.156880097014437 -37.915950653878099 0 0 0 0 151.34391340438742 82.346068983664736 0 82.346068983664736 -29.283753441504814 0 0 0 0 342.09945099527249 -274.31523804831795 0 -274.31523804831795 86.81716847343705 0 0 0 0 156.53217558754113 -114.86746788872415 0 -114.86746788872415 35.423158759218495 0 0 0 0 294.96113441691705 -146.93662804416726 0 -146.93662804416726 -6.9056129638429411 0 0 0 0 53.21045902982587 12.227336200685386 0 12.227336200685386 -29.826731985041988 0 0 0 0 171.21714577105013 -8.343409948180124 0 -8.343409948180124 -114.73860723985399 0 0 0 0 54.350949681247585 -105.72418072240907 0 -105.72418072240907 45.969120059767192 0 0 0 0 53.410395823535509 57.528942884260687 0 57.528942884260687 44.957613173001846 0 0 0 0 74.27948440349428 57.418423159161648 0 57.418423159161648 36.851773243692151 0 0 0 0 30.658883050290626 2.6835217120210899 0 2.6835217120210899 -1.5220247078287255 0 0 0 0 285.03761791370198 162.94831061315108 0 162.94831061315108 -44.181030293500044 0 0 0 0 80.34490594602903 90.036966324993045 0 90.036966324993045 76.351979547795054 0 0 0 0 158.95874907706093 161.88582059557473 0 161.88582059557473 67.889463097666521 0 0 0 0 67.265471792700737 34.617307353731576 0 34.617307353731576 -17.261030274554287 0 0 0 0 134.5893320387986 77.17671098784831 0 77.17671098784831 -26.02464675551073 0 0 0 0 62.560300538971205 55.484897485222973 0 55.484897485222973 29.71039897376977 0 0 0 0 38.822153418647758 -12.26574060172797 0 -12.26574060172797 -25.530494517524858 0 0 0 0 34.524272330672829 33.842608452446257 0 33.842608452446257 27.523158453543147 0 0 0 0 97.776276591619535 51.842133374650302 0 51.842133374650302 8.1198202764426242 0 0 0 0 21.736912273864988 8.8887553925775009 0 8.8887553925775009 -12.403821087286296 0 0 0 0 30.226803711630055 10.994281326590226 0 10.994281326590226 -20.457722580617201 0 0 0 0 -8.7759265517961467 10.46742009942173 0 10.46742009942173 -5.4287682818444409 0 0 0 0 20.728565750508892 0.86092552544658929 0 0.86092552544658929 -19.265548612983228 0 0 0 0 16.556088259254466 41.583298441765692 0 41.583298441765692 -60.854921330446246 0 0 0 0 -26.79230375494808 -51.797276455825795 0 -51.797276455825795 -40.60551574854469 0 0 0 0 -28.515997635279291 -36.811252894983063 0 -36.811252894983063 103.1243100954589 0 0 0 0 42.93382143751441 -3.2368252542757006 0 -3.2368252542757006 -17.187266759980947 0 0 0 0 68.538442856377515 7.5778079959452498 0 7.5778079959452498 -6.7021190971233864 0 0 0 0 39.154588634002721 36.688000452400502 0 36.688000452400502 9.2006944154518351 0 0 0 0 10.778720413100004 16.717144720839102 0 16.717144720839102 -10.499211779922629 0 0 0 0 54.372985430134577 0.1096599408504062 0 0.1096599408504062 -10.58843193855455 0 0 0 0 60.42562890710542 8.5456684517160966 0 8.5456684517160966 -14.110424453275186 0 0 0 0 71.976197811350005 10.951826825553383 0 10.951826825553383 -6.1753995548116958 0 0 0 0 62.301086310755636 12.415272263564759 0 12.415272263564759 -25.941065660544609 0 0 0 0 17.767198125899931 13.988536775268273 0 13.988536775268273 -12.671035361709826 0 0 0 0 106.68843663707958 3.9938301279676125 0 3.9938301279676125 14.303997687442461 0 0 0 0 252.28656939364009 -90.501422253129704 0 -90.501422253129704 22.984705789793225 0 0 0 0 200.65029149390648 29.370519776486503 0 29.370519776486503 -65.483606063256957 0 0 0 0 379.86794150959759 75.158467458344603 0 75.158467458344603 -41.890517716044542 0 0 0 0 219.44795410846564 93.812050340085761 0 93.812050340085761 87.028677114105449 0 0 0 0 201.95064062144957 52.242020290222172 0 52.242020290222172 -44.788227844970379 0 0 0 0 247.90256404778484 61.214165304683775 0 61.214165304683775 -80.076014436201149 0 0 0 0 205.74496570783958 93.417494470590555 0 93.417494470590555 -95.084308561048601 0 0 0 0 214.16173066107149 37.268768141923829 0 37.268768141923829 -41.951752277274863 0 0 0 0 194.00948351355328 94.595983149602944 0 94.595983149602944 -22.153227151147803 0 0 0 0 128.69582721631014 13.285211603306379 0 13.285211603306379 -48.283074087495152 0 0 0 0 32.177657694865047 -18.141223660081721 0 -18.141223660081721 -6.2404329999840229 0 0 0 0 53.350315548756043 14.149681193896186 0 14.149681193896186 0.58008016172766474 0 0 0 0 21.147359591460088 -6.2724442935254956 0 -6.2724442935254956 -16.043637517011408 0 0 0 0 56.615868847220554 18.845769640833375 0 18.845769640833375 -2.3562077336641494 0 0 0 0 27.851851995467257 10.164606682978949 0 10.164606682978949 -3.3277203564859379 0 0 0 0 22.314308564396924 6.7587977364503331 0 6.7587977364503331 -15.773587699198345 0 0 0 0 54.588325148739386 14.417979881082033 0 14.417979881082033 -4.9448736549375099 0 0 0 0 48.041843309511023 15.251851884284633 0 15.251851884284633 -2.8070560929243129 0 0 0 0 53.632851502814447 14.699899917269477 0 14.699899917269477 -5.8033451704975505 0 0 0 0 8.1829249155416619 35.3053825153155 0 35.3053825153155 40.421551581157473 0 0 0 0 0.25433722958072735 13.372228162341528 0 13.372228162341528 -3.520660663336884 0 0 0 0 84.869263492342725 50.567357437647303 0 50.567357437647303 -21.498689279629815 0 0 0 0 204.6465371068407 -98.112185542182601 0 -98.112185542182601 -77.281715707122203 0 0 0 0 -1.3248594256010904 4.8804903735951797 0 4.8804903735951797 1.071707191938688 0 0 0 0 34.501844823040301 68.305050273112727 0 68.305050273112727 69.906284687217976 0 0 0 0 202.46134987706318 -78.549757489825652 0 -78.549757489825652 -89.752872150362009 0 0 0 0 -48.707360033724399 -14.64188952212055 0 -14.64188952212055 -0.37068065376024606 0 0 0 0 228.28987043148663 53.297582438277004 0 53.297582438277004 12.068227153355906 0 0 0 0 43.514823042111175 -6.0600122716795823 0 -6.0600122716795823 -11.174146445678513 0 0 0 0 160.56598155327083 -82.759649996369632 0 -82.759649996369632 -112.21398467234374 0 0 0 0 104.85077701169212 80.117547819338142 0 80.117547819338142 3.912635175109159 0 0 0 0 54.238240100615712 2.507510237716815 0 2.507510237716815 -13.787348526789174 0 0 0 0 49.800870928782388 -4.8560987352502707 0 -4.8560987352502707 -18.76409368263387 0 0 0 0 59.541975113206718 3.7222991035737039 0 3.7222991035737039 -36.980609143409993 0 0 0 0 60.494630895678426 -1.383877607678123 0 -1.383877607678123 -0.62886234813261066 0 0 0 0 49.603868175705429 -4.0574541273890645 0 -4.0574541273890645 -45.819686408045982 0 0 0 0 -3.8880751177057391 26.341681933377743 0 26.341681933377743 -60.31406611386123 0 0 0 0 45.529244887047639 -3.2557731007530535 0 -3.2557731007530535 -3.7920514601199247 0 0 0 0 57.705579205066897 -15.644314331178975 0 -15.644314331178975 -57.500374376300897 0 0 0 0 5.255166358331163 4.0633478840647115 0 4.0633478840647115 0.76784729424452891 0 0 0 0 49.242078833565756 -1.2254794226078616 0 -1.2254794226078616 -37.369293926417413 0 0 0 0 4.6808968461089435 16.198272771150286 0 16.198272771150286 -5.7564233552224611 0 0 0 0 47.842453102698983 -7.6010636180764806 0 -7.6010636180764806 -13.067913691432047 0 0 0 0 84.49703166384279 23.712931362462996 0 23.712931362462996 -51.291402792942563 0 0 0 0 59.046670280527906 13.931271058114817 0 13.931271058114817 -5.8354043530321178 0 0 0 0 56.760593163713565 18.062400816920388 0 18.062400816920388 -12.481031811551475 0 0 0 0 43.446493849618037 18.530596963198903 0 18.530596963198903 -14.271529332576076 0 0 0 0 44.656606983407983 10.804766142893243 0 10.804766142893243 -57.4215632006335 0 0 0 0 66.868966149166226 17.545531730304447 0 17.545531730304447 -15.450158452929372 0 0 0 0 64.606078041595538 9.2825978750617537 0 9.2825978750617537 -17.882621227412073 0 0 0 0 61.077424246628652 65.176031883531493 0 65.176031883531493 -290.515472904592 0 0 0 0 11.64590433757769 8.1019387939619207 0 8.1019387939619207 -4.337052202152214 0 0 0 0 35.134926668048138 105.29045142814789 0 105.29045142814789 -122.3854967748357 0 0 0 0 58.236888155032773 7.1372021035112283 0 7.1372021035112283 -2.3789632892451689 0 0 0 0 101.71117970743217 65.206209419012225 0 65.206209419012225 -268.20706365720253 0 0 0 0 56.186815076776838 8.6160349132737792 0 8.6160349132737792 -15.54351160025908 0 0 0 0 51.729241703738808 8.1402277926681563 0 8.1402277926681563 -5.2491249293873352 0 0 0 0 1771.37098278146 -602.16883699304242 0 -602.16883699304242 331.18568523006866 0 0 0 0 -1568.6319707394578 784.1878226066558 0 784.1878226066558 216.06063771866809 0 0 0 0 242.02371465123724 -251.43103221511183 0 -251.43103221511183 327.97156513532985 0 0 0 0 682.33074814085558 14.554903089465025 0 14.554903089465025 -74.26372420142286 0 0 0 0 459.96322586295719 -296.9282412386948 0 -296.9282412386948 188.70482094092824 0 0 0 0 331.9294397009653 -170.94734511474633 0 -170.94734511474633 64.838798975116845 0 0 0 0 223.67827242342173 -125.04451398852268 0 -125.04451398852268 56.753959486477299 0 0 0 0 183.61281148253511 -1.7031466180378736 0 -1.7031466180378736 -133.22109700266958 0 0 0 0 426.84325277991593 -75.200768796024704 0 -75.200768796024704 -119.18996582220052 0 0 0 0 55.071773492367356 126.90808867009582 0 126.90808867009582 -112.9782145526724 0 0 0 0 176.76335967495106 -32.721575864666193 0 -32.721575864666193 -199.31081753425582 0 0 0 0 286.13578511473315 119.95135008321614 0 119.95135008321614 -99.18228972960803 0 0 0 0 159.61305789343896 82.49286748367166 0 82.49286748367166 -94.96250035266111 0 0 0 0 -88.029350058841374 229.30570491783539 0 229.30570491783539 28.140189941790922 0 0 0 0 48.488410739992105 48.683343473214421 0 48.683343473214421 -67.213604336301159 0 0 0 0 162.51504715142073 175.21431885145248 0 175.21431885145248 -145.31297998109159 0 0 0 0 102.79640826085961 190.47553452469342 0 190.47553452469342 -148.01111109947567 0 0 0 0 9.796734168774492 -1.9994556647761357 0 -1.9994556647761357 0.42761312477050517 0 0 0 0 237.82233994730632 276.40066927174928 0 276.40066927174928 7.6594435064229849 0 0 0 0 10.618109991919482 34.887120852144264 0 34.887120852144264 -47.383632672022998 0 0 0 0 31.937012106573093 7.7948983470247555 0 7.7948983470247555 13.554129942697024 0 0 0 0 7.2721923800957029 -1.7196823907400685 0 -1.7196823907400685 0.28138162743098571 0 0 0 0 2.852055123745231 11.109044659386285 0 11.109044659386285 27.548181858241318 0 0 0 0 -39.001088973323931 -40.769531171852094 0 -40.769531171852094 -125.47839323624007 0 0 0 0 -163.51596904548205 33.548484312024591 0 33.548484312024591 -68.20295848530634 0 0 0 0 54.08621270290314 -4.2651891946195164 0 -4.2651891946195164 -113.67148192240045 0 0 0 0 23.957043704314856 -58.205547564506375 0 -58.205547564506375 -138.90012084620506 0 0 0 0 23.431401562411338 9.4460216795417828 0 9.4460216795417828 33.485029604714043 0 0 0 0 57.656777441668964 63.310794277723147 0 63.310794277723147 71.058850595409737 0 0 0 0 90.157171559654671 40.065141984084086 0 40.065141984084086 -0.166250554532553 0 0 0 0 90.535251119581517 36.843001379819128 0 36.843001379819128 22.717490556735115 0 0 0 0 109.3702372990665 5.4077004990208541 0 5.4077004990208541 -0.016661646197973057 0 0 0 0 111.90375383792707 33.721947615365472 0 33.721947615365472 -2.5472353223860367 0 0 0 0 112.2858663705847 26.557932740555337 0 26.557932740555337 7.8716341757830941 0 0 0 0 98.453525890807214 9.5893379616736638 0 9.5893379616736638 -4.2412958279883455 0 0 0 0 131.55094258740428 16.327634502797039 0 16.327634502797039 -4.2170761199291604 0 0 0 0 0.29495569128351917 -0.040207206830881859 0 -0.040207206830881859 0.0016939890009858318 0 0 0 0 71.437040723045357 -7.7646071123239953 0 -7.7646071123239953 0.38880687322858876 0 0 0 0 27.838047669967636 -19.174558939715013 0 -19.174558939715013 -2.5890795159730859 0 0 0 0 82.402497676084749 7.4777910844060997 0 7.4777910844060997 0.78270335025372439 0 0 0 0 4.3685722155496478 -7.8857461629036685 0 -7.8857461629036685 29.303194905432875 0 0 0 0 2.5680633703013882 -13.63136638545938 0 -13.63136638545938 17.553203495430182 0 0 0 0 27.519512524449965 -10.274414339987743 0 -10.274414339987743 17.953169342611325 0 0 0 0 1.6602302701212466 4.6628570427158396 0 4.6628570427158396 30.367610380678514 0 0 0 0 64.246551827905932 14.245627745925535 0 14.245627745925535 13.773611472586801 0 0 0 0 40.201496853653225 9.7284842343424209 0 9.7284842343424209 14.549921585465626 0 0 0 0 -1.6642454434040701 2.940421243545785 0 2.940421243545785 31.312624149792455 0 0 0 0 33.978666300652549 14.503449261590694 0 14.503449261590694 20.683816065874758 0 0 0 0 2.3802647316188086 13.330854283507671 0 13.330854283507671 -13.32788977640179 0 0 0 0 0.78284093974252755 1.6220726849842564 0 1.6220726849842564 21.849512026602788 0 0 0 0 -20.905442766961642 28.92405228358761 0 28.92405228358761 46.097294470573729 0 0 0 0 -14.565722218947485 21.741342497662664 0 21.741342497662664 16.697651624947554 0 0 0 0 -35.963247224193765 -5.021747830801389 0 -5.021747830801389 33.836360340335489 0 0 0 0 -16.798927250318229 -1.4678999971946916 0 -1.4678999971946916 0.017757325956128115 0 0 0 0 -42.710163928684779 -28.741167003517781 0 -28.741167003517781 23.896975589832284 0 0 0 0 44.165405098348856 -10.196716692040688 0 -10.196716692040688 41.727164411018016 0 0 0 0 -53.204432454813286 30.617612411434987 0 30.617612411434987 24.800810331561898 0 0 0 0 -11.412019566720119 15.325719106634605 0 15.325719106634605 45.829725423762127 0 0 0 0 -32.344064737810186 21.120639094502245 0 21.120639094502245 47.885898152611368 0 0 0 0 43.850793043500744 27.145882234593849 0 27.145882234593849 0.99912405236942448 0 0 0 0 114.20765552768717 -6.9701145705238048 0 -6.9701145705238048 17.540097045647578 0 0 0 0 45.61582247534534 21.526919444998978 0 21.526919444998978 3.7062564792464245 0 0 0 0 0.30345426859196323 0.042640564041930062 0 0.042640564041930062 0.00033313151437101531 0 0 0 0 -15.725535087985918 -1.5584817029906095 0 -1.5584817029906095 -0.0097165845365147722 0 0 0 0 -11.950231494818581 29.662172064396533 0 29.662172064396533 45.021737588214876 0 0 0 0 66.810309685766697 -10.336713597854001 0 -10.336713597854001 25.412522517091539 0 0 0 0 190.15666289840738 -46.611717650656729 0 -46.611717650656729 20.630367173139746 0 0 0 0 43.499406768620247 -16.072955383177558 0 -16.072955383177558 63.464233653622323 0 0 0 0 147.15792442641396 -64.204870268258972 0 -64.204870268258972 49.876625945657338 0 0 0 0 37.347606389434077 -40.578555886230482 0 -40.578555886230482 69.079998584592545 0 0 0 0 26.195826803937962 2.8212180113115308 0 2.8212180113115308 49.888270954488839 0 0 0 0 -16.018190982635133 20.255659236204373 0 20.255659236204373 57.528837770711149 0 0 0 0 19.14238615083741 21.938183881873236 0 21.938183881873236 43.592580732645636 0 0 0 0 -7.0710195443534758 12.459789804656264 0 12.459789804656264 69.039327096123671 0 0 0 0 -22.588293632172281 46.87778403572878 0 46.87778403572878 29.636958951514401 0 0 0 0 -47.616221240663435 -8.5115322243355749 0 -8.5115322243355749 83.97069388660681 0 0 0 0 -9.3846037361072376 -43.832544678981805 0 -43.832544678981805 102.31687907721468 0 0 0 0 -65.884785291273147 69.309841968351819 0 69.309841968351819 35.67210122127797 0 0 0 0 -18.496018918580376 35.703622720483416 0 35.703622720483416 43.506307904214516 0 0 0 0 23.542282235386665 53.273099017504833 0 53.273099017504833 18.940052298607114 0 0 0 0 189.26665498744478 35.79299066956284 0 35.79299066956284 -5.8618156281094116 0 0 0 0 105.37316497982829 -31.487391671302248 0 -31.487391671302248 -20.141225249865784 0 0 0 0 190.3813166119362 12.582525979803904 0 12.582525979803904 -23.798836839018804 0 0 0 0 235.2723058893389 -40.991331549091228 0 -40.991331549091228 39.561266202952538 0 0 0 0 167.6830296577682 55.229053011922815 0 55.229053011922815 -16.903872932525701 0 0 0 0 30.166480116332778 53.236305866654334 0 53.236305866654334 -13.302895150654413 0 0 0 0 -4.6735416930052338 22.104239311433197 0 22.104239311433197 -1.2526998227542365 0 0 0 0 319.10723214963582 137.31551400664728 0 137.31551400664728 -0.72321128835392301 0 0 0 0 111.71192889401573 -42.484367567678028 0 -42.484367567678028 6.0648196684486884 0 0 0 0 330.79188052445534 173.92291403905784 0 173.92291403905784 -194.20273693238573 0 0 0 0 134.35517723998055 135.14161011685306 0 135.14161011685306 117.6795136542309 0 0 0 0 2.4482813536289996 -0.69376286409947596 0 -0.69376286409947596 0.24148074005787215 0 0 0 0 -30.117312869697344 -64.698685883469906 0 -64.698685883469906 -74.334128166124515 0 0 0 0 152.47696292007458 27.526649829028578 0 27.526649829028578 -20.690080616905636 0 0 0 0 157.13425800521509 70.778117417457878 0 70.778117417457878 13.681938132908861 0 0 0 0 241.80820258065069 85.482892496075692 0 85.482892496075692 -11.495110010836001 0 0 0 0 129.28152192910784 35.257288778851667 0 35.257288778851667 -12.974334181270361 0 0 0 0 132.48405543268746 28.97788476447198 0 28.97788476447198 -11.019251750793629 0 0 0 0 132.22432947934431 28.754880964258103 0 28.754880964258103 -11.210563996537402 0 0 0 0 130.94016848065075 35.541946346145863 0 35.541946346145863 -6.0647824857160266 0 0 0 0 124.54491152790433 30.128407558532089 0 30.128407558532089 -1.557402332264781 0 0 0 0 138.54676703756559 22.963479651679439 0 22.963479651679439 -7.2161341456920383 0 0 0 0 125.2366376530972 25.789405104051522 0 25.789405104051522 -1.7429343718906622 0 0 0 0 134.79504838697903 21.189954441109251 0 21.189954441109251 0.13381040368212235 0 0 0 0 160.99235935811885 22.930150013484958 0 22.930150013484958 -11.916231753130543 0 0 0 0 139.34223418249803 31.492859547404681 0 31.492859547404681 -15.149237746072345 0 0 0 0 31.799454467836767 2.8879371458454943 0 2.8879371458454943 -0.011264477950435425 0 0 0 0 125.91737138584722 98.282127231686971 0 98.282127231686971 27.451856852796368 0 0 0 0 2.9519056509741404 5.0695970785163809 0 5.0695970785163809 2.2310353940962937 0 0 0 0 82.029463724270244 -6.0825117565947551 0 -6.0825117565947551 -1.3738970075675683 0 0 0 0 67.221431735844817 31.766704462451596 0 31.766704462451596 0.033919105766886767 0 0 0 0 66.393690410477575 34.479895085600049 0 34.479895085600049 9.7874302436422536 0 0 0 0 20.039815010785475 11.529882767829065 0 11.529882767829065 4.3267983514584962 0 0 0 0 36.262499141160788 63.489664741939968 0 63.489664741939968 -3.4885590430089199 0 0 0 0 35.480547757266322 31.909878230934574 0 31.909878230934574 -12.140045849120757 0 0 0 0 32.834570169229877 56.21584755170251 0 56.21584755170251 -1.2610761690216363 0 0 0 0 59.233240203757305 61.775431159612623 0 61.775431159612623 21.843029970067533 0 0 0 0 105.85556206965703 3.5371138158986994 0 3.5371138158986994 -28.324333338064672 0 0 0 0 202.29847409354807 4.8866087737606136 0 4.8866087737606136 -30.53504712047004 0 0 0 0 52.128273335459596 -8.8300769833999624 0 -8.8300769833999624 -1.5322509729088021 0 0 0 0 70.799467830191134 3.9227323470036026 0 3.9227323470036026 -11.737893901653877 0 0 0 0 48.155759170185775 -32.999766813043223 0 -32.999766813043223 -0.056218313052580335 0 0 0 0 63.077521138037355 -20.129913062016129 0 -20.129913062016129 -3.0793752748959982 0 0 0 0 66.918870096083992 -17.785173421960884 0 -17.785173421960884 -20.754207224085214 0 0 0 0 54.217780596234661 -32.355088314403268 0 -32.355088314403268 -71.426403265996413 0 0 0 0 77.339952137088403 -82.659005706783745 0 -82.659005706783745 0.078514488641468191 0 0 0 0 64.464853263925818 -6.4601782706614301 0 -6.4601782706614301 -1.1764167516822435 0 0 0 0 67.146203624215559 -17.693716516910399 0 -17.693716516910399 -7.2614071664000903 0 0 0 0 66.578494305351342 -10.18089861321846 0 -10.18089861321846 12.343422598381949 0 0 0 0 55.897846879917779 -19.41140282548713 0 -19.41140282548713 22.632733270500239 0 0 0 0 0.72339875507429952 0.12667946044186706 0 0.12667946044186706 0.041139617989438493 0 0 0 0 2.0790786204015603 26.664239415527064 0 26.664239415527064 8.3413693615174083 0 0 0 0 75.87332832669199 -49.379085704252155 0 -49.379085704252155 32.42115518800761 0 0 0 0 171.54464631887458 66.192474695708654 0 66.192474695708654 -56.55215625576264 0 0 0 0 98.280442921357462 -79.685380949805946 0 -79.685380949805946 73.506529423408381 0 0 0 0 8.8392549475112219 2.3606832390296404 0 2.3606832390296404 -0.39282518387529725 0 0 0 0 111.92239659214101 -45.486743545119225 0 -45.486743545119225 -0.16118709271674569 0 0 0 0 70.649754042267261 -13.121101644585337 0 -13.121101644585337 0.057244199818186292 0 0 0 0 73.344012270419626 -17.228968527706456 0 -17.228968527706456 11.850135615905742 0 0 0 0 17.872959127358627 44.826346144738842 0 44.826346144738842 -8.9539124143124127 0 0 0 0 59.722555131964327 -7.5779434099013088 0 -7.5779434099013088 -16.857498423491506 0 0 0 0 18.382529016205808 24.514559752997002 0 24.514559752997002 -21.406334814970222 0 0 0 0 41.015496026079916 -9.2095549333789393 0 -9.2095549333789393 0.94344959684699936 0 0 0 0 40.138286073388286 -13.115374680699716 0 -13.115374680699716 -2.396387554327533 0 0 0 0 66.423539482930209 -2.2303344474335063 0 -2.2303344474335063 6.6690046650611521 0 0 0 0 87.194941828027368 -7.6231765309211141 0 -7.6231765309211141 6.2368513769770288 0 0 0 0 73.775579675799236 -7.8083455464570761 0 -7.8083455464570761 9.0269952464295784 0 0 0 0 63.823183085838536 -9.3164838302600401 0 -9.3164838302600401 3.0129264492925358 0 0 0 0 66.465025921133929 -2.4746575833928546 0 -2.4746575833928546 15.466089245146577 0 0 0 0 106.93751465942478 -72.427734364724529 0 -72.427734364724529 -61.669035369140602 0 0 0 0 46.621748676699639 -26.037971438812463 0 -26.037971438812463 -2.7929075277457862 0 0 0 0 68.394373785034986 -10.429795493737402 0 -10.429795493737402 12.057794555535565 0 0 0 0 8.2878749442606932 -94.808852952574966 0 -94.808852952574966 -39.34542362842285 0 0 0 0 73.836656319297617 -6.6494805488364364 0 -6.6494805488364364 13.684356835362905 0 0 0 0 47.915203906631064 -24.485781514202102 0 -24.485781514202102 -4.0154726096151823 0 0 0 0 97.520311253683758 -6.8665729653639573 0 -6.8665729653639573 -35.808680438442252 0 0 0 0 114.81468213252811 -37.791794111221634 0 -37.791794111221634 12.485056718995111 0 0 0 0 224.73922004051565 74.48500425221664 0 74.48500425221664 -36.052199189655767 0 0 0 0 162.80623902567095 -40.636021725565342 0 -40.636021725565342 -204.99145438050255 0 0 0 0 400.92375385705236 127.88641877706596 0 127.88641877706596 -128.39599153006202 0 0 0 0 -96.338137807157182 -192.88382245201592 0 -192.88382245201592 -119.89642407234624 0 0 0 0 449.79804855548718 -149.12416196745198 0 -149.12416196745198 -444.64535756593523 0 0 0 0 130.76253852927039 -44.790613995699459 0 -44.790613995699459 -36.465970236517933 0 0 0 0 49.230741312121353 -22.019058873965236 0 -22.019058873965236 -4.6865124607323594 0 0 0 0 71.85612242134539 -12.669709173461143 0 -12.669709173461143 8.4838770329733961 0 0 0 0 73.267723430413753 5.3290518893300032 0 5.3290518893300032 11.393009338411503 0 0 0 0 -26.742421143590036 -131.32111288665737 0 -131.32111288665737 -167.09556459873602 0 0 0 0 50.450430961509795 4.9434593266285987 0 4.9434593266285987 -3.310552251323104 0 0 0 0 7.7295315881750923 2.0930348186396799 0 2.0930348186396799 -3.8609533629171437 0 0 0 0 -50.845087127345323 -49.842950296093022 0 -49.842950296093022 8.7068178005793015 0 0 0 0 81.289658021691139 -57.452102955236114 0 -57.452102955236114 -514.59721312219608 0 0 0 0 -0.59539618328849997 -6.6292564330081234 0 -6.6292564330081234 -0.77203002608742644 0 0 0 0 23.699154009693302 -381.03695447657537 0 -381.03695447657537 -205.46566102646921 0 0 0 0 -125.69170121482603 -256.96582207725669 0 -256.96582207725669 231.89280270172094 0 0 0 0 10.871019227743091 -126.20230189395033 0 -126.20230189395033 -167.2469657870397 0 0 0 0 -3.2279998522410551 -2.7470318292961622 0 -2.7470318292961622 -1.8666301571665969 0 0 0 0 -62.26456221434637 -42.605749668221051 0 -42.605749668221051 309.89169639483043 0 0 0 0 -103.85877445725782 -136.96505998604903 0 -136.96505998604903 162.97733439802323 0 0 0 0 -133.67392956295953 130.46208504570404 0 130.46208504570404 65.613955239859933 0 0 0 0 796.45117959247727 -427.1246984709469 0 -427.1246984709469 178.46940766366833 0 0 0 0 -140.48037567688516 213.46717664658513 0 213.46717664658513 876.32503649810496 0 0 0 0 518.42909550213517 -516.70725201298137 0 -516.70725201298137 385.17824995879982 0 0 0 0 108.90511287706613 279.08699903458637 0 279.08699903458637 551.46517935274255 0 0 0 0 10.792447133093646 1.3917420693663196 0 1.3917420693663196 0.89996784158184084 0 0 0 0 285.17000891214775 158.33889593063566 0 158.33889593063566 -99.532117052418471 0 0 0 0 649.82550693528901 456.45625337478486 0 456.45625337478486 39.46819484912703 0 0 0 0 -213.96892689489687 9.9595243389721873 0 9.9595243389721873 5.8466320584539062 0 0 0 0 -33.731523412934621 -74.070478613808518 0 -74.070478613808518 -30.094646875102626 0 0 0 0 3.5564574663989674 -16.090559828809432 0 -16.090559828809432 32.629774286571831 0 0 0 0 -2.2750440554082161 -9.5489633886402316 0 -9.5489633886402316 25.106028217313906 0 0 0 0 -25.575634843859007 -113.05753502148764 0 -113.05753502148764 -13.637774233727214 0 0 0 0 20.570042305305833 -103.65298002731652 0 -103.65298002731652 -22.273339607847447 0 0 0 0 6.6899468673859417 -17.629189044268841 0 -17.629189044268841 -21.213941524801989 0 0 0 0 5.5717613145629485 -13.39059978422263 0 -13.39059978422263 26.633380816094039 0 0 0 0 -22.217335719658877 -526.09868625603394 0 -526.09868625603394 466.38944980754059 0 0 0 0 -692.06229226988944 11.084262927344412 0 11.084262927344412 240.55890697979868 0 0 0 0 2.7524575141907661 -4.0674635477239462 0 -4.0674635477239462 26.132989183275257 0 0 0 0 4.5435889333344903 -8.7644722673648801 0 -8.7644722673648801 21.412208538643124 0 0 0 0 194.80667925726448 -678.9331566350611 0 -678.9331566350611 -124.61602220155237 0 0 0 0 -0.066253507357032504 -2.3335698500457056 0 -2.3335698500457056 32.680652905763964 0 0 0 0 -108.14550632153259 42.965133387506967 0 42.965133387506967 131.3118983233835 0 0 0 0 -192.94619882928964 -35.242751413427868 0 -35.242751413427868 156.1932827679193 0 0 0 0 1.8654708130488871 -140.282302783462 0 -140.282302783462 2.290431652199004 0 0 0 0 1.7673064234006688 -130.87295453737084 0 -130.87295453737084 -55.77376094943611 0 0 0 0 249.90246546146227 -306.83117557696642 0 -306.83117557696642 35.802636350912508 0 0 0 0 -256.44795042056649 -23.654533618930145 0 -23.654533618930145 199.20601761299076 0 0 0 0 -237.1413675702961 -378.34903266017056 0 -378.34903266017056 401.6228859280709 0 0 0 0 -160.25410344568081 -622.45217558014883 0 -622.45217558014883 870.5925432926233 0 0 0 0 697.40556886373088 -491.00997722219108 0 -491.00997722219108 46.805481645791588 0 0 0 0 1131.2825728555035 158.040330291391 0 158.040330291391 -380.71002224858239 0 0 0 0 -90.218993211440647 33.461022230317326 0 33.461022230317326 120.54734304714293 0 0 0 0 461.17334561297321 297.35092136802268 0 297.35092136802268 -282.67492081299861 0 0 0 0 13.055330349685391 31.910004313455829 0 31.910004313455829 1.0997999158139464 0 0 0 0 13.671148540757713 -38.595722843860131 0 -38.595722843860131 -1.2695447098940349 0 0 0 0 95.564601684141962 -128.4068252320958 0 -128.4068252320958 -43.125190647648196 0 0 0 0 -3.8316218961845152 -38.347679620751478 0 -38.347679620751478 113.59081515793241 0 0 0 0 95.674380476601073 -52.299240793230638 0 -52.299240793230638 -87.795136989605453 0 0 0 0 12.575147719297092 162.04276739655143 0 162.04276739655143 -105.31898420044308 0 0 0 0 -1.1982162634486144 -1.4028825905796936 0 -1.4028825905796936 -5.7682175666929041 0 0 0 0 76.659083792019374 -132.79408415460102 0 -132.79408415460102 39.436321750639763 0 0 0 0 -16.376712048906484 -15.073699766900972 0 -15.073699766900972 -16.631107673672886 0 0 0 0 -6.0294633219687626 -6.4510673180210318 0 -6.4510673180210318 -6.2015237459457211 0 0 0 0 82.108894638513448 -55.973535328852449 0 -55.973535328852449 33.063330884888046 0 0 0 0 73.290982831100337 -25.194528931637819 0 -25.194528931637819 -3.9394268833839305 0 0 0 0 65.183116007217905 -27.862516513066112 0 -27.862516513066112 -3.8209180878820916 0 0 0 0 32.370661567014338 -19.806757110204103 0 -19.806757110204103 3.7735998290217623 0 0 0 0 67.564672049084038 -1.0075300421231077 0 -1.0075300421231077 -40.514286517515757 0 0 0 0 75.110470199833799 -20.57071436469505 0 -20.57071436469505 -9.2625116363815323 0 0 0 0 76.598393501590181 22.268557488536317 0 22.268557488536317 -18.284467305018552 0 0 0 0 45.942175701027736 -14.453487700992355 0 -14.453487700992355 -0.39825352128104896 0 0 0 0 36.120206778299291 -17.794813910112353 0 -17.794813910112353 -0.022984437954949755 0 0 0 0 48.796468751577777 -1.8293429634884433 0 -1.8293429634884433 12.357704007030407 0 0 0 0 45.654449533682566 -2.60391552708316 0 -2.60391552708316 -0.88177856038327818 0 0 0 0 62.595525137716322 -15.618324398679761 0 -15.618324398679761 12.703805909543917 0 0 0 0 2.7844946217780091 -4.8809711817147274 0 -4.8809711817147274 21.28121843099342 0 0 0 0 10.666946458107134 -5.4540706223502866 0 -5.4540706223502866 10.687797031442759 0 0 0 0 33.17769011654309 -15.901793894773618 0 -15.901793894773618 8.1913444576582606 0 0 0 0 30.610522198316175 -9.1324277598741901 0 -9.1324277598741901 11.039905052929498 0 0 0 0 36.201483771605751 -1.4990314697773996 0 -1.4990314697773996 1.0251813727739663 0 0 0 0 -279.9360170099535 210.07086188099765 0 210.07086188099765 -88.847709143308293 0 0 0 0 3.5886868695379235 4.6002371234972088 0 4.6002371234972088 2.6207378538747435 0 0 0 0 8.242599445976623 1.4552697270016779 0 1.4552697270016779 10.458895388730099 0 0 0 0 22.596778883546158 -3.452760321718813 0 -3.452760321718813 8.9881111183316236 0 0 0 0 16.175040695832649 -17.565231006427439 0 -17.565231006427439 24.032238906710518 0 0 0 0 333.50211228952685 -17.039338366392712 0 -17.039338366392712 -96.038611839806094 0 0 0 0 -173.86719070249819 417.9847342252732 0 417.9847342252732 149.11051477378777 0 0 0 0 154.29139940140158 -42.327109610057775 0 -42.327109610057775 232.40065738943309 0 0 0 0 -667.29579701217881 82.967747168857088 0 82.967747168857088 221.00195158081482 0 0 0 0 -196.0691092335037 231.4689958891895 0 231.4689958891895 -83.40002954073725 0 0 0 0 -19.230925643758383 175.86413030402383 0 175.86413030402383 102.77655031822587 0 0 0 0 -50.347946953552309 98.552002046608777 0 98.552002046608777 -78.228194310911931 0 0 0 0 -96.47747876822541 121.54665729844464 0 121.54665729844464 -165.8463289419683 0 0 0 0 -120.61973028982175 40.043379271696722 0 40.043379271696722 1.1893998539599124 0 0 0 0 69.949027992872288 193.08957434192769 0 193.08957434192769 -135.44437689247843 0 0 0 0 21.864404002547346 2.200692923240922 0 2.200692923240922 -1.3439762507605728 0 0 0 0 -270.2079185876355 195.11396505648918 0 195.11396505648918 -37.125394918450411 0 0 0 0 -259.93298553002751 325.82012221490288 0 325.82012221490288 -239.62984203200267 0 0 0 0 -1.2795634018604005 0.34344638575779385 0 0.34344638575779385 3.3406112037544222 0 0 0 0 33.556480563725927 -5.2455614306463758 0 -5.2455614306463758 -0.55328974574536005 0 0 0 0 7.4950326130898119 -1.6767940716710825 0 -1.6767940716710825 -0.24174820162366473 0 0 0 0 25.993767670268426 6.6001490238123779 0 6.6001490238123779 -0.18658468752528279 0 0 0 0 89.825069206399348 -22.222362441017822 0 -22.222362441017822 13.027111726511976 0 0 0 0 10.74447035246277 6.83571574435652 0 6.83571574435652 8.8989550057531162 0 0 0 0 45.925708391063381 -35.621431128338372 0 -35.621431128338372 22.532343559918445 0 0 0 0 102.56620781125093 -41.938452590819452 0 -41.938452590819452 -25.285744514033581 0 0 0 0 55.331026811256322 -9.0559306543264739 0 -9.0559306543264739 0.14589821168564754 0 0 0 0 258.54537741636159 -40.052076053149264 0 -40.052076053149264 -191.50582414499067 0 0 0 0 17.422352570458315 -22.681775653450586 0 -22.681775653450586 23.365707018018895 0 0 0 0 44.86570647314511 75.30221004618663 0 75.30221004618663 -95.480528922369473 0 0 0 0 92.406741622195113 -21.315776750378518 0 -21.315776750378518 -19.95889778517585 0 0 0 0 16.831712701704163 -2.7005604054506023 0 -2.7005604054506023 -0.60286959778037907 0 0 0 0 72.73011360567034 -1.0360174922523129 0 -1.0360174922523129 19.903725456504617 0 0 0 0 43.627604797904496 -5.3980541957616879 0 -5.3980541957616879 20.163354089631071 0 0 0 0 56.511468565196992 -6.3665745115618506 0 -6.3665745115618506 3.3278720757180054 0 0 0 0 49.100482278881827 -8.9806326070166591 0 -8.9806326070166591 1.1882357533125552 0 0 0 0 56.940247464037384 -12.947048558347205 0 -12.947048558347205 -34.060734610415693 0 0 0 0 29.733543808099057 8.3698121293567169 0 8.3698121293567169 -0.31655138279256789 0 0 0 0 68.640154192544287 8.0502306396736003 0 8.0502306396736003 3.3121848169212171 0 0 0 0 24.535797471025205 -18.29066198580702 0 -18.29066198580702 1.8759263039590088 0 0 0 0 30.188788591549383 -5.8267608688777273 0 -5.8267608688777273 11.321956484833549 0 0 0 0 28.341627091504051 14.46256555305041 0 14.46256555305041 -11.373397204931962 0 0 0 0 -18.023535338812508 -6.0417905570438961 0 -6.0417905570438961 -0.77716164073898142 0 0 0 0 15.788031071286241 -27.527768799598849 0 -27.527768799598849 0.49003502729806314 0 0 0 0 -16.242265863867942 -30.654795125473314 0 -30.654795125473314 21.136431435151735 0 0 0 0 -16.115195957565447 -118.19446633326586 0 -118.19446633326586 -21.195870174434205 0 0 0 0 -27.520027383681736 -36.427897726340547 0 -36.427897726340547 41.768357692188516 0 0 0 0 4.3681251030648127 -7.5995026100347465 0 -7.5995026100347465 -61.79588655416179 0 0 0 0 1.8397956997488905 0.095545344808080301 0 0.095545344808080301 -0.065386449564605903 0 0 0 0 -3.1956259689031867 3.6727548267606811 0 3.6727548267606811 -1.4172311631180585 0 0 0 0 17.959099220286589 58.299774337828126 0 58.299774337828126 -75.287521433906633 0 0 0 0 1.8898140442324802 -0.38899789695522763 0 -0.38899789695522763 -0.036213084501978354 0 0 0 0 -28.382774917146889 97.140582677392786 0 97.140582677392786 -12.961018011396035 0 0 0 0 -28.332522604367114 36.24848184937602 0 36.24848184937602 79.663254126790946 0 0 0 0 -18.090583215089282 15.286894880531442 0 15.286894880531442 -39.578967908325495 0 0 0 0 -4.3729359299759381 3.7633076729119184 0 3.7633076729119184 0.11040704103650767 0 0 0 0 -0.80557303977548145 -23.774210742741761 0 -23.774210742741761 -36.588197710811194 0 0 0 0 -15.776433711434947 7.2852099840487199 0 7.2852099840487199 -12.369375321062524 0 0 0 0 208.03716187846294 -200.41029919450301 0 -200.41029919450301 102.69033524163436 0 0 0 0 3.2319576802972847 0.32764760350166 0 0.32764760350166 -0.035459958297414926 0 0 0 0 67.04953759664204 95.514771748389677 0 95.514771748389677 -146.28931640105671 0 0 0 0 -49.592395340310759 -91.007990713738593 0 -91.007990713738593 157.701707269981 0 0 0 0 20.129089767142432 46.741804611606398 0 46.741804611606398 177.9043467554668 0 0 0 0 229.9557384660875 5.7704932064774646 0 5.7704932064774646 56.533967513030873 0 0 0 0 1.8058306943130447 -0.41082119468034489 0 -0.41082119468034489 0.012530449645440809 0 0 0 0 274.4512656517727 -161.93265379594908 0 -161.93265379594908 40.205874160946031 0 0 0 0 92.811019909277093 -124.75485025362065 0 -124.75485025362065 67.900655768692303 0 0 0 0 -71.788067062734626 1.3658564228209826 0 1.3658564228209826 94.695058447003532 0 0 0 0 1.1712262562871274 -0.22776979790557306 0 -0.22776979790557306 0.026173368281433275 0 0 0 0 175.41578144326922 -163.36832509891715 0 -163.36832509891715 85.742739212906017 0 0 0 0 161.04041309739114 -170.23985716287723 0 -170.23985716287723 83.986268144362697 0 0 0 0 -0.8349549260456115 -37.955423370588186 0 -37.955423370588186 -144.8411471637327 0 0 0 0 -57.040327573049581 -23.21999072696978 0 -23.21999072696978 0.64568415148506797 0 0 0 0 65.936134282732382 26.501560998484791 0 26.501560998484791 -82.633090205177297 0 0 0 0 -39.87594046824961 39.317501577035159 0 39.317501577035159 -5.9413796010034048 0 0 0 0 8.3388898147629789 0.67233828870046253 0 0.67233828870046253 -0.35203534517494284 0 0 0 0 -3.8261718209396349 60.894690689821857 0 60.894690689821857 -253.34840313322059 0 0 0 0 -118.11853089327633 160.46421733427269 0 160.46421733427269 123.4319255363838 0 0 0 0 -153.11459951488359 -102.21921972627968 0 -102.21921972627968 -60.80923341825946 0 0 0 0 636.88557137886528 -49.095720127975518 0 -49.095720127975518 -0.48539273873102107 0 0 0 0 -180.71213669321151 103.886437904171 0 103.886437904171 20.058402342552448 0 0 0 0 1106.6621672224137 -472.26686112138128 0 -472.26686112138128 -1.4083474823565894 0 0 0 0 608.0170953903289 114.70510372561989 0 114.70510372561989 -280.61924124196491 0 0 0 0 5.197752244404569 0.080202633393625433 0 0.080202633393625433 -0.2546712702688243 0 0 0 0 1567.687744945878 -126.44385563007191 0 -126.44385563007191 53.663016658187814 0 0 0 0 1565.1307294216676 -425.59957624573065 0 -425.59957624573065 144.00144732243984 0 0 0 0 1799.8358996822208 -127.23831821101589 0 -127.23831821101589 -248.99124182122975 0 0 0 0 1364.3329454573832 -277.09389485270958 0 -277.09389485270958 -48.317426526860316 0 0 0 0 1523.8664455871767 -346.44305080719255 0 -346.44305080719255 -55.153730031266036 0 0 0 0 1577.0473688029606 -324.91669324653452 0 -324.91669324653452 -188.69858010242626 0 0 0 0 -158.50051566555339 -267.3097392744553 0 -267.3097392744553 208.97659305948898 0 0 0 0 1095.5111069581071 42.602832201479359 0 42.602832201479359 68.701379903574775 0 0 0 0 1413.2442778089899 -480.23390281383251 0 -480.23390281383251 -209.94842824766025 0 0 0 0 1533.7780932015921 181.79058305778361 0 181.79058305778361 -115.42467104237278 0 0 0 0 1442.9891341158946 -475.40983692542045 0 -475.40983692542045 -123.61894096848494 0 0 0 0 1831.7854020041559 -958.06951927697537 0 -958.06951927697537 293.81877984656694 0 0 0 0 971.51163970042398 -793.46545233151539 0 -793.46545233151539 1378.4737958967851 0 0 0 0 20.518893077199493 -8.3673255425626962 0 -8.3673255425626962 3.8705541701891173 0 0 0 0 256.55930273068952 -880.65301799935082 0 -880.65301799935082 1156.8992845794187 0 0 0 0 174.73528481711401 12.43126072566406 0 12.43126072566406 -393.51192183150397 0 0 0 0 393.95807854985469 117.24318731592348 0 117.24318731592348 -357.30347662902682 0 0 0 0 224.43606250542507 193.32777728391943 0 193.32777728391943 -79.162632689774796 0 0 0 0 44.2758955050449 152.60661124789863 0 152.60661124789863 -121.21956583375595 0 0 0 0 54.402981782409029 -18.081682167148816 0 -18.081682167148816 3.8807034420099518 0 0 0 0 -24.167882844514679 -39.89879989877403 0 -39.89879989877403 -18.028168303504003 0 0 0 0 61.052002520453243 -121.86277105509248 0 -121.86277105509248 14.802993411769364 0 0 0 0 107.55163222337433 -44.583379303630977 0 -44.583379303630977 126.04715666722819 0 0 0 0 581.43453757005045 -99.670623375990616 0 -99.670623375990616 230.63843008902094 0 0 0 0 585.87654786450912 -94.387849056505132 0 -94.387849056505132 30.614614017982237 0 0 0 0 860.84100684594159 -95.548811768308965 0 -95.548811768308965 0.062608953930228445 0 0 0 0 1058.6649407859513 -195.79975363250151 0 -195.79975363250151 103.39182108126322 0 0 0 0 961.4763129978237 -255.55307232855273 0 -255.55307232855273 151.69762337738536 0 0 0 0 1282.7160885302874 -218.26554019089178 0 -218.26554019089178 0.10918696884032339 0 0 0 0 1204.8520491095915 -396.38139229430419 0 -396.38139229430419 123.51643505601658 0 0 0 0 1439.1401629547943 -594.02472169793782 0 -594.02472169793782 240.28926091487222 0 0 0 0 690.97648357626167 -344.44391207960916 0 -344.44391207960916 661.99520833253678 0 0 0 0 780.24441041508908 -175.10529866159294 0 -175.10529866159294 303.83644461876224 0 0 0 0 430.05593024656991 -86.84703119748923 0 -86.84703119748923 566.01507225994874 0 0 0 0 704.24828141470789 -239.07363463134323 0 -239.07363463134323 422.18966237402265 0 0 0 0 501.0987179382355 -9.248601636912035 0 -9.248601636912035 354.462535543108 0 0 0 0 673.80664655192049 -49.236553160124807 0 -49.236553160124807 117.25400348558404 0 0 0 0 443.0121388555126 155.39087995956129 0 155.39087995956129 203.94950415523527 0 0 0 0 381.8717951908111 112.1269735067749 0 112.1269735067749 286.31764988876569 0 0 0 0 506.49007918138523 176.59523074411715 0 176.59523074411715 251.89280417112593 0 0 0 0 455.62440275291738 72.030253828179553 0 72.030253828179553 157.47408665893772 0 0 0 0 493.20615498030384 92.128835379053598 0 92.128835379053598 103.51560213623773 0 0 0 0 328.61572912980046 60.996129035008721 0 60.996129035008721 -20.265499951332231 0 0 0 0 576.49932164649363 235.02349090960769 0 235.02349090960769 -25.832061331662089 0 0 0 0 12.944694373261882 -89.618249993336235 0 -89.618249993336235 125.63372166891369 0 0 0 0 1.0385322547576266 0.59975685283149005 0 0.59975685283149005 -1.1056591093400874 0 0 0 0 466.90910111531412 72.032242772069992 0 72.032242772069992 59.239709732498454 0 0 0 0 324.07356810799683 328.03471546173682 0 328.03471546173682 310.11503274563796 0 0 0 0 799.63549247805349 532.57203449814551 0 532.57203449814551 265.81274980902231 0 0 0 0 451.64026462715992 221.79612107834998 0 221.79612107834998 373.89080255972578 0 0 0 0 566.13920787328243 179.28846191628691 0 179.28846191628691 190.80803132485448 0 0 0 0 445.97724607425334 -78.799716489646357 0 -78.799716489646357 741.71093677960846 0 0 0 0 170.23129712729133 170.8848963543046 0 170.8848963543046 190.96588283708331 0 0 0 0 368.54914469230062 -263.6445738611551 0 -263.6445738611551 -630.935630200584 0 0 0 0 139.13101951040153 -400.08908981304489 0 -400.08908981304489 -1123.091192997882 0 0 0 0 11.243778465438993 -10.86022185463888 0 -10.86022185463888 7.4393667764024283 0 0 0 0 -89.500780143032898 -287.43320458864628 0 -287.43320458864628 -400.23778506082539 0 0 0 0 154.2765388759799 174.9637199811724 0 174.9637199811724 -316.40391536113088 0 0 0 0 421.2009281530627 69.393176902802225 0 69.393176902802225 -428.68226910813928 0 0 0 0 394.98832352219324 25.307618487009904 0 25.307618487009904 -250.94008009203549 0 0 0 0 459.89635171885311 63.529290307353222 0 63.529290307353222 -360.34337816546622 0 0 0 0 498.9113794973 429.17951753787293 0 429.17951753787293 131.30471218510911 0 0 0 0 3.1860996868090012 0.79181403243978821 0 0.79181403243978821 -4.5174600846363608 0 0 0 0 1303.0078141143895 -1622.1497858029293 0 -1622.1497858029293 92.537360611641816 0 0 0 0 3388.0424821284978 -1797.038888544183 0 -1797.038888544183 -300.87711077556105 0 0 0 0 2750.8837686589104 180.29568110831497 0 180.29568110831497 396.55610131070716 0 0 0 0 582.57101862318814 -462.85481452453723 0 -462.85481452453723 679.14364377877359 0 0 0 0 742.59338679749635 249.97091857600327 0 249.97091857600327 332.18305787727866 0 0 0 0 1491.8346587980923 -448.73416866351232 0 -448.73416866351232 157.09693321520331 0 0 0 0 707.41052310045052 -313.36825375877424 0 -313.36825375877424 190.98818374187704 0 0 0 0 401.1236478133651 245.89031882351287 0 245.89031882351287 77.439939929717184 0 0 0 0 430.5789226355555 204.01036274008425 0 204.01036274008425 -124.03693544253736 0 0 0 0 265.44863624396021 -59.151172108814052 0 -59.151172108814052 211.02872363736515 0 0 0 0 1445.2382798547478 -1335.0105710136388 0 -1335.0105710136388 270.0046412728276 0 0 0 0 1040.7252029337251 -259.75211408386292 0 -259.75211408386292 85.04107062458138 0 0 0 0 1788.7553126681596 -1100.6445464433255 0 -1100.6445464433255 289.990448574423 0 0 0 0 1225.6925860240153 -1507.9140466262681 0 -1507.9140466262681 525.27055402540441 0 0 0 0 1334.9399055857066 180.15981387602199 0 180.15981387602199 496.57310755928506 0 0 0 0 725.18375673037372 228.49886144267867 0 228.49886144267867 1067.5136436528733 0 0 0 0 353.34783587664424 -884.78866820580993 0 -884.78866820580993 -278.80116540142262 0 0 0 0 204.13223850882787 -50.706228445633769 0 -50.706228445633769 -29.144944970125152 0 0 0 0 875.6765015260753 -279.54672354034233 0 -279.54672354034233 46.696406866373991 0 0 0 0 -72.16857336499379 -746.67071346406237 0 -746.67071346406237 222.70706613143193 0 0 0 0 1164.1127907292685 -1803.5315553343357 0 -1803.5315553343357 468.91966905094614 0 0 0 0 -954.49834729891154 -1226.3210517593852 0 -1226.3210517593852 450.85889343156265 0 0 0 0 1027.6028115816589 -2556.1540866196874 0 -2556.1540866196874 259.47421288172245 0 0 0 0 8.8224212202530907 -57.524634238599447 0 -57.524634238599447 -243.36826647664111 0 0 0 0 11.479300292009697 -13.801888783783028 0 -13.801888783783028 1.3816131366528683 0 0 0 0 3.7895100320390185 -6.2065496433242231 0 -6.2065496433242231 -2.9834331275556423 0 0 0 0 -1160.9662905217447 -888.69025149705806 0 -888.69025149705806 -956.0819540514658 0 0 0 0 -65.870381033411832 -146.47217927233316 0 -146.47217927233316 -1443.2135340194227 0 0 0 0 -492.24146696794196 -540.32912119167941 0 -540.32912119167941 -576.58062623835008 0 0 0 0 3.1457397192202166 -14.261807324735713 0 -14.261807324735713 9.3430430450101518 0 0 0 0 -29.957843737953226 -906.89648889592354 0 -906.89648889592354 -995.45769309281229 0 0 0 0 13.0501965986914 -44.170262802535547 0 -44.170262802535547 -42.843823673227149 0 0 0 0 19.887859915470472 -31.04581166191474 0 -31.04581166191474 -31.123134530033809 0 0 0 0 -0.99772648094715066 -22.823656390464009 0 -22.823656390464009 -8.7098806671496813 0 0 0 0 -32.380516040524526 5.5649272710866846 0 5.5649272710866846 -9.4940864928697692 0 0 0 0 1172.2911842747053 -36.888516775290611 0 -36.888516775290611 132.76197051646568 0 0 0 0 2053.9027243428282 -514.15790508003704 0 -514.15790508003704 -365.83073651029486 0 0 0 0 2422.2149028617423 -536.54299485878983 0 -536.54299485878983 -367.16344370085915 0 0 0 0 1979.5015587663365 421.08378637948908 0 421.08378637948908 -36.601431216972742 0 0 0 0 3350.8319708514464 681.97282905934799 0 681.97282905934799 -47.773186321939647 0 0 0 0 2213.9341403444414 -564.15272124033254 0 -564.15272124033254 -151.30457792229208 0 0 0 0 3485.0640844299269 -1057.6374191212897 0 -1057.6374191212897 7.643901193559941 0 0 0 0 1642.7176059840422 -801.42048757729572 0 -801.42048757729572 1904.5546992554159 0 0 0 0 1511.464621042076 -236.30042599037802 0 -236.30042599037802 203.37285726862729 0 0 0 0 1238.4074455144291 -710.50152440393526 0 -710.50152440393526 709.76115110637443 0 0 0 0 952.90025621138921 -20.27455261690875 0 -20.27455261690875 -280.48779233601181 0 0 0 0 243.618680427051 -282.08145679813668 0 -282.08145679813668 215.378472072779 0 0 0 0 2236.4752920198443 -592.35729284431773 0 -592.35729284431773 -465.12358344913082 0 0 0 0 1986.4070992679917 -735.25254881921819 0 -735.25254881921819 -311.48915647822287 0 0 0 0 2087.9582793480804 -637.64676113936935 0 -637.64676113936935 -218.60322390335045 0 0 0 0 1716.7707005955162 104.44455641908326 0 104.44455641908326 -447.46197269515051 0 0 0 0 2818.6887499374279 -152.85873749907984 0 -152.85873749907984 -419.74868390549489 0 0 0 0 6.3480247649456487 -5.01942306403744 0 -5.01942306403744 3.9614688967130105 0 0 0 0 2443.2487226601661 -953.57925451003052 0 -953.57925451003052 23.474382855347358 0 0 0 0 1786.7350438204157 -475.32420359052867 0 -475.32420359052867 693.95083586697365 0 0 0 0 1807.7430213475382 -631.13228662799543 0 -631.13228662799543 -82.515463750619347 0 0 0 0 1783.3565644123826 -290.82707138711936 0 -290.82707138711936 -188.72121113789126 0 0 0 0 1449.486100345981 -137.80854230101028 0 -137.80854230101028 253.43660667513211 0 0 0 0 1719.8558476905164 -343.31214426994984 0 -343.31214426994984 20.005924283701802 0 0 0 0 2220.0667807419195 -626.16531794940238 0 -626.16531794940238 131.73760265703595 0 0 0 0 1989.9430726332503 -72.669143952800709 0 -72.669143952800709 275.66669655564709 0 0 0 0 1656.993381856184 -421.49555208855412 0 -421.49555208855412 203.121086878623 0 0 0 0 1565.8562932250497 -218.01379336758191 0 -218.01379336758191 302.33878411143223 0 0 0 0 1808.0690828471197 -115.58181195659017 0 -115.58181195659017 -48.622792379612065 0 0 0 0 1683.8728860065166 -70.56750245638932 0 -70.56750245638932 -64.936416829770678 0 0 0 0 1689.0263740212249 -81.338862919167013 0 -81.338862919167013 -307.15635675491376 0 0 0 0 1835.9347630686025 -168.04616233226881 0 -168.04616233226881 -105.31882990857366 0 0 0 0 1533.2502907779126 -596.46562565211502 0 -596.46562565211502 216.36206958567163 0 0 0 0 61.152408516150899 -1.7623277135856483 0 -1.7623277135856483 -34.634486792343068 0 0 0 0 -1.2558948647836274 -27.787955163467444 0 -27.787955163467444 -1.1569987740795602 0 0 0 0 1914.3566112701083 -140.62066242255253 0 -140.62066242255253 -101.89188343368369 0 0 0 0 1840.9422706965706 -113.54936760762428 0 -113.54936760762428 210.39483163209843 0 0 0 0 2088.3996109135915 -637.90594527208441 0 -637.90594527208441 352.22297995604799 0 0 0 0 1598.5741999347229 -60.509868640267996 0 -60.509868640267996 45.501668408832813 0 0 0 0 1845.008716844568 -168.88919857796009 0 -168.88919857796009 -204.55532968162333 0 0 0 0 57.569270812251489 -26.994860547075405 0 -26.994860547075405 -62.069098780870718 0 0 0 0 83.093369211543177 -29.30535813968811 0 -29.30535813968811 -46.910022922661483 0 0 0 0 62.650016411193064 -38.98589476285656 0 -38.98589476285656 -37.810756743449019 0 0 0 0 46.699687719621579 -43.767649278925035 0 -43.767649278925035 6.0389076230998171 0 0 0 0 -26.360018956562271 -1.4433394110970426 0 -1.4433394110970426 -64.447512367079526 0 0 0 0 43.716771351784701 -65.415507732972259 0 -65.415507732972259 -47.999336770808895 0 0 0 0 61.416500842591631 -62.26734146047103 0 -62.26734146047103 -32.554946167052776 0 0 0 0 -81.020576800656272 -52.645003007516721 0 -52.645003007516721 77.564188143536171 0 0 0 0 5.3690776439907495e-05 -0.73407022408838429 0 -0.73407022408838429 1.6660008737844865 0 0 0 0 -7.4633934838847722 -23.407221773763752 0 -23.407221773763752 -1.9635530440910454 0 0 0 0 30.390843288660108 -68.202483909445107 0 -68.202483909445107 -11.680004951852105 0 0 0 0 67.189137576714529 -126.14988850004583 0 -126.14988850004583 77.075041637207079 0 0 0 0 108.66294477751035 35.973716262362167 0 35.973716262362167 -42.450549233215071 0 0 0 0 -25.53389360068104 -55.347627691938129 0 -55.347627691938129 45.306040766599722 0 0 0 0 1.0727647562307538 -87.070103608739032 0 -87.070103608739032 79.341256860414518 0 0 0 0 81.052966005761846 -87.239388805439944 0 -87.239388805439944 15.272285976630741 0 0 0 0 -7.9161496028100373 -18.54455794211691 0 -18.54455794211691 44.806066096405914 0 0 0 0 -36.167818039906706 -30.137588868387368 0 -30.137588868387368 40.305081263420753 0 0 0 0 -11.893685111012928 23.01924062443231 0 23.01924062443231 78.799833035434801 0 0 0 0 10.347324366308442 -7.5434674756623963 0 -7.5434674756623963 4.3170857411685191 0 0 0 0 -67.338013209795463 13.629002406034715 0 13.629002406034715 35.160511316731117 0 0 0 0 104.48393888050396 -145.14033570299449 0 -145.14033570299449 230.11704258352211 0 0 0 0 83.760315774146875 -1.9474143726785087 0 -1.9474143726785087 6.2439714740893351 0 0 0 0 492.65806050476385 187.02268909815007 0 187.02268909815007 -316.45685366153282 0 0 0 0 135.72072387346998 101.44055221306792 0 101.44055221306792 -236.15592297316493 0 0 0 0 141.48598086695711 -269.06409617218037 0 -269.06409617218037 -725.59226429803459 0 0 0 0 4.5671935889075712 -2.4571113621778835 0 -2.4571113621778835 1.3239271852335219 0 0 0 0 544.16890853665245 -27.984743604373307 0 -27.984743604373307 -7.3828683902311241 0 0 0 0 187.4160478850099 -111.62629213443211 0 -111.62629213443211 -77.96142558886163 0 0 0 0 198.06539477290062 -80.271199682618317 0 -80.271199682618317 9.87359825913245 0 0 0 0 190.90570301984553 -77.126281042595679 0 -77.126281042595679 33.575127141072699 0 0 0 0 0.68509712706247683 -1.9008021328231735 0 -1.9008021328231735 3.0158835155018151 0 0 0 0 -78.254521291361016 -96.109608680378187 0 -96.109608680378187 -31.611810999006025 0 0 0 0 -55.887541502022941 15.03582496064962 0 15.03582496064962 72.713200472606786 0 0 0 0 -20.87500698067015 -45.166434883683223 0 -45.166434883683223 -81.914705473955905 0 0 0 0 -73.05800323861331 -111.59535367335924 0 -111.59535367335924 -31.777410371743372 0 0 0 0 -75.936595716499141 -5.6285712640290058 0 -5.6285712640290058 19.574236502265194 0 0 0 0 -104.96752903474226 -109.91897791255479 0 -109.91897791255479 73.01028487249323 0 0 0 0 0.18305001933148901 -1.0365833017958437 0 -1.0365833017958437 1.822086361960352 0 0 0 0 112.98922955550142 -285.34678174656796 0 -285.34678174656796 -136.51777959667061 0 0 0 0 32.484660116810119 -161.62606476576138 0 -161.62606476576138 85.044649502232744 0 0 0 0 18.600754042156041 -34.376874987224483 0 -34.376874987224483 33.263410751835181 0 0 0 0 -29.816966853300983 -44.776794854550303 0 -44.776794854550303 45.44876563355956 0 0 0 0 -44.270061686664121 -22.507009849930455 0 -22.507009849930455 33.364684033791491 0 0 0 0 122.04695186935714 -193.34693065729471 0 -193.34693065729471 -23.791306705588909 0 0 0 0 133.29304698752821 -154.09969663223865 0 -154.09969663223865 100.13828815428269 0 0 0 0 91.770923915159074 -52.229971308943504 0 -52.229971308943504 47.617037143188668 0 0 0 0 90.927767128945561 -151.61031817994422 0 -151.61031817994422 112.16630664465265 0 0 0 0 57.743179991959551 -39.241788166773233 0 -39.241788166773233 65.488303600587642 0 0 0 0 119.25339529904704 -33.621767761229137 0 -33.621767761229137 63.223336191928411 0 0 0 0 41.946614636590311 -183.90263310424905 0 -183.90263310424905 -96.041874962762449 0 0 0 0 74.217701381119696 -97.619624483698033 0 -97.619624483698033 -204.29627878353813 0 0 0 0 36.979178167734062 -199.49333517326795 0 -199.49333517326795 -234.05841728200994 0 0 0 0 -24.331388305494329 -75.73446180087376 0 -75.73446180087376 -238.17156768581799 0 0 0 0 -44.468059112667106 -123.12335659669361 0 -123.12335659669361 -113.69665318032116 0 0 0 0 40.720432641071966 -100.96229282665354 0 -100.96229282665354 -361.50565102339351 0 0 0 0 21.233778250771877 10.139133021848053 0 10.139133021848053 -4.015499673975814 0 0 0 0 7.6069082644462469 58.785696683460628 0 58.785696683460628 96.363071527090142 0 0 0 0 74.057788931328105 -225.18862644109095 0 -225.18862644109095 -433.22954911634895 0 0 0 0 107.144225078766 -10.490408283669801 0 -10.490408283669801 -3.7103584755907386 0 0 0 0 301.15104711701861 119.04614337653402 0 119.04614337653402 -157.40633480221686 0 0 0 0 -60.163270816046861 -218.14454802150567 0 -218.14454802150567 -244.15089673982902 0 0 0 0 392.51859181829786 -87.697976414653567 0 -87.697976414653567 -227.38837179811253 0 0 0 0 53.432920590421418 18.562941863372544 0 18.562941863372544 19.0145574057251 0 0 0 0 54.684091173629042 -9.7528789189098148 0 -9.7528789189098148 -0.18395501910249301 0 0 0 0 24.785560716618789 -31.781710365130259 0 -31.781710365130259 20.263034938671606 0 0 0 0 -10.473460330894795 -46.148990963513761 0 -46.148990963513761 -49.866850268940652 0 0 0 0 -9.0248831269309449 -168.19022319064851 0 -168.19022319064851 -46.205462078841265 0 0 0 0 -10.513199113268456 -46.143767508411472 0 -46.143767508411472 80.106704361628545 0 0 0 0 -9.1082480528893939 -169.13071007371138 0 -169.13071007371138 72.510845265490389 0 0 0 0 -48.541811716432676 -281.86405193285287 0 -281.86405193285287 -135.26293107542233 0 0 0 0 187.4382522496162 203.22901929488307 0 203.22901929488307 39.276626452438904 0 0 0 0 19.185494893090663 7.8928847594524001 0 7.8928847594524001 1.1775032999227886 0 0 0 0 27.681955557756368 -9.5043748307758875 0 -9.5043748307758875 12.475562009999319 0 0 0 0 215.98214596432808 -87.412463048295422 0 -87.412463048295422 151.81630534991336 0 0 0 0 114.82601687696297 82.110591494972141 0 82.110591494972141 49.605019799768115 0 0 0 0 177.89449617746868 27.683890913816867 0 27.683890913816867 -119.1911414344595 0 0 0 0 93.588084961956042 -3.5026623283898459 0 -3.5026623283898459 -6.9149996865549754 0 0 0 0 187.99981729849242 -18.179740868436966 0 -18.179740868436966 -39.989967119749053 0 0 0 0 12.54582448811135 2.8246187188845653 0 2.8246187188845653 -1.3829114431634491 0 0 0 0 1376.6713928473619 -368.93687694251417 0 -368.93687694251417 -356.10190987689913 0 0 0 0 55.478671284014126 69.265098657154567 0 69.265098657154567 28.972828123999534 0 0 0 0 565.9891184985172 -404.22225780248505 0 -404.22225780248505 -142.3729500446625 0 0 0 0 79.783768763625744 -9.398463853063717 0 -9.398463853063717 -1.4218500425772209 0 0 0 0 202.25156730932576 521.16662976832026 0 521.16662976832026 391.69380855699455 0 0 0 0 156.33164372043393 136.75852743621624 0 136.75852743621624 26.642289535326199 0 0 0 0 895.70649106787459 717.02981723939615 0 717.02981723939615 75.565507720627977 0 0 0 0 1398.0058077121794 215.85349689131522 0 215.85349689131522 -123.38554828859634 0 0 0 0 -85.183377662433486 768.98652770214619 0 768.98652770214619 330.69987989278303 0 0 0 0 300.90972067678922 625.72615727272682 0 625.72615727272682 370.3003662077781 0 0 0 0 281.47229406096449 713.71070192562479 0 713.71070192562479 370.32343562669575 0 0 0 0 136.9598822218104 526.31769371622704 0 526.31769371622704 506.73166318695348 0 0 0 0 290.23394129745429 590.36202245228105 0 590.36202245228105 49.827526531110607 0 0 0 0 -45.402598004162428 38.894456930601109 0 38.894456930601109 14.63249907790032 0 0 0 0 43.596295836755189 3.56810961069732 0 3.56810961069732 0.5758140278337871 0 0 0 0 27.905300480750157 -0.070919768982093956 0 -0.070919768982093956 -35.094789261744381 0 0 0 0 27.608065561878391 -2.9259748445705753 0 -2.9259748445705753 -1.2837913550781188 0 0 0 0 227.85085763462121 710.02296367854842 0 710.02296367854842 617.24644977417915 0 0 0 0 419.62302493205061 699.05363058814351 0 699.05363058814351 406.27806228233158 0 0 0 0 441.31822596934217 1003.2980666400197 0 1003.2980666400197 1581.8545960818726 0 0 0 0 9.3269177050028986 0.51630242367404833 0 0.51630242367404833 0.44995143398797977 0 0 0 0 173.23887136264239 -125.87171604700234 0 -125.87171604700234 97.215555829326831 0 0 0 0 -275.68096656339912 304.81228963922905 0 304.81228963922905 467.23296690055349 0 0 0 0 493.16101513378089 -174.83190442277342 0 -174.83190442277342 -758.2452039376775 0 0 0 0 339.25026483047986 295.74490456944443 0 295.74490456944443 466.47079279756554 0 0 0 0 120.311410942566 191.07746914598431 0 191.07746914598431 269.91418848510648 0 0 0 0 697.8422745078351 -126.10457198319421 0 -126.10457198319421 -279.81863870243251 0 0 0 0 195.05878925480647 -333.3682583291685 0 -333.3682583291685 96.00475170904221 0 0 0 0 797.31777759289105 -370.65175042154397 0 -370.65175042154397 -292.91924880752549 0 0 0 0 856.50509547666297 -134.5844904633243 0 -134.5844904633243 98.085277132489352 0 0 0 0 443.21772705586773 -75.792598572911288 0 -75.792598572911288 868.53913966839775 0 0 0 0 1095.7874747155583 201.96430210554672 0 201.96430210554672 265.03405039887662 0 0 0 0 934.95409283587651 294.11594784052932 0 294.11594784052932 992.96733633495091 0 0 0 0 1179.6873196104868 158.87210090900501 0 158.87210090900501 -179.17467644658927 0 0 0 0 1174.2156120028212 522.11316892985292 0 522.11316892985292 423.46231101253511 0 0 0 0 1395.8870970062708 85.445430434424452 0 85.445430434424452 37.447177556241513 0 0 0 0 1017.8239595787018 -45.849788404285391 0 -45.849788404285391 221.41952956402326 0 0 0 0 1451.1347329967102 -609.28649686740755 0 -609.28649686740755 823.00996166096911 0 0 0 0 631.29408712347504 -115.26970856593226 0 -115.26970856593226 992.12371053021036 0 0 0 0 1301.9698186697642 -251.97427329262905 0 -251.97427329262905 140.59748379717962 0 0 0 0 1806.7056490589457 -498.19974427308784 0 -498.19974427308784 193.5685654315289 0 0 0 0 1788.0237562538241 -566.52820226559879 0 -566.52820226559879 426.35222538587641 0 0 0 0 1736.1879885279632 -463.51217960814597 0 -463.51217960814597 239.08440356700612 0 0 0 0 1767.5800950500416 -485.57967910798686 0 -485.57967910798686 -35.908584940272505 0 0 0 0 838.18457380020482 -61.320564260862199 0 -61.320564260862199 -114.67260556859424 0 0 0 0 73.514838806919215 21.473030246425012 0 21.473030246425012 73.40023333599629 0 0 0 0 720.21539444135851 50.545882210917398 0 50.545882210917398 257.91830135148848 0 0 0 0 903.45608413832088 330.62689588693502 0 330.62689588693502 -1.5159534232329861 0 0 0 0 1761.625523556344 239.2041180325989 0 239.2041180325989 2.0818236681961935 0 0 0 0 2069.5206730329519 275.7767117820199 0 275.7767117820199 -235.92400900164785 0 0 0 0 1572.3911200820876 -280.17921374174091 0 -280.17921374174091 144.19988213093529 0 0 0 0 2685.0817268823739 -585.73435883221509 0 -585.73435883221509 150.9523880210686 0 0 0 0 2146.7750161241856 -311.25193855501584 0 -311.25193855501584 114.29556059968854 0 0 0 0 3096.1397493413679 593.88162025416887 0 593.88162025416887 87.169239168343665 0 0 0 0 -9.0661549787335787 -3.9972826317182779 0 -3.9972826317182779 5.8802897837576324 0 0 0 0 10.204996772159383 -1.0431378898775137 0 -1.0431378898775137 -0.22622772295443649 0 0 0 0 144.68925888638478 19.027142731002641 0 19.027142731002641 -36.189509762004491 0 0 0 0 157.08767463218283 -71.606572558103053 0 -71.606572558103053 -29.861917716313656 0 0 0 0 46.003270953594637 -27.228435004197067 0 -27.228435004197067 0.74841521106733389 0 0 0 0 331.1163966882159 -193.37940731822482 0 -193.37940731822482 166.63597781005046 0 0 0 0 19.116046777358861 -86.215183176932669 0 -86.215183176932669 70.856865794152327 0 0 0 0 -25.207999721900705 -41.725929280775063 0 -41.725929280775063 20.99447996752906 0 0 0 0 6.9443665101425722 -41.007058732265932 0 -41.007058732265932 7.019024997514407 0 0 0 0 -21.362594483594876 -35.204191720333256 0 -35.204191720333256 39.640675275550166 0 0 0 0 -35.053498887820751 -14.383216541986258 0 -14.383216541986258 31.862551898527272 0 0 0 0 45.101664417281796 -24.967583703680461 0 -24.967583703680461 4.1450443618884005 0 0 0 0 9.5824197909845452 3.1858178455832871 0 3.1858178455832871 2.0566722226888263 0 0 0 0 -42.339644936029799 -18.283859985982417 0 -18.283859985982417 39.154181023676756 0 0 0 0 -36.056450179748936 -17.4787616276069 0 -17.4787616276069 28.356969596435192 0 0 0 0 38.999617259716615 208.86772937803198 0 208.86772937803198 28.591202828196401 0 0 0 0 -155.62678573910671 -159.47882363064411 0 -159.47882363064411 116.4921597537587 0 0 0 0 657.00441479866276 -127.70558855475679 0 -127.70558855475679 42.001985660032688 0 0 0 0 -64.999192351431702 157.1168859299072 0 157.1168859299072 220.38292216621471 0 0 0 0 460.71937308894121 309.06380827514784 0 309.06380827514784 -1.7318933902336084 0 0 0 0 8.614452611465822 75.591290247915367 0 75.591290247915367 5.7870019157817296 0 0 0 0 -51.220841521964758 54.481596845926106 0 54.481596845926106 78.096005771673845 0 0 0 0 -43.670469380027498 75.318417910968947 0 75.318417910968947 12.129847330889334 0 0 0 0 -65.240918713236169 123.37476866467864 0 123.37476866467864 -78.745382597723619 0 0 0 0 -75.5582088871015 28.015077178889442 0 28.015077178889442 -22.433989180902245 0 0 0 0 -108.5605119705142 79.19105299761668 0 79.19105299761668 25.093047278846825 0 0 0 0 4.8242086066894672 8.7115879041030269 0 8.7115879041030269 14.25672599784083 0 0 0 0 9.9810506395078846 47.930068266652654 0 47.930068266652654 -6.9771583182691757 0 0 0 0 -175.82337239637855 150.81640883920863 0 150.81640883920863 -21.901835718176699 0 0 0 0 -116.59569978345826 54.156588730235853 0 54.156588730235853 -58.311194360452646 0 0 0 0 -84.431859133706894 92.711588162796943 0 92.711588162796943 -19.599984680437046 0 0 0 0 -36.302439755105297 80.885568246596449 0 80.885568246596449 -34.767604624546948 0 0 0 0 -46.398073572097928 69.572320175198229 0 69.572320175198229 12.413267184745564 0 0 0 0 -34.025698375306092 78.275188517984134 0 78.275188517984134 -25.466978091775673 0 0 0 0 -28.167184981342871 84.119643798590914 0 84.119643798590914 -65.311885188581073 0 0 0 0 8.2112826127267908 82.093058920406293 0 82.093058920406293 -34.921663336785969 0 0 0 0 2.8558223047148203 69.353039651662584 0 69.353039651662584 0.88388410392872174 0 0 0 0 51.196376625914127 73.716042104787448 0 73.716042104787448 -18.536762702600754 0 0 0 0 32.716590678726789 56.749602603538733 0 56.749602603538733 -33.476238536648168 0 0 0 0 43.246565539418953 84.869780508906388 0 84.869780508906388 -4.5815177079139175 0 0 0 0 67.915750191823463 52.057010092721612 0 52.057010092721612 -9.5326110696901196 0 0 0 0 74.044828931364464 31.441892609811475 0 31.441892609811475 -19.53336595572182 0 0 0 0 110.84998174375505 37.317158191583985 0 37.317158191583985 -25.990127380551712 0 0 0 0 71.243483177211601 59.544727043126841 0 59.544727043126841 -33.803940423538734 0 0 0 0 63.255314527690643 44.339646345695655 0 44.339646345695655 -17.243507231225522 0 0 0 0 100.36971820905455 57.735761662133882 0 57.735761662133882 -17.04352852678312 0 0 0 0 66.74407971171604 52.60153671002081 0 52.60153671002081 7.7252098293110976 0 0 0 0 102.03573512035109 28.719879364261033 0 28.719879364261033 -11.463142899363447 0 0 0 0 137.31991500822187 39.846535854529066 0 39.846535854529066 -11.588117545692512 0 0 0 0 128.89744591821 30.552743335381592 0 30.552743335381592 -1.0859877855273226 0 0 0 0 196.32871957990574 52.713512668088697 0 52.713512668088697 6.1951414555524025 0 0 0 0 112.28977841390952 71.058366708172798 0 71.058366708172798 13.138258393413707 0 0 0 0 132.24891055500484 57.445444028493739 0 57.445444028493739 17.185269830612015 0 0 0 0 126.22805259655433 53.702380480424381 0 53.702380480424381 32.442908322971562 0 0 0 0 214.08389784448082 82.017136302746621 0 82.017136302746621 41.406793613252376 0 0 0 0 4.5238286336680176 59.887405445851073 0 59.887405445851073 43.158192655128005 0 0 0 0 57.468968719535042 77.822978802625585 0 77.822978802625585 76.183363414584164 0 0 0 0 58.6691438540729 82.202695118162865 0 82.202695118162865 51.309218884974598 0 0 0 0 -8.781268343431293 67.279875297802846 0 67.279875297802846 102.52436883821247 0 0 0 0 52.425866632518591 71.548295396509275 0 71.548295396509275 130.29038575823961 0 0 0 0 50.458608483910211 83.71619310568849 0 83.71619310568849 101.83632615970055 0 0 0 0 193.84242097029346 117.42732294643429 0 117.42732294643429 124.40686530196035 0 0 0 0 131.40153705023113 64.472780296644487 0 64.472780296644487 80.161207060532888 0 0 0 0 124.10376745430403 98.995714045891418 0 98.995714045891418 81.296686655831309 0 0 0 0 134.75061720980739 115.50519134864055 0 115.50519134864055 150.98097355157734 0 0 0 0 217.26133399258833 140.62388912675397 0 140.62388912675397 233.35600895106745 0 0 0 0 168.86432453083398 66.496517139482876 0 66.496517139482876 120.21101779308992 0 0 0 0 58.071640077556367 8.0771900770498632 0 8.0771900770498632 210.34642967101473 0 0 0 0 321.70792816267931 164.06154516209972 0 164.06154516209972 233.8732160974314 0 0 0 0 129.37965122354217 8.2512106219441819 0 8.2512106219441819 89.565571083952591 0 0 0 0 139.5438909521763 -63.263566398232115 0 -63.263566398232115 422.67179633672913 0 0 0 0 55.626490581955295 26.388099986498048 0 26.388099986498048 77.94144596748913 0 0 0 0 -2.5805271596036619 55.111941724315557 0 55.111941724315557 150.08059583036334 0 0 0 0 8.7035946161631728 80.859589805459109 0 80.859589805459109 81.416459977466275 0 0 0 0 -2.6031308727393139 72.285090280969413 0 72.285090280969413 94.377182679605994 0 0 0 0 -69.665882265748223 80.478019537075397 0 80.478019537075397 118.24966114282734 0 0 0 0 -9.6376734002087687 80.098939770373605 0 80.098939770373605 92.166525005583026 0 0 0 0 -95.014088334093685 19.521576062658824 0 19.521576062658824 126.77936080884592 0 0 0 0 -64.960286716526753 106.01228126511796 0 106.01228126511796 184.44990060367127 0 0 0 0 -59.547683909688203 167.66564069286954 0 167.66564069286954 89.000892477915727 0 0 0 0 3.923875661144848 113.49565365293262 0 113.49565365293262 -15.466742867820244 0 0 0 0 702.54956163678435 283.78925653233273 0 283.78925653233273 -233.69671371582677 0 0 0 0 238.4174636076641 -308.14867461990877 0 -308.14867461990877 4.8547920967473601 0 0 0 0 -11.85775491701861 326.22651262114402 0 326.22651262114402 376.81559391013161 0 0 0 0 -165.76733517025423 43.398660764835313 0 43.398660764835313 279.40416250667886 0 0 0 0 183.40206639513781 -268.3561818910116 0 -268.3561818910116 -563.84955423968574 0 0 0 0 -3.8977628783613909 -93.337946533019021 0 -93.337946533019021 -178.5298071258776 0 0 0 0 -72.089107742838678 6.6628232160178413 0 6.6628232160178413 -225.5912705369999 0 0 0 0 386.64510338916443 239.36995011615704 0 239.36995011615704 214.83782117191345 0 0 0 0 30.45026806210808 -35.540271550126306 0 -35.540271550126306 136.70414061288193 0 0 0 0 52.554496913624462 -162.06777923921891 0 -162.06777923921891 -100.02004116974217 0 0 0 0 114.52280815325503 -79.540424789424151 0 -79.540424789424151 -179.20774686172535 0 0 0 0 113.87644204364915 -49.197989900849507 0 -49.197989900849507 108.94344478128255 0 0 0 0 331.76848691381747 157.27103656621489 0 157.27103656621489 134.29976911168615 0 0 0 0 496.62427867164661 19.679685697726768 0 19.679685697726768 184.74818191730037 0 0 0 0 438.25234497005295 205.97413378561191 0 205.97413378561191 191.41041144562675 0 0 0 0 358.4023148745182 72.173605706739181 0 72.173605706739181 110.91035032380294 0 0 0 0 1.9695457790713817 3.2609905206929284 0 3.2609905206929284 5.9669203757762457 0 0 0 0 708.77090926200617 122.47112919610458 0 122.47112919610458 -84.601624750928636 0 0 0 0 802.30233225465781 217.81857371038848 0 217.81857371038848 -41.037447074795409 0 0 0 0 3.4552775468764594 42.915205485545584 0 42.915205485545584 214.11924082521568 0 0 0 0 4.3896798881673931 1.8731271496394584 0 1.8731271496394584 0.65606882663951716 0 0 0 0 533.77442327127574 -99.656093225676585 0 -99.656093225676585 3.0426868805898266 0 0 0 0 218.42050196105265 -129.14524652640284 0 -129.14524652640284 9.4858551404095124 0 0 0 0 633.98337754414388 145.84212326571844 0 145.84212326571844 -5.0437803385107145 0 0 0 0 415.83100283500971 78.695403101550482 0 78.695403101550482 -13.925181133806745 0 0 0 0 467.41670826950576 47.595546674926595 0 47.595546674926595 -29.140452199450692 0 0 0 0 367.28397446253803 77.047060696458402 0 77.047060696458402 42.827792367484676 0 0 0 0 355.95323653935338 -22.36877121928012 0 -22.36877121928012 -54.155448777339529 0 0 0 0 -18.149695980202523 7.5846308143677561 0 7.5846308143677561 39.943794844878767 0 0 0 0 189.99091618340753 -42.482277091753019 0 -42.482277091753019 11.299162928445639 0 0 0 0 233.7490727978693 20.763482717809154 0 20.763482717809154 -19.507715820250951 0 0 0 0 433.10112498687522 136.67397783710635 0 136.67397783710635 42.815357660261895 0 0 0 0 349.93236688234174 94.042816442229764 0 94.042816442229764 57.779989329714681 0 0 0 0 456.77017508169229 103.23241258425196 0 103.23241258425196 -12.075927598428962 0 0 0 0 470.67214524390874 151.0914848609944 0 151.0914848609944 35.705265943043287 0 0 0 0 369.48300402692985 90.402502062996518 0 90.402502062996518 129.89247765384903 0 0 0 0 347.90259297265584 9.6211256994481005 0 9.6211256994481005 -30.957637946152317 0 0 0 0 1.9254301243971099 0.1634575297845231 0 0.1634575297845231 -2.230825308779548 0 0 0 0 733.21842190664029 470.9823350464485 0 470.9823350464485 211.64140685769746 0 0 0 0 268.44540021932335 -428.6500517058206 0 -428.6500517058206 -322.60563970844419 0 0 0 0 593.3214994762493 31.682989797925757 0 31.682989797925757 -349.2239504448662 0 0 0 0 296.59839242698217 -2.773598387633001 0 -2.773598387633001 -26.683112089230235 0 0 0 0 162.83615140635811 44.849328746025208 0 44.849328746025208 -5.3160097083556366 0 0 0 0 338.33174382799189 22.041878539212348 0 22.041878539212348 -46.798429035000424 0 0 0 0 597.30139705425245 108.24169844663686 0 108.24169844663686 -62.855322730031503 0 0 0 0 308.75709216484393 16.799486282021576 0 16.799486282021576 -46.185347485120971 0 0 0 0 74.797526703434414 58.777292109437553 0 58.777292109437553 58.163932726565235 0 0 0 0 305.45067390692884 68.417532629064141 0 68.417532629064141 -6.2299627435177172 0 0 0 0 92.941284193686442 27.772668428470297 0 27.772668428470297 4.1290046814136758 0 0 0 0 -3.1824710960790981 9.6347719350791294 0 9.6347719350791294 33.506798707761419 0 0 0 0 -4.0200248096152791 2.0544393565530754 0 2.0544393565530754 16.223825867923097 0 0 0 0 -2.1730420810636133 2.9374227226967378 0 2.9374227226967378 11.997562781761246 0 0 0 0 -18.669104613043601 10.439737124780549 0 10.439737124780549 20.306554898450713 0 0 0 0 -47.502107621949108 43.293431497691131 0 43.293431497691131 25.882813403182354 0 0 0 0 -21.767289307739702 44.999658789744899 0 44.999658789744899 -17.078217728740128 0 0 0 0 -10.012840855801187 15.661260708062514 0 15.661260708062514 21.817026801867996 0 0 0 0 14.256410451373085 43.146900374290453 0 43.146900374290453 2.5743570922295476 0 0 0 0 -9.1067474607407348 47.374895155371064 0 47.374895155371064 -52.811426720408235 0 0 0 0 -2.893490019107162 1.8870399344465483 0 1.8870399344465483 3.7120329029816066 0 0 0 0 50.207106668240158 44.254500534860426 0 44.254500534860426 19.538359667305031 0 0 0 0 119.78624006744212 -5.1113562472312424 0 -5.1113562472312424 5.3740502610394287 0 0 0 0 61.289993489859626 31.693031164205649 0 31.693031164205649 15.63332339758631 0 0 0 0 25.30971727319411 74.253079510927137 0 74.253079510927137 -18.126961672235637 0 0 0 0 11.520774158358108 13.439696055169861 0 13.439696055169861 -9.7522636316900844 0 0 0 0 56.275984723324655 18.047675138497311 0 18.047675138497311 -19.90483071261724 0 0 0 0 -48.666982337745139 32.075894091557302 0 32.075894091557302 9.0542126869920594 0 0 0 0 13.836744695201048 12.306385085792698 0 12.306385085792698 9.9455927109664568 0 0 0 0 -55.077277035961743 82.161787810478927 0 82.161787810478927 -52.943215442519431 0 0 0 0 -83.671285081335554 126.53046522870494 0 126.53046522870494 -53.41015470306229 0 0 0 0 10.815887870801021 12.639196879257696 0 12.639196879257696 16.414521876933492 0 0 0 0 -83.045954826709931 95.491994501308 0 95.491994501308 -37.529983885311594 0 0 0 0 -54.398643577267649 107.38140323545849 0 107.38140323545849 -45.16901039376171 0 0 0 0 -34.465962023037719 90.138276849020258 0 90.138276849020258 -46.93526410334016 0 0 0 0 -59.106623261759523 109.85076096485318 0 109.85076096485318 -45.251706667103463 0 0 0 0 -58.012862773692177 102.98148217310245 0 102.98148217310245 -83.79486996648302 0 0 0 0 -28.995423133223085 -0.14493081689533938 0 -0.14493081689533938 57.375883451297341 0 0 0 0 6.6842615375311425 6.6890916810297227 0 6.6890916810297227 7.4685729171569992 0 0 0 0 36.253282556295744 73.713778628384716 0 73.713778628384716 -45.196269702492373 0 0 0 0 40.97852813875943 39.109523144007994 0 39.109523144007994 -26.785637992652482 0 0 0 0 91.157855511206435 37.747710260673557 0 37.747710260673557 -38.626343139638266 0 0 0 0 41.498528462572722 48.320160417430088 0 48.320160417430088 -31.776772828754474 0 0 0 0 20.290450057742419 81.776182171892287 0 81.776182171892287 -32.681269385133248 0 0 0 0 2.9149156917628716 67.479215983253198 0 67.479215983253198 -40.670530975665315 0 0 0 0 -15.674246587994276 103.43012775711577 0 103.43012775711577 -42.334371602137253 0 0 0 0 -19.329906879574992 86.384671973186414 0 86.384671973186414 -57.846178422343655 0 0 0 0 -17.980185924679972 91.289699228687823 0 91.289699228687823 -41.564263226737125 0 0 0 0 19.802173269708874 62.217662963897055 0 62.217662963897055 -49.259816312163821 0 0 0 0 -33.957458217424573 80.45795712038489 0 80.45795712038489 -45.4126543891864 0 0 0 0 11.454415880271227 14.414681349940935 0 14.414681349940935 15.894845309637368 0 0 0 0 -25.699671283568023 96.987316055080555 0 96.987316055080555 -64.588423525007329 0 0 0 0 22.467525343152374 59.789718013806578 0 59.789718013806578 -81.825851754194446 0 0 0 0 73.544679287806503 34.34237133805982 0 34.34237133805982 -48.396467551028763 0 0 0 0 57.382659197217436 59.500337732029948 0 59.500337732029948 -49.983077073724019 0 0 0 0 16.928380790524898 41.639960915756546 0 41.639960915756546 -49.130562677237322 0 0 0 0 -33.017566925322171 13.084726824259633 0 13.084726824259633 18.649369732040213 0 0 0 0 7.93954489213138 88.883876458685336 0 88.883876458685336 -87.043979645530271 0 0 0 0 17.931001704929059 16.768906204486626 0 16.768906204486626 14.596212114691182 0 0 0 0 -2.9276914612346445 73.105568407026567 0 73.105568407026567 -54.577775895202649 0 0 0 0 -3.1690186606574571 20.501378263115839 0 20.501378263115839 12.107841968012508 0 0 0 0 21.349790274070983 29.069776706203356 0 29.069776706203356 -12.022760140160699 0 0 0 0 9.1925542406825116 29.991956319487599 0 29.991956319487599 -36.518058075900854 0 0 0 0 16.697109280269842 12.184297640382397 0 12.184297640382397 8.9412513121932431 0 0 0 0 -8.0078199441632023 27.9816380949826 0 27.9816380949826 -26.623379408144046 0 0 0 0 -33.656888598867226 50.494259121192499 0 50.494259121192499 -33.743021284331917 0 0 0 0 4.5479630552260346 1.3873921025312939 0 1.3873921025312939 -3.6169246986139845 0 0 0 0 18.325137827385333 40.407011595007475 0 40.407011595007475 -30.142712037819592 0 0 0 0 4.1060903018224053 18.807057817376631 0 18.807057817376631 43.307973153889634 0 0 0 0 -9.8863222961517749 24.187296341723993 0 24.187296341723993 -2.5884072683652448 0 0 0 0 20.570704192097764 19.016432460006172 0 19.016432460006172 -4.2697382792042049 0 0 0 0 23.086574136749732 50.333418794262045 0 50.333418794262045 22.506655467730525 0 0 0 0 48.530437795670878 42.436139663072481 0 42.436139663072481 -59.604474696027864 0 0 0 0 17.830033511767397 9.8584222672565716 0 9.8584222672565716 -0.95865940284437556 0 0 0 0 12.124975064227328 9.7480256994738284 0 9.7480256994738284 -23.24642993967359 0 0 0 0 -0.70485014733640128 -21.536224857891128 0 -21.536224857891128 -49.756695143141542 0 0 0 0 14.705564136456815 14.494575050097808 0 14.494575050097808 -18.187513432851347 0 0 0 0 18.086941735527944 12.911131464665345 0 12.911131464665345 -33.435923979618508 0 0 0 0 23.165075308701489 61.38701443584489 0 61.38701443584489 69.111718037785522 0 0 0 0 -0.79895777745304031 -0.73712779955201313 0 -0.73712779955201313 -0.041979508512147934 0 0 0 0 26.293565801544901 21.00950827686513 0 21.00950827686513 10.934888857332226 0 0 0 0 -25.04020142799709 -26.995449161264332 0 -26.995449161264332 12.963312478105991 0 0 0 0 15.158301114905044 18.663005988167981 0 18.663005988167981 12.765785765076089 0 0 0 0 -0.55655595188500229 -0.016179096823279338 0 -0.016179096823279338 0.26568424356519316 0 0 0 0 12.867576543196265 8.4028501642821993 0 8.4028501642821993 -0.48927594301767385 0 0 0 0 13.90095177780313 13.148790325263747 0 13.148790325263747 0.0098276772152985359 0 0 0 0 15.65610182468663 10.982033049103393 0 10.982033049103393 1.6399709437361025 0 0 0 0 15.176578538230387 7.603442690514953 0 7.603442690514953 -11.639248284713062 0 0 0 0 15.083849915754399 8.0624411887842484 0 8.0624411887842484 -11.89738668404101 0 0 0 0 9.2566746389638865 11.611206539257353 0 11.611206539257353 -1.5109650044342118 0 0 0 0 11.402258232104941 14.241081165195681 0 14.241081165195681 -4.8494572171780419 0 0 0 0 -6.5344153265468776 8.7453310569051723 0 8.7453310569051723 10.685274422918155 0 0 0 0 19.921740308025619 4.2528889798186356 0 4.2528889798186356 -47.863552223717306 0 0 0 0 36.101411713432753 74.209136650878577 0 74.209136650878577 -39.244550873682897 0 0 0 0 14.546043545728139 4.1065753616222054 0 4.1065753616222054 -1.6048795990090037 0 0 0 0 14.964179632186642 7.334761970851666 0 7.334761970851666 -9.9533758457623662 0 0 0 0 12.983033637545304 7.6387965117360181 0 7.6387965117360181 -7.3902136422652802 0 0 0 0 14.892573009550688 3.022730564587448 0 3.022730564587448 -11.315444884840211 0 0 0 0 12.541286483261501 9.4682542480747429 0 9.4682542480747429 -13.23818771786668 0 0 0 0 13.905926254461519 7.0585564111651138 0 7.0585564111651138 -9.772850334159557 0 0 0 0 11.586422791646328 9.0979759166381768 0 9.0979759166381768 -11.109168222369135 0 0 0 0 13.383748727363127 4.3105375551635063 0 4.3105375551635063 -21.409204223180041 0 0 0 0 13.070589889815892 5.9388318748339088 0 5.9388318748339088 -10.940321346292308 0 0 0 0 448.92074527978548 229.20221836820235 0 229.20221836820235 58.970715316947121 0 0 0 0 3.761638831385568 0.5666042793787085 0 0.5666042793787085 -5.1283073864256448 0 0 0 0 483.5825431394187 151.32062168711749 0 151.32062168711749 -259.92930280862674 0 0 0 0 553.10048955268576 291.41177844661212 0 291.41177844661212 73.758340995394519 0 0 0 0 510.77684780170239 188.74127170550162 0 188.74127170550162 19.540079567337898 0 0 0 0 398.83348996007408 215.2659006772227 0 215.2659006772227 57.22788906851406 0 0 0 0 468.8567272984219 188.2976384052364 0 188.2976384052364 32.195833076400959 0 0 0 0 408.92148877914588 142.59039906944582 0 142.59039906944582 4.9565114735768816 0 0 0 0 191.18664590909611 82.900490396857322 0 82.900490396857322 42.293250734799699 0 0 0 0 196.76828881434631 70.386679239112709 0 70.386679239112709 69.96588304081672 0 0 0 0 251.08642618410522 171.08381659562156 0 171.08381659562156 94.209049452429326 0 0 0 0 195.95407639516634 70.85587099683471 0 70.85587099683471 90.073442001741569 0 0 0 0 81.526738451706478 43.773070599906987 0 43.773070599906987 61.021109405700827 0 0 0 0 226.90686567702869 58.120565356748784 0 58.120565356748784 19.739507910752081 0 0 0 0 90.749961130917654 55.332220055266191 0 55.332220055266191 -24.396578231406011 0 0 0 0 66.610003425099421 -37.494585699554932 0 -37.494585699554932 -15.369731342571995 0 0 0 0 13.68060156309366 11.670551774947484 0 11.670551774947484 -4.9047742082171908 0 0 0 0 1.5442089305180957 1.7158100687227744 0 1.7158100687227744 -0.94490591017394587 0 0 0 0 -4.8376434874662664 86.859375456101134 0 86.859375456101134 60.380031438442757 0 0 0 0 207.39378600109194 56.561754132394299 0 56.561754132394299 -1.4754592582617079 0 0 0 0 2.7000891528453508 -1.6014734235356656 0 -1.6014734235356656 -1.2178684161103615 0 0 0 0 15.107446077386498 3.3249032879091374 0 3.3249032879091374 -1.8386981899766712 0 0 0 0 24.795278255172889 11.186016154150707 0 11.186016154150707 -50.42873571315431 0 0 0 0 34.208118692637072 13.050318154969773 0 13.050318154969773 -52.576693553908967 0 0 0 0 26.173631720244884 25.391432803925568 0 25.391432803925568 -5.0493111072149759 0 0 0 0 34.984316740752547 9.1932221339917533 0 9.1932221339917533 -48.858971541147184 0 0 0 0 12.320979526112069 -4.3241244497189371 0 -4.3241244497189371 -0.071966969040434314 0 0 0 0 18.975207941417466 -5.411537398474195 0 -5.411537398474195 -56.286838934597881 0 0 0 0 481.28404666547431 308.27914717636406 0 308.27914717636406 167.70584871501211 0 0 0 0 297.847805793921 223.52630958903416 0 223.52630958903416 139.5272052562143 0 0 0 0 0.88129727135674329 -84.70131749942297 0 -84.70131749942297 -122.1048195264591 0 0 0 0 128.46105191158131 -10.213407362492717 0 -10.213407362492717 -111.54243966783187 0 0 0 0 7.8367648114330564 -2.7603827992359982 0 -2.7603827992359982 0.083158411530012799 0 0 0 0 991.50715740173473 525.35560084586893 0 525.35560084586893 226.63166313755943 0 0 0 0 426.7510332151287 247.53069665031285 0 247.53069665031285 213.19066143266903 0 0 0 0 2.9599443171979374 -0.71311024021837 0 -0.71311024021837 0.13683746414409281 0 0 0 0 494.24818367287389 215.92033037251451 0 215.92033037251451 72.388960577862235 0 0 0 0 475.41172991808708 206.17561876001091 0 206.17561876001091 73.45675798169168 0 0 0 0 353.28871429487481 -51.237980910437152 0 -51.237980910437152 50.487616264703874 0 0 0 0 555.74452612973982 118.43045438709953 0 118.43045438709953 46.067440048271024 0 0 0 0 -63.896473764543771 -122.59828060769706 0 -122.59828060769706 -69.081672856017462 0 0 0 0 364.12792110595183 -61.438713526155681 0 -61.438713526155681 -61.596612927527531 0 0 0 0 334.6181109026802 -12.919653204445659 0 -12.919653204445659 37.462194275975115 0 0 0 0 72.919264965079492 -34.116861580706541 0 -34.116861580706541 81.593420357360259 0 0 0 0 62.633133303172144 52.47743962641362 0 52.47743962641362 23.815270636894184 0 0 0 0 28.759556192613672 23.972871637268014 0 23.972871637268014 86.526226348660288 0 0 0 0 41.275233118183678 30.626944406389555 0 30.626944406389555 3.2220905730960112 0 0 0 0 40.02780701284064 45.681888677180552 0 45.681888677180552 -2.3711113773584884 0 0 0 0 23.211424788190925 46.858819985107914 0 46.858819985107914 22.642398265548422 0 0 0 0 15.135242458723951 24.392582478592885 0 24.392582478592885 -1.5634417940229923 0 0 0 0 12.52664229972288 30.190048292928111 0 30.190048292928111 36.277974067002731 0 0 0 0 30.307501028190018 29.527924791473239 0 29.527924791473239 25.448703361197573 0 0 0 0 -27.077288382512052 -3.0811582208817754 0 -3.0811582208817754 44.647019043580741 0 0 0 0 15.683913904227666 33.798803606509409 0 33.798803606509409 37.108741656986979 0 0 0 0 44.373786712181754 -15.879455160073036 0 -15.879455160073036 -21.557972937678016 0 0 0 0 -1.7560969797777943 2.966879632858693 0 2.966879632858693 0.040814296891027751 0 0 0 0 -0.37208598659231029 0.10043816574945197 0 0.10043816574945197 -0.017819300160253421 0 0 0 0 18.730695910577197 -13.625572353069057 0 -13.625572353069057 9.1768119338382306 0 0 0 0 36.278585842213943 -7.9898430797562341 0 -7.9898430797562341 69.376089135396853 0 0 0 0 71.91813525040925 -10.303035504455195 0 -10.303035504455195 -0.050194739350135992 0 0 0 0 151.31991906295298 6.7741438758264039 0 6.7741438758264039 23.170359004981144 0 0 0 0 152.75403717541394 -12.685550630060748 0 -12.685550630060748 93.392755789241576 0 0 0 0 194.83474397163809 35.204436832040479 0 35.204436832040479 -15.557239058012943 0 0 0 0 317.5702363313103 -74.587030597345475 0 -74.587030597345475 19.270006619803382 0 0 0 0 401.39800370686862 29.390739515018797 0 29.390739515018797 0.16241510766948997 0 0 0 0 9.7978833099477924 5.8453193764560112 0 5.8453193764560112 1.0108712530344519 0 0 0 0 13.145385557640111 7.377313710141161 0 7.377313710141161 -1.0932408378846739 0 0 0 0 -0.13559292354534591 3.4685665193867266 0 3.4685665193867266 -1.7171960632863643 0 0 0 0 9.393246008141432 6.8133317935744442 0 6.8133317935744442 -0.25843916234254038 0 0 0 0 -1.4023061944026267 4.2216732439488256 0 4.2216732439488256 0.60488837332465373 0 0 0 0 0.01555910237678404 0.017214124839398437 0 0.017214124839398437 0.00075854931015515575 0 0 0 0 13.747976114682388 1.7222450796410271 0 1.7222450796410271 -5.2473683758815852 0 0 0 0 -4.8457234709057957 20.668690430201764 0 20.668690430201764 -5.5221948745650025 0 0 0 0 -19.018752625212073 26.088011581734577 0 26.088011581734577 -4.6286253349148865 0 0 0 0 14.257879599227692 3.8502769458438166 0 3.8502769458438166 -1.5749410421776195 0 0 0 0 0.91475120458562742 1.2747458177569939 0 1.2747458177569939 1.8240036774216151 0 0 0 0 -31.531075693361345 7.6537796345439801 0 7.6537796345439801 3.1306795287691784 0 0 0 0 0.02725692241626021 0.16313031796207156 0 0.16313031796207156 0.51131750114351071 0 0 0 0 -14.012527121172752 -9.9121831358949066 0 -9.9121831358949066 2.7877334516358587 0 0 0 0 4.4153126977325883 -3.8019629440386211 0 -3.8019629440386211 -2.0417318062277445 0 0 0 0 9.762901994985441 40.047195414464397 0 40.047195414464397 26.807426571963333 0 0 0 0 46.162506211374421 40.414283670744737 0 40.414283670744737 14.504577321170473 0 0 0 0 -10.507907509745564 12.538835601275451 0 12.538835601275451 24.919771121327486 0 0 0 0 -0.65673879074894792 0.64612515869274034 0 0.64612515869274034 1.4778414137333906 0 0 0 0 -0.96312899129407015 14.452319195520772 0 14.452319195520772 5.2685906850801416 0 0 0 0 16.19560567431472 29.985912586448251 0 29.985912586448251 11.797638920763575 0 0 0 0 -6.1750710653723218 -3.5083552340266806 0 -3.5083552340266806 5.2065224463303821 0 0 0 0 -2.043598370660618 1.6373036272758554 0 1.6373036272758554 -1.1562806412983071 0 0 0 0 -3.6335526653128909 2.8280682988937542 0 2.8280682988937542 8.7856051796877068 0 0 0 0 2.8767249670781894 3.8758885028760566 0 3.8758885028760566 0.23276791116513973 0 0 0 0 -7.4675404471709044 -18.971548308107316 0 -18.971548308107316 0.64772963108669046 0 0 0 0 -1.1283847814214027 0.63258233025976551 0 0.63258233025976551 -0.085475874717055714 0 0 0 0 -3.88779561217234 2.3123205171082124 0 2.3123205171082124 0.43123540629838558 0 0 0 0 -0.25112985674868149 0.16513511572827611 0 0.16513511572827611 0.010098251696742874 0 0 0 0 2.1560126227268483 3.6274954290107289 0 3.6274954290107289 -0.0012764172813367006 0 0 0 0 2.8119517906970941 3.3584871989343399 0 3.3584871989343399 -0.1512721949871354 0 0 0 0 1.5541136548854411 2.2592837894670024 0 2.2592837894670024 -0.24390869148645233 0 0 0 0 3.0626405958046234 2.809064729995522 0 2.809064729995522 -0.3787250991103317 0 0 0 0 4.8050945565191796 0.59541339159857598 0 0.59541339159857598 -2.0262186834062463 0 0 0 0 10.309459527306899 1.5092640389389518 0 1.5092640389389518 -1.8985413618822529 0 0 0 0 -0.29882966749573825 3.5161116197978566 0 3.5161116197978566 -0.0011315118624228109 0 0 0 0 0.020224011729837343 0.018916364148850562 0 0.018916364148850562 -0.0011898059351783657 0 0 0 0 7.1787020128394943 3.7113620243359087 0 3.7113620243359087 -0.0011066750024027049 0 0 0 0 4.208537389702542 2.7941617595299095 0 2.7941617595299095 0.00043343297984083269 0 0 0 0 5.2427920065165381 1.7640262787983096 0 1.7640262787983096 -1.6818938676051323 0 0 0 0 5.6167558149172692 2.4794497102463611 0 2.4794497102463611 -2.0510816249125234 0 0 0 0 4.0753123801630409 1.2234901392156416 0 1.2234901392156416 0.0069952453098892919 0 0 0 0 6.2075825916690519 3.3506551585610698 0 3.3506551585610698 -1.0735408387042815 0 0 0 0 6.7954414562991587 2.6303795710444264 0 2.6303795710444264 -0.53038285065992419 0 0 0 0 7.0938898259701091 2.9291540722108209 0 2.9291540722108209 0.70653318794335651 0 0 0 0 5.3431284752114152 0.57150292101645439 0 0.57150292101645439 -0.3171385009272143 0 0 0 0 -22.115576749711181 -70.027559936169467 0 -70.027559936169467 -9.9176006379460659 0 0 0 0 391.6430072109797 166.27292135054245 0 166.27292135054245 -14.685392382257987 0 0 0 0 -41.631340931169689 -56.962793038849668 0 -56.962793038849668 -4.4432964379680584 0 0 0 0 6.6650943824934075 81.263448493737002 0 81.263448493737002 15.040783856087273 0 0 0 0 5.2338138023161491 -0.78230024066579062 0 -0.78230024066579062 0.73124099107382534 0 0 0 0 16.66178955182113 3.1771299188471858 0 3.1771299188471858 -23.298477323630721 0 0 0 0 425.38742977332731 -165.20595432752071 0 -165.20595432752071 -191.52534017304984 0 0 0 0 -12.890448236415978 140.36018531372076 0 140.36018531372076 160.85867308780806 0 0 0 0 2.8586815685998204 -0.23539060463117778 0 -0.23539060463117778 0.078982033596603551 0 0 0 0 10.70648963196993 -0.3851872841922841 0 -0.3851872841922841 -0.30203744902381469 0 0 0 0 72.420552344541647 -12.674546567717371 0 -12.674546567717371 -228.114221628189 0 0 0 0 16.954642642842373 -47.260419477373148 0 -47.260419477373148 -60.796508706443703 0 0 0 0 91.566613941540709 -78.300929156878766 0 -78.300929156878766 -201.74346126253886 0 0 0 0 169.53877917924547 28.73585358516516 0 28.73585358516516 -95.080600833553717 0 0 0 0 -17.507070139734424 20.167214461658546 0 20.167214461658546 -3.6341592100621369 0 0 0 0 7.8817789179545343 -0.46173527819696858 0 -0.46173527819696858 -0.24980975571547154 0 0 0 0 -30.249357578519266 -48.955323595493553 0 -48.955323595493553 -47.40635436607306 0 0 0 0 262.65898048105009 -149.1954860697366 0 -149.1954860697366 100.3527551953278 0 0 0 0 6.3693794471837464 -26.519389114104893 0 -26.519389114104893 97.812301379533523 0 0 0 0 119.77840381293208 -3.3283386504354624 0 -3.3283386504354624 -37.588230841198708 0 0 0 0 88.996035968244541 -177.87133049257568 0 -177.87133049257568 33.404832545727949 0 0 0 0 0.78632103443669621 0.7677911250122329 0 0.7677911250122329 -1.0538844806163483 0 0 0 0 1.302766856097378 0.082431695598160104 0 0.082431695598160104 -0.087625149782246711 0 0 0 0 1.1106461807848973 2.1936141119796941 0 2.1936141119796941 -0.0041860483616290509 0 0 0 0 103.92587887657282 42.034402029750524 0 42.034402029750524 0.44513204954419117 0 0 0 0 76.131559738409123 40.529043296249888 0 40.529043296249888 22.969600632405914 0 0 0 0 91.700203197604424 80.734729231798624 0 80.734729231798624 11.373626457027171 0 0 0 0 165.81852041224192 30.471560860916931 0 30.471560860916931 -43.885193393425553 0 0 0 0 124.11504187104583 56.580907041501256 0 56.580907041501256 -0.06686952490252121 0 0 0 0 186.10043809916533 102.67543336965365 0 102.67543336965365 -20.936132977336158 0 0 0 0 242.49087331700139 85.206407756129437 0 85.206407756129437 -81.051306317450937 0 0 0 0 158.05312726853299 57.598861800966205 0 57.598861800966205 10.356200323430294 0 0 0 0 55.227727173769381 45.809439535631121 0 45.809439535631121 -10.470827131252406 0 0 0 0 120.17417389518232 123.71094156540323 0 123.71094156540323 -67.255257230565519 0 0 0 0 31.957610068086069 127.46200437341322 0 127.46200437341322 -67.121247259854243 0 0 0 0 4.0366468545478256 -1.0793058844278782 0 -1.0793058844278782 -0.53986558269406715 0 0 0 0 234.77519010021933 94.075862333376236 0 94.075862333376236 40.504463519993365 0 0 0 0 1.4074931077082056 -1.2958120098564336 0 -1.2958120098564336 -0.67903704549674271 0 0 0 0 405.0099276961555 -75.714790407635945 0 -75.714790407635945 -10.052506032517798 0 0 0 0 -2.6736070930492133 0.39925881192428392 0 0.39925881192428392 -49.131212760431964 0 0 0 0 79.510896185398451 68.784785879659808 0 68.784785879659808 -99.212515377044582 0 0 0 0 4.123885821642034 -4.5279560088029207 0 -4.5279560088029207 -155.73716932049899 0 0 0 0 11.345070340715779 -0.37070507732490299 0 -0.37070507732490299 -0.86358359341623547 0 0 0 0 -3.0986864977749065 -10.016372036904031 0 -10.016372036904031 19.112728415303877 0 0 0 0 -0.87268603577103931 -23.75976449107867 0 -23.75976449107867 -9.3502407523365605 0 0 0 0 66.22192526076833 28.84155410492167 0 28.84155410492167 108.51480746899591 0 0 0 0 69.619764850634965 4.0084253708104427 0 4.0084253708104427 -68.911626641471685 0 0 0 0 -0.22202436132511139 -2.7345045684136124 0 -2.7345045684136124 -2.17245435470495 0 0 0 0 -37.846390665654326 -5.4009150921017977 0 -5.4009150921017977 84.971544077758381 0 0 0 0 -7.3198155202990165 72.040796976360355 0 72.040796976360355 -54.973817283840162 0 0 0 0 -0.59802362037447665 -0.37256636595273562 0 -0.37256636595273562 -0.62454497817522481 0 0 0 0 296.68653083889512 -283.4514482205135 0 -283.4514482205135 -165.14357672645983 0 0 0 0 191.07063406158704 -232.93414681109854 0 -232.93414681109854 111.50085432672419 0 0 0 0 37.881625324152992 121.75734349924977 0 121.75734349924977 10.530276168880278 0 0 0 0 3.398405060112907 -0.2341524705258653 0 -0.2341524705258653 -0.17191032869852504 0 0 0 0 90.112706178741064 96.666591583532906 0 96.666591583532906 -181.63279361217883 0 0 0 0 124.88433592487127 164.00840511453794 0 164.00840511453794 -95.843820117507221 0 0 0 0 320.16821118404187 -55.669224352201525 0 -55.669224352201525 -172.64478856424455 0 0 0 0 49.613027805869933 98.347832516139306 0 98.347832516139306 -173.39438183549177 0 0 0 0 181.30270363766249 -23.226258034150803 0 -23.226258034150803 -80.375593718250457 0 0 0 0 83.945445249642944 -10.963195720168585 0 -10.963195720168585 -118.68875081765941 0 0 0 0 73.373041023325641 -23.740954176496672 0 -23.740954176496672 -54.552923096696247 0 0 0 0 53.0342798972124 22.662700768499093 0 22.662700768499093 -47.580974391785446 0 0 0 0 10.921115970304221 1.5239253672964992 0 1.5239253672964992 -2.0809129405005748 0 0 0 0 46.01758692815929 -15.157201322797619 0 -15.157201322797619 -46.871663361021092 0 0 0 0 107.03692360690911 -73.869526649339832 0 -73.869526649339832 -9.0368380691730295 0 0 0 0 135.17625356484496 -53.012009854738665 0 -53.012009854738665 -75.887158564208335 0 0 0 0 226.25425071411883 -185.16571311109573 0 -185.16571311109573 8.7504116112365011 0 0 0 0 125.08227424461802 -12.309256175026349 0 -12.309256175026349 -96.649379565920015 0 0 0 0 191.83660429439624 51.934818682755122 0 51.934818682755122 -35.917425036365785 0 0 0 0 123.58922045772488 12.885353730086308 0 12.885353730086308 -36.870417736813977 0 0 0 0 72.139053599647013 4.166095227161918 0 4.166095227161918 5.5232433158842014 0 0 0 0 48.691206187744683 17.1077935307475 0 17.1077935307475 -4.2542851771942196 0 0 0 0 65.786292392083851 25.313445723462451 0 25.313445723462451 -35.245530500785435 0 0 0 0 11.134768069983693 57.880573409661679 0 57.880573409661679 -48.492531944416669 0 0 0 0 16.810314499074593 13.350018873750855 0 13.350018873750855 -4.0371908394197149 0 0 0 0 51.503165768604958 -6.8461423218095661 0 -6.8461423218095661 -38.278750460108995 0 0 0 0 124.98239426492364 8.0057790808694449 0 8.0057790808694449 -35.321620829196718 0 0 0 0 62.943537838968041 50.240316488560012 0 50.240316488560012 -52.366727147823838 0 0 0 0 193.55278633182752 -9.9569536747821985 0 -9.9569536747821985 -31.894861377823645 0 0 0 0 23.755259191764708 -13.952617211196142 0 -13.952617211196142 38.797747318528536 0 0 0 0 140.21923894519568 92.866390441416229 0 92.866390441416229 -54.853223792507606 0 0 0 0 143.21440066004288 -71.529492618549511 0 -71.529492618549511 -7.6100519151825665 0 0 0 0 2.429656837050004 -0.33793788846546136 0 -0.33793788846546136 -1.8671152782613034 0 0 0 0 17.826289951510262 -9.9355314084593829 0 -9.9355314084593829 -38.291202609277207 0 0 0 0 29.054183335771086 40.684705922472517 0 40.684705922472517 -10.137634563837594 0 0 0 0 39.658502208250866 16.417306873048858 0 16.417306873048858 -18.082922008026799 0 0 0 0 124.51372513806564 50.358609303721209 0 50.358609303721209 -18.867497005426969 0 0 0 0 23.483790964804939 -7.0718321138270994 0 -7.0718321138270994 -34.842356732893677 0 0 0 0 18.776042371857329 -4.2922304073704254 0 -4.2922304073704254 -15.621016414189711 0 0 0 0 5.1846989522429112 5.6436444348754975 0 5.6436444348754975 4.722081623869177 0 0 0 0 42.280833898519631 12.012428360736749 0 12.012428360736749 -21.417920726179204 0 0 0 0 21.286166343605146 2.0431718825890925 0 2.0431718825890925 -17.775639409699579 0 0 0 0 44.282792297453852 13.076698710499272 0 13.076698710499272 -21.734914239580377 0 0 0 0 49.332713215830154 -4.6680269403571515 0 -4.6680269403571515 -32.47945680598184 0 0 0 0 131.43368374046986 17.705699700886498 0 17.705699700886498 -30.5552208955678 0 0 0 0 139.375228104298 -36.100132259214263 0 -36.100132259214263 -28.014961731313349 0 0 0 0 12.877864761547244 3.8437553736032584 0 3.8437553736032584 -7.3502912154420983 0 0 0 0 13.362114070245298 11.584010982689392 0 11.584010982689392 -8.3740126380250786 0 0 0 0 18.260843925527297 11.807392489518435 0 11.807392489518435 -14.844991317464689 0 0 0 0 202.41978723328793 166.79068956101992 0 166.79068956101992 28.395170417512972 0 0 0 0 14.6559652670162 -35.970700428701541 0 -35.970700428701541 -14.57064623895991 0 0 0 0 1.4938951915090684 -0.89729868380167943 0 -0.89729868380167943 0.4408380654342352 0 0 0 0 148.28181780681734 -54.754009413641931 0 -54.754009413641931 28.82312234959943 0 0 0 0 8.388357228046516 3.5664103326060967 0 3.5664103326060967 13.290939493523339 0 0 0 0 174.24232407710952 45.529594289547532 0 45.529594289547532 -58.313573445577617 0 0 0 0 10.36452736677893 21.653862901234504 0 21.653862901234504 96.684610522267036 0 0 0 0 3588.145830161011 728.67415759855703 0 728.67415759855703 -584.37431689179755 0 0 0 0 1303.6474605532421 132.65150392664947 0 132.65150392664947 -512.81907589595016 0 0 0 0 1339.1007941093258 -159.35335596140345 0 -159.35335596140345 -8.2420809212778181 0 0 0 0 -260.78175787893997 81.452099669387366 0 81.452099669387366 221.26114483795538 0 0 0 0 -117.44758002972958 259.96567098403034 0 259.96567098403034 193.76504493936159 0 0 0 0 3491.7202660472758 -580.63946858691827 0 -580.63946858691827 -537.63527078805203 0 0 0 0 1446.016702051551 -1062.5391658986209 0 -1062.5391658986209 342.87805668699082 0 0 0 0 10.343191056498995 -2.1965794978996769 0 -2.1965794978996769 0.59368107638523149 0 0 0 0 1726.3189753920306 171.93526346977865 0 171.93526346977865 -28.847715033636746 0 0 0 0 167.18160404218361 -3.0699583164571336 0 -3.0699583164571336 0.81556732309731395 0 0 0 0 3467.3508806455793 0.97704488354152619 0 0.97704488354152619 -274.63989202823052 0 0 0 0 1520.4571620234055 -61.959452452063296 0 -61.959452452063296 68.732920488721874 0 0 0 0 3467.678990651571 742.99058565568339 0 742.99058565568339 2.4375120324024055 0 0 0 0 6.7575330714028041 0.22078681841131953 0 0.22078681841131953 0.18934855507945311 0 0 0 0 -569.25991668284405 69.760427884456377 0 69.760427884456377 269.95280342643707 0 0 0 0 18.108540934801567 4.9627249381854597 0 4.9627249381854597 -26.957658569441193 0 0 0 0 -119.69062236440368 145.3098623218799 0 145.3098623218799 -123.79711100594989 0 0 0 0 -498.11543945201993 -81.088984511421998 0 -81.088984511421998 -17.313297690354297 0 0 0 0 21.187593860793982 -0.61891316099515414 0 -0.61891316099515414 -1.8264041328394161 0 0 0 0 14.351933974235294 0.17228175829295811 0 0.17228175829295811 -1.1972319262595572 0 0 0 0 18.374112525139935 10.976677686522006 0 10.976677686522006 17.533129262206696 0 0 0 0 19.444318469468271 -1.9645636864720757 0 -1.9645636864720757 -1.9712928468539701 0 0 0 0 2.4699672646610793 1.1202142980638143 0 1.1202142980638143 0.4615395619930947 0 0 0 0 4.5715081768285017 1.4839517758179017 0 1.4839517758179017 -0.00029553924670531204 0 0 0 0 2.4323875370112376 -0.15936816080369454 0 -0.15936816080369454 -0.52729441695591994 0 0 0 0 4.4313398115918972 3.4787235374168972 0 3.4787235374168972 -0.97769030119707168 0 0 0 0 7.2117394699136526 1.3339679493443555 0 1.3339679493443555 -1.2086051317300497 0 0 0 0 4.8081399747300111 5.204429722032998 0 5.204429722032998 -0.34502983612852367 0 0 0 0 0.57208127435097822 4.9188126796145593 0 4.9188126796145593 -2.7288237220161373 0 0 0 0 8.2531549456869868 7.3516891283371137 0 7.3516891283371137 -7.0367882309623049 0 0 0 0 11.66646310123906 12.127689310590313 0 12.127689310590313 -21.365148685375971 0 0 0 0 -4.2091092932969332 10.534119445905617 0 10.534119445905617 -1.8407252425904517 0 0 0 0 -5.5262975877558347 20.626104052063511 0 20.626104052063511 15.841458642399175 0 0 0 0 -3.6581137713510543 17.998181660928822 0 17.998181660928822 10.51772385633285 0 0 0 0 4.8252613729855511 24.578017567478753 0 24.578017567478753 -4.5905594658875088 0 0 0 0 -2.9833471993042622 26.798589946721791 0 26.798589946721791 -4.9696474510027429 0 0 0 0 -8.7099828070978731 12.609866301866191 0 12.609866301866191 -5.8650139383829973 0 0 0 0 -11.622407634175545 10.047736240397342 0 10.047736240397342 -1.7266457887007607 0 0 0 0 8.9051658812895766 8.9654938422055181 0 8.9654938422055181 18.067178768515134 0 0 0 0 34.13794404854707 28.335371808437571 0 28.335371808437571 -8.4630519643537809 0 0 0 0 -35.373139778763289 54.91382420316198 0 54.91382420316198 62.777653365839285 0 0 0 0 -98.591682176309405 -5.6560796194107184 0 -5.6560796194107184 16.690333441174111 0 0 0 0 0.26486276044621349 -0.4118061037293046 0 -0.4118061037293046 0.41602424886106215 0 0 0 0 236.47291165169736 260.29006596460022 0 260.29006596460022 166.95114766144536 0 0 0 0 279.5023433311726 317.39233507119974 0 317.39233507119974 221.81063450698156 0 0 0 0 426.63210168974183 236.58186892589782 0 236.58186892589782 102.91306031296619 0 0 0 0 236.31176063008024 0.64432912249336027 0 0.64432912249336027 242.73699407608504 0 0 0 0 247.59549860379775 160.94581185093503 0 160.94581185093503 306.29440512987071 0 0 0 0 0.88605803625591761 1.1982628915186808 0 1.1982628915186808 2.538634599710202 0 0 0 0 480.70471528076632 21.423727398690492 0 21.423727398690492 31.011238927504792 0 0 0 0 453.1541901511373 172.93096016276732 0 172.93096016276732 120.52190436224339 0 0 0 0 282.23987273935927 54.723175962167289 0 54.723175962167289 38.867467365543462 0 0 0 0 -40.171724366242415 16.044239636110319 0 16.044239636110319 5.6816714797103032 0 0 0 0 7.1294201566197444 -10.859707605315748 0 -10.859707605315748 91.34755611320503 0 0 0 0 1.6087374082192625 0.79515591261957752 0 0.79515591261957752 0.91203371634221853 0 0 0 0 -4.7562237773599918 35.397879630353657 0 35.397879630353657 8.7264882318677337 0 0 0 0 -3.1249237971896946 17.200193668231833 0 17.200193668231833 2.8834024712214159 0 0 0 0 3.5876456794794649 6.9622844750973627 0 6.9622844750973627 5.9452112924555536 0 0 0 0 -6.2694833533314522 18.996153313690684 0 18.996153313690684 1.9932603314773587 0 0 0 0 1.84351062682574 0.81421800199260019 0 0.81421800199260019 0.155340791658791 0 0 0 0 8.9144415340342675 16.421772572084883 0 16.421772572084883 9.0679944630920346 0 0 0 0 -4.6274447174218949 21.8238156905295 0 21.8238156905295 6.1280518993780788 0 0 0 0 3.2248251451588033 5.1334984246570059 0 5.1334984246570059 6.4873388043236027 0 0 0 0 -1.901226748508634 14.058344900974241 0 14.058344900974241 4.57749477533158 0 0 0 0 4.8219285445666173 21.071506734598408 0 21.071506734598408 0.023702765379210469 0 0 0 0 43.092907149664825 17.834400001166387 0 17.834400001166387 -9.3702561006745775 0 0 0 0 4.0497645068740269 3.115365871851651 0 3.115365871851651 0.82278540473012762 0 0 0 0 4.4428583929839078 12.762468541251504 0 12.762468541251504 -8.2519594134429948 0 0 0 0 -0.1157058074642805 2.2936061363293638 0 2.2936061363293638 1.2402131647478774 0 0 0 0 3.9396446802420542 0.5004132732681299 0 0.5004132732681299 -0.57897493048301918 0 0 0 0 -18.279497014213121 6.3029338058966289 0 6.3029338058966289 3.1451710192353772 0 0 0 0 0.34089327227540167 -0.15777713093396528 0 -0.15777713093396528 -0.062774073629207852 0 0 0 0 220.872753372445 25.399284068370552 0 25.399284068370552 -12.325127707532744 0 0 0 0 298.14810473276157 65.501902780452781 0 65.501902780452781 7.3001041674369844 0 0 0 0 190.10464089672314 -59.968095610136523 0 -59.968095610136523 8.2856086598368037 0 0 0 0 282.78563552025298 37.517669325424045 0 37.517669325424045 -21.831644544106929 0 0 0 0 252.70541871440946 52.070030801289427 0 52.070030801289427 43.097543735200716 0 0 0 0 290.49246415893322 77.483825439508905 0 77.483825439508905 -4.4677883471775885 0 0 0 0 248.48551589158888 61.203689104743276 0 61.203689104743276 -10.76761840171352 0 0 0 0 259.70533138827886 50.222557152381583 0 50.222557152381583 -0.020103694739278324 0 0 0 0 246.64085535431514 56.668259259413325 0 56.668259259413325 -0.018051241149369072 0 0 0 0 200.87276786204893 64.582087789240788 0 64.582087789240788 16.828008812037083 0 0 0 0 252.97956431267085 59.759182351019824 0 59.759182351019824 -5.9586151706739656 0 0 0 0 271.30709181835118 -20.770397028171246 0 -20.770397028171246 111.74011905713974 0 0 0 0 281.52829274740361 107.07355866260504 0 107.07355866260504 120.40398288147546 0 0 0 0 213.33662813526462 47.760215868805233 0 47.760215868805233 130.19274134892527 0 0 0 0 105.52226508173044 63.895802414864463 0 63.895802414864463 213.43088670879251 0 0 0 0 227.53495350648882 49.267100114264956 0 49.267100114264956 118.55211154189217 0 0 0 0 113.41992604939151 -42.959091012996922 0 -42.959091012996922 125.61610876550614 0 0 0 0 235.39445776423963 -182.23003750142448 0 -182.23003750142448 284.63226141364396 0 0 0 0 13.076527348501259 75.170396041041755 0 75.170396041041755 215.0030387882835 0 0 0 0 -4.156836704518355 7.5906072694476165 0 7.5906072694476165 130.69243655886947 0 0 0 0 136.10810860587662 38.084751042108309 0 38.084751042108309 -319.25119921943673 0 0 0 0 6.7922717799821726 0.24942089387250022 0 0.24942089387250022 -0.60611831063281207 0 0 0 0 75.313537979556713 19.424164237336555 0 19.424164237336555 -267.89242871362097 0 0 0 0 -6.2525840586313279 38.146729828368294 0 38.146729828368294 -125.72932891368595 0 0 0 0 102.8236083274096 70.095682729775092 0 70.095682729775092 -134.9762931399149 0 0 0 0 53.270522619743133 12.71103057528768 0 12.71103057528768 33.370147790513812 0 0 0 0 84.267200652204338 89.935446900885239 0 89.935446900885239 -64.001752898081747 0 0 0 0 127.31635197036667 -8.2271016406431272 0 -8.2271016406431272 -109.93194511479621 0 0 0 0 36.112847509109997 -15.385301507384099 0 -15.385301507384099 48.699149139350652 0 0 0 0 6.9557722708057668 8.5552522658924133 0 8.5552522658924133 -2.7144102191758743 0 0 0 0 10.924786004965426 65.453290931294021 0 65.453290931294021 -155.35844873226674 0 0 0 0 9.549960708936851 28.983730563462004 0 28.983730563462004 -330.72911476739114 0 0 0 0 -25.180936377351827 -35.243215475119833 0 -35.243215475119833 -80.067523775955181 0 0 0 0 7.6594512990863848 -4.3198157858427209 0 -4.3198157858427209 -4.0658444870817094 0 0 0 0 95.653869554050289 -47.570840447096472 0 -47.570840447096472 -16.532016983138647 0 0 0 0 38.274182494918932 -20.919112326441308 0 -20.919112326441308 -79.391222581519415 0 0 0 0 177.6743475968251 -73.780612029346855 0 -73.780612029346855 45.728286129372691 0 0 0 0 91.008316995736095 1.7267225187352437 0 1.7267225187352437 -19.357557378123602 0 0 0 0 -0.90988866804116242 -0.26450759566867532 0 -0.26450759566867532 -0.7651284307014643 0 0 0 0 407.30046649978613 -168.00176524178232 0 -168.00176524178232 16.094904364799646 0 0 0 0 401.60996043420164 309.49402914450104 0 309.49402914450104 -338.86612043902551 0 0 0 0 235.37066368869273 145.9084701704908 0 145.9084701704908 -23.224920037713563 0 0 0 0 130.20765037593083 -74.668983801748539 0 -74.668983801748539 -106.91019107757776 0 0 0 0 381.55293415646156 148.08201257219329 0 148.08201257219329 -52.416745580774077 0 0 0 0 3.3875279867418158 0.44190707560867182 0 0.44190707560867182 -0.4108367760296725 0 0 0 0 262.55504180199932 233.04829648666359 0 233.04829648666359 -79.682143749787386 0 0 0 0 112.32681006100029 271.00119362587174 0 271.00119362587174 0.72014894303029564 0 0 0 0 251.23880508172442 166.39093313774237 0 166.39093313774237 75.770063504611699 0 0 0 0 170.22918386175297 165.67395304158302 0 165.67395304158302 -19.608467523721885 0 0 0 0 224.66133740035366 265.91771011967188 0 265.91771011967188 164.42965490481959 0 0 0 0 124.68308590180823 149.87299646760187 0 149.87299646760187 94.105193702578845 0 0 0 0 37.132265500855283 61.192493662721013 0 61.192493662721013 30.059042112439634 0 0 0 0 30.442523522644478 52.432121254368965 0 52.432121254368965 22.881479750816879 0 0 0 0 48.921381094125536 33.868387759063907 0 33.868387759063907 0.63119066415202951 0 0 0 0 66.987947076762794 29.971663453048734 0 29.971663453048734 8.85300037391346 0 0 0 0 113.75910787156317 79.983243067829505 0 79.983243067829505 3.8336363228064059 0 0 0 0 118.22373627230991 101.95848945566317 0 101.95848945566317 38.11035554324598 0 0 0 0 164.41092848530388 86.162213831113434 0 86.162213831113434 14.954556540635167 0 0 0 0 163.96389959132648 89.546964361224468 0 89.546964361224468 -7.8481307228557853 0 0 0 0 194.96378838666715 101.25078792716567 0 101.25078792716567 -9.4577634955546586 0 0 0 0 172.85001681864378 129.70062422105235 0 129.70062422105235 11.640842973645249 0 0 0 0 126.41735164701458 105.85692926183975 0 105.85692926183975 5.7098119029785721 0 0 0 0 418.09802810725705 104.32986882244235 0 104.32986882244235 -56.113215756383397 0 0 0 0 126.04843159277516 41.939112221218124 0 41.939112221218124 40.442426383749989 0 0 0 0 279.51675115723629 15.244671066081253 0 15.244671066081253 -39.13214846845176 0 0 0 0 209.66186323457441 32.954566158638727 0 32.954566158638727 -69.217066792708465 0 0 0 0 105.71806646925688 46.160887570039961 0 46.160887570039961 0.55271966066572986 0 0 0 0 78.189923826297502 38.416421100805479 0 38.416421100805479 -16.048020962855297 0 0 0 0 87.487480281793978 129.63672611432563 0 129.63672611432563 -66.861972425231102 0 0 0 0 -44.021776815599878 440.6541064179562 0 440.6541064179562 167.7765320227677 0 0 0 0 40.384308071792475 28.640772122814383 0 28.640772122814383 -5.9393562670802567 0 0 0 0 2.1824535471096169 88.024816464612144 0 88.024816464612144 -13.499823269895899 0 0 0 0 96.795861047197832 -102.22003899109222 0 -102.22003899109222 -246.74471016388588 0 0 0 0 72.263798184580054 25.944965543421176 0 25.944965543421176 -23.574441447250155 0 0 0 0 821.81259319052333 -217.53545518699025 0 -217.53545518699025 -228.51212726442918 0 0 0 0 3498.7235208188431 1011.0077354554176 0 1011.0077354554176 191.28404696739051 0 0 0 0 -488.97050251973269 -1.0403310251247064 0 -1.0403310251247064 1707.6738723026215 0 0 0 0 6.3622218624196307 -6.7806584764162778 0 -6.7806584764162778 15.071658970563522 0 0 0 0 1576.2244408558254 233.69398255412108 0 233.69398255412108 48.378842050546211 0 0 0 0 29.91570900215217 -22.94246133692981 0 -22.94246133692981 30.522124470667329 0 0 0 0 63.791458884226813 484.8442630400466 0 484.8442630400466 391.4142976976616 0 0 0 0 3946.6282588652684 -4.4027427079413144 0 -4.4027427079413144 101.9398138924663 0 0 0 0 3499.028629290493 -297.64304744285386 0 -297.64304744285386 -89.152703076370855 0 0 0 0 12.925287448364202 3.8802997877956216 0 3.8802997877956216 7.5396539059595877 0 0 0 0 14.928528671734966 29.059503070246535 0 29.059503070246535 -0.47043472329290381 0 0 0 0 4.9527677068705884 12.339949076303469 0 12.339949076303469 -7.6493984502752799 0 0 0 0 -183.72249380966423 -463.83316683239042 0 -463.83316683239042 162.46488485295538 0 0 0 0 1034.1372943885362 -48.034488443617327 0 -48.034488443617327 -260.98558785973381 0 0 0 0 3502.1396855206608 416.79318474350248 0 416.79318474350248 802.51900228526665 0 0 0 0 1348.0523504819012 1181.7927338328227 0 1181.7927338328227 474.15562220126037 0 0 0 0 2597.0839823085698 -845.41673643704803 0 -845.41673643704803 -380.67551407629691 0 0 0 0 2625.5553277174913 -1044.8083988047567 0 -1044.8083988047567 -49.945492726571104 0 0 0 0 2347.5067542190045 -1425.2740357518883 0 -1425.2740357518883 608.8423189340898 0 0 0 0 2341.2644792997735 -1406.573608166512 0 -1406.573608166512 777.72959727087891 0 0 0 0 3500.8530324288222 -1396.7442298414342 0 -1396.7442298414342 -44.388350014835979 0 0 0 0 2176.3638153515058 -1690.4734379411311 0 -1690.4734379411311 777.02670537485403 0 0 0 0 3492.3187919057286 -2457.9187757448549 0 -2457.9187757448549 1114.9456600901237 0 0 0 0 1449.3544321251247 -2278.7795152329377 0 -2278.7795152329377 2599.9189679736091 0 0 0 0 412.01022713533894 -476.28993877882436 0 -476.28993877882436 708.31182689496745 0 0 0 0 1724.4631101078412 -1876.4770669330455 0 -1876.4770669330455 1591.7349509526985 0 0 0 0 2133.5637166453453 -1030.7996386698103 0 -1030.7996386698103 807.32974933651349 0 0 0 0 2145.1774464005102 -1619.7717066932028 0 -1619.7717066932028 1731.19879530038 0 0 0 0 808.33584202552447 -1508.6918191734521 0 -1508.6918191734521 2400.6243794640595 0 0 0 0 1034.2871745209122 -206.87972626237433 0 -206.87972626237433 -416.02355156747467 0 0 0 0 2.9191704430499499 -8.3693246793097558 0 -8.3693246793097558 6.0187680078556518 0 0 0 0 -279.77470023146543 -24.850055290231865 0 -24.850055290231865 450.42014864529392 0 0 0 0 778.49280110273685 -511.74009936102811 0 -511.74009936102811 316.10530455681595 0 0 0 0 136.64954029436922 53.245350126949802 0 53.245350126949802 -69.43421219450201 0 0 0 0 -287.8689697365694 94.598411342139926 0 94.598411342139926 1.6082179233753777 0 0 0 0 91.136542696208664 40.946808156382389 0 40.946808156382389 -8.5970569558770968 0 0 0 0 220.82196134931291 -318.91708821015447 0 -318.91708821015447 576.75744982337233 0 0 0 0 373.95226205962535 -399.22042932067325 0 -399.22042932067325 423.02210842008435 0 0 0 0 26.821227485109915 6.8535086562092147 0 6.8535086562092147 -2.1520505666014671 0 0 0 0 642.31033420637868 -600.27157716997806 0 -600.27157716997806 218.38655828141964 0 0 0 0 756.08273399589962 -1116.1763421311059 0 -1116.1763421311059 977.21616393883914 0 0 0 0 266.00438538604067 -521.11339496401877 0 -521.11339496401877 852.40232267816987 0 0 0 0 1072.8940074391649 -1073.357278466242 0 -1073.357278466242 344.24485645370083 0 0 0 0 1525.7082781873687 -1068.6281740111535 0 -1068.6281740111535 462.38172692486052 0 0 0 0 1531.1392666278207 -1061.6812126825653 0 -1061.6812126825653 293.56865936713581 0 0 0 0 1156.93361953563 -983.81100392335134 0 -983.81100392335134 108.83709176773971 0 0 0 0 720.2539398058143 -370.82117038390584 0 -370.82117038390584 38.762271985423951 0 0 0 0 674.49694270806503 -653.06544012145787 0 -653.06544012145787 287.95460906623953 0 0 0 0 922.67425605359313 -885.68480072002183 0 -885.68480072002183 332.23503722049509 0 0 0 0 974.62002717511041 -588.13755398487137 0 -588.13755398487137 16.813060613173093 0 0 0 0 883.00314221333247 -555.84877066968988 0 -555.84877066968988 56.231541969082514 0 0 0 0 957.69288084618165 -151.96900160382108 0 -151.96900160382108 -164.79829995202357 0 0 0 0 62.164104851387975 33.207304153238795 0 33.207304153238795 -7.7048692767818965 0 0 0 0 257.8715866700345 157.36200100914127 0 157.36200100914127 -151.58103616222206 0 0 0 0 275.82368964374473 -181.15852940695902 0 -181.15852940695902 136.70041230359493 0 0 0 0 355.80647426738869 -59.275623080375681 0 -59.275623080375681 -35.333399428935536 0 0 0 0 80.852164278363034 14.521416731352957 0 14.521416731352957 -7.7614032171468352 0 0 0 0 80.886818689934444 15.322455670212548 0 15.322455670212548 -76.557410007197177 0 0 0 0 57.807563601141837 29.820685634436003 0 29.820685634436003 -10.686416584884718 0 0 0 0 588.50322557731124 -570.10181018026651 0 -570.10181018026651 283.61094610477733 0 0 0 0 326.51627586531777 -452.33230863229829 0 -452.33230863229829 258.98175862386142 0 0 0 0 448.60863848077497 -157.64072556820804 0 -157.64072556820804 247.39204196210994 0 0 0 0 128.10988899409494 -86.278748173128008 0 -86.278748173128008 358.2866758966104 0 0 0 0 41.414335615627351 139.12420520832666 0 139.12420520832666 -75.80978462153098 0 0 0 0 62.742901036468822 17.762576031230566 0 17.762576031230566 -19.211043088552955 0 0 0 0 708.19846911897184 -601.71770885278693 0 -601.71770885278693 87.284900379895134 0 0 0 0 163.36332509757631 5.9649704883401569 0 5.9649704883401569 -56.089682480990632 0 0 0 0 273.07133089957642 107.5302815574596 0 107.5302815574596 -130.15643199468832 0 0 0 0 79.703897112932623 7.0241585162903206 0 7.0241585162903206 -9.8745153705823547 0 0 0 0 73.143758998339763 -78.499586836130675 0 -78.499586836130675 47.729225959154974 0 0 0 0 7.2799148543223282 4.8453616269206012 0 4.8453616269206012 0.29577104935649201 0 0 0 0 66.234216470654644 -0.76776958007151563 0 -0.76776958007151563 -2.4485481685620787 0 0 0 0 84.365388230449753 5.073081414940134 0 5.073081414940134 70.975072896732399 0 0 0 0 -337.88399882329031 418.01909390439266 0 418.01909390439266 100.8468607347429 0 0 0 0 33.890961038967362 -47.427795213870468 0 -47.427795213870468 61.272710955584671 0 0 0 0 96.116406051180093 -64.643305594756384 0 -64.643305594756384 -15.43772393088193 0 0 0 0 48.265815900813323 -47.966086622816874 0 -47.966086622816874 34.298130979693724 0 0 0 0 70.544963584747165 -29.19810631628593 0 -29.19810631628593 -19.762767802411446 0 0 0 0 118.08770754889701 -94.322181356070814 0 -94.322181356070814 15.765664292595375 0 0 0 0 75.334981960329969 -35.986399012420918 0 -35.986399012420918 -38.026971324837632 0 0 0 0 50.820562276421697 -21.601299920449719 0 -21.601299920449719 8.8463684889067906 0 0 0 0 6.0928715595364338 2.1783204371743068 0 2.1783204371743068 23.552694775532018 0 0 0 0 69.680799169967941 -26.29678275541923 0 -26.29678275541923 -24.274030146168116 0 0 0 0 58.681693159596762 9.8821336082492053 0 9.8821336082492053 11.494094644856432 0 0 0 0 59.931940562833915 14.112703508809432 0 14.112703508809432 0.19497242417901361 0 0 0 0 37.761537884798599 -31.117308550883081 0 -31.117308550883081 8.6198099278438747 0 0 0 0 13.217235040079686 -23.331630551661192 0 -23.331630551661192 37.980937133989755 0 0 0 0 50.18813568582118 92.580795802274054 0 92.580795802274054 34.471992626875249 0 0 0 0 65.765938130823116 16.931267928913456 0 16.931267928913456 2.0205402802127561 0 0 0 0 162.53567393647972 -17.618755133188465 0 -17.618755133188465 -40.722098831175117 0 0 0 0 112.17401689093094 -107.64373435850757 0 -107.64373435850757 -52.916522411391611 0 0 0 0 71.783550476843743 5.9501750041282335 0 5.9501750041282335 0.073409040963861472 0 0 0 0 36.726826835139946 40.781409657240374 0 40.781409657240374 8.9786040686617525 0 0 0 0 6.1087252798157863 -3.3349178968121151 0 -3.3349178968121151 -0.98047500411469901 0 0 0 0 116.89347740175435 -32.173107286729646 0 -32.173107286729646 17.103502504191283 0 0 0 0 100.79263394762529 53.003842640195671 0 53.003842640195671 9.684760502561403 0 0 0 0 113.11053857631487 -31.288654902670942 0 -31.288654902670942 433.16121624701555 0 0 0 0 170.124126791648 142.76835475985709 0 142.76835475985709 -102.89652900654437 0 0 0 0 169.22433382133443 51.164834811429074 0 51.164834811429074 -3.5362273782125158 0 0 0 0 149.95619521746994 17.981457213949852 0 17.981457213949852 -6.4782070476421723 0 0 0 0 135.97174362733494 38.005571381248046 0 38.005571381248046 -5.8479064525524791 0 0 0 0 106.18228492853814 36.894564710229133 0 36.894564710229133 1.3418725907388307 0 0 0 0 105.58040601967514 38.622381433778258 0 38.622381433778258 7.2856442828388026 0 0 0 0 79.103616242107819 23.002887334745253 0 23.002887334745253 7.8128112445124316 0 0 0 0 82.967222732462687 18.095923059503889 0 18.095923059503889 -8.2916412437128599 0 0 0 0 106.51927507455548 25.436082047062882 0 25.436082047062882 -4.3976172286702422 0 0 0 0 109.44610695110168 24.017699863911957 0 24.017699863911957 -4.8705574930194189 0 0 0 0 -72.434748673578724 193.32860427133878 0 193.32860427133878 -44.708288646080419 0 0 0 0 62.337307300114276 34.425895859645578 0 34.425895859645578 -2.9542347497975321 0 0 0 0 119.9134422125062 36.466388770163576 0 36.466388770163576 -3.1468250193947824 0 0 0 0 125.69494739978109 22.641356620876024 0 22.641356620876024 -7.3147674747478959 0 0 0 0 132.37474522679986 11.020750817107341 0 11.020750817107341 0.040105750084336478 0 0 0 0 77.6007717000073 0.73958882542765991 0 0.73958882542765991 -20.175000341802505 0 0 0 0 48.272352697975293 11.662356534099217 0 11.662356534099217 -44.048327815443372 0 0 0 0 127.05311866000557 25.248624602869882 0 25.248624602869882 -17.674734194849179 0 0 0 0 76.58246059608183 0.59872974577137228 0 0.59872974577137228 -36.729706712843608 0 0 0 0 -57.372113595927658 157.14924969064913 0 157.14924969064913 108.58218512454823 0 0 0 0 88.020590124899172 -95.288394775195343 0 -95.288394775195343 25.962790023839574 0 0 0 0 77.206205070038166 32.045347055275265 0 32.045347055275265 -3.9712183953196365 0 0 0 0 370.39407358094468 -59.074246442582535 0 -59.074246442582535 -96.458397783203935 0 0 0 0 41.843490341442958 -6.4003263020928252 0 -6.4003263020928252 2.5018599895461784 0 0 0 0 451.14524566323962 -229.94602930704764 0 -229.94602930704764 -192.60075574733617 0 0 0 0 90.672571171860909 -88.547752174848938 0 -88.547752174848938 -240.01374450416279 0 0 0 0 130.34723402496093 249.185696865088 0 249.185696865088 -291.13584092327847 0 0 0 0 1667.1855453470052 -601.29105122240571 0 -601.29105122240571 -36.178792464227172 0 0 0 0 335.91657793488775 -143.93651890910792 0 -143.93651890910792 115.62136262359354 0 0 0 0 206.10755950426756 -224.73339676640228 0 -224.73339676640228 99.465736734894563 0 0 0 0 1019.372783852381 -881.89417496604347 0 -881.89417496604347 465.7564229539862 0 0 0 0 1160.1925776665303 -1606.6106956066737 0 -1606.6106956066737 1026.6389449344415 0 0 0 0 2578.4288202948592 -540.17256421508887 0 -540.17256421508887 222.76536838472384 0 0 0 0 1920.1438769804372 -876.66098917960244 0 -876.66098917960244 70.403031897121309 0 0 0 0 1291.8433131224228 -718.73605501976772 0 -718.73605501976772 44.888833569754297 0 0 0 0 1420.0253219899205 -927.49156531391873 0 -927.49156531391873 318.91157201010083 0 0 0 0 2060.7474036159319 -171.38057953899431 0 -171.38057953899431 -130.76201363556993 0 0 0 0 1540.6668764042697 -173.26771403355542 0 -173.26771403355542 -126.44424059732785 0 0 0 0 84.884171156778592 42.629477611376579 0 42.629477611376579 14.987938661473336 0 0 0 0 189.98850451132239 57.790365988833173 0 57.790365988833173 -131.52368978552659 0 0 0 0 1686.721258462454 -561.77445996377696 0 -561.77445996377696 1864.5880549517817 0 0 0 0 18.553748397481257 2.943400444021762 0 2.943400444021762 6.0683656655816574 0 0 0 0 1759.3881854389037 -707.33177631404078 0 -707.33177631404078 585.36520328816459 0 0 0 0 1999.2218140944678 -1373.3896629331675 0 -1373.3896629331675 180.35163897158236 0 0 0 0 1643.9566131041211 -664.28714896857366 0 -664.28714896857366 97.648143029341668 0 0 0 0 2627.5880567057102 -1385.8812360356255 0 -1385.8812360356255 558.17337968588288 0 0 0 0 7.9385411085185069 -8.6781999534414638 0 -8.6781999534414638 7.2821888897095572 0 0 0 0 253.61190546295984 263.45078403060074 0 263.45078403060074 192.14699059715895 0 0 0 0 2255.4234644975149 354.96159206395419 0 354.96159206395419 50.950163069946029 0 0 0 0 1539.5292671252537 39.85107033732487 0 39.85107033732487 -69.351615170357036 0 0 0 0 388.37908900259572 -11.582201606535648 0 -11.582201606535648 28.81046399584659 0 0 0 0 1328.7808729008975 -609.89869267677432 0 -609.89869267677432 -77.267532789923735 0 0 0 0 1358.5028450949922 -1051.1543905333017 0 -1051.1543905333017 122.83784908931739 0 0 0 0 1434.9952453503811 -752.15072037359835 0 -752.15072037359835 61.870302243014294 0 0 0 0 1116.2662568147953 -1067.5437006535913 0 -1067.5437006535913 193.66843380640557 0 0 0 0 1182.2346171947138 -1117.9093615870338 0 -1117.9093615870338 214.40737589236301 0 0 0 0 1182.4697858343279 -1107.4427435210102 0 -1107.4427435210102 113.15225312622124 0 0 0 0 1672.0225316585784 -962.03607236233051 0 -962.03607236233051 -144.65157854416134 0 0 0 0 1042.6944568049303 -384.09664501482661 0 -384.09664501482661 -640.63613890476154 0 0 0 0 393.95208956373426 200.24740466995155 0 200.24740466995155 -379.85943486521273 0 0 0 0 449.43793015447591 -419.81398624769508 0 -419.81398624769508 -37.352415886388826 0 0 0 0 468.55716014113568 -305.52701179016458 0 -305.52701179016458 178.82754484450743 0 0 0 0 913.7384783455318 -1024.5180341766206 0 -1024.5180341766206 507.47829388660693 0 0 0 0 499.22117115825677 -1159.7875716132612 0 -1159.7875716132612 1101.2715967208808 0 0 0 0 -42.714468678816047 62.658756874723167 0 62.658756874723167 -480.82586469759553 0 0 0 0 -126.82474407394329 -387.39296579588063 0 -387.39296579588063 228.59944002638349 0 0 0 0 -79.912577138249617 44.346949767176056 0 44.346949767176056 15.47233742559456 0 0 0 0 242.70214090273657 82.099625272328922 0 82.099625272328922 -419.53507858547323 0 0 0 0 88.662781406048452 -89.028076124816835 0 -89.028076124816835 -11.733492624069186 0 0 0 0 201.6127718778007 91.363641918000212 0 91.363641918000212 -49.852139529066335 0 0 0 0 52.821084995604132 -55.39264696985235 0 -55.39264696985235 -18.298962346840796 0 0 0 0 90.61722894536797 -72.490669818545939 0 -72.490669818545939 -16.566267862328459 0 0 0 0 30.25814557460231 -9.8837881745649483 0 -9.8837881745649483 -15.416512861094493 0 0 0 0 -51.615944363569724 -65.419485073374744 0 -65.419485073374744 6.9313268833157053 0 0 0 0 94.420107058467693 -229.8104348542056 0 -229.8104348542056 -234.65530283379485 0 0 0 0 4.7016913400219025 7.5298869714340668 0 7.5298869714340668 -22.876002596972427 0 0 0 0 414.72773575859901 -110.22413599781885 0 -110.22413599781885 -165.45563432252493 0 0 0 0 2971.7237766093313 -322.92606601145792 0 -322.92606601145792 -94.12811147822822 0 0 0 0 303.40892172296299 -175.53817621185954 0 -175.53817621185954 -145.28549915909389 0 0 0 0 254.67134526265727 -52.67321992858615 0 -52.67321992858615 -69.504401236435115 0 0 0 0 108.34132663960918 197.04808529810293 0 197.04808529810293 -92.205351113063443 0 0 0 0 4.5761295737463854 3.2237809003198095 0 3.2237809003198095 -9.2594090730269301 0 0 0 0 242.13517521918402 75.740459669795655 0 75.740459669795655 8.0449120450793998 0 0 0 0 3057.4352882339081 -485.05161256995063 0 -485.05161256995063 98.865661547519295 0 0 0 0 3213.0506188321669 -750.99333060496508 0 -750.99333060496508 -288.49705496194861 0 0 0 0 2926.5390145586425 -271.00542709945381 0 -271.00542709945381 -74.358860345776776 0 0 0 0 3085.6452775867801 -220.855525108238 0 -220.855525108238 -129.58108086798478 0 0 0 0 3084.5077944289442 -205.68412432385779 0 -205.68412432385779 -271.63403287094604 0 0 0 0 3499.6847836852539 -515.60847983033511 0 -515.60847983033511 -484.46256280411347 0 0 0 0 3083.880544390765 -392.59604281438004 0 -392.59604281438004 -245.3690520559071 0 0 0 0 3054.476852675507 -708.81528124800263 0 -708.81528124800263 -567.28721796114507 0 0 0 0 3056.3725735079206 -354.81355099860934 0 -354.81355099860934 -941.22923775243635 0 0 0 0 1519.8236137240183 -628.16374900663243 0 -628.16374900663243 -147.42910937099168 0 0 0 0 3499.4034748355989 -836.35173646549492 0 -836.35173646549492 -733.75515218643602 0 0 0 0 112.13623798539629 -17.851568049263733 0 -17.851568049263733 -30.95565631664067 0 0 0 0 -51.725591327056463 -85.145130715857704 0 -85.145130715857704 46.006044790528904 0 0 0 0 13.031540756639711 2.1729133475551237 0 2.1729133475551237 -5.8854200868421032 0 0 0 0 165.93717076884059 -224.30679079173842 0 -224.30679079173842 66.744548718328588 0 0 0 0 195.46393900581825 50.908584731907354 0 50.908584731907354 24.609450115785876 0 0 0 0 86.50286837292515 8.4853019870934077 0 8.4853019870934077 -2.0361597972431582 0 0 0 0 77.679293785433401 13.789459859555791 0 13.789459859555791 4.0216404829134262 0 0 0 0 76.809821100148838 8.558866831681371 0 8.558866831681371 -1.9017168855787077 0 0 0 0 0.34730928246111148 -1.9616685674608334 0 -1.9616685674608334 1.7082160645116709 0 0 0 0 -85.942765514620987 111.41425376476445 0 111.41425376476445 -49.908057199815175 0 0 0 0 139.00908237902331 -47.149627923746266 0 -47.149627923746266 112.76077169599012 0 0 0 0 198.632810520372 -65.69516684662176 0 -65.69516684662176 33.528592206424946 0 0 0 0 188.89436520883464 -46.226382810948962 0 -46.226382810948962 -0.095484085100906668 0 0 0 0 153.80634159839246 -36.453758227165963 0 -36.453758227165963 1.4459367485269468 0 0 0 0 114.88556611031527 -10.058778168609933 0 -10.058778168609933 16.799937637116273 0 0 0 0 145.75454772487865 -40.255053291466538 0 -40.255053291466538 6.8496333929660977 0 0 0 0 124.68210355902556 -19.578283486240252 0 -19.578283486240252 64.791528388972438 0 0 0 0 129.98609340540133 -11.571076425992942 0 -11.571076425992942 -0.60301398607043666 0 0 0 0 85.186389887385303 18.55518243637016 0 18.55518243637016 -16.118071232818693 0 0 0 0 105.94467566905951 13.991414179994081 0 13.991414179994081 -27.13548574739616 0 0 0 0 98.045293196337298 4.0940059337135608 0 4.0940059337135608 -6.8968168417250126 0 0 0 0 119.35686597393942 -9.4399602738126305 0 -9.4399602738126305 -9.3554689093180059 0 0 0 0 67.984487574663945 32.698476527677485 0 32.698476527677485 -18.281970739417375 0 0 0 0 93.937579095116234 26.364425321590716 0 26.364425321590716 -39.063357096960317 0 0 0 0 85.882956152549013 23.905724526187441 0 23.905724526187441 -4.3927032929047982 0 0 0 0 57.42725289563532 28.823786946974906 0 28.823786946974906 -30.167238600756718 0 0 0 0 116.94233482764685 42.708572999467833 0 42.708572999467833 -36.438811170039116 0 0 0 0 101.14796169428155 -1.5362191073218128 0 -1.5362191073218128 18.865690819489828 0 0 0 0 90.622403501547524 17.974011178017463 0 17.974011178017463 -58.066783373131329 0 0 0 0 80.666508620517561 21.330871384950115 0 21.330871384950115 -58.858013827408286 0 0 0 0 85.652420539661762 45.397734169656587 0 45.397734169656587 -65.750445612393378 0 0 0 0 44.88948998178239 32.180281683640715 0 32.180281683640715 -56.069741592878017 0 0 0 0 61.878403917449759 41.961545435256994 0 41.961545435256994 -63.040021517078458 0 0 0 0 17.708916774603097 13.844641062401422 0 13.844641062401422 8.581405045882228 0 0 0 0 29.237636100840092 17.863294505617183 0 17.863294505617183 6.8146471173462082 0 0 0 0 18.017833090156273 -8.0704873761004876 0 -8.0704873761004876 -17.90606170427619 0 0 0 0 62.903743792381647 33.304291777332253 0 33.304291777332253 -42.247233735668487 0 0 0 0 51.422333301862068 8.7056263863232175 0 8.7056263863232175 -17.007157081976452 0 0 0 0 40.430529270553961 -14.216646160977234 0 -14.216646160977234 -45.528531001010379 0 0 0 0 96.469558782991953 -59.637756378556787 0 -59.637756378556787 -9.7104066005863388 0 0 0 0 63.614278711480438 29.413036954628524 0 29.413036954628524 -46.666241252955842 0 0 0 0 34.300043969291437 65.868679968762194 0 65.868679968762194 -13.580857911845669 0 0 0 0 203.12283316945832 -15.327252326114717 0 -15.327252326114717 -32.680072242053484 0 0 0 0 67.239916711885598 41.349026022209159 0 41.349026022209159 -24.175267870164589 0 0 0 0 16.399233873788621 5.4548665222075101 0 5.4548665222075101 -0.56418809575268636 0 0 0 0 88.198394108141656 13.613109808182344 0 13.613109808182344 -71.798775179582663 0 0 0 0 77.624917800035291 -21.39805076412938 0 -21.39805076412938 -95.396555899164014 0 0 0 0 55.696440086392386 1.0406738129841244 0 1.0406738129841244 -20.980817066127514 0 0 0 0 56.825771617099349 -5.7274795102972007 0 -5.7274795102972007 -15.359359958650465 0 0 0 0 74.018609090511745 -8.505789313179946 0 -8.505789313179946 -19.931915617539744 0 0 0 0 54.959390258161875 -1.5498090671813429 0 -1.5498090671813429 -3.2661567139380168 0 0 0 0 57.01314902334525 -1.7971792702420828 0 -1.7971792702420828 -11.754748902105803 0 0 0 0 60.335393761721207 3.4439033641076549 0 3.4439033641076549 -35.815831139580041 0 0 0 0 60.783567071528523 9.3184235262081643 0 9.3184235262081643 -2.2529114396363639 0 0 0 0 115.20903641244513 19.405278522996127 0 19.405278522996127 -18.666265199638588 0 0 0 0 142.11737061644089 -24.261132511805954 0 -24.261132511805954 33.432162850610098 0 0 0 0 212.48812090384308 62.048743635419726 0 62.048743635419726 -7.9966026773877275 0 0 0 0 125.26397610861022 26.880322425667202 0 26.880322425667202 -17.458841709877788 0 0 0 0 71.235076075063262 -1.1894843564713256 0 -1.1894843564713256 7.4512590586223837 0 0 0 0 11.313012922400958 83.62516656796015 0 83.62516656796015 22.045687828705013 0 0 0 0 68.866805040821191 5.8811387416959651 0 5.8811387416959651 -2.5269344499262054 0 0 0 0 40.686288938639336 3.7017347336044395 0 3.7017347336044395 10.961633369691754 0 0 0 0 100.63410914725682 35.748599654720238 0 35.748599654720238 -115.70625913689224 0 0 0 0 106.14722017338386 84.132391984154765 0 84.132391984154765 -47.099957837842794 0 0 0 0 56.501802490398404 69.847580833774487 0 69.847580833774487 48.554023562820248 0 0 0 0 14.750670285300032 30.989949751263367 0 30.989949751263367 5.2632251341810736 0 0 0 0 2.2463883792565298 7.4237275146981609 0 7.4237275146981609 2.3860090030333816 0 0 0 0 121.86487171522458 109.57235439900023 0 109.57235439900023 70.565314378301792 0 0 0 0 126.45933326237719 24.929974518723384 0 24.929974518723384 -21.205453936970912 0 0 0 0 130.69889861578122 26.639071681997848 0 26.639071681997848 -23.32639538271178 0 0 0 0 30.519990475615487 65.1128585478491 0 65.1128585478491 -38.560796371715696 0 0 0 0 52.106153580076352 126.76007971394239 0 126.76007971394239 101.86256501221669 0 0 0 0 321.16095474237227 46.031552619841023 0 46.031552619841023 -42.026234323455242 0 0 0 0 -1.0314410089305284 2.8582303214129468 0 2.8582303214129468 2.3841532262511302 0 0 0 0 215.30862726450141 39.223355951763608 0 39.223355951763608 -51.151280852973741 0 0 0 0 188.95566169304948 -51.435614248390266 0 -51.435614248390266 9.5831378194322951 0 0 0 0 -19.529573039442766 12.948182948880572 0 12.948182948880572 52.267658581883907 0 0 0 0 133.31013162419549 30.8272604676784 0 30.8272604676784 -16.172476452069986 0 0 0 0 -38.483339313970646 -7.3393967354383562 0 -7.3393967354383562 48.676284454830181 0 0 0 0 21.269058076323276 30.01104290591357 0 30.01104290591357 -0.70415144704327304 0 0 0 0 115.28587002470158 20.858796040692823 0 20.858796040692823 13.693287230584701 0 0 0 0 48.799725063407095 19.663849966086673 0 19.663849966086673 -22.743107700548535 0 0 0 0 62.970753660832685 38.032482723748856 0 38.032482723748856 -12.338279241062278 0 0 0 0 76.908042212006535 15.797926130102809 0 15.797926130102809 -13.727635487758354 0 0 0 0 21.793927350954824 4.0693746407584399 0 4.0693746407584399 -1.1600293657684304 0 0 0 0 69.705859321613389 -17.1931430947443 0 -17.1931430947443 1.7748556350634317 0 0 0 0 191.31509174247913 21.834531772507944 0 21.834531772507944 -33.119639335085594 0 0 0 0 48.168192692724787 4.3084782502712358 0 4.3084782502712358 -17.244492161846125 0 0 0 0 28.754663195693865 11.887099981330607 0 11.887099981330607 -7.865940377901552 0 0 0 0 110.5110820774571 29.87499739192765 0 29.87499739192765 -7.2812352708804156 0 0 0 0 96.474598822533153 -26.191281558871879 0 -26.191281558871879 -15.244485005242382 0 0 0 0 66.703056793747237 -14.566430260628067 0 -14.566430260628067 10.151750133250744 0 0 0 0 85.845094627831713 -13.537748402609282 0 -13.537748402609282 -25.739835687666698 0 0 0 0 60.679414742396801 -3.8949919901129562 0 -3.8949919901129562 -15.420761842801181 0 0 0 0 67.015603445420993 0.79810473402541504 0 0.79810473402541504 -10.555533836861063 0 0 0 0 121.65411180359661 19.222356222365761 0 19.222356222365761 -18.088593304606547 0 0 0 0 51.969474778604081 17.396483263129035 0 17.396483263129035 0.62388832964990826 0 0 0 0 65.121858103259001 1.4323733115352297 0 1.4323733115352297 -6.8668266697059153 0 0 0 0 60.99938797125651 11.965432190682805 0 11.965432190682805 -4.8461677390902196 0 0 0 0 111.27116004313211 71.032167619603342 0 71.032167619603342 -17.603564602115512 0 0 0 0 63.707577752116777 4.125668303009661 0 4.125668303009661 1.907689863237465 0 0 0 0 76.672530332274619 4.9078764712876364 0 4.9078764712876364 -0.6930576724976163 0 0 0 0 64.430795628206397 5.4224296250258703 0 5.4224296250258703 7.5399452190649754 0 0 0 0 93.896266740499414 -7.4825018807323431 0 -7.4825018807323431 4.1302191099221091 0 0 0 0 33.685769403184167 18.206933620890013 0 18.206933620890013 1.1931410851683282 0 0 0 0 76.179586772268522 -1.4305566439779795 0 -1.4305566439779795 9.6841725167610093 0 0 0 0 126.78155078653072 -8.5310526245602887 0 -8.5310526245602887 -32.837497944107952 0 0 0 0 141.74712480705057 63.321718070983479 0 63.321718070983479 -34.458677397229621 0 0 0 0 49.528100983305194 12.448502323473349 0 12.448502323473349 -22.76379983950028 0 0 0 0 18.666213670781872 45.888603995371795 0 45.888603995371795 -9.6480414172838209 0 0 0 0 115.13025741737511 6.0238270022889537 0 6.0238270022889537 -31.765627320875865 0 0 0 0 87.662038739912532 54.409992054684153 0 54.409992054684153 -27.157698234685085 0 0 0 0 56.051684634920093 33.351579428452624 0 33.351579428452624 -2.0828940079454696 0 0 0 0 50.537711922719609 62.095553934144846 0 62.095553934144846 8.5536924064945197 0 0 0 0 -22.219787330217514 39.158092802698775 0 39.158092802698775 31.464163646543966 0 0 0 0 4.2147449786280049 21.947081747533957 0 21.947081747533957 -25.548638890324355 0 0 0 0 27.067729161228272 76.905881946393606 0 76.905881946393606 -47.155654078096632 0 0 0 0 97.846238925179932 30.171973514902675 0 30.171973514902675 0.11204900943630491 0 0 0 0 69.438542585397954 -6.6851328240663861 0 -6.6851328240663861 -29.614189455442101 0 0 0 0 114.55054949276382 20.079818973662441 0 20.079818973662441 -28.362456528802795 0 0 0 0 73.29703883669572 14.927810600021985 0 14.927810600021985 -4.5306783796240779 0 0 0 0 84.116562397422967 15.39445588651688 0 15.39445588651688 -5.4337794808025137 0 0 0 0 129.09004237069166 43.132596517387356 0 43.132596517387356 -14.019437180697423 0 0 0 0 156.97502834034458 34.040703594370825 0 34.040703594370825 -48.549826139005745 0 0 0 0 137.91681528784829 29.104013093698995 0 29.104013093698995 -29.502342553929338 0 0 0 0 169.81156423848006 31.716845518246373 0 31.716845518246373 -30.470444310560652 0 0 0 0 128.88554242133978 12.694908392193611 0 12.694908392193611 -29.666317196762975 0 0 0 0 159.31976531088003 12.514601702614527 0 12.514601702614527 -29.706148154706852 0 0 0 0 151.49976030473772 18.282692467852939 0 18.282692467852939 -43.568928299342588 0 0 0 0 127.93308217384038 13.87199504657201 0 13.87199504657201 -28.369387987463597 0 0 0 0 92.343224255164387 17.19778470278834 0 17.19778470278834 -26.800275208209314 0 0 0 0 81.56415235705208 6.2796769830129051 0 6.2796769830129051 -9.734093322350418 0 0 0 0 117.23659171341569 -5.7843747275865098 0 -5.7843747275865098 -7.4599604027471287 0 0 0 0 54.76966032437619 17.072292641857452 0 17.072292641857452 -19.641363153922772 0 0 0 0 76.636708537465893 25.362033690333192 0 25.362033690333192 -26.09662670548596 0 0 0 0 92.113001741061453 12.907168547137189 0 12.907168547137189 -36.254840648141908 0 0 0 0 504.61329048126572 -176.99688847026891 0 -176.99688847026891 -226.95766673237534 0 0 0 0 -93.098843215528177 302.04029607351458 0 302.04029607351458 -302.01601596100045 0 0 0 0 -23.009017592947203 579.66376754698638 0 579.66376754698638 -502.78101213235232 0 0 0 0 120.08090998510306 8.0727083250399119 0 8.0727083250399119 -3.6805399493587174 0 0 0 0 56.94258626061827 27.453859790131752 0 27.453859790131752 -11.979491241893843 0 0 0 0 59.266617644061213 32.951563254199485 0 32.951563254199485 -4.9381584427060856 0 0 0 0 155.25601614736661 5.7990459689167437 0 5.7990459689167437 -7.3779110262630638 0 0 0 0 176.38890365500993 -28.335881537409932 0 -28.335881537409932 14.114677608980855 0 0 0 0 177.7315362269178 15.696688698295432 0 15.696688698295432 -3.1210347557534988 0 0 0 0 201.16943354436989 65.520816497854753 0 65.520816497854753 12.05143014659825 0 0 0 0 185.81574363881373 -5.5629686078168561 0 -5.5629686078168561 34.479260104418245 0 0 0 0 -47.946198159632331 -261.59621445421362 0 -261.59621445421362 -191.8768424267181 0 0 0 0 -381.88258568136735 617.38556832815402 0 617.38556832815402 -380.35846514415198 0 0 0 0 372.87845752951216 72.993750425888834 0 72.993750425888834 -109.67600224535818 0 0 0 0 406.56328331964323 -128.11555610887717 0 -128.11555610887717 36.440384303115316 0 0 0 0 63.844471197353471 38.618422493155833 0 38.618422493155833 3.7731322711707556 0 0 0 0 2.1465926492528524 16.869013728084155 0 16.869013728084155 40.222869568969941 0 0 0 0 -9.0385788295752718 22.375628898426385 0 22.375628898426385 23.892111896857386 0 0 0 0 0.12073300976771861 27.44855593778243 0 27.44855593778243 0.77920155840411098 0 0 0 0 73.156834799883654 86.109759052649792 0 86.109759052649792 108.77087794803492 0 0 0 0 114.4937697951973 37.524584291274095 0 37.524584291274095 4.4249653412825865 0 0 0 0 121.24307613384735 63.978011268380669 0 63.978011268380669 9.5728923309889069 0 0 0 0 100.30774196569109 72.06706372644112 0 72.06706372644112 28.738543086334175 0 0 0 0 20.747643869784952 44.903928467095284 0 44.903928467095284 78.154780879063082 0 0 0 0 -1.7751755984159843 2.4936437962457623 0 2.4936437962457623 0.20365865624512214 0 0 0 0 263.35752103898267 -250.94265516388418 0 -250.94265516388418 9.495323387988492 0 0 0 0 237.31600589244044 -28.598208447269144 0 -28.598208447269144 -280.04872249306072 0 0 0 0 -42.361700679997739 46.73374938212487 0 46.73374938212487 226.73575292514715 0 0 0 0 -6.2111317827488506 5.2134757798310973 0 5.2134757798310973 1.0640878513855618 0 0 0 0 28.777157493277628 117.29830597676994 0 117.29830597676994 -179.10746412340268 0 0 0 0 -83.982725429013954 -5.7309447641706583 0 -5.7309447641706583 -81.712820289537149 0 0 0 0 -128.29937382356729 140.2735206545608 0 140.2735206545608 -139.55207476083697 0 0 0 0 1.3882336430114677 -0.96072245615069107 0 -0.96072245615069107 -1.8233656325286667 0 0 0 0 -27.112470404594205 -59.036121906438439 0 -59.036121906438439 -143.1945485120857 0 0 0 0 11.662344700918766 5.3519972291119302 0 5.3519972291119302 -2.0327753734512726 0 0 0 0 7.4556554024918285 8.2984339395968725 0 8.2984339395968725 -0.3892137566337639 0 0 0 0 8.6386269068607362 -13.047465135574384 0 -13.047465135574384 -85.129992829944513 0 0 0 0 22.848562816740014 34.635741538818138 0 34.635741538818138 -47.475857348062846 0 0 0 0 61.17816714712535 39.549674269116849 0 39.549674269116849 -152.69528024833312 0 0 0 0 -49.472062061502584 -24.780952972403462 0 -24.780952972403462 85.683437841522391 0 0 0 0 -48.140559960400992 62.120645741884886 0 62.120645741884886 16.985609981762536 0 0 0 0 9.5857852765354323 5.3565216185198636 0 5.3565216185198636 4.2592368952807984 0 0 0 0 34.521181275702475 0.52442188658773148 0 0.52442188658773148 -12.107326723155893 0 0 0 0 25.718265008392336 -39.810606294297372 0 -39.810606294297372 42.158206573069037 0 0 0 0 -15.198743251465203 54.239904670378905 0 54.239904670378905 -10.604202696999891 0 0 0 0 -2.5201849546429003 17.540650848786754 0 17.540650848786754 -3.812016127674724 0 0 0 0 8.6228950253913439 8.5962823418462762 0 8.5962823418462762 -3.656460794328293 0 0 0 0 28.373470336221686 14.457375267527766 0 14.457375267527766 -3.0620063973235503 0 0 0 0 31.741241381430882 -66.889130431557078 0 -66.889130431557078 23.841935090069455 0 0 0 0 34.370457851648098 -60.714373761582465 0 -60.714373761582465 38.06771142794787 0 0 0 0 17.690599744273641 30.446462219827481 0 30.446462219827481 -169.47142267494928 0 0 0 0 68.423502380901482 -7.0548596189955788 0 -7.0548596189955788 44.215582956527783 0 0 0 0 58.921579500020016 -34.907050695685029 0 -34.907050695685029 -37.320179652781007 0 0 0 0 6.648850640615791 -3.325558903199834 0 -3.325558903199834 6.7917150428614903 0 0 0 0 10.489507567501278 -20.270107802881284 0 -20.270107802881284 31.145063077926352 0 0 0 0 45.125534896855243 -30.154451719990902 0 -30.154451719990902 9.3395647014531278 0 0 0 0 44.108977243879053 -31.829419591505712 0 -31.829419591505712 22.128374912030267 0 0 0 0 122.59043023208505 -43.546359710707293 0 -43.546359710707293 8.8381998962750004 0 0 0 0 79.478195580057218 -21.464714416035349 0 -21.464714416035349 0.54488829371985048 0 0 0 0 61.967971460115223 22.660450790778668 0 22.660450790778668 3.289104036615754 0 0 0 0 212.91539399984322 -18.627340907582948 0 -18.627340907582948 -13.273808370548068 0 0 0 0 -153.02248365281048 -76.99353314701807 0 -76.99353314701807 176.15219193396479 0 0 0 0 108.89101221479359 16.289531897367851 0 16.289531897367851 -13.124520121831665 0 0 0 0 146.32707577121619 -32.429402932466928 0 -32.429402932466928 -8.0817375008718955 0 0 0 0 164.5176898421123 -43.293101517779178 0 -43.293101517779178 -3.1120045923307771 0 0 0 0 174.31887031768565 5.7188131583779978 0 5.7188131583779978 -11.946338927840316 0 0 0 0 79.84371668318272 7.48711605339588 0 7.48711605339588 -2.4725878530844057 0 0 0 0 -1.8528434655868793 -1.8745059714513275 0 -1.8745059714513275 -1.5805317462334827 0 0 0 0 81.026192615565378 4.6154938537802082 0 4.6154938537802082 -10.242230121213652 0 0 0 0 160.94415404918254 -5.3415712219020861 0 -5.3415712219020861 -18.209271399447971 0 0 0 0 161.09906929158024 -34.192449120558194 0 -34.192449120558194 -14.04110699982084 0 0 0 0 163.68956155152409 4.9885336379293221 0 4.9885336379293221 -18.476978680020238 0 0 0 0 132.36688056972343 16.938763672918867 0 16.938763672918867 -22.725941014522505 0 0 0 0 143.84082627474709 -10.707867844158955 0 -10.707867844158955 -13.72206883182298 0 0 0 0 111.88845959995342 10.37387612806566 0 10.37387612806566 -17.99363052166882 0 0 0 0 125.07281835572212 11.015893365913143 0 11.015893365913143 -25.838749748825649 0 0 0 0 117.12301554478472 2.9678757566953209 0 2.9678757566953209 -18.709634738603199 0 0 0 0 135.05839073762763 -17.160297403320328 0 -17.160297403320328 -11.787882106807956 0 0 0 0 155.39982548565604 -32.765911808233795 0 -32.765911808233795 -13.194321358496381 0 0 0 0 128.38198298480711 -23.15213444555684 0 -23.15213444555684 -6.3673383602217655 0 0 0 0 156.63105062779505 -37.057953275790169 0 -37.057953275790169 -6.9310487830553029 0 0 0 0 153.66787763503089 -35.529270086218276 0 -35.529270086218276 -3.3876016360954964 0 0 0 0 153.30203929144773 -42.797753262992046 0 -42.797753262992046 -6.127880779615225 0 0 0 0 139.71402569537167 -37.843368760142766 0 -37.843368760142766 -6.9674962522009309 0 0 0 0 151.56030384356563 -48.3680155161519 0 -48.3680155161519 -8.4452133407139627 0 0 0 0 151.7627744700294 -40.078225345597275 0 -40.078225345597275 -10.587580359315325 0 0 0 0 157.4358921370731 -41.835616096028389 0 -41.835616096028389 -12.060556507305591 0 0 0 0 192.25972353637917 -40.401829601797544 0 -40.401829601797544 -16.576258249912826 0 0 0 0 166.00923882902134 -43.720146924097207 0 -43.720146924097207 -12.854365550674629 0 0 0 0 162.50745182528772 -35.592225941393053 0 -35.592225941393053 -16.174682882341585 0 0 0 0 158.93895260288264 -48.927068843693633 0 -48.927068843693633 -9.2376708384799713 0 0 0 0 122.67108877422288 -43.597891990587414 0 -43.597891990587414 -2.05181019996553 0 0 0 0 111.25111413147533 -63.840425565627811 0 -63.840425565627811 27.475988719623274 0 0 0 0 117.56223703475553 -51.55109039870149 0 -51.55109039870149 17.015341773387718 0 0 0 0 223.15614006709075 -58.592747886906182 0 -58.592747886906182 -5.9858153751547434 0 0 0 0 168.71283912184299 -63.943101313389889 0 -63.943101313389889 1.6037583334100418 0 0 0 0 172.20038619951811 -37.781375731608591 0 -37.781375731608591 -6.1250055670770962 0 0 0 0 229.2552162114298 -6.9653773121344784 0 -6.9653773121344784 -1.2276890138818999 0 0 0 0 213.24445530347293 -20.971636572279749 0 -20.971636572279749 -13.158319314197797 0 0 0 0 174.85096685806639 -16.731306446181406 0 -16.731306446181406 -12.385649438759174 0 0 0 0 198.27905921463389 2.5978189763700357 0 2.5978189763700357 -13.049791252244177 0 0 0 0 152.99935878982069 -5.0647506459235956 0 -5.0647506459235956 -13.48989990838345 0 0 0 0 177.11071673184051 2.6793626205362671 0 2.6793626205362671 -8.3408719522431056 0 0 0 0 208.63539458461673 19.156291922750995 0 19.156291922750995 -0.30059482226533873 0 0 0 0 258.4241696226818 21.12398404700798 0 21.12398404700798 -1.7448822574835958 0 0 0 0 252.4559408537898 59.364946663896262 0 59.364946663896262 62.365940373960257 0 0 0 0 190.44520189467585 56.643925484579995 0 56.643925484579995 42.031255540841812 0 0 0 0 270.80450970114907 63.61037467125243 0 63.61037467125243 42.371313887071551 0 0 0 0 224.23930669359106 -6.6925832218616961 0 -6.6925832218616961 2.3086630030884407 0 0 0 0 345.01859042720753 18.41714412213787 0 18.41714412213787 6.3884494006058503 0 0 0 0 262.02455934297177 -71.195870474723961 0 -71.195870474723961 23.696704650028551 0 0 0 0 384.87364157653064 -79.449367496617924 0 -79.449367496617924 45.097956699903079 0 0 0 0 420.25487731347675 163.60938874278236 0 163.60938874278236 188.38535198058889 0 0 0 0 325.72348603504361 48.361547594812691 0 48.361547594812691 63.568935701192459 0 0 0 0 103.71895093654166 -73.128682992703489 0 -73.128682992703489 50.859856037630379 0 0 0 0 208.13330552988918 -40.70368981979027 0 -40.70368981979027 19.833679774877055 0 0 0 0 194.50695563177578 -83.221053728168954 0 -83.221053728168954 16.812624537910779 0 0 0 0 241.77545100235693 -112.510336140351 0 -112.510336140351 45.423633214937581 0 0 0 0 256.10636690282263 -32.860971249684098 0 -32.860971249684098 44.091665318846935 0 0 0 0 103.85650734155206 -70.664099964848447 0 -70.664099964848447 44.144040505484554 0 0 0 0 239.19317049438541 -81.554171798645712 0 -81.554171798645712 60.904863959767681 0 0 0 0 210.33520534502168 241.83702740941678 0 241.83702740941678 302.6960294146383 0 0 0 0 52.567303165909834 -83.644345360220541 0 -83.644345360220541 90.086618930862642 0 0 0 0 8.8210200482427581 4.4126518055589159 0 4.4126518055589159 0.16140615453568707 0 0 0 0 -0.37276665839203815 -0.96394256425217861 0 -0.96394256425217861 2.5971662135883777 0 0 0 0 574.1431654872722 422.10924601367651 0 422.10924601367651 623.05559671961964 0 0 0 0 293.76054703185946 59.52158880473894 0 59.52158880473894 220.61255928756145 0 0 0 0 485.68560298450757 34.026916430021174 0 34.026916430021174 71.480640228856373 0 0 0 0 347.5466037365768 509.88474743111755 0 509.88474743111755 -182.893458633016 0 0 0 0 771.96114519891125 -424.11936197389718 0 -424.11936197389718 -82.8407114582551 0 0 0 0 383.56723828506074 148.87260358215235 0 148.87260358215235 -437.92004100808094 0 0 0 0 224.81170468396158 -296.21477260414986 0 -296.21477260414986 894.41951037267768 0 0 0 0 193.7516310561914 -102.67231782863405 0 -102.67231782863405 132.59068980485517 0 0 0 0 332.38529227479012 -148.6250054059384 0 -148.6250054059384 98.214345025959005 0 0 0 0 -22.380798682163004 102.27986381423921 0 102.27986381423921 -9.8117411737846396 0 0 0 0 177.25777416142228 42.020851484971843 0 42.020851484971843 -101.26713630440963 0 0 0 0 40.99890801118454 218.37744178814398 0 218.37744178814398 -141.0093143028862 0 0 0 0 1.1144012839219357 -0.26436572619641652 0 -0.26436572619641652 -5.4267413242240146 0 0 0 0 71.704402247472899 47.092300762453078 0 47.092300762453078 22.331004560366864 0 0 0 0 180.92879174211703 64.084052022374237 0 64.084052022374237 -49.367721334103067 0 0 0 0 68.924684739411532 71.796092699755604 0 71.796092699755604 -43.489051754816842 0 0 0 0 17.791212078169337 156.99548426589109 0 156.99548426589109 82.191431675029207 0 0 0 0 346.90064804254507 165.11568153210123 0 165.11568153210123 32.991154897060824 0 0 0 0 304.27646628375805 110.71708366623648 0 110.71708366623648 49.648833889068555 0 0 0 0 243.88087105267186 193.27058215529468 0 193.27058215529468 18.917552025583973 0 0 0 0 275.84770304217818 157.63816935107116 0 157.63816935107116 43.822034375314615 0 0 0 0 111.69952663958975 41.02898867563124 0 41.02898867563124 -19.841118273240681 0 0 0 0 10.947892269866415 5.4834573150283745 0 5.4834573150283745 -11.631906791367388 0 0 0 0 216.23663487142767 142.88645620716807 0 142.88645620716807 61.592663451259796 0 0 0 0 199.23342068873171 162.88715832736671 0 162.88715832736671 72.848655608544505 0 0 0 0 233.20924506256415 166.13871757270067 0 166.13871757270067 68.309425365484458 0 0 0 0 276.00759758090135 119.13018453256336 0 119.13018453256336 38.287977415508067 0 0 0 0 282.72954035439761 88.752122192317984 0 88.752122192317984 59.665197328140493 0 0 0 0 253.71407037306926 135.39522796341498 0 135.39522796341498 59.177228508982807 0 0 0 0 258.19430774601642 93.429704322295947 0 93.429704322295947 45.90828208966559 0 0 0 0 205.57714444844169 119.12910364432901 0 119.12910364432901 60.17261978278475 0 0 0 0 201.02485682646511 107.2780787083816 0 107.2780787083816 75.090669789220556 0 0 0 0 203.5965215942706 145.6226972930981 0 145.6226972930981 64.494822128823216 0 0 0 0 88.373355255302158 46.662663361607429 0 46.662663361607429 -16.062298055661358 0 0 0 0 87.353189302928513 40.87907854309401 0 40.87907854309401 -29.573561667469221 0 0 0 0 99.747766152737313 21.659134285537675 0 21.659134285537675 0.20309301822362613 0 0 0 0 58.432528441058821 24.334950950471011 0 24.334950950471011 -17.200656054920728 0 0 0 0 64.80244084240195 6.9519312964407547 0 6.9519312964407547 -8.5294512271851204 0 0 0 0 97.084018728070077 18.529039747553952 0 18.529039747553952 -43.163209315250242 0 0 0 0 64.453278070868691 22.585663506099991 0 22.585663506099991 8.7259466351424635 0 0 0 0 147.87885172662209 47.103524845997526 0 47.103524845997526 42.11335912643699 0 0 0 0 43.292732334883482 -0.44472192417022427 0 -0.44472192417022427 -16.743323776643802 0 0 0 0 40.162908964717644 16.271073671375689 0 16.271073671375689 -8.3402692408326402 0 0 0 0 203.59870754615986 74.590448132017627 0 74.590448132017627 43.52214590650874 0 0 0 0 219.7663296545943 103.61574469674451 0 103.61574469674451 12.783461652332335 0 0 0 0 4.4986878747960901 2.8954076134231883 0 2.8954076134231883 -2.5057850310019134 0 0 0 0 34.061731018311519 22.95628608477702 0 22.95628608477702 -0.73876713776142111 0 0 0 0 54.014552197851657 7.1472670490623926 0 7.1472670490623926 -12.357098685472563 0 0 0 0 76.636974345485214 12.278745137396527 0 12.278745137396527 -3.0714703130752241 0 0 0 0 63.452175369602628 5.0151120626087504 0 5.0151120626087504 -25.369393331478705 0 0 0 0 51.031348873251225 4.4849045034955708 0 4.4849045034955708 -21.828369290801373 0 0 0 0 76.860524631207227 13.061951681341725 0 13.061951681341725 -25.150503896304144 0 0 0 0 63.452175369631732 5.0151120626087504 0 5.0151120626087504 -25.369393331478932 0 0 0 0 43.51905626804529 14.960464494510688 0 14.960464494510688 -15.016118764064492 0 0 0 0 85.225896449454012 11.388344743228572 0 11.388344743228572 -38.982522560265352 0 0 0 0 83.778173921506095 5.444625749385068 0 5.444625749385068 -30.068253462968642 0 0 0 0 69.367693890970799 1.7051040030521065 0 1.7051040030521065 -19.148550191263237 0 0 0 0 99.510503376637644 2.3891560510010095 0 2.3891560510010095 -35.001912146977645 0 0 0 0 18.593724672216922 19.126483029066549 0 19.126483029066549 -44.904260357717362 0 0 0 0 37.596307054128602 4.6875335720075686 0 4.6875335720075686 -4.0265485744923266 0 0 0 0 27.640175597504424 4.2835349788849673 0 4.2835349788849673 -3.4302901154798038 0 0 0 0 75.644905411136278 14.156962748665137 0 14.156962748665137 -61.041772155218496 0 0 0 0 95.468078025653085 -4.7998366704691762 0 -4.7998366704691762 -57.73950317534036 0 0 0 0 63.452175369631732 5.0151120625941985 0 5.0151120625941985 -25.369393331478932 0 0 0 0 75.050888727903171 -24.924655138866875 0 -24.924655138866875 22.156293975153137 0 0 0 0 168.47758672948476 -57.490855547192041 0 -57.490855547192041 47.121938802456498 0 0 0 0 158.23727648739077 -33.20071125346476 0 -33.20071125346476 5.8151695207034209 0 0 0 0 158.7038649724127 19.727904904671959 0 19.727904904671959 -53.897862720854391 0 0 0 0 67.133307504167533 -10.748920291593322 0 -10.748920291593322 -25.530435548836977 0 0 0 0 0.006162123626779703 -3.5397515355133002 0 -3.5397515355133002 -2.6443614104769821 0 0 0 0 -15.929741479965742 -69.512941455479449 0 -69.512941455479449 30.438073045828787 0 0 0 0 81.940687411056217 -10.786871591445554 0 -10.786871591445554 -22.214896890816341 0 0 0 0 56.132134831699659 37.832541104047777 0 37.832541104047777 20.966077461351233 0 0 0 0 83.500500275126853 13.825734734146678 0 13.825734734146678 -15.317792178356235 0 0 0 0 157.72328280744841 62.861028687315411 0 62.861028687315411 25.86883109943301 0 0 0 0 108.05621492991335 12.467851013571984 0 12.467851013571984 -13.964295747616978 0 0 0 0 137.57074560111505 56.083599875916661 0 56.083599875916661 73.495002493735228 0 0 0 0 162.44618207175517 61.365454629918531 0 61.365454629918531 50.618871365168161 0 0 0 0 146.76993625552859 96.660858612352968 0 96.660858612352968 98.971814910475587 0 0 0 0 164.590359322523 95.157872039855647 0 95.157872039855647 71.068061515499721 0 0 0 0 163.71480632771818 104.78717386047595 0 104.78717386047595 85.83488169668999 0 0 0 0 84.658720075589159 45.260955447509993 0 45.260955447509993 35.031010784663138 0 0 0 0 -14.211433905347803 30.339462023447652 0 30.339462023447652 78.955130670885126 0 0 0 0 172.53471489018375 -7.8493018616491099 0 -7.8493018616491099 137.58598748212535 0 0 0 0 55.335732002000441 40.422462573011217 0 40.422462573011217 154.40705328905824 0 0 0 0 107.48262402664841 49.627280114872065 0 49.627280114872065 120.65627910638523 0 0 0 0 33.786566473863786 75.838393502860072 0 75.838393502860072 134.08108518042445 0 0 0 0 200.50268208598936 127.04299188455832 0 127.04299188455832 77.53731559213702 0 0 0 0 169.61916399555048 125.02719595944109 0 125.02719595944109 80.475828619380991 0 0 0 0 159.86856473924126 110.1622387750449 0 110.1622387750449 86.008817902900773 0 0 0 0 134.21029294317123 125.35497229804696 0 125.35497229804696 95.983224437100944 0 0 0 0 114.20313652258483 100.06059791149892 0 100.06059791149892 103.34302015953926 0 0 0 0 119.52899910788983 66.17420977798065 0 66.17420977798065 123.96425656545216 0 0 0 0 130.91139963481692 111.32665556942266 0 111.32665556942266 108.97597174319526 0 0 0 0 89.316523923276691 117.35509332561367 0 117.35509332561367 87.460167540451948 0 0 0 0 87.311620498432603 120.07344685376825 0 120.07344685376825 107.5216798153815 0 0 0 0 143.46650531410705 125.47462178792921 0 125.47462178792921 92.91181480972682 0 0 0 0 117.23223525645153 145.0087464603539 0 145.0087464603539 89.324922114148649 0 0 0 0 149.14568551140837 148.63229554757072 0 148.63229554757072 81.246566534786325 0 0 0 0 103.39909014495788 119.60872617991242 0 119.60872617991242 75.685114944289865 0 0 0 0 111.2308075484907 166.44108980805765 0 166.44108980805765 86.407065390027128 0 0 0 0 86.794334658225125 137.40577914010504 0 137.40577914010504 60.282974081583689 0 0 0 0 43.112373220239533 95.320274690766837 0 95.320274690766837 83.531176998464503 0 0 0 0 22.334427384706942 56.740427609233336 0 56.740427609233336 30.968703149474095 0 0 0 0 7.1976083041045058 112.93902378807255 0 112.93902378807255 79.71536127138279 0 0 0 0 12.309397180666565 0.85622487288924276 0 0.85622487288924276 115.30542538142163 0 0 0 0 -7.879399024968734 112.76938596213449 0 112.76938596213449 101.79881602255409 0 0 0 0 44.508116458644508 109.02622179499133 0 109.02622179499133 27.599218609148465 0 0 0 0 2.1883547440811526 90.232732511419727 0 90.232732511419727 -13.624769243237552 0 0 0 0 -2.9725482883077348 129.64803983534512 0 129.64803983534512 -249.42491732003805 0 0 0 0 -143.88967940652219 60.6533188477664 0 60.6533188477664 102.85993110253548 0 0 0 0 28.628343196527567 -50.592064072105131 0 -50.592064072105131 -157.06524821351985 0 0 0 0 6.5641523986996617 7.2988214387025323 0 7.2988214387025323 195.46958892290741 0 0 0 0 320.64485693749157 22.860442469573627 0 22.860442469573627 -83.586335836691376 0 0 0 0 17.21912866528146 1414.7552920727667 0 1414.7552920727667 1412.6628791230796 0 0 0 0 -73.711200912268396 -670.41971359191916 0 -670.41971359191916 -1336.0078750482098 0 0 0 0 66.565767317107074 44.693385804348338 0 44.693385804348338 15.370890675874445 0 0 0 0 -271.31006474714377 471.47399133420458 0 471.47399133420458 373.74647588470179 0 0 0 0 -2.4303600639834997 1.6245163650088656 0 1.6245163650088656 5.3596070130308497 0 0 0 0 -401.4418966680787 446.83426681768924 0 446.83426681768924 460.28905294598917 0 0 0 0 55.320067745435608 374.31385306646672 0 374.31385306646672 30.45368798929394 0 0 0 0 167.51706640917837 -184.32848094825613 0 -184.32848094825613 172.34872638136051 0 0 0 0 65.665851289770572 50.967684954405179 0 50.967684954405179 26.808601241974014 0 0 0 0 804.3095898546926 173.16811484572463 0 173.16811484572463 5.9800566203639391 0 0 0 0 -238.95146752040091 299.59132592385299 0 299.59132592385299 407.61092155096048 0 0 0 0 -774.82315065485454 490.98971663962152 0 490.98971663962152 393.62021610699139 0 0 0 0 -123.55744430851064 69.572999008732495 0 69.572999008732495 694.70461348630397 0 0 0 0 -9.7753193471216946 369.77656626751286 0 369.77656626751286 339.14364527650196 0 0 0 0 813.14621529266878 -116.471517871164 0 -116.471517871164 365.71306387155664 0 0 0 0 1443.553202593921 819.13353225022092 0 819.13353225022092 648.22006858794157 0 0 0 0 298.18082096594799 301.56100738168834 0 301.56100738168834 1242.3031912928636 0 0 0 0 5.2691278792262892 221.82415259359914 0 221.82415259359914 720.49566425658213 0 0 0 0 187.85267004407797 -335.64787357958357 0 -335.64787357958357 223.17954408892592 0 0 0 0 508.38951613006066 -635.7413451688044 0 -635.7413451688044 -920.55039357616783 0 0 0 0 -204.3893358612379 -101.07905253875188 0 -101.07905253875188 83.132287943491065 0 0 0 0 293.7873290624284 -739.20161096572338 0 -739.20161096572338 548.94609388547451 0 0 0 0 85.785939969900937 -145.99675643553388 0 -145.99675643553388 111.76425903110595 0 0 0 0 14.824190071366459 -6.470072733813943 0 -6.470072733813943 21.422915164013194 0 0 0 0 -372.84697116906318 -118.55672818579615 0 -118.55672818579615 187.39450402786997 0 0 0 0 -130.10598371807282 -103.44706182725849 0 -103.44706182725849 13.71963111183095 0 0 0 0 55.538946351121474 -22.736368166948367 0 -22.736368166948367 17.211494835051212 0 0 0 0 -223.18803515927073 -342.29214857962916 0 -342.29214857962916 -94.555190441402374 0 0 0 0 11.347271454209404 4.8383868966328265 0 4.8383868966328265 50.418104098185822 0 0 0 0 36.059010929194301 -35.42810766190405 0 -35.42810766190405 92.997978045306809 0 0 0 0 92.690660010142892 -67.391019001986365 0 -67.391019001986365 174.42249206598672 0 0 0 0 41.970203111883166 -77.800610371661321 0 -77.800610371661321 204.66620339825033 0 0 0 0 111.06373885607172 -75.462418312822592 0 -75.462418312822592 131.91279260243039 0 0 0 0 114.04844884385966 -200.20457254705815 0 -200.20457254705815 332.90257534828885 0 0 0 0 308.78594570177393 -188.90112864312633 0 -188.90112864312633 -10.422666883519838 0 0 0 0 146.80282061239086 -132.94198965343011 0 -132.94198965343011 132.46254976057588 0 0 0 0 362.09298968800817 -151.01569308776683 0 -151.01569308776683 523.76099786716907 0 0 0 0 362.48182334919693 -156.70243615201886 0 -156.70243615201886 266.10635714665341 0 0 0 0 54.297552037493006 -149.47723121113961 0 -149.47723121113961 505.77755919379535 0 0 0 0 46.392939280766676 -16.190570778670498 0 -16.190570778670498 4.0738387664850286 0 0 0 0 187.10051838815889 -505.51950587702549 0 -505.51950587702549 73.128514865033111 0 0 0 0 113.25936166817519 33.595220645834289 0 33.595220645834289 159.03971196054363 0 0 0 0 22.355547399287389 -10.097327171468066 0 -10.097327171468066 272.65419405967043 0 0 0 0 109.53334539639309 -186.34560289712869 0 -186.34560289712869 -677.3295423672356 0 0 0 0 848.38661649569985 -382.36083525346623 0 -382.36083525346623 -189.68264654437553 0 0 0 0 -111.92909490987768 -385.3302367517133 0 -385.3302367517133 311.72206986846965 0 0 0 0 -23.89782142358581 -308.43379383051712 0 -308.43379383051712 249.80036458026106 0 0 0 0 7.8938922722687934 -3.1099321445885169 0 -3.1099321445885169 0.77479682303069364 0 0 0 0 127.63329571940585 -600.22177712986695 0 -600.22177712986695 92.844966581383972 0 0 0 0 661.12479291416275 109.2204743785243 0 109.2204743785243 -256.73601538350914 0 0 0 0 794.65081683409153 -201.82304072607454 0 -201.82304072607454 -139.83893393548314 0 0 0 0 2.692577516855911 10.512889985381452 0 10.512889985381452 42.842793853309267 0 0 0 0 243.47186405941102 -161.94238945779333 0 -161.94238945779333 717.27709020259044 0 0 0 0 -212.1598654992049 41.177571440527572 0 41.177571440527572 76.389484876701772 0 0 0 0 108.24421227411767 -85.537946625323457 0 -85.537946625323457 38.010391937564236 0 0 0 0 94.507477850498617 -117.75466973389939 0 -117.75466973389939 34.538294826063066 0 0 0 0 164.00346957485272 -165.46699209406142 0 -165.46699209406142 21.140846137081098 0 0 0 0 -90.809929851349807 -194.77313969877741 0 -194.77313969877741 184.83790651106574 0 0 0 0 120.54667907181647 -91.814843543523239 0 -91.814843543523239 20.066316271888354 0 0 0 0 247.58195622434141 -42.140069420056534 0 -42.140069420056534 192.31617200095661 0 0 0 0 442.79679837642834 -194.20441007719091 0 -194.20441007719091 198.37833059303648 0 0 0 0 306.05201529191618 -107.43506331383469 0 -107.43506331383469 37.207591894428333 0 0 0 0 282.68122822224177 -116.3394794563128 0 -116.3394794563128 176.75852874396151 0 0 0 0 218.28730074562736 -208.70834849604034 0 -208.70834849604034 112.51310065003781 0 0 0 0 244.30261566237095 -113.88366146973749 0 -113.88366146973749 190.60692156890309 0 0 0 0 388.46365836356563 -25.329126432023259 0 -25.329126432023259 225.71174911837898 0 0 0 0 383.02288717269766 -76.814449904956746 0 -76.814449904956746 35.249441324376676 0 0 0 0 166.86724159623191 -66.012830426927394 0 -66.012830426927394 55.766048088131356 0 0 0 0 295.50421055605693 -73.377232254418232 0 -73.377232254418232 33.814732398182969 0 0 0 0 256.88341044266599 -60.147069431119235 0 -60.147069431119235 4.8792976372587873 0 0 0 0 306.96837347440123 -54.542082157269761 0 -54.542082157269761 -69.549172908227774 0 0 0 0 99.296019412442547 9.4273748663799779 0 9.4273748663799779 -21.408973973042521 0 0 0 0 28.159820075099745 -10.136978289401746 0 -10.136978289401746 3.3385591825342473 0 0 0 0 247.83424690386164 -85.686805089724658 0 -85.686805089724658 38.472303817804459 0 0 0 0 215.12635609500558 -126.86167983034375 0 -126.86167983034375 12.013292076560901 0 0 0 0 268.28399196734608 -150.58461636565698 0 -150.58461636565698 6.5787240562995066 0 0 0 0 271.21507565431239 -60.017424056006348 0 -60.017424056006348 -13.245947143452213 0 0 0 0 197.70697668673165 -145.16699897960825 0 -145.16699897960825 10.372995377526308 0 0 0 0 181.07157634403097 -116.92471078881192 0 -116.92471078881192 75.651391123163194 0 0 0 0 46.381524385328795 19.640955044845462 0 19.640955044845462 -27.841690021724354 0 0 0 0 118.28293350444437 -32.665441099310101 0 -32.665441099310101 4.8292915986785374 0 0 0 0 28.736886956601623 7.0464134899745403 0 7.0464134899745403 -12.475699059732626 0 0 0 0 126.91982114422353 -17.486740298727668 0 -17.486740298727668 -37.39017822137663 0 0 0 0 189.32732772556665 -63.668080865321826 0 -63.668080865321826 7.2600317949409146 0 0 0 0 43.849896130246634 -11.779496961160049 0 -11.779496961160049 11.24937618947223 0 0 0 0 95.034155064648075 -2.2631315112687389 0 -2.2631315112687389 -52.003452083861703 0 0 0 0 25.469253323977973 5.2235249508627959 0 5.2235249508627959 -28.37547774475188 0 0 0 0 92.461801424586156 11.369264262080605 0 11.369264262080605 -15.58787010708852 0 0 0 0 74.626600816154678 -13.494050654259127 0 -13.494050654259127 -50.107606242630936 0 0 0 0 91.524571926391218 -0.94613528068930464 0 -0.94613528068930464 -21.728179699695829 0 0 0 0 140.23938506381819 -88.372859742419678 0 -88.372859742419678 67.303164929242485 0 0 0 0 53.824216702840111 14.233698554792518 0 14.233698554792518 -29.160535047591605 0 0 0 0 115.13298173754447 -15.740190617267217 0 -15.740190617267217 -27.940470126277432 0 0 0 0 82.051576252400992 -15.539989460113247 0 -15.539989460113247 -3.0591873255457358 0 0 0 0 28.596188554115255 -2.4823743338880195 0 -2.4823743338880195 -5.7883414809034264 0 0 0 0 124.91929559269556 -120.63900420769551 0 -120.63900420769551 209.67900753314825 0 0 0 0 347.26124358707239 -80.79368648016316 0 -80.79368648016316 14.802861729862343 0 0 0 0 132.06368558306349 -116.97940455438766 0 -116.97940455438766 137.50940523815825 0 0 0 0 165.05026528630879 22.546015289077332 0 22.546015289077332 67.154278331977366 0 0 0 0 1.8685709622381292 12.199481690932888 0 12.199481690932888 46.81264882779017 0 0 0 0 -26.714595109738184 -14.961887622429003 0 -14.961887622429003 85.856426664504397 0 0 0 0 250.74381911592263 -143.59784505838843 0 -143.59784505838843 32.504127870757657 0 0 0 0 185.64456137482739 -112.46928704595848 0 -112.46928704595848 17.996730343817035 0 0 0 0 3499.6505773543722 631.79233064191476 0 631.79233064191476 -204.2635923932425 0 0 0 0 2467.3450640748524 651.11568492912829 0 651.11568492912829 80.879092657544078 0 0 0 0 3046.3260496861403 320.2298898826117 0 320.2298898826117 -260.99022633685183 0 0 0 0 3076.4585303835902 401.07356216360199 0 401.07356216360199 -319.62962973724791 0 0 0 0 3499.7226990253403 282.06075443966336 0 282.06075443966336 -476.18119366785686 0 0 0 0 3184.0307811479324 92.52195838943905 0 92.52195838943905 -416.64091150301073 0 0 0 0 3499.5798250749508 -116.97505249109365 0 -116.97505249109365 -398.85582551430809 0 0 0 0 3063.7293500622618 74.388683843420523 0 74.388683843420523 -419.36814906220576 0 0 0 0 2915.4958069689019 -141.87912799457393 0 -141.87912799457393 -240.6929638580163 0 0 0 0 2804.9997418364946 -101.41991764593575 0 -101.41991764593575 -174.88689698648631 0 0 0 0 2388.3719672398729 25.410364336529824 0 25.410364336529824 -189.08173703329498 0 0 0 0 2736.5122705461181 311.9113087384859 0 311.9113087384859 -244.26479332934127 0 0 0 0 2573.2154821433687 86.26049825924656 0 86.26049825924656 -189.52601958161313 0 0 0 0 2687.6636806947281 64.501194532078188 0 64.501194532078188 -216.08231759396233 0 0 0 0 1891.0973588140405 64.592466047668836 0 64.592466047668836 48.561178029179587 0 0 0 0 2459.904153077372 207.08094426577603 0 207.08094426577603 -127.59218321010144 0 0 0 0 2361.3785563313577 211.24698918459319 0 211.24698918459319 -124.45406300180576 0 0 0 0 32.073325347872128 9.0057872451395156 0 9.0057872451395156 -32.229789102467628 0 0 0 0 -150.02801115022885 -305.77385432583833 0 -305.77385432583833 -62.408822633379714 0 0 0 0 2259.8665918183469 -313.72106081897192 0 -313.72106081897192 -57.61489216584323 0 0 0 0 288.73632078708579 -105.73869648671848 0 -105.73869648671848 -22.729988833436437 0 0 0 0 222.35738796439909 71.424668623229991 0 71.424668623229991 73.086088379566718 0 0 0 0 2800.9054502700269 -377.12361063379086 0 -377.12361063379086 -81.973161675612459 0 0 0 0 211.80590158493214 -136.69856735155372 0 -136.69856735155372 -134.73590198363308 0 0 0 0 149.01992610833622 -34.321728033848558 0 -34.321728033848558 37.876651100510571 0 0 0 0 45.400988583727617 -70.645862648585208 0 -70.645862648585208 -5.5687542871437508 0 0 0 0 228.7587698702755 -75.390840240090256 0 -75.390840240090256 -112.80829434700718 0 0 0 0 192.45397091546693 -136.74444405845134 0 -136.74444405845134 -124.86038409149842 0 0 0 0 81.586821707373019 -109.09971340572883 0 -109.09971340572883 9.7958656590126338 0 0 0 0 164.73739164116705 -192.88343052256778 0 -192.88343052256778 -223.75432329533214 0 0 0 0 164.43067043216615 -325.61677101757869 0 -325.61677101757869 -235.0695754304561 0 0 0 0 68.660163627668226 -389.32552597833501 0 -389.32552597833501 -130.94631230193045 0 0 0 0 230.44615230992713 -315.44052604828858 0 -315.44052604828858 -238.71445245703762 0 0 0 0 -71.46503588174528 -232.85639964065831 0 -232.85639964065831 -174.81339730214358 0 0 0 0 111.98080593688064 -266.05821224883221 0 -266.05821224883221 -187.33179577676856 0 0 0 0 107.57222466899475 -284.09044331068799 0 -284.09044331068799 -242.36770409053497 0 0 0 0 2070.0540003759161 166.56420153423758 0 166.56420153423758 38.527092940717523 0 0 0 0 -279.19660632537398 -265.37172323853019 0 -265.37172323853019 -134.22988854423238 0 0 0 0 46.011483679581971 -49.680521430229618 0 -49.680521430229618 -23.474572220530348 0 0 0 0 -174.66463517317789 -369.6310647376713 0 -369.6310647376713 -137.80181001963501 0 0 0 0 37.091654043265464 5.6783992945909354 0 5.6783992945909354 -3.7631270316961221 0 0 0 0 -28.505300316650391 -305.33538473056115 0 -305.33538473056115 -224.34509926613191 0 0 0 0 111.27170580007987 -417.39174305111123 0 -417.39174305111123 44.819578070852458 0 0 0 0 -15.502554812441304 -264.9761135839467 0 -264.9761135839467 -116.79805146116632 0 0 0 0 655.30672522808345 -363.43743615763151 0 -363.43743615763151 -393.53852531526127 0 0 0 0 433.03624829422733 -343.44793772614253 0 -343.44793772614253 -207.04314033907576 0 0 0 0 309.17191981988071 -281.15547074522703 0 -281.15547074522703 122.75719325396176 0 0 0 0 301.6679931821418 -367.38639453213636 0 -367.38639453213636 -240.73127093034964 0 0 0 0 474.25228131574113 -317.2147547102395 0 -317.2147547102395 -481.30112191646367 0 0 0 0 231.32658343896037 -322.48334943335158 0 -322.48334943335158 -200.24180906784932 0 0 0 0 51.328527085759561 113.94322958757539 0 113.94322958757539 -483.50596021937963 0 0 0 0 150.01808701878144 -74.506690624928979 0 -74.506690624928979 -149.53173941420209 0 0 0 0 255.00740936660441 -304.21496898223359 0 -304.21496898223359 -308.22276071849774 0 0 0 0 208.54845136298172 -118.57000920911878 0 -118.57000920911878 -371.6447048064565 0 0 0 0 150.7968310121388 -66.083680598695622 0 -66.083680598695622 -159.77395991947196 0 0 0 0 52.114846989123976 27.918510929948429 0 27.918510929948429 9.0048416559502726 0 0 0 0 404.34688518530947 -40.246033705162517 0 -40.246033705162517 -781.65226624721981 0 0 0 0 166.17052631160459 340.68760376527166 0 340.68760376527166 -840.10358124023514 0 0 0 0 2998.4600167323624 -552.20996938920689 0 -552.20996938920689 -5.1758082768119493 0 0 0 0 2374.247838361096 -2159.6453729379018 0 -2159.6453729379018 1710.3530847739758 0 0 0 0 1949.9902236993803 -1362.1300805502442 0 -1362.1300805502442 451.77818537736312 0 0 0 0 1117.2076016346327 -1005.1225402984378 0 -1005.1225402984378 523.56874839086504 0 0 0 0 568.10692210885554 -348.52373365908386 0 -348.52373365908386 524.649873142871 0 0 0 0 320.23350019298778 1209.8047187195286 0 1209.8047187195286 -879.12628122345905 0 0 0 0 20.004274716866647 8.9441460138875577 0 8.9441460138875577 3.2267320855979591 0 0 0 0 2948.0907302636624 62.753716160199417 0 62.753716160199417 -409.31249705832533 0 0 0 0 2626.1040209857783 722.09264171251914 0 722.09264171251914 -823.62823147911922 0 0 0 0 1501.9291952609183 -1281.8455467321339 0 -1281.8455467321339 1286.0753550954751 0 0 0 0 20.348756777663397 -5.1965346827277354 0 -5.1965346827277354 1.5731492610946525 0 0 0 0 937.79684046316288 -400.43694813825982 0 -400.43694813825982 885.030768890324 0 0 0 0 1348.0215012255157 740.53688114116972 0 740.53688114116972 1074.6451058450443 0 0 0 0 2632.5529236426046 448.18713411160985 0 448.18713411160985 -181.96457780867547 0 0 0 0 1680.8643606142195 117.64270653497954 0 117.64270653497954 -488.07922432059178 0 0 0 0 1051.6825436946638 -555.72096728815336 0 -555.72096728815336 155.80589888096819 0 0 0 0 1491.2399321940347 272.36959057926759 0 272.36959057926759 -411.2719683005613 0 0 0 0 1657.0440997142687 324.30965615809538 0 324.30965615809538 -287.69483455457356 0 0 0 0 1584.4964321196912 152.52125229062699 0 152.52125229062699 -257.82886294162279 0 0 0 0 1053.2290421670514 414.57494067286825 0 414.57494067286825 266.15081718334659 0 0 0 0 1232.1809086787744 168.04284077869781 0 168.04284077869781 -343.98610733272142 0 0 0 0 1231.7036734916219 159.83257116013075 0 159.83257116013075 -252.08184499736615 0 0 0 0 801.06268566673236 92.159981035652294 0 92.159981035652294 -111.27857843026294 0 0 0 0 607.93334993469034 97.588328626581699 0 97.588328626581699 -82.562624841421666 0 0 0 0 963.98627059867795 172.953857550213 0 172.953857550213 -114.84692405936198 0 0 0 0 807.79210933150671 82.437764298357109 0 82.437764298357109 53.134185443344904 0 0 0 0 480.7750609444065 116.94287195287131 0 116.94287195287131 116.34452327578276 0 0 0 0 813.6904631600737 49.927692154959004 0 49.927692154959004 203.84605657533581 0 0 0 0 917.27017493876701 -126.18399460891692 0 -126.18399460891692 56.958557940259368 0 0 0 0 220.03250903680419 -217.2602856346407 0 -217.2602856346407 358.1426301907743 0 0 0 0 31.768116151675713 -365.897636961638 0 -365.897636961638 -133.07296791255794 0 0 0 0 216.32486427240474 -111.21780617523541 0 -111.21780617523541 -2.4286095583453431 0 0 0 0 -563.22093338349623 -464.8616343575672 0 -464.8616343575672 -62.889877161576578 0 0 0 0 -298.84401767296913 -152.02860468697736 0 -152.02860468697736 -34.679317209664077 0 0 0 0 -133.89477400327655 -187.15329053387543 0 -187.15329053387543 -212.43956104193671 0 0 0 0 -122.83838004127756 -95.526605340359851 0 -95.526605340359851 75.98445711711696 0 0 0 0 172.02667760537042 -213.72384460355516 0 -213.72384460355516 -92.508823450037866 0 0 0 0 618.45000830535673 32.849593757370165 0 32.849593757370165 -203.30173508782153 0 0 0 0 242.47235501887553 19.013281233659292 0 19.013281233659292 -98.334962852574392 0 0 0 0 797.88537233988791 41.485273937324394 0 41.485273937324394 -326.65881548192681 0 0 0 0 97.452659633727308 -305.57728714387969 0 -305.57728714387969 -374.65259869947505 0 0 0 0 40.457709901640555 -321.19856153813691 0 -321.19856153813691 -466.9475973582322 0 0 0 0 102.551408724059 -78.91087393358157 0 -78.91087393358157 -175.62926863149391 0 0 0 0 -157.23821388080432 -134.47893103934024 0 -134.47893103934024 -238.29678132145608 0 0 0 0 -680.78354433431014 -428.84131117110485 0 -428.84131117110485 -121.13192959479122 0 0 0 0 -1239.4850010853006 -876.60025061661986 0 -876.60025061661986 -241.07435230337956 0 0 0 0 -763.55314995263689 -266.09495683296143 0 -266.09495683296143 -195.27899508072403 0 0 0 0 3425.0685225269299 1146.7112747318399 0 1146.7112747318399 396.62548962215055 0 0 0 0 3499.8972963437336 1122.7886195955446 0 1122.7886195955446 330.78785459601704 0 0 0 0 19.13878896173302 -24.707035023203822 0 -24.707035023203822 2.9744751345275562 0 0 0 0 3301.2676135078218 1029.6445020104663 0 1029.6445020104663 295.35126803417154 0 0 0 0 3389.6774411902989 930.73949588246955 0 930.73949588246955 166.9093438236402 0 0 0 0 3499.6590896904527 1005.7662800140398 0 1005.7662800140398 173.56007926085496 0 0 0 0 3230.4945656528944 914.43505170756964 0 914.43505170756964 260.65350175635933 0 0 0 0 28.478776408690944 -36.312418654316616 0 -36.312418654316616 -3.219992340624267 0 0 0 0 2948.9831332100875 666.26789309517358 0 666.26789309517358 72.675691934726572 0 0 0 0 33.865109259981161 -44.527126513520045 0 -44.527126513520045 -11.440922886790029 0 0 0 0 3008.3332871504736 737.88462598669275 0 737.88462598669275 91.433153444876595 0 0 0 0 2139.5963990600358 -665.73906602589761 0 -665.73906602589761 -435.98935977481051 0 0 0 0 1945.9995631591482 -750.99212341643351 0 -750.99212341643351 161.13239312496211 0 0 0 0 264.931927157686 -514.56467347792056 0 -514.56467347792056 251.69618141256473 0 0 0 0 3489.313481864956 -1318.3343231996128 0 -1318.3343231996128 -557.75073400571966 0 0 0 0 1697.8391713157598 -1587.9284643389026 0 -1587.9284643389026 164.18161669491826 0 0 0 0 7.4970879216165827 -8.6537354076154678 0 -8.6537354076154678 2.8694111183667093 0 0 0 0 -2092.3809876108862 -697.2371387356626 0 -697.2371387356626 140.70248438356384 0 0 0 0 3499.9724587155351 1181.8179631021835 0 1181.8179631021835 409.97905202755686 0 0 0 0 -305.87008506213806 -263.57556699305201 0 -263.57556699305201 -336.63393924079833 0 0 0 0 -141.04023682351544 -740.95289406849702 0 -740.95289406849702 -567.57172825086491 0 0 0 0 -429.37768195954959 -1345.4321441077961 0 -1345.4321441077961 138.56397422000572 0 0 0 0 289.17736433002983 150.02752884794617 0 150.02752884794617 -359.23042816166526 0 0 0 0 286.16708684077548 -17.507578617466599 0 -17.507578617466599 31.388993963746827 0 0 0 0 592.79467255725103 124.10889253587899 0 124.10889253587899 -182.48935714994431 0 0 0 0 301.77594024454083 -221.38249385580332 0 -221.38249385580332 -544.52352688998008 0 0 0 0 490.72960394617439 -18.518795567882876 0 -18.518795567882876 -380.31359645295805 0 0 0 0 214.24176507367383 -39.199176236379969 0 -39.199176236379969 -180.13298490255283 0 0 0 0 487.388335494937 108.00607963971127 0 108.00607963971127 -86.533262317263507 0 0 0 0 768.8636713915057 139.3999414683897 0 139.3999414683897 -168.78578241298271 0 0 0 0 561.12084026108255 219.53977481989426 0 219.53977481989426 87.536479934131933 0 0 0 0 621.70866725888209 287.76691609582241 0 287.76691609582241 135.27041298886206 0 0 0 0 571.70881532563453 231.8325295595574 0 231.8325295595574 79.7438307007248 0 0 0 0 769.66580296114626 42.901849135115725 0 42.901849135115725 30.393421167457944 0 0 0 0 698.73902680753599 10.228487019804447 0 10.228487019804447 116.17043954371155 0 0 0 0 1105.2348234643359 -5.1175019862144495 0 -5.1175019862144495 52.944820138444072 0 0 0 0 1069.3997501549256 -88.228872911350948 0 -88.228872911350948 -133.98762236887717 0 0 0 0 887.03150514116351 246.42175411876286 0 246.42175411876286 68.721548224344076 0 0 0 0 1193.8105486093764 -99.339778229807109 0 -99.339778229807109 -79.752793480932837 0 0 0 0 1396.5115847259358 248.66001084808164 0 248.66001084808164 -56.986199611325105 0 0 0 0 612.22401912118403 61.823441211884983 0 61.823441211884983 111.6348506821916 0 0 0 0 769.19797054160904 130.06560858409401 0 130.06560858409401 48.23993944690244 0 0 0 0 1097.8881603560039 84.388294192392891 0 84.388294192392891 -29.770404074911823 0 0 0 0 1132.1735064012446 108.64229444630013 0 108.64229444630013 -201.83470071105739 0 0 0 0 1180.3009627399449 -51.220157922853517 0 -51.220157922853517 100.15968122025231 0 0 0 0 1116.1189151872754 203.414647373256 0 203.414647373256 107.81316227642532 0 0 0 0 1654.5152392998189 -31.451643348559372 0 -31.451643348559372 -282.84188235415002 0 0 0 0 10.111022092127619 -2.9729376028059695 0 -2.9729376028059695 0.35087889442828801 0 0 0 0 1106.277466789109 615.96919870558042 0 615.96919870558042 -560.02372261923017 0 0 0 0 432.05588444081513 -631.91647647968227 0 -631.91647647968227 -78.551367472027835 0 0 0 0 1548.7230174311562 -202.61496351242704 0 -202.61496351242704 -63.688116817741417 0 0 0 0 616.91522531004284 -190.7669320245702 0 -190.7669320245702 113.64620602318625 0 0 0 0 1501.4416149855842 161.35782887266421 0 161.35782887266421 -103.4758668733588 0 0 0 0 1197.896232442602 298.09711199074434 0 298.09711199074434 474.36946220671649 0 0 0 0 583.57766336302257 -71.319228483510742 0 -71.319228483510742 361.78940064394874 0 0 0 0 576.10451713056864 -149.47037690385503 0 -149.47037690385503 769.10635239132785 0 0 0 0 2016.3700300100272 452.88415328106873 0 452.88415328106873 91.143858515209047 0 0 0 0 407.02544531080093 -72.541774137449465 0 -72.541774137449465 415.81511934077719 0 0 0 0 249.91214180874704 -452.62402522288539 0 -452.62402522288539 156.49861749454828 0 0 0 0 -373.23544366319766 -0.033278534778560243 0 -0.033278534778560243 -174.83760959840356 0 0 0 0 465.81163558025946 -207.24539411992777 0 -207.24539411992777 -320.52279710511402 0 0 0 0 41.228882345487364 12.940245073257756 0 12.940245073257756 -138.19092100613489 0 0 0 0 -334.0814910639765 379.06692134298657 0 379.06692134298657 240.50638421965812 0 0 0 0 23.82779285392278 9.3674416223895189 0 9.3674416223895189 1.5047081956595547 0 0 0 0 165.63544558185527 485.75928631331999 0 485.75928631331999 -697.59427760482106 0 0 0 0 509.69537594076996 -146.52842980413777 0 -146.52842980413777 -731.37551598109667 0 0 0 0 -342.01080247235814 315.00774918121255 0 315.00774918121255 357.2558666523347 0 0 0 0 354.80429430765525 384.39229200493514 0 384.39229200493514 -1098.008034559801 0 0 0 0 1760.320125655318 348.63949552647034 0 348.63949552647034 -782.31476345427541 0 0 0 0 818.09432841080888 1356.4011111556772 0 1356.4011111556772 176.67889533481357 0 0 0 0 12.213564040175459 6.0674987995940954 0 6.0674987995940954 1.326721426404847 0 0 0 0 882.51284720515582 -47.642271076784624 0 -47.642271076784624 -494.16265639997505 0 0 0 0 -5.6362219400137974 196.37384301424251 0 196.37384301424251 59.224112642941876 0 0 0 0 1139.0234330782455 1201.3951711645061 0 1201.3951711645061 251.19659342034282 0 0 0 0 1261.3486871894229 1728.4801402900544 0 1728.4801402900544 812.80984498333851 0 0 0 0 15.281788392881978 -3.2952441464531539 0 -3.2952441464531539 -0.35464636330615118 0 0 0 0 90.375879396365463 -531.80734787730682 0 -531.80734787730682 -247.94140126495495 0 0 0 0 589.11017332192205 100.37108097969116 0 100.37108097969116 205.79504243465948 0 0 0 0 408.05450652552918 391.08187884111112 0 391.08187884111112 -259.02398315808921 0 0 0 0 1269.7587728222625 563.88759355028697 0 563.88759355028697 11.126485088010213 0 0 0 0 574.75282991304084 103.33472289106732 0 103.33472289106732 39.56700758544082 0 0 0 0 31.37087248368255 -9.8984737164044834 0 -9.8984737164044834 -0.33251213128639112 0 0 0 0 810.634959065781 -187.3310752551007 0 -187.3310752551007 -387.7862656092006 0 0 0 0 1206.1274851432618 -383.90086525080284 0 -383.90086525080284 -432.86502638054708 0 0 0 0 1220.0707212686098 1039.6526447013648 0 1039.6526447013648 -43.532864378962131 0 0 0 0 1267.722508864216 475.4803106442518 0 475.4803106442518 211.34384204610905 0 0 0 0 737.65692213968532 792.35864591308314 0 792.35864591308314 27.990481447573018 0 0 0 0 576.78150374693507 -1159.7642658552284 0 -1159.7642658552284 78.533073329472131 0 0 0 0 17.278778816459891 -5.3708728849797325 0 -5.3708728849797325 0.9880080012717386 0 0 0 0 3217.0131052256602 1293.3165614889165 0 1293.3165614889165 142.04314436123079 0 0 0 0 3322.6101419954193 -540.16551492540111 0 -540.16551492540111 -29.260513883592921 0 0 0 0 3455.8891752397299 -45.951927682454304 0 -45.951927682454304 478.48107501282851 0 0 0 0 3498.952309384822 -312.56765661637905 0 -312.56765661637905 656.57981544169036 0 0 0 0 3746.8944372857568 -593.5047501794453 0 -593.5047501794453 -259.73932125364968 0 0 0 0 2323.1671198300874 -552.97420891844263 0 -552.97420891844263 -455.85608190978712 0 0 0 0 2445.7631947697855 50.542943496355576 0 50.542943496355576 -223.32144561725261 0 0 0 0 3502.231961614757 -132.36611512461874 0 -132.36611512461874 -563.3717168302444 0 0 0 0 1.2066506238293222 1.621314431278817 0 1.621314431278817 2.2260475568676288 0 0 0 0 115.61824371943294 -320.08386617128338 0 -320.08386617128338 377.92518733259385 0 0 0 0 36.333483004314076 138.13322071394236 0 138.13322071394236 -68.885763777198008 0 0 0 0 -265.05333101682481 -80.806592468483359 0 -80.806592468483359 505.32334248444931 0 0 0 0 1.6239470898026127 3.944901345267791 0 3.944901345267791 10.724504600866085 0 0 0 0 44.265476452074154 109.71641961387382 0 109.71641961387382 -135.42090197266225 0 0 0 0 168.17862584297472 7.7819893966701557 0 7.7819893966701557 257.43490761480712 0 0 0 0 474.6474185743009 82.547997457088854 0 82.547997457088854 151.82895723163699 0 0 0 0 373.86819595544512 2.2515579602288653 0 2.2515579602288653 392.06752735310101 0 0 0 0 381.2761077547475 -15.789856403995174 0 -15.789856403995174 142.138406405051 0 0 0 0 387.17911453410716 86.065571826686536 0 86.065571826686536 193.32963395781826 0 0 0 0 375.05438258584581 -39.924272064878096 0 -39.924272064878096 45.124081965793494 0 0 0 0 417.81971619856631 1.3603879792389364 0 1.3603879792389364 38.464062373682737 0 0 0 0 388.97902030138903 -46.488728021253451 0 -46.488728021253451 5.4039878235523702 0 0 0 0 371.84385374039812 -22.24110194716593 0 -22.24110194716593 113.03950295763414 0 0 0 0 386.36919623851281 -40.690315449048853 0 -40.690315449048853 -9.5530526827443225 0 0 0 0 299.84233216721623 -156.04345677708505 0 -156.04345677708505 -33.914642104399036 0 0 0 0 454.47659979119749 -53.134108594834927 0 -53.134108594834927 17.48281726723576 0 0 0 0 -671.47922085414757 -707.54063918999964 0 -707.54063918999964 887.52037829057736 0 0 0 0 92.226573770998584 -126.23296817897744 0 -126.23296817897744 52.090305564060372 0 0 0 0 -1.0887047740989146 6.9322033200783153 0 6.9322033200783153 14.247611668681202 0 0 0 0 587.43977666081082 446.77001002897225 0 446.77001002897225 -515.81982044854146 0 0 0 0 -60.268538754726251 -264.45219835639966 0 -264.45219835639966 41.522177557899035 0 0 0 0 -75.25062344602884 272.91299073663322 0 272.91299073663322 261.05005850694715 0 0 0 0 1.2577110632947175 3.0935306706870129 0 3.0935306706870129 10.169527346490799 0 0 0 0 -72.146198329527579 30.570409840600632 0 30.570409840600632 70.530892064332875 0 0 0 0 106.34415422844177 -4.4645549216056679 0 -4.4645549216056679 -41.184789066031954 0 0 0 0 174.26741821128053 17.976866089105897 0 17.976866089105897 -23.987076760216496 0 0 0 0 -223.46592476456863 70.082860959921391 0 70.082860959921391 61.109243846607569 0 0 0 0 0.024080939338953833 3.2397679655546003 0 3.2397679655546003 9.9144916565474333 0 0 0 0 39.410262621770016 84.092687091002517 0 84.092687091002517 0.53816612809532671 0 0 0 0 4.1330850238109633 -5.3689525825229794 0 -5.3689525825229794 -78.130525163516722 0 0 0 0 63.967498915662873 81.350408008125669 0 81.350408008125669 -23.167938726965076 0 0 0 0 127.69971167332733 52.023148168893385 0 52.023148168893385 -82.696558537263627 0 0 0 0 0.35338099739184514 2.0829062725832852 0 2.0829062725832852 7.8188925110183121 0 0 0 0 2.3076422227150424 3.3733308639596729 0 3.3733308639596729 5.3985700196103288 0 0 0 0 53.137683171473327 -8.7993062787772942 0 -8.7993062787772942 -77.902552183612215 0 0 0 0 -40.84488609359687 3.6694316606117354 0 3.6694316606117354 45.845608583615103 0 0 0 0 100.6052831562647 -98.7212640844009 0 -98.7212640844009 36.884035708376359 0 0 0 0 -176.37809076211192 41.331210300032353 0 41.331210300032353 85.538546114406927 0 0 0 0 196.46086018438564 14.590335123823024 0 14.590335123823024 151.44149715649837 0 0 0 0 289.19609989838136 -162.66460354735864 0 -162.66460354735864 -66.313139490868707 0 0 0 0 240.72873077615714 -250.05313355975068 0 -250.05313355975068 231.38003672854393 0 0 0 0 201.7093713165923 -200.35444720918167 0 -200.35444720918167 232.34979664029379 0 0 0 0 321.31105061600283 -318.45186614041359 0 -318.45186614041359 165.24882630225511 0 0 0 0 210.46269849624969 -346.86259439829337 0 -346.86259439829337 386.26030678309689 0 0 0 0 253.76182095534205 -386.89871613437572 0 -386.89871613437572 310.64422018988262 0 0 0 0 214.8849346428924 -161.91048615717045 0 -161.91048615717045 481.39646454340254 0 0 0 0 195.2727181064547 -330.55109606494079 0 -330.55109606494079 457.63874653533276 0 0 0 0 29.24498122264049 67.439365446814463 0 67.439365446814463 339.92611481373024 0 0 0 0 1.7616960000784587 2.6469167459935257 0 2.6469167459935257 0.74147838076183348 0 0 0 0 0.012816534046592665 0.22238757621875038 0 0.22238757621875038 3.1116058102982578 0 0 0 0 375.90884640863806 24.03847698122263 0 24.03847698122263 -11.042629326522729 0 0 0 0 21.481883342427864 -14.894595741519879 0 -14.894595741519879 350.13067934119681 0 0 0 0 -53.331488530877323 44.76693053217241 0 44.76693053217241 505.3694505652511 0 0 0 0 227.34051864663525 -131.65542339565854 0 -131.65542339565854 533.56184975276483 0 0 0 0 -22.359653177882137 326.01009597638858 0 326.01009597638858 134.52522039027644 0 0 0 0 105.68971415044598 -215.95277237975779 0 -215.95277237975779 88.887801498236513 0 0 0 0 421.26984558569711 16.015700664802665 0 16.015700664802665 -40.755919213710733 0 0 0 0 -70.318023664363864 -53.738479499473215 0 -53.738479499473215 -48.495315376312647 0 0 0 0 -345.48565590342696 219.59672028337127 0 219.59672028337127 204.58855105374096 0 0 0 0 2.5522652378899444 8.8140897395346194 0 8.8140897395346194 30.037320389411754 0 0 0 0 663.55574535344567 -6.9986482901199452 0 -6.9986482901199452 -142.10438728879933 0 0 0 0 19.257266283580975 3.4515689157506131 0 3.4515689157506131 -150.79907911069813 0 0 0 0 569.99972904446986 -181.14625165574603 0 -181.14625165574603 134.41196411062919 0 0 0 0 474.17844961023854 -52.79609670338202 0 -52.79609670338202 -74.26501935421436 0 0 0 0 474.84686868249628 -46.644268735979495 0 -46.644268735979495 -38.752492994603188 0 0 0 0 443.50171961914566 -84.212713381598391 0 -84.212713381598391 -76.896951042641319 0 0 0 0 497.5471658756851 -90.013677949136849 0 -90.013677949136849 -158.64242405125782 0 0 0 0 401.44056822634593 193.33280912591306 0 193.33280912591306 -183.31022414743455 0 0 0 0 541.52297736891524 -32.536792070552991 0 -32.536792070552991 -87.108774457323079 0 0 0 0 24.924110403763734 71.981488006502616 0 71.981488006502616 31.105423725243725 0 0 0 0 296.65269341041494 45.871687471758946 0 45.871687471758946 26.61611367473148 0 0 0 0 326.20958318226985 1.8471866227262979 0 1.8471866227262979 91.888343125615847 0 0 0 0 335.85975433760723 21.873806289461754 0 21.873806289461754 119.39609824280581 0 0 0 0 17.884459028606052 -6.2654007405227645 0 -6.2654007405227645 1.0093977235446123 0 0 0 0 157.72395240701462 -130.85047345417058 0 -130.85047345417058 -434.33652427658399 0 0 0 0 -84.599030072021378 84.781661213852715 0 84.781661213852715 128.91593360312112 0 0 0 0 521.79779772401275 -30.985577538755624 0 -30.985577538755624 285.77412345661435 0 0 0 0 283.07648340397645 -167.1877265880014 0 -167.1877265880014 227.16649867072843 0 0 0 0 45.918820845180107 44.609196245775422 0 44.609196245775422 292.05155080975646 0 0 0 0 236.60769816673201 -82.652307011007963 0 -82.652307011007963 312.34256493670568 0 0 0 0 336.87234634311062 -66.687484716138925 0 -66.687484716138925 266.61685086486398 0 0 0 0 353.23798617138436 -198.63035326426655 0 -198.63035326426655 457.98894567548996 0 0 0 0 308.2377932873369 32.084695004142645 0 32.084695004142645 186.70528444825158 0 0 0 0 248.60627077731988 64.548860346554761 0 64.548860346554761 170.29002521477918 0 0 0 0 232.35820451703694 107.56550856488127 0 107.56550856488127 71.093200326771978 0 0 0 0 195.16259035259191 -31.352303473351895 0 -31.352303473351895 267.29383522753074 0 0 0 0 248.0475353183956 -1.7769803180319741 0 -1.7769803180319741 169.55603584194921 0 0 0 0 322.55156756035649 10.165640550131627 0 10.165640550131627 111.97708507541347 0 0 0 0 318.69260344358099 -53.635325125880172 0 -53.635325125880172 141.39088219805149 0 0 0 0 266.04831493124766 -165.83806630247909 0 -165.83806630247909 191.72375332333309 0 0 0 0 313.719762303881 -129.05293493333369 0 -129.05293493333369 125.47671242808883 0 0 0 0 197.43967393281309 -124.42259505806317 0 -124.42259505806317 251.36063498910636 0 0 0 0 247.80475095438032 -190.24376931007276 0 -190.24376931007276 127.93406715045558 0 0 0 0 310.21776000929458 -231.50581108922404 0 -231.50581108922404 156.5052231995835 0 0 0 0 243.96919054146929 -177.06947979842425 0 -177.06947979842425 188.853157201226 0 0 0 0 508.73957304833539 -205.75288209966175 0 -205.75288209966175 376.03293509227433 0 0 0 0 235.44802233345399 -71.263569663469852 0 -71.263569663469852 315.78893497502645 0 0 0 0 113.61249795049662 -170.94380778523544 0 -170.94380778523544 285.93491546272634 0 0 0 0 553.95729499734171 -250.07930148930583 0 -250.07930148930583 66.478513898780648 0 0 0 0 1.2511571699998356 0.53005518585785616 0 0.53005518585785616 1.0486501886836206 0 0 0 0 345.3637400183452 -250.90180011656977 0 -250.90180011656977 387.5487255678795 0 0 0 0 552.69332617892906 -224.39396279018609 0 -224.39396279018609 52.4608641577546 0 0 0 0 928.2141094078379 -322.5061458404075 0 -322.5061458404075 -360.66773558042826 0 0 0 0 395.61379316351872 -411.08117559776537 0 -411.08117559776537 -84.713978565296884 0 0 0 0 799.00067504324397 108.37172998246479 0 108.37172998246479 -75.573571003756797 0 0 0 0 262.19142927034045 -93.15559476642801 0 -93.15559476642801 -5.0935354022814749 0 0 0 0 4.5612792004075331 1.2098681229746298 0 1.2098681229746298 -0.037836748932432496 0 0 0 0 1188.3028896638061 290.2299220163145 0 290.2299220163145 668.93473822850262 0 0 0 0 172.49970773094947 221.61036947949256 0 221.61036947949256 -89.074695261414149 0 0 0 0 10.985990697132245 4.144296095567241 0 4.144296095567241 1.2145360081577845 0 0 0 0 -152.4793131018605 472.4641027270813 0 472.4641027270813 236.19562137015944 0 0 0 0 859.99192945467803 -320.81868901774669 0 -320.81868901774669 -277.04226568947706 0 0 0 0 354.05565222061523 -526.12501894057641 0 -526.12501894057641 -234.33921818865372 0 0 0 0 508.81150404536129 -131.1694092838834 0 -131.1694092838834 159.25070493126191 0 0 0 0 222.98499639201918 -289.46695382272253 0 -289.46695382272253 196.67604265597879 0 0 0 0 247.48464551249276 -33.723841933741454 0 -33.723841933741454 108.8530113291298 0 0 0 0 57.860780934797731 -52.262509701915405 0 -52.262509701915405 155.59722131361588 0 0 0 0 2.4359061913333484 1.7762676520058349 0 1.7762676520058349 1.7539494693198137 0 0 0 0 -67.413195569977233 -17.903910889843303 0 -17.903910889843303 116.91040668739129 0 0 0 0 2.8751157657290616 1.5874503577173282 0 1.5874503577173282 0.70171072951574143 0 0 0 0 98.003780912516959 -179.15450322678669 0 -179.15450322678669 -41.015289348129699 0 0 0 0 453.62136321925755 98.848054250967948 0 98.848054250967948 85.205125150653657 0 0 0 0 301.62021825558622 199.01598582395854 0 199.01598582395854 -114.15629036696578 0 0 0 0 4.2781221450214311 0.77546446919620671 0 0.77546446919620671 -0.56910277723532632 0 0 0 0 524.64558318566651 -417.28298386488837 0 -417.28298386488837 193.47168691657453 0 0 0 0 109.43328068165101 -234.47390964314036 0 -234.47390964314036 92.739265204326784 0 0 0 0 29.294172686008096 -81.370382343189533 0 -81.370382343189533 120.11722089333807 0 0 0 0 591.74801650040899 -184.04338231161 0 -184.04338231161 102.73739908704516 0 0 0 0 205.54905052053527 -347.7346473701723 0 -347.7346473701723 451.57426393831702 0 0 0 0 474.84100471099009 -49.348248828553778 0 -49.348248828553778 -15.655123574330048 0 0 0 0 467.68397805928907 83.642186455116757 0 83.642186455116757 277.11606294012108 0 0 0 0 385.28168529793038 -177.6307159569651 0 -177.6307159569651 138.38456539790786 0 0 0 0 383.47352004239292 -230.78238811396568 0 -230.78238811396568 427.33384177420203 0 0 0 0 334.93433224662294 87.247458996863656 0 87.247458996863656 -6.1851150986169614 0 0 0 0 31.977644105409126 -126.09367806155296 0 -126.09367806155296 590.4794350330003 0 0 0 0 3.8267313746708389 -1.2815956039355043 0 -1.2815956039355043 0.69194625689718903 0 0 0 0 611.82696300402858 -221.07775894646215 0 -221.07775894646215 33.228594707089997 0 0 0 0 58.401259117552627 67.682424519500444 0 67.682424519500444 37.255466346228559 0 0 0 0 273.03842389961255 -85.78147523655025 0 -85.78147523655025 15.370675385366212 0 0 0 0 347.56955868520708 -45.582773302814303 0 -45.582773302814303 -6.9580117787737663 0 0 0 0 242.08504780792259 41.755097056749094 0 41.755097056749094 -30.996506014431361 0 0 0 0 262.20409890447991 -31.605676384050639 0 -31.605676384050639 0.55575386329428511 0 0 0 0 325.58213834421258 -116.86882913870886 0 -116.86882913870886 -23.396396263558955 0 0 0 0 443.53050420105865 -135.04412740961232 0 -135.04412740961232 -4.663276013332279 0 0 0 0 355.1977832017219 -67.334286963567479 0 -67.334286963567479 44.758285508489735 0 0 0 0 369.17445301147018 -189.21830356642613 0 -189.21830356642613 138.04123582044321 0 0 0 0 -29.118069897770965 32.834274733897018 0 32.834274733897018 18.281096168251679 0 0 0 0 2.2587722177609066 0.09945009202442634 0 0.09945009202442634 14.630962530154193 0 0 0 0 2.616388048452392 3.1628713582890988 0 3.1628713582890988 8.0310641291279623 0 0 0 0 -0.25902182999947598 -0.20894784303632008 0 -0.20894784303632008 14.759076699463694 0 0 0 0 9.9797027544500452 0.87123820143438024 0 0.87123820143438024 4.0729906256733557 0 0 0 0 2.4607508580741602 -0.12796449071357152 0 -0.12796449071357152 0.36850399745421791 0 0 0 0 3.880221177914791 -2.934978226523242 0 -2.934978226523242 2.9512391365315125 0 0 0 0 3.1940192287288269 -0.37123341628781503 0 -0.37123341628781503 5.3158244210571581 0 0 0 0 2.113023126061341 -2.5263656197965112 0 -2.5263656197965112 3.2962222015297611 0 0 0 0 -58.424911884643734 -29.936658828345116 0 -29.936658828345116 53.500526885263412 0 0 0 0 -78.437962184097614 -16.341784714107007 0 -16.341784714107007 125.42287347566162 0 0 0 0 1.0239766372360464 -33.229319661915724 0 -33.229319661915724 105.91665747460002 0 0 0 0 0.91034763667974472 -0.52735227737541912 0 -0.52735227737541912 -0.21439093225724193 0 0 0 0 43.758182538430447 6.0238496482727442 0 6.0238496482727442 135.95477291142561 0 0 0 0 52.170066060758472 -75.754508247592639 0 -75.754508247592639 94.95340090625723 0 0 0 0 3.8944561494285814 -1.8277925156737518 0 -1.8277925156737518 3.1227640067175622 0 0 0 0 52.653325585299172 -23.208310545565837 0 -23.208310545565837 0.47235169336158833 0 0 0 0 6.5783065551977415 -2.827502921405312 0 -2.827502921405312 10.035115771866913 0 0 0 0 4.1744624507748505 -1.4388591949279128 0 -1.4388591949279128 5.2760357302218672 0 0 0 0 8.6563675926154247 -2.3403771866917396 0 -2.3403771866917396 1.131505932381117 0 0 0 0 2.1427355375047323 0.45093237059211155 0 0.45093237059211155 0.83794915778979018 0 0 0 0 49.573645728039992 -65.828864168912105 0 -65.828864168912105 126.28923924508672 0 0 0 0 1.4680877477564955 1.3677635032179793 0 1.3677635032179793 8.2432511189524629 0 0 0 0 3.1853385184044782 16.717287580537572 0 16.717287580537572 17.756168470978992 0 0 0 0 124.00350571396666 -115.52387195435631 0 -115.52387195435631 74.787046382782592 0 0 0 0 180.99439163882016 -142.36212073542697 0 -142.36212073542697 87.359795405622663 0 0 0 0 -51.336774032184621 -43.24898981179058 0 -43.24898981179058 377.40142354973432 0 0 0 0 53.263690224695893 -224.81564633545395 0 -224.81564633545395 343.52452494155079 0 0 0 0 25.272315030673781 -136.354935768426 0 -136.354935768426 178.94099038118156 0 0 0 0 -6.0149556421947636 -66.498132235363983 0 -66.498132235363983 241.76656413481942 0 0 0 0 73.057031162584281 -153.78726624098147 0 -153.78726624098147 123.53862479980853 0 0 0 0 85.996076147268468 -187.66905402610814 0 -187.66905402610814 206.2036747625873 0 0 0 0 151.94635834718974 -225.16804070087653 0 -225.16804070087653 208.06581334017392 0 0 0 0 98.329964211361585 -183.68229049387037 0 -183.68229049387037 177.25344562287046 0 0 0 0 138.6323434707283 -220.90790094986403 0 -220.90790094986403 43.390312558185087 0 0 0 0 102.92450810317405 -220.85059173326624 0 -220.85059173326624 159.72024666323432 0 0 0 0 128.65190219175747 -194.13205836723068 0 -194.13205836723068 90.780150861794709 0 0 0 0 129.80368834699266 -185.96813250595469 0 -185.96813250595469 135.51306436382492 0 0 0 0 202.14708184363894 -183.59710333910488 0 -183.59710333910488 114.34674234063027 0 0 0 0 76.927816259920291 -39.769515263294124 0 -39.769515263294124 -30.190640450885439 0 0 0 0 0.67910438005782048 0.33219212880281823 0 0.33219212880281823 0.034167826443754379 0 0 0 0 132.2627235787877 -182.87490061692529 0 -182.87490061692529 137.82014708739621 0 0 0 0 183.73700785411529 -180.8591553073627 0 -180.8591553073627 86.171945030390248 0 0 0 0 210.42068379502962 -129.81972260748444 0 -129.81972260748444 151.32285816712556 0 0 0 0 -175.20923182575007 37.081580718815417 0 37.081580718815417 13.644434808514234 0 0 0 0 70.020963397288142 -88.321028876081527 0 -88.321028876081527 170.60959283976172 0 0 0 0 0.092602031650968364 1.1214723041749455 0 1.1214723041749455 5.0651710170891988 0 0 0 0 -165.62850198473689 54.305972338060883 0 54.305972338060883 39.912969009151311 0 0 0 0 -144.14165728175749 33.57198360230575 0 33.57198360230575 -7.8271061115638076 0 0 0 0 -163.71153123121849 11.508168713252758 0 11.508168713252758 -25.859340174536555 0 0 0 0 -90.511818435081011 -183.42976773548105 0 -183.42976773548105 285.46109343912576 0 0 0 0 -175.30541809488341 21.526134652039218 0 21.526134652039218 54.22032221192967 0 0 0 0 57.563154626425785 -30.894037902720811 0 -30.894037902720811 -36.585903587409348 0 0 0 0 -76.512109136330764 -18.006841133365469 0 -18.006841133365469 23.091783365434367 0 0 0 0 -136.29741786912928 -60.620856691836252 0 -60.620856691836252 145.59129190588101 0 0 0 0 -95.793828075653437 2.1225270673500063 0 2.1225270673500063 8.5917816584524189 0 0 0 0 148.96948842271107 151.27651207192048 0 151.27651207192048 -134.86112984200963 0 0 0 0 462.3771298285036 29.77269396779684 0 29.77269396779684 -143.15396006748915 0 0 0 0 565.48678757255607 -119.47555926850373 0 -119.47555926850373 -21.687494618892288 0 0 0 0 354.77093852130338 -82.851301325787063 0 -82.851301325787063 -18.71244213129512 0 0 0 0 260.97905148792495 -84.663281520895453 0 -84.663281520895453 -6.1791757954506465 0 0 0 0 503.75477622124458 -95.739353374220173 0 -95.739353374220173 125.36760687678361 0 0 0 0 498.59180503538352 -235.26848740218352 0 -235.26848740218352 101.5294526475036 0 0 0 0 2.5131120797874757 -2.4615905967148919 0 -2.4615905967148919 0.47212278667875696 0 0 0 0 473.87930327633001 17.142705189940202 0 17.142705189940202 -159.24707814051999 0 0 0 0 317.40852228866061 -325.17261204629585 0 -325.17261204629585 242.93338479938507 0 0 0 0 -22.23228424136687 -59.517467856079747 0 -59.517467856079747 -56.490889841350963 0 0 0 0 64.49125095677573 -32.65773799908311 0 -32.65773799908311 -7.0565834348371936 0 0 0 0 6.0606089240543497 -3.4522520819338407 0 -3.4522520819338407 2.7750870488204451 0 0 0 0 38.185694005531786 -126.08901908098096 0 -126.08901908098096 16.858640788982939 0 0 0 0 95.124042908917943 -139.437370302364 0 -139.437370302364 153.90352091149998 0 0 0 0 117.13358739642672 -15.587354057769062 0 -15.587354057769062 -14.282552003946876 0 0 0 0 77.279455201399287 -45.386282720556665 0 -45.386282720556665 106.79692011307452 0 0 0 0 282.00684416322201 -121.26085630098305 0 -121.26085630098305 32.731667908062263 0 0 0 0 138.88878173692683 -76.975986545810315 0 -76.975986545810315 109.86538184314122 0 0 0 0 238.71922929013954 -233.608631796861 0 -233.608631796861 164.93123837636085 0 0 0 0 333.42187267824374 -220.00284925950655 0 -220.00284925950655 158.12951353842891 0 0 0 0 340.6462080786996 -262.21898926119775 0 -262.21898926119775 122.43177457829097 0 0 0 0 391.64340686677633 -151.72341478769567 0 -151.72341478769567 107.66075069917997 0 0 0 0 114.64088884023894 49.725724664602367 0 49.725724664602367 -32.254861362118113 0 0 0 0 335.50430523304613 -222.37494287345726 0 -222.37494287345726 149.90772247150994 0 0 0 0 395.87083121428668 -184.58576011010246 0 -184.58576011010246 156.99873836644019 0 0 0 0 -100.60047657827454 256.90790206456688 0 256.90790206456688 -142.21529427894473 0 0 0 0 31.499146475172893 31.417952754665066 0 31.417952754665066 5.2070556863031925 0 0 0 0 -74.967063107269496 166.77055375209841 0 166.77055375209841 -42.926921781468081 0 0 0 0 -89.846010124609165 75.011804685206471 0 75.011804685206471 55.335227278028015 0 0 0 0 142.48295236808917 -83.049311206478706 0 -83.049311206478706 315.13220664618348 0 0 0 0 99.005602455181815 45.724868978288164 0 45.724868978288164 -40.837353733966225 0 0 0 0 31.187212894056646 0.32085369053963131 0 0.32085369053963131 -5.8723332695606807 0 0 0 0 596.84483184335113 -103.09563457509103 0 -103.09563457509103 38.187233147300958 0 0 0 0 340.18885115595913 -310.05464566236697 0 -310.05464566236697 235.20436508763805 0 0 0 0 210.09968055933132 -161.13547850832038 0 -161.13547850832038 202.42510695257215 0 0 0 0 224.26108828294309 -226.47359016425071 0 -226.47359016425071 316.35898708709101 0 0 0 0 432.62667172246984 -418.72520000417717 0 -418.72520000417717 341.1661431925022 0 0 0 0 484.665060077627 -41.262540865051506 0 -41.262540865051506 223.99531312410181 0 0 0 0 338.99658337219989 -170.58175607847261 0 -170.58175607847261 109.31576255647997 0 0 0 0 235.17144900048152 -288.4158108377851 0 -288.4158108377851 583.39695271246455 0 0 0 0 361.58896015648133 -292.98544472131198 0 -292.98544472131198 217.71651091880267 0 0 0 0 891.75207609286008 203.66565888202939 0 203.66565888202939 -6.6552213656033814 0 0 0 0 -96.605145542393075 -158.66307683913806 0 -158.66307683913806 -90.031164895121037 0 0 0 0 5.5882400110918979 -8.1077634702442367 0 -8.1077634702442367 8.7596905991146521 0 0 0 0 14.266225599458267 -80.231667141376988 0 -80.231667141376988 -63.326358457397646 0 0 0 0 17.244045272294898 -56.028483284507956 0 -56.028483284507956 -68.13834323620398 0 0 0 0 10.428127024056849 -13.88698526556577 0 -13.88698526556577 15.794859559839862 0 0 0 0 538.54808188581228 33.823401240991529 0 33.823401240991529 167.31269079620688 0 0 0 0 649.48575308636282 150.64114424481602 0 150.64114424481602 -18.144866096522037 0 0 0 0 790.17112586066651 -31.577977616994986 0 -31.577977616994986 181.77918778460071 0 0 0 0 727.71219991041289 380.12099203083494 0 380.12099203083494 205.82205369645612 0 0 0 0 162.89462732724496 5.7499117481371513 0 5.7499117481371513 -34.163194025023358 0 0 0 0 214.90973297199889 172.44222212174225 0 172.44222212174225 198.42577294858097 0 0 0 0 -102.34756495586475 76.599934905676179 0 76.599934905676179 182.70103112421737 0 0 0 0 821.6219059848554 85.372497885887412 0 85.372497885887412 -48.649790081376466 0 0 0 0 1477.7342184339905 344.66515235499747 0 344.66515235499747 -207.36392032705453 0 0 0 0 2.1724137340904335 -2.23597533035651 0 -2.23597533035651 2.6803080204682672 0 0 0 0 461.88078968720583 193.3478209208283 0 193.3478209208283 165.9423567415547 0 0 0 0 386.14998848127289 -24.552434036265055 0 -24.552434036265055 -219.73250205387819 0 0 0 0 -39.386563339590793 550.78922921069125 0 550.78922921069125 -123.34430834183398 0 0 0 0 121.71590649122244 56.372959303114783 0 56.372959303114783 -29.29460913212553 0 0 0 0 221.83777178428136 -266.87185801070564 0 -266.87185801070564 123.13656612154 0 0 0 0 -295.06873579350395 -271.18735098564139 0 -271.18735098564139 -112.98915446340948 0 0 0 0 191.65852211268066 -133.2512009304221 0 -133.2512009304221 -158.85668967466194 0 0 0 0 39.439628355597961 -74.927543696618557 0 -74.927543696618557 -103.95906267180123 0 0 0 0 41.182185274452422 -85.657252016509887 0 -85.657252016509887 -62.218711345220299 0 0 0 0 234.19165940234598 -51.321248333970971 0 -51.321248333970971 -50.01456097016785 0 0 0 0 168.69518835549752 -23.705376401970057 0 -23.705376401970057 -56.680756594064405 0 0 0 0 87.357637965955291 -43.977749450166584 0 -43.977749450166584 -57.678257786602899 0 0 0 0 311.58633719680802 -80.95128198366865 0 -80.95128198366865 -143.16757415798384 0 0 0 0 313.87799054646757 -139.2656277701517 0 -139.2656277701517 213.85472079592819 0 0 0 0 327.97950929664933 -152.13639855616202 0 -152.13639855616202 134.92316154582295 0 0 0 0 421.23281615556516 216.41524868854427 0 216.41524868854427 -383.01369776601541 0 0 0 0 126.35017954676088 58.040532780643858 0 58.040532780643858 -30.335870562829548 0 0 0 0 339.50520887665198 -128.39281754736294 0 -128.39281754736294 131.22461942284349 0 0 0 0 361.84558196066217 -172.00903890081355 0 -172.00903890081355 7.4637570823006172 0 0 0 0 389.32389611334645 -132.41119609914719 0 -132.41119609914719 -55.616837150424089 0 0 0 0 64.337509588148691 -71.950640674902047 0 -71.950640674902047 9.9554264987277747 0 0 0 0 299.40214660698712 -122.35573693104698 0 -122.35573693104698 13.774451578195482 0 0 0 0 329.92603968054414 -91.304588694560607 0 -91.304588694560607 -47.744566905323154 0 0 0 0 353.96720716257596 -146.37951239072493 0 -146.37951239072493 30.917367413045667 0 0 0 0 127.1199195944064 57.398662901551553 0 57.398662901551553 -31.991502384786262 0 0 0 0 392.37857040469362 -109.79299691761798 0 -109.79299691761798 -62.980398719419725 0 0 0 0 356.11861025344342 -88.546113438162138 0 -88.546113438162138 18.949228108394891 0 0 0 0 81.218379299396474 -70.669127213769571 0 -70.669127213769571 51.878684476969283 0 0 0 0 323.81355191695093 21.261036346375931 0 21.261036346375931 -65.814063120694584 0 0 0 0 126.45049885897878 58.076514284322073 0 58.076514284322073 -32.100932735691416 0 0 0 0 57.499985079368344 -213.23446993653351 0 -213.23446993653351 -36.099970708723049 0 0 0 0 321.71023641216016 -67.807719371477106 0 -67.807719371477106 -14.20509755015155 0 0 0 0 122.57940797050105 -45.128992720094175 0 -45.128992720094175 61.871839442227383 0 0 0 0 137.70198691685437 -38.638188585364787 0 -38.638188585364787 -10.912344883127844 0 0 0 0 150.11017877333506 52.91374141390429 0 52.91374141390429 -9.7077896004102513 0 0 0 0 199.32820152203203 13.052928012570192 0 13.052928012570192 -38.5593644972937 0 0 0 0 181.23031285925754 55.016044788099407 0 55.016044788099407 -10.564388429183055 0 0 0 0 212.22387672976038 60.611344625356196 0 60.611344625356196 -49.417761703200085 0 0 0 0 123.22141553932306 106.38299690240638 0 106.38299690240638 75.887879983522794 0 0 0 0 62.130060583847808 41.234483435999437 0 41.234483435999437 16.555383537304806 0 0 0 0 67.299405806468712 35.672013167921477 0 35.672013167921477 18.822114791919375 0 0 0 0 53.65642569927877 29.354116955591962 0 29.354116955591962 18.210472092352575 0 0 0 0 79.726159251382342 36.952770666993956 0 36.952770666993956 0.3244428955767944 0 0 0 0 74.094954089981911 34.262892233332877 0 34.262892233332877 17.48186086871101 0 0 0 0 82.899713888225961 31.324143292610188 0 31.324143292610188 -6.0601772964969314 0 0 0 0 132.61981581219152 39.78478282659853 0 39.78478282659853 -19.557560049106996 0 0 0 0 95.519426492057391 59.234700192680066 0 59.234700192680066 20.91931981751793 0 0 0 0 122.60935024076025 49.104499395837138 0 49.104499395837138 -23.980678961934927 0 0 0 0 112.91722191186818 26.203797708214495 0 26.203797708214495 -44.854160800276077 0 0 0 0 92.59193580813735 20.165735461202075 0 20.165735461202075 -22.386673349954435 0 0 0 0 109.37496785251278 32.970699113601313 0 32.970699113601313 -12.771826072012345 0 0 0 0 98.52508589001809 12.391173742184264 0 12.391173742184264 -18.376900886846329 0 0 0 0 115.44237301413887 14.493388341934406 0 14.493388341934406 -36.205446394176306 0 0 0 0 106.15180370855887 8.9684201329663438 0 8.9684201329663438 -35.944795686900306 0 0 0 0 129.96410902426578 6.0997793752753751 0 6.0997793752753751 -80.545532871623891 0 0 0 0 45.1982144925787 -23.40485318198921 0 -23.40485318198921 -33.478193077315495 0 0 0 0 1.0390230275224894 -75.142638317481897 0 -75.142638317481897 -62.121970121332538 0 0 0 0 -0.68251125373399191 1.1918224069393233 0 1.1918224069393233 0.17241938378672295 0 0 0 0 231.04183600223405 77.59329098261162 0 77.59329098261162 -41.379455747919906 0 0 0 0 122.15993388662901 16.652395848580682 0 16.652395848580682 12.442544906281 0 0 0 0 151.75001311111191 21.467612982462242 0 21.467612982462242 -82.26215796777069 0 0 0 0 83.879865110240644 -48.934495786803836 0 -48.934495786803836 -114.08550952445648 0 0 0 0 136.12139633042534 -3.0087906549615582 0 -3.0087906549615582 -42.112449192831264 0 0 0 0 265.61815717673016 -4.4084826995722324 0 -4.4084826995722324 -14.290985733053049 0 0 0 0 286.12055862479519 -16.358107178817704 0 -16.358107178817704 -9.9398681780576226 0 0 0 0 419.03531900447524 -39.99237439426247 0 -39.99237439426247 -50.134285282961173 0 0 0 0 8.6235074657597579 -7.0899314525750015 0 -7.0899314525750015 1.8226070444179641 0 0 0 0 17.932371630253328 7.2070017119885961 0 7.2070017119885961 13.728648717316901 0 0 0 0 31.415705629988224 -1.2970348488433956 0 -1.2970348488433956 -13.080897613205707 0 0 0 0 3.9690285132591114 5.9885162853660887 0 5.9885162853660887 3.715063527905599 0 0 0 0 14.173880542468396 14.24631426793394 0 14.24631426793394 6.0925502752218108 0 0 0 0 186.32623137442533 45.414366207030184 0 45.414366207030184 12.42666288709961 0 0 0 0 2.2959789055603714 -1.1456494399500059 0 -1.1456494399500059 0.62309951073622472 0 0 0 0 59.915000715947826 24.073454433187635 0 24.073454433187635 -2.4596178883002722 0 0 0 0 34.341388499571622 6.0726997752444731 0 6.0726997752444731 7.1402654318153509 0 0 0 0 38.270856742121396 10.254755454354836 0 10.254755454354836 -5.4516093274560262 0 0 0 0 2.7021737377654524 -1.9605266257162981 0 -1.9605266257162981 2.7240018375264228 0 0 0 0 19.041027087996554 5.6681948636696688 0 5.6681948636696688 17.485758087295835 0 0 0 0 5.066128616836167 0.054404317808646852 0 0.054404317808646852 -1.597480604376134 0 0 0 0 72.646775990382594 11.7071761702191 0 11.7071761702191 6.47954009699788 0 0 0 0 52.366570552374469 15.910130143461174 0 15.910130143461174 16.870830415595265 0 0 0 0 63.361714397477044 22.023378977201446 0 22.023378977201446 3.5669610445738726 0 0 0 0 68.75120487028471 10.504489344776857 0 10.504489344776857 1.3041057032432946 0 0 0 0 68.223204686299141 14.002325547750843 0 14.002325547750843 15.897902110604491 0 0 0 0 84.019218709924644 24.915316773626159 0 24.915316773626159 0.80496220229542814 0 0 0 0 76.884563236364556 17.72123184789325 0 17.72123184789325 -5.6632942458827529 0 0 0 0 76.851163106890453 17.858601925761832 0 17.858601925761832 -6.1411581057332114 0 0 0 0 92.411276052800531 18.534948857780819 0 18.534948857780819 -9.3615237980736765 0 0 0 0 92.065637676645565 8.6124054042792295 0 8.6124054042792295 -17.903075791049559 0 0 0 0 94.796942806351581 2.8560636887152668 0 2.8560636887152668 -5.863560012718608 0 0 0 0 80.787231418158626 12.069696071782801 0 12.069696071782801 -10.438335657453536 0 0 0 0 58.574944536736439 4.0016407628836532 0 4.0016407628836532 1.4091223247432936 0 0 0 0 66.427362655216712 -3.7706201144569604 0 -3.7706201144569604 -2.9753563713252333 0 0 0 0 81.905682017091749 9.4546433169593911 0 9.4546433169593911 -4.4335532048007735 0 0 0 0 62.698683732713562 4.2116420308246632 0 4.2116420308246632 0.41087412459091865 0 0 0 0 61.716281896908185 10.863963156490172 0 10.863963156490172 -3.713069508549097 0 0 0 0 -27.120324003677524 25.461446276245852 0 25.461446276245852 22.303426402156674 0 0 0 0 1.347784888298186 2.4891696455008088 0 2.4891696455008088 0.6562316596610529 0 0 0 0 1.4746247331459017 15.325639742209091 0 15.325639742209091 2.8112289614628025 0 0 0 0 -43.668081922842248 35.027081458927114 0 35.027081458927114 89.577967476774916 0 0 0 0 2.4845369109136612 3.0009191665917498 0 3.0009191665917498 3.1701955444874113 0 0 0 0 -48.920209206822619 6.8534768675528994 0 6.8534768675528994 12.101031033143272 0 0 0 0 266.07908494302683 109.74031032216112 0 109.74031032216112 -20.301947023641333 0 0 0 0 329.08352784519229 -38.886519840541951 0 -38.886519840541951 28.631943744665023 0 0 0 0 239.03896489843464 27.831345450516892 0 27.831345450516892 -9.3038797459055331 0 0 0 0 253.26078771752509 50.043963910172579 0 50.043963910172579 20.158751143528661 0 0 0 0 -258.52964210695791 216.54761796799693 0 216.54761796799693 -3.4933533437128972 0 0 0 0 241.78476941421104 258.29327065892716 0 258.29327065892716 -2.2157050587713911 0 0 0 0 -25.516986776337944 -37.254363772882414 0 -37.254363772882414 -2.5082299563383685 0 0 0 0 -81.268988385447301 -3.8601832327296961 0 -3.8601832327296961 64.307496036274642 0 0 0 0 -75.108372619364673 -54.454565961481691 0 -54.454565961481691 -196.54939972274627 0 0 0 0 -72.086888718640694 29.326425793356918 0 29.326425793356918 16.907116132845886 0 0 0 0 1.0107258130813079 1.3377364118028652 0 1.3377364118028652 -0.39249769875465734 0 0 0 0 49.599429473415512 12.063762639204867 0 12.063762639204867 -142.64894562432221 0 0 0 0 1.2381411682683279 2.0244472319383888 0 2.0244472319383888 1.0866716136536203 0 0 0 0 104.93687099963063 -16.757100178728251 0 -16.757100178728251 0.48204654203098585 0 0 0 0 95.828523770858737 1.4577939875135826 0 1.4577939875135826 -9.7488042223944831 0 0 0 0 6.778240228031791 -13.792306736962416 0 -13.792306736962416 13.064674773906177 0 0 0 0 95.215229538622225 -1.7997850550095791 0 -1.7997850550095791 -14.073734718981996 0 0 0 0 94.522422562244174 -2.264607994087271 0 -2.264607994087271 -1.8008653220371116 0 0 0 0 109.16870415394078 0.25493254564574386 0 0.25493254564574386 -49.823130494257725 0 0 0 0 139.82403469242126 -38.887170844735749 0 -38.887170844735749 -5.2466961542389612 0 0 0 0 74.122210740759328 14.490646197285741 0 14.490646197285741 -54.720514719850655 0 0 0 0 71.812301931939146 -4.6764680480288234 0 -4.6764680480288234 -80.475321236949185 0 0 0 0 95.302295178044005 5.8727853821857252 0 5.8727853821857252 -83.569901683237276 0 0 0 0 77.871261771368154 4.3433882995670103 0 4.3433882995670103 -83.321346225282014 0 0 0 0 83.078683133731829 19.133671817598952 0 19.133671817598952 -103.49835798622144 0 0 0 0 65.806202981169918 11.252888924175295 0 11.252888924175295 -106.00248078304594 0 0 0 0 44.637088435891201 36.981799127497652 0 36.981799127497652 -108.31863347350031 0 0 0 0 65.60987869694668 18.887310203575531 0 18.887310203575531 -95.425795138873582 0 0 0 0 71.939374965295428 24.571178199942949 0 24.571178199942949 -103.51990290836557 0 0 0 0 56.785710084295715 16.764068553055495 0 16.764068553055495 -106.23831762479131 0 0 0 0 18.849770019234711 87.962826059031244 0 87.962826059031244 -123.95769693708394 0 0 0 0 -1.5917427664210209 -14.629708883920173 0 -14.629708883920173 -10.945946938231486 0 0 0 0 -24.270238241922925 92.451465616049063 0 92.451465616049063 -102.75965045621342 0 0 0 0 -21.09248189094933 -30.645624687174191 0 -30.645624687174191 -107.89077061012904 0 0 0 0 80.858184601866469 60.446726437321722 0 60.446726437321722 -132.75279565274059 0 0 0 0 -77.360705175517069 45.620801585609684 0 45.620801585609684 -75.008521593769956 0 0 0 0 -4.894792277710792 -3.0560536941177219 0 -3.0560536941177219 -3.4217120773326966 0 0 0 0 -525.98982040306146 128.49315377350445 0 128.49315377350445 147.86550982433846 0 0 0 0 -88.561226557263581 158.04616568837776 0 158.04616568837776 -195.31847283608448 0 0 0 0 -204.84625458705705 -119.15383334986768 0 -119.15383334986768 153.78547585161454 0 0 0 0 -44.959837582884575 -161.28497535773818 0 -161.28497535773818 -132.11118827570931 0 0 0 0 770.43084733925389 -609.31249356613012 0 -609.31249356613012 -916.57488644464729 0 0 0 0 -157.36194406170762 -156.06486221583123 0 -156.06486221583123 -188.83886716443521 0 0 0 0 -413.57371462642914 -193.67015004634857 0 -193.67015004634857 909.53598561945194 0 0 0 0 114.76982616904206 -7.9828617721999251 0 -7.9828617721999251 -20.834423350797806 0 0 0 0 -0.5111559802011314 1.1391155444126042 0 1.1391155444126042 -0.57559798043201904 0 0 0 0 141.96313145549357 -20.558092638315429 0 -20.558092638315429 -73.745101846217139 0 0 0 0 96.460087460429349 -0.26988017230337391 0 -0.26988017230337391 -23.985072453438022 0 0 0 0 93.481546108108887 -15.105850548031412 0 -15.105850548031412 -17.797936936644874 0 0 0 0 94.879298546286009 -7.877220555775807 0 -7.877220555775807 -33.272761249343475 0 0 0 0 95.714155925554223 -3.4185797727498652 0 -3.4185797727498652 -10.4395738261735 0 0 0 0 89.685953648637224 -16.678554974556334 0 -16.678554974556334 -6.5835409490441776 0 0 0 0 93.877044329346973 -13.785677439210474 0 -13.785677439210474 -35.346839254625706 0 0 0 0 95.742739070665266 -7.2413176653403752 0 -7.2413176653403752 -16.345892471743909 0 0 0 0 94.690354346555978 -9.0027034973522859 0 -9.0027034973522859 -4.9767350329083229 0 0 0 0 104.92789301738958 20.827231776540202 0 20.827231776540202 -80.793388955720502 0 0 0 0 86.113386085191451 -4.2601541700289545 0 -4.2601541700289545 -32.011054267002862 0 0 0 0 95.957429566746214 -3.6194750751197944 0 -3.6194750751197944 -107.03555534114321 0 0 0 0 68.231339662801474 6.6631084788259614 0 6.6631084788259614 -110.84565287739451 0 0 0 0 116.00996490110992 -25.705391691949131 0 -25.705391691949131 -114.52030937974814 0 0 0 0 63.215213923453121 -44.418842053021308 0 -44.418842053021308 -114.44416940465274 0 0 0 0 58.646888454524742 -41.75028670375832 0 -41.75028670375832 -140.37471355005596 0 0 0 0 -27.638810293525239 -125.54476312655032 0 -125.54476312655032 -109.38107406006702 0 0 0 0 190.9603536679424 51.625326240143977 0 51.625326240143977 -39.163083687343772 0 0 0 0 -0.66350806548351926 1.0483989309279025 0 1.0483989309279025 0.12785857575103066 0 0 0 0 14.143448943978001 -80.343655793618836 0 -80.343655793618836 -61.942117505029273 0 0 0 0 17.852078951371368 -40.263438718750194 0 -40.263438718750194 -32.714430525697026 0 0 0 0 36.038293332459773 -13.595556261147388 0 -13.595556261147388 1.2766020819435211 0 0 0 0 47.644325426779687 15.154799063689097 0 15.154799063689097 -60.225650246673695 0 0 0 0 -81.339853622404917 107.53839069891285 0 107.53839069891285 -38.663117701683859 0 0 0 0 46.537027087426395 27.674638053522131 0 27.674638053522131 -42.788822557371532 0 0 0 0 33.034857176287915 21.745826085853196 0 21.745826085853196 -14.920663305766539 0 0 0 0 127.89973622113757 56.618460926155421 0 56.618460926155421 -123.71843259237471 0 0 0 0 44.852451992454007 14.01995221207153 0 14.01995221207153 -144.80842836666397 0 0 0 0 64.72435808499722 -20.129104716220354 0 -20.129104716220354 -99.333701984332038 0 0 0 0 45.011826340525658 -13.974572458216169 0 -13.974572458216169 0.58830458566707056 0 0 0 0 36.304126834329509 -38.892144497448271 0 -38.892144497448271 -99.205910036715522 0 0 0 0 79.839041483064648 2.7031109976323933 0 2.7031109976323933 -118.76693520873141 0 0 0 0 30.295290065974768 -59.51143347183114 0 -59.51143347183114 -27.065273740219709 0 0 0 0 54.305930654874913 -10.891998825935524 0 -10.891998825935524 -4.359368383336407 0 0 0 0 69.200691788762924 -74.953096829886931 0 -74.953096829886931 -194.67718842210752 0 0 0 0 120.89172500737186 13.848806231367917 0 13.848806231367917 -277.07645289589038 0 0 0 0 138.05565436311008 42.349420887393535 0 42.349420887393535 -100.20652249539171 0 0 0 0 61.883739899578359 143.2833743710022 0 143.2833743710022 -184.40293759279166 0 0 0 0 -115.1505295112438 22.528083847468224 0 22.528083847468224 -47.805644888342158 0 0 0 0 93.583430241096721 62.087575363949242 0 62.087575363949242 44.002503962346964 0 0 0 0 101.35083593551826 -9.7393907001621756 0 -9.7393907001621756 -44.221540126266518 0 0 0 0 115.58832422199339 45.609716855110207 0 45.609716855110207 59.860217439457983 0 0 0 0 44.525253683248593 132.783097371243 0 132.783097371243 -16.248527341879935 0 0 0 0 151.79060271714116 46.893402786930892 0 46.893402786930892 -20.333172100884894 0 0 0 0 143.41119211527985 146.71722989891691 0 146.71722989891691 31.517315177385399 0 0 0 0 167.27252162597142 92.448543201739881 0 92.448543201739881 44.05436991390593 0 0 0 0 201.10408008580998 131.86404579168254 0 131.86404579168254 -128.267499232506 0 0 0 0 88.78571799789097 169.14030180141094 0 169.14030180141094 -134.68912826545557 0 0 0 0 116.41313255560453 67.707338355821008 0 67.707338355821008 -133.56687562024354 0 0 0 0 133.24411074958334 114.23578234248316 0 114.23578234248316 -100.41903986163265 0 0 0 0 137.36171615499916 -16.431195716325647 0 -16.431195716325647 -97.685051124592519 0 0 0 0 188.69635515762639 -60.890007496883982 0 -60.890007496883982 -98.334495982548788 0 0 0 0 151.67196831101319 -174.75504203151604 0 -174.75504203151604 38.652299998988155 0 0 0 0 43.92116204816557 -62.874043625661216 0 -62.874043625661216 -94.068982377153361 0 0 0 0 82.363536884950008 -153.52518858353233 0 -153.52518858353233 -322.88700930504729 0 0 0 0 141.34214889440773 -21.69820266924944 0 -21.69820266924944 -219.54547036703934 0 0 0 0 52.661335037304525 -4.2192763409804943 0 -4.2192763409804943 -0.28128737864514808 0 0 0 0 302.06351390749478 205.4967421875499 0 205.4967421875499 -231.45365014436402 0 0 0 0 187.93582520543714 125.67891186838824 0 125.67891186838824 -50.22233824382738 0 0 0 0 -172.59067728350783 -31.001911733453653 0 -31.001911733453653 46.395568578180246 0 0 0 0 184.79481495382697 78.20884279699203 0 78.20884279699203 -200.05453901006331 0 0 0 0 207.19270164204681 7.8819787803856798 0 7.8819787803856798 -220.50748919195757 0 0 0 0 83.617993633317383 36.050538428717573 0 36.050538428717573 -119.22622102179139 0 0 0 0 207.36464958355646 3.5279387132295597 0 3.5279387132295597 -110.71483269068335 0 0 0 0 -0.22978653619065881 24.498274400579248 0 24.498274400579248 -221.87968844411967 0 0 0 0 155.41943020705367 -6.1844898988238128 0 -6.1844898988238128 -154.90367850847201 0 0 0 0 155.39222880893794 -26.126912000624998 0 -26.126912000624998 -243.91236333686993 0 0 0 0 63.766574470704654 62.160090416315597 0 62.160090416315597 -265.05583865181688 0 0 0 0 136.06712398220043 22.858591498145188 0 22.858591498145188 -262.90028974489496 0 0 0 0 66.77862553331957 -4.1995941171233735 0 -4.1995941171233735 -4.986867800750808 0 0 0 0 2.9569729846662653 2.6088574756399749 0 2.6088574756399749 -3.9856304444265596 0 0 0 0 -23.589393158996245 7.3579654481845864 0 7.3579654481845864 -24.393778114683755 0 0 0 0 0.51551005172402142 6.2993474341002775 0 6.2993474341002775 -5.1219870629112654 0 0 0 0 54.135246843965433 9.0592770218981968 0 9.0592770218981968 -94.348504925510497 0 0 0 0 56.516092207981274 22.311536250337667 0 22.311536250337667 -47.749529534945395 0 0 0 0 56.202293620947728 -3.5667506997014868 0 -3.5667506997014868 -19.157710306656153 0 0 0 0 58.654810469393851 2.9545807200647687 0 2.9545807200647687 -103.29823514690634 0 0 0 0 -76.644346960827534 79.370154318919958 0 79.370154318919958 -208.73880031053432 0 0 0 0 56.609988446041825 96.288143676534901 0 96.288143676534901 -384.98614720298428 0 0 0 0 -72.169885383220389 213.42319990860301 0 213.42319990860301 -324.39009108026767 0 0 0 0 4.9912567111571491 -4.5871066295348584 0 -4.5871066295348584 -2.1458438313484063 0 0 0 0 31.448816238393192 -38.46563124460306 0 -38.46563124460306 -18.920500503234052 0 0 0 0 83.947437003102095 -76.560432588898493 0 -76.560432588898493 -252.87911734501449 0 0 0 0 154.68607745390182 -53.531451499197829 0 -53.531451499197829 -27.971496774846798 0 0 0 0 132.71253176304162 -73.992506802284765 0 -73.992506802284765 89.711130739682972 0 0 0 0 139.40498999097599 -70.302113669123941 0 -70.302113669123941 -59.328863178938263 0 0 0 0 151.82500241597154 -18.08079708046489 0 -18.08079708046489 -176.27357009952675 0 0 0 0 100.51676295956713 -42.348714264720002 0 -42.348714264720002 -186.43318688535396 0 0 0 0 198.20044722821331 -97.848609352583125 0 -97.848609352583125 -43.051371499296692 0 0 0 0 204.71573076823552 -29.275365097644453 0 -29.275365097644453 -169.49643593130327 0 0 0 0 229.40028367688319 -144.68053554368828 0 -144.68053554368828 34.499816905040007 0 0 0 0 255.84966632664145 -71.814290357275581 0 -71.814290357275581 -75.238956076691125 0 0 0 0 315.24158512327267 -121.64949984105988 0 -121.64949984105988 34.133690122275198 0 0 0 0 331.71272631031752 -228.71726098678857 0 -228.71726098678857 88.297298450550443 0 0 0 0 327.38189536560321 -176.01973163625826 0 -176.01973163625826 25.143499044816508 0 0 0 0 246.33792433929921 -163.16013844851591 0 -163.16013844851591 38.985031111863123 0 0 0 0 276.96711371646961 -100.63933717822488 0 -100.63933717822488 -63.134724421835926 0 0 0 0 201.8179408403339 -235.13822364104098 0 -235.13822364104098 267.43778529239671 0 0 0 0 319.82239991372626 -361.8995645068884 0 -361.8995645068884 382.55280436314462 0 0 0 0 709.94797167106299 -270.02478175634315 0 -270.02478175634315 124.61823515583194 0 0 0 0 404.69994062128535 -271.1400674775582 0 -271.1400674775582 129.92072878641181 0 0 0 0 331.02235230520455 -220.10157829036268 0 -220.10157829036268 99.971843236222412 0 0 0 0 366.36713507946115 -182.90790721076652 0 -182.90790721076652 104.64835055918024 0 0 0 0 262.05772122799317 -47.142596846552124 0 -47.142596846552124 143.15137273200753 0 0 0 0 402.84960583331122 -181.39874157651838 0 -181.39874157651838 65.707418485000915 0 0 0 0 415.90082821225951 -66.325633894218583 0 -66.325633894218583 144.46471392859894 0 0 0 0 467.90648431931913 -32.223097946758742 0 -32.223097946758742 127.18902167487408 0 0 0 0 119.08087514255021 -75.413158278522872 0 -75.413158278522872 207.18729173223255 0 0 0 0 244.73421369501739 59.931329576575649 0 59.931329576575649 328.65146866616277 0 0 0 0 281.75254992800546 -27.213873011083933 0 -27.213873011083933 100.47567327250954 0 0 0 0 59.967055904256995 -10.411155770560526 0 -10.411155770560526 117.34958074997985 0 0 0 0 121.25990648418519 -63.580369652786544 0 -63.580369652786544 147.19091946258652 0 0 0 0 120.16300874228909 -78.943310282827809 0 -78.943310282827809 218.19556916294039 0 0 0 0 156.36165447190797 -53.946268514282906 0 -53.946268514282906 147.68767112915793 0 0 0 0 172.96326755612972 -152.71395811314721 0 -152.71395811314721 204.80460710955629 0 0 0 0 171.33897195705049 -168.03893072391651 0 -168.03893072391651 100.64151067192529 0 0 0 0 504.24523963937827 -333.27084391352588 0 -333.27084391352588 -231.19960141232818 0 0 0 0 16.679764688387735 3.0829056272546698 0 3.0829056272546698 0.010596942360534295 0 0 0 0 384.56565137630969 846.30165952878201 0 846.30165952878201 118.51039094053698 0 0 0 0 -433.06331737356959 -311.59772589802355 0 -311.59772589802355 219.64995136872517 0 0 0 0 90.574602823333407 -175.49684268753683 0 -175.49684268753683 243.88780265403938 0 0 0 0 -74.40284574314137 -64.203381342088164 0 -64.203381342088164 328.01549099183262 0 0 0 0 1098.6590346741577 -1124.6032742031184 0 -1124.6032742031184 103.52208649258307 0 0 0 0 440.60774824632972 440.92797209397543 0 440.92797209397543 247.29022040139313 0 0 0 0 1176.8920887821878 -135.66522889375233 0 -135.66522889375233 98.69830232514046 0 0 0 0 563.08332810836146 379.85391835879506 0 379.85391835879506 -1289.1716901701818 0 0 0 0 35.742087733520123 4.7491936951633207 0 4.7491936951633207 -1.5542961445092223 0 0 0 0 613.5453082985623 112.38093691858239 0 112.38093691858239 -1122.4582353574256 0 0 0 0 -426.12402505613863 151.16764478308778 0 151.16764478308778 -297.95938652432432 0 0 0 0 18.705909482320493 3.4488588541299023 0 3.4488588541299023 -0.3593454696683101 0 0 0 0 100.73319945776893 -567.87393556445579 0 -567.87393556445579 -348.66466699337326 0 0 0 0 11.044440747500857 6.1381429484891257 0 6.1381429484891257 4.4566570660993028 0 0 0 0 -203.31270662372117 917.08443222891174 0 917.08443222891174 -144.04182327184009 0 0 0 0 -227.88217522171908 294.58577190140397 0 294.58577190140397 382.36580886856751 0 0 0 0 747.9018918639631 -590.08359696604089 0 -590.08359696604089 454.4731542405795 0 0 0 0 -781.45190899114095 764.68104500726781 0 764.68104500726781 370.46316948470059 0 0 0 0 114.57634321890146 399.3987369632834 0 399.3987369632834 -355.58376757655003 0 0 0 0 126.44301573528355 180.35987620430922 0 180.35987620430922 244.41871671361628 0 0 0 0 174.42077365684963 247.76645729903817 0 247.76645729903817 231.81512903260929 0 0 0 0 139.6860506800258 165.64382299823774 0 165.64382299823774 208.63181499481243 0 0 0 0 201.06045070677646 57.302166585038719 0 57.302166585038719 364.11898008595995 0 0 0 0 71.810748541944122 201.91322972140824 0 201.91322972140824 337.73927163503367 0 0 0 0 234.79163530953701 190.9080394508334 0 190.9080394508334 79.052344140214245 0 0 0 0 569.78751333769469 144.18694468994386 0 144.18694468994386 161.55754805565766 0 0 0 0 186.62309914153957 52.537910766167585 0 52.537910766167585 133.95158456192303 0 0 0 0 114.38880605502709 103.83038049463505 0 103.83038049463505 153.30302172700908 0 0 0 0 139.59290723652521 162.57336947705926 0 162.57336947705926 210.99366790847182 0 0 0 0 175.94811281340662 122.16148767378172 0 122.16148767378172 84.887171205805544 0 0 0 0 158.34304912164953 10.492002293205815 0 10.492002293205815 64.983262698764804 0 0 0 0 92.715622244668339 37.514854694369831 0 37.514854694369831 123.17695570960518 0 0 0 0 256.98155422015407 38.368863392014646 0 38.368863392014646 116.80717275384234 0 0 0 0 325.00908006131067 64.546303066121425 0 64.546303066121425 125.05192531320483 0 0 0 0 213.32962253048026 -96.80368685918404 0 -96.80368685918404 151.43650547721472 0 0 0 0 198.36701249144971 170.82786245341435 0 170.82786245341435 157.37743241661832 0 0 0 0 170.42931980221692 150.73525607505923 0 150.73525607505923 148.98120889777238 0 0 0 0 337.4260995835939 138.92596476802862 0 138.92596476802862 149.46711608235577 0 0 0 0 399.53983433927351 119.47249805294393 0 119.47249805294393 160.35272091761499 0 0 0 0 215.59660288107261 247.63144841805411 0 247.63144841805411 125.9436780287665 0 0 0 0 264.69669576377783 84.306923344707229 0 84.306923344707229 155.23369930502247 0 0 0 0 351.355420017906 176.47384108319113 0 176.47384108319113 155.08868547954438 0 0 0 0 280.70673891991464 170.1828321139688 0 170.1828321139688 466.18555933817481 0 0 0 0 525.52049453814834 298.60419279627138 0 298.60419279627138 146.51187634866926 0 0 0 0 636.83180354410433 -174.92742927797605 0 -174.92742927797605 -95.565815531924727 0 0 0 0 1024.2710261096508 36.078770462117916 0 36.078770462117916 -32.919166267502575 0 0 0 0 1089.7114674011164 543.79420209340537 0 543.79420209340537 212.21347834903986 0 0 0 0 -81.923861353148823 763.65434385572723 0 763.65434385572723 1046.7584803283571 0 0 0 0 -117.51590782515996 382.67694758604102 0 382.67694758604102 -158.48762202367755 0 0 0 0 0.18943324532290262 -1.5158553148047389 0 -1.5158553148047389 2.1993173252112088 0 0 0 0 -131.58194469371938 70.785719717423817 0 70.785719717423817 510.27227370954643 0 0 0 0 305.48614659167652 -229.36195268499773 0 -229.36195268499773 394.38251839058148 0 0 0 0 347.66773604357149 122.25534538955594 0 122.25534538955594 -195.54164956757086 0 0 0 0 10.160300499756517 -9.3614372182827594 0 -9.3614372182827594 7.1484745715310556 0 0 0 0 104.7380636280941 -94.776589261279582 0 -94.776589261279582 -60.629855905244767 0 0 0 0 223.3412908535829 246.26838581711468 0 246.26838581711468 98.228229477030027 0 0 0 0 39.795707885772572 -12.340470048669886 0 -12.340470048669886 201.22667924320922 0 0 0 0 303.66748918528901 286.60853827594383 0 286.60853827594383 -19.01000344724514 0 0 0 0 42.763681666032426 337.2341864065869 0 337.2341864065869 180.95605399470105 0 0 0 0 -74.188728942201124 -144.42803415766491 0 -144.42803415766491 133.36026227884167 0 0 0 0 524.71655836378341 305.10172634382775 0 305.10172634382775 -29.896919618751895 0 0 0 0 -0.66941391094397318 -0.54964317729253764 0 -0.54964317729253764 -1.5026749831426933 0 0 0 0 4.422836884788353 -2.4975934528683439 0 -2.4975934528683439 2.4428922204681598 0 0 0 0 -126.32507926085236 -11.444298761915434 0 -11.444298761915434 229.93926444544104 0 0 0 0 116.89660432417446 -12.169518229115511 0 -12.169518229115511 -3.5263480058343402 0 0 0 0 342.62144414734939 -104.8629157679527 0 -104.8629157679527 -447.2605963005085 0 0 0 0 436.77122988470364 412.17684166903905 0 412.17684166903905 60.133686177414006 0 0 0 0 168.32224836017122 155.78816964383941 0 155.78816964383941 -218.62506352571268 0 0 0 0 -26.22136510088967 -100.56528274731545 0 -100.56528274731545 -81.288907523629405 0 0 0 0 187.75819879936171 -27.292787775201987 0 -27.292787775201987 109.7814823385952 0 0 0 0 212.86846383387456 32.556874183917444 0 32.556874183917444 -109.88993951141219 0 0 0 0 92.765504150011111 61.154714074344156 0 61.154714074344156 111.31986331048915 0 0 0 0 451.64039329421939 -21.573142546551708 0 -21.573142546551708 -121.06557436748744 0 0 0 0 231.68924029491609 61.554650114464948 0 61.554650114464948 20.013919025350333 0 0 0 0 448.88892745345947 363.818153537321 0 363.818153537321 356.6936982041434 0 0 0 0 180.95436161357793 196.98944547772362 0 196.98944547772362 584.30417908799404 0 0 0 0 235.43631849127996 -56.840214541703062 0 -56.840214541703062 334.5825194060335 0 0 0 0 151.48199068149552 111.1229179003285 0 111.1229179003285 259.18919076120392 0 0 0 0 157.06910483289266 23.945647767328794 0 23.945647767328794 130.27147350530868 0 0 0 0 197.80294202243931 65.203436462306342 0 65.203436462306342 280.12840128886091 0 0 0 0 177.99943396246317 95.863867528755151 0 95.863867528755151 267.59567411607713 0 0 0 0 169.47579753119498 143.34248329880802 0 143.34248329880802 332.85685841814075 0 0 0 0 283.53659231039637 205.41696838499456 0 205.41696838499456 276.55123584903049 0 0 0 0 279.47253632459615 81.239484236846238 0 81.239484236846238 190.54056525725446 0 0 0 0 355.93316611539922 44.679928506181568 0 44.679928506181568 130.76028231249484 0 0 0 0 375.90213869695435 179.26053279277676 0 179.26053279277676 135.88706690354047 0 0 0 0 290.65843770285028 134.79436972919569 0 134.79436972919569 195.2544728094399 0 0 0 0 357.57868149742717 278.52960205029603 0 278.52960205029603 160.9176063469256 0 0 0 0 348.34194827938336 96.721563133992277 0 96.721563133992277 157.17563201850311 0 0 0 0 282.17966621731284 213.09795156908615 0 213.09795156908615 234.66926948058472 0 0 0 0 272.39164543201332 130.4843294916277 0 130.4843294916277 170.766554294446 0 0 0 0 1.6516135264426168 -0.61708334898765216 0 -0.61708334898765216 0.50574950206432312 0 0 0 0 0.91613899333964355 -0.56838773337338466 0 -0.56838773337338466 0.51516428990347718 0 0 0 0 425.85068240814144 -189.43848105579127 0 -189.43848105579127 84.884650013210376 0 0 0 0 -3.502225951237051 13.628701221669189 0 13.628701221669189 149.9612012598036 0 0 0 0 95.231090708519332 112.34607054869002 0 112.34607054869002 190.70010080525572 0 0 0 0 176.91225251398282 66.78574228424668 0 66.78574228424668 49.83260247870021 0 0 0 0 176.63821007445222 66.292632648867766 0 66.292632648867766 78.950391558110368 0 0 0 0 341.14941768028075 79.859186192478774 0 79.859186192478774 67.294651324335064 0 0 0 0 323.13527912941208 49.659373966833527 0 49.659373966833527 121.86912117406428 0 0 0 0 414.60798932830221 63.644082378178155 0 63.644082378178155 35.513113969785081 0 0 0 0 343.61945812490012 -17.14289275319743 0 -17.14289275319743 188.38583083867979 0 0 0 0 428.96229667116131 -32.08107580533715 0 -32.08107580533715 88.079159896329656 0 0 0 0 340.03573532268638 4.1526570889423056 0 4.1526570889423056 166.92045975364726 0 0 0 0 356.02926930229296 44.186393010682423 0 44.186393010682423 113.85334681473569 0 0 0 0 220.98349946993403 82.28870011275103 0 82.28870011275103 292.59262026860995 0 0 0 0 289.94669666684058 29.844304350283892 0 29.844304350283892 304.87477730334376 0 0 0 0 235.09668333461741 2.3732289935464905 0 2.3732289935464905 382.24687283635467 0 0 0 0 607.33358050914831 14.489889277111615 0 14.489889277111615 98.47839409992298 0 0 0 0 425.63719933119137 -175.83699343521221 0 -175.83699343521221 446.72929352697247 0 0 0 0 402.59403971282882 -115.69910126142167 0 -115.69910126142167 294.25652716140121 0 0 0 0 311.2953361554828 10.679151112419277 0 10.679151112419277 527.11966387102802 0 0 0 0 305.96534013081691 51.572777697936544 0 51.572777697936544 378.93219838495543 0 0 0 0 507.89201922825305 -23.180996356406467 0 -23.180996356406467 415.16787679444133 0 0 0 0 251.52357669730554 93.042354680047538 0 93.042354680047538 273.60676383157823 0 0 0 0 367.37503301004472 46.675096563695206 0 46.675096563695206 270.09390490735677 0 0 0 0 385.16579046658444 -114.91104122882894 0 -114.91104122882894 144.86069451493222 0 0 0 0 314.42162336918409 77.015282002158074 0 77.015282002158074 404.00828468516738 0 0 0 0 222.05761493120735 0.67948353582437448 0 0.67948353582437448 147.71291055254005 0 0 0 0 165.04120404038986 116.55919213865172 0 116.55919213865172 251.9326121434824 0 0 0 0 169.37872992071789 -81.479287535089043 0 -81.479287535089043 148.28466032532901 0 0 0 0 249.28509924186801 78.295433509082159 0 78.295433509082159 60.028035445237947 0 0 0 0 24.313354521138535 -89.864350598756346 0 -89.864350598756346 318.99876948554447 0 0 0 0 273.23198946574848 -109.60578931334658 0 -109.60578931334658 -72.960434165139759 0 0 0 0 139.33921494359674 -215.53926164790028 0 -215.53926164790028 455.34383739774239 0 0 0 0 559.64506279074703 -20.558074694928109 0 -20.558074694928109 184.36275173394824 0 0 0 0 138.80664636165966 -204.87008084123408 0 -204.87008084123408 -327.79064915601703 0 0 0 0 108.12004844122842 -9.0271973000362919 0 -9.0271973000362919 -4.3020442091146522 0 0 0 0 23.288734204317734 -166.59766280275039 0 -166.59766280275039 -41.919317944643922 0 0 0 0 108.28673035442625 55.429315016011742 0 55.429315016011742 -197.37400891825587 0 0 0 0 154.8144678780518 -84.298935237049818 0 -84.298935237049818 -39.322184004231303 0 0 0 0 191.42970368086753 -187.69278673487565 0 -187.69278673487565 -505.48434754573418 0 0 0 0 460.12993045710027 -258.95243870585324 0 -258.95243870585324 -696.57700687403644 0 0 0 0 117.06922454219912 -11.840087107284404 0 -11.840087107284404 -3.9577164508621778 0 0 0 0 182.7072267935946 37.473462545622795 0 37.473462545622795 -391.61439070519077 0 0 0 0 -3.793148255237611 27.639070767062542 0 27.639070767062542 -222.28905866740155 0 0 0 0 70.400925219961209 91.000137045292263 0 91.000137045292263 -9.5475426044485516 0 0 0 0 38.007782876360579 25.945414472096928 0 25.945414472096928 10.425540444266581 0 0 0 0 52.850494592414179 64.807064909270395 0 64.807064909270395 -41.1496983199673 0 0 0 0 94.002667145814371 -4.8996557164949159 0 -4.8996557164949159 -5.0006896730694965 0 0 0 0 82.437466506671626 -22.976397983789866 0 -22.976397983789866 -128.11395474895278 0 0 0 0 18.069905187279801 -115.42986133358841 0 -115.42986133358841 -76.067680238798403 0 0 0 0 7.4824246901771403 -67.2406522314011 0 -67.2406522314011 24.366806737907609 0 0 0 0 180.18271580326746 -62.93971722570047 0 -62.93971722570047 63.892656531045986 0 0 0 0 107.02354838207248 18.664393501713221 0 18.664393501713221 -18.908775207548615 0 0 0 0 37.304787159271655 26.574683734495636 0 26.574683734495636 83.393748711186177 0 0 0 0 111.15019817106077 -25.399806751368374 0 -25.399806751368374 -9.7436087746625617 0 0 0 0 76.316636655052207 6.9973667690277495 0 6.9973667690277495 -34.977299976889071 0 0 0 0 88.049444874195615 -17.272175796181273 0 -17.272175796181273 -42.040198321521643 0 0 0 0 111.56734785334265 -12.789148995259211 0 -12.789148995259211 -95.357679887542417 0 0 0 0 78.196974236949814 -1.0998421255695519 0 -1.0998421255695519 -5.7638522772359906 0 0 0 0 26.534251968223543 -17.258506726333962 0 -17.258506726333962 -2.4058912969197763 0 0 0 0 73.476625611903728 31.620803642111468 0 31.620803642111468 -42.910335248363481 0 0 0 0 48.674984408578894 -25.080743645289772 0 -25.080743645289772 -31.800080304124549 0 0 0 0 21.379355987952835 -1.3386447558537764 0 -1.3386447558537764 0.47722382786984557 0 0 0 0 14.827097353845602 3.7855506916280319 0 3.7855506916280319 -6.4811764902315616 0 0 0 0 24.6878763927389 7.2415130022309171 0 7.2415130022309171 1.954709050784063 0 0 0 0 44.815258523791272 2.3565073271832944 0 2.3565073271832944 -35.769485735031367 0 0 0 0 24.687648973291743 -83.907507679538114 0 -83.907507679538114 33.216165597963482 0 0 0 0 32.285356017368031 -38.934027513804267 0 -38.934027513804267 -5.0477073581098466 0 0 0 0 3.4564553064059282 5.3630242587680641 0 5.3630242587680641 -1.1903546964220366 0 0 0 0 34.651418118119182 1.6556451773147955 0 1.6556451773147955 -18.263796020292148 0 0 0 0 -10.924694783549057 -4.5515181473974735 0 -4.5515181473974735 10.466662451508853 0 0 0 0 5.1781838147871326 -0.31749793262408588 0 -0.31749793262408588 -0.24537891492928576 0 0 0 0 -51.927552926907083 30.374939815132166 0 30.374939815132166 91.808773710680725 0 0 0 0 5.8221742474341909 0.12834245044945014 0 0.12834245044945014 0.38764830265994654 0 0 0 0 -17.840401190820558 -59.456465489308584 0 -59.456465489308584 107.22560718357636 0 0 0 0 2.9464537346066209 1.3408520066731171 0 1.3408520066731171 88.804700125256204 0 0 0 0 -54.046010136233235 15.381657339208004 0 15.381657339208004 -46.801235077815363 0 0 0 0 62.660905164768337 10.801215854732163 0 10.801215854732163 -32.869378809653426 0 0 0 0 -66.16630754378275 33.918940060731074 0 33.918940060731074 91.222145244382119 0 0 0 0 -19.999876225047046 7.1861471390855058 0 7.1861471390855058 6.798574473263443 0 0 0 0 -85.931620424908033 32.045411869215371 0 32.045411869215371 -1.4380350445881049 0 0 0 0 -71.531257219308827 145.41447973249203 0 145.41447973249203 -175.31882687658162 0 0 0 0 -2.7850433872301608 4.0381286000855994 0 4.0381286000855994 1.3132131995255838 0 0 0 0 -54.444385660113767 120.13585127680926 0 120.13585127680926 -208.31270707706608 0 0 0 0 1.718209090435451 -0.06726667692909416 0 -0.06726667692909416 -0.73049203042601896 0 0 0 0 9.8878792023751885 16.686018182993394 0 16.686018182993394 -102.28876391705126 0 0 0 0 -65.204325901417178 9.7303963189729075 0 9.7303963189729075 78.987339459363966 0 0 0 0 29.540839275141479 55.113831100153959 0 55.113831100153959 -27.428887740709115 0 0 0 0 22.997202049358748 27.671060931235615 0 27.671060931235615 -20.313398715534049 0 0 0 0 22.318103375404945 5.3743593646174688 0 5.3743593646174688 0.11500197978528437 0 0 0 0 24.375190614809981 27.254971641297175 0 27.254971641297175 -20.18921920337533 0 0 0 0 -10.322573296059744 11.495084521127538 0 11.495084521127538 -7.3342191004263952 0 0 0 0 -2.9753634946318925 26.459981349672319 0 26.459981349672319 25.052097940149224 0 0 0 0 55.647589188789425 -9.129262634224915 0 -9.129262634224915 -79.899539041729554 0 0 0 0 3.7094065049456901 5.3900377717330379 0 5.3900377717330379 -1.4069592688242447 0 0 0 0 18.829803528664343 64.731730805138113 0 64.731730805138113 16.721016929696361 0 0 0 0 3.3352911322945147 8.7221190484176532 0 8.7221190484176532 -28.734023389402751 0 0 0 0 46.648351354408078 26.540919110994651 0 26.540919110994651 -26.060416206049027 0 0 0 0 19.574234708292352 24.290780097122251 0 24.290780097122251 -10.517388271758364 0 0 0 0 48.979136010668299 12.189218066196418 0 12.189218066196418 -15.716015362827477 0 0 0 0 31.141625734297122 16.563202087479681 0 16.563202087479681 -14.887089082782097 0 0 0 0 81.704733638842299 24.205779888720173 0 24.205779888720173 -61.815226721364752 0 0 0 0 84.340777226265345 14.619430200835723 0 14.619430200835723 -7.9950402006320473 0 0 0 0 144.49562846527806 24.84326831135968 0 24.84326831135968 -56.528621681212826 0 0 0 0 76.287038240507172 31.38582934176759 0 31.38582934176759 -4.8613453013481376 0 0 0 0 77.594025297266029 34.471731618397641 0 34.471731618397641 -27.684866275853057 0 0 0 0 33.974242483800481 31.830948805912385 0 31.830948805912385 1.4185114782064829 0 0 0 0 44.697962111747984 37.965899322379713 0 37.965899322379713 -3.9128673401153264 0 0 0 0 31.840876421265421 52.64688538761402 0 52.64688538761402 -92.702133486999855 0 0 0 0 39.883320012233241 42.553576410636374 0 42.553576410636374 -40.979636477336712 0 0 0 0 54.249643604616722 28.495822225862184 0 28.495822225862184 -40.876775386799636 0 0 0 0 56.282077748598425 18.868151304412365 0 18.868151304412365 -16.576070240177177 0 0 0 0 52.887332805454207 47.664321090628164 0 47.664321090628164 -9.9912812420907358 0 0 0 0 44.989565638585731 28.581398461500189 0 28.581398461500189 -19.168284974935837 0 0 0 0 -2.845980781223318 20.306910338291445 0 20.306910338291445 -1.0980211297599531 0 0 0 0 270.83315102817051 -136.59080753571925 0 -136.59080753571925 47.121234288468258 0 0 0 0 157.67028505149392 120.87389867362617 0 120.87389867362617 -33.763875504035695 0 0 0 0 136.11470465726234 52.396835339237441 0 52.396835339237441 -190.28666115590931 0 0 0 0 243.89640571630662 -159.91444676419133 0 -159.91444676419133 147.74364069647709 0 0 0 0 277.74519288142619 -96.740091555058825 0 -96.740091555058825 -48.051918297343946 0 0 0 0 202.54309979624668 -71.541494686760416 0 -71.541494686760416 158.31424465563532 0 0 0 0 94.581158871660591 40.749163583823247 0 40.749163583823247 -7.6497057786327787 0 0 0 0 197.66494258413877 57.024200687446864 0 57.024200687446864 -53.657055333391327 0 0 0 0 -6.0296390113435336 28.91625902920623 0 28.91625902920623 2.8300793446910575 0 0 0 0 17.035741328979384 40.960030799220448 0 40.960030799220448 8.3147645979620393 0 0 0 0 -9.4703888279847632 18.690512941687501 0 18.690512941687501 -14.545517206148238 0 0 0 0 -44.436811580737412 65.290955769682341 0 65.290955769682341 23.612383544399108 0 0 0 0 15.203816528395322 8.5110430128339161 0 8.5110430128339161 -3.6750874390818997 0 0 0 0 24.437600840661617 60.025687508974954 0 60.025687508974954 -43.458533166708776 0 0 0 0 11.93197078862562 1.2008737401292375 0 1.2008737401292375 0.40319925056497979 0 0 0 0 53.641520718651009 68.59290819532805 0 68.59290819532805 -161.06903697078292 0 0 0 0 20.262689598755969 50.937304672088999 0 50.937304672088999 122.02616851263338 0 0 0 0 -33.832418741050788 16.844470090730738 0 16.844470090730738 44.099801485291891 0 0 0 0 232.18826801507385 -59.893685998347564 0 -59.893685998347564 11.795644265729152 0 0 0 0 589.07028622243888 72.978028179234457 0 72.978028179234457 -98.763320222193215 0 0 0 0 421.24936625410919 -49.091068192763714 0 -49.091068192763714 -92.346342386065089 0 0 0 0 348.72176117586787 37.138172701564031 0 37.138172701564031 -49.718846674458746 0 0 0 0 700.41538610239513 -2.0351992149412581 0 -2.0351992149412581 -151.64780290576982 0 0 0 0 910.57151587458793 144.51561115759455 0 144.51561115759455 -60.47920475787032 0 0 0 0 4.780270345186068 1.2626911328106338 0 1.2626911328106338 0.16468858103732192 0 0 0 0 470.48983318341925 -216.33722191981258 0 -216.33722191981258 -113.27117341817393 0 0 0 0 574.05527209998399 159.71542900031545 0 159.71542900031545 468.13542601800145 0 0 0 0 669.04575595539063 151.88462918703181 0 151.88462918703181 -82.373377618814629 0 0 0 0 567.35722709506445 114.40238070645745 0 114.40238070645745 206.72079465331808 0 0 0 0 630.41154343979724 295.1514262487583 0 295.1514262487583 179.66190626478402 0 0 0 0 601.41161200524584 234.12244232267574 0 234.12244232267574 75.577329195803031 0 0 0 0 794.0458700664276 388.99107232397972 0 388.99107232397972 282.34808572279599 0 0 0 0 670.69731765850156 216.52474498486845 0 216.52474498486845 48.81361009024431 0 0 0 0 0.11610404499685956 -4.7452058388769078 0 -4.7452058388769078 3.1164107201965763 0 0 0 0 533.01840667407669 372.11620139510865 0 372.11620139510865 240.53082709788822 0 0 0 0 5.3798786489924311 1.1395291533556815 0 1.1395291533556815 -4.3577985491484093 0 0 0 0 30.180913897900609 5.9045432308960244 0 5.9045432308960244 -41.700351130686158 0 0 0 0 441.32403112178508 223.20571479804204 0 223.20571479804204 114.58830374648915 0 0 0 0 544.17027972690994 233.04635971265907 0 233.04635971265907 43.495902572183013 0 0 0 0 500.46834715033765 159.98239063189453 0 159.98239063189453 21.675599829833573 0 0 0 0 642.4046697856902 164.82991520230348 0 164.82991520230348 -75.956332427825146 0 0 0 0 710.07191478342384 253.39896292845043 0 253.39896292845043 28.958422210868775 0 0 0 0 555.96920020475227 251.70811792773247 0 251.70811792773247 71.081253194628061 0 0 0 0 547.66760164427978 133.4505059398557 0 133.4505059398557 -48.545436973224696 0 0 0 0 535.79769479118113 107.32750777116144 0 107.32750777116144 -75.916407034848362 0 0 0 0 507.23710158659378 116.16589990396187 0 116.16589990396187 -74.702563808767991 0 0 0 0 552.89860754920483 164.47816282145635 0 164.47816282145635 -68.651962231181642 0 0 0 0 456.94411369334557 157.55331866000506 0 157.55331866000506 -68.964710940745761 0 0 0 0 495.82809250011633 114.28567578051639 0 114.28567578051639 -73.550418454170313 0 0 0 0 528.04059611020784 155.64704548111672 0 155.64704548111672 -87.363479040201582 0 0 0 0 510.50911718967836 212.35452852759158 0 212.35452852759158 -125.91523709411683 0 0 0 0 -0.69156127262196776 1.47370189128101 0 1.47370189128101 -0.53608578574812071 0 0 0 0 305.89083151955856 269.58854915584124 0 269.58854915584124 -43.121477565823625 0 0 0 0 370.95922865193279 201.1887913755229 0 201.1887913755229 38.894058952305841 0 0 0 0 412.81425638931978 174.27996565104036 0 174.27996565104036 41.824359775551784 0 0 0 0 439.64256827270583 102.32457060032743 0 102.32457060032743 -51.599579890500081 0 0 0 0 408.07859531558643 156.55492925230192 0 156.55492925230192 12.39212481412369 0 0 0 0 378.4237273110266 113.58190734892605 0 113.58190734892605 59.731715035761226 0 0 0 0 385.58910702365756 90.523621202708682 0 90.523621202708682 77.440245153507931 0 0 0 0 407.18053419914213 51.444813523683024 0 51.444813523683024 -13.459414632056451 0 0 0 0 390.74492509686388 24.45988882720485 0 24.45988882720485 66.750524898337517 0 0 0 0 417.10774965406745 40.73095436179517 0 40.73095436179517 -74.603109889652842 0 0 0 0 447.59423797256386 83.626238921594904 0 83.626238921594904 -15.578648037420862 0 0 0 0 347.55759779099026 67.541720259273688 0 67.541720259273688 -11.664656690477159 0 0 0 0 385.61343607700837 18.142662327060407 0 18.142662327060407 -21.573292554924592 0 0 0 0 391.58272399034558 43.751320338290597 0 43.751320338290597 26.372533270549866 0 0 0 0 317.64276927454921 67.787823283700618 0 67.787823283700618 -4.7150726149789079 0 0 0 0 310.33596260657941 50.79671008965488 0 50.79671008965488 56.056566701970041 0 0 0 0 223.74404660018627 48.410404176053362 0 48.410404176053362 8.5199222259634553 0 0 0 0 74.153081398384529 46.933825436501593 0 46.933825436501593 51.659199215602712 0 0 0 0 220.63214552044519 33.55337465249886 0 33.55337465249886 -61.393843190079679 0 0 0 0 124.19137660514389 24.585583030676844 0 24.585583030676844 -90.974410644015279 0 0 0 0 183.01854150180588 90.458683783973811 0 90.458683783973811 -35.717178709660629 0 0 0 0 342.22250650685601 50.001753705216515 0 50.001753705216515 -69.285096601343866 0 0 0 0 291.7509821557469 36.95416952423966 0 36.95416952423966 -53.805559983729836 0 0 0 0 297.4434659309627 87.365697727916086 0 87.365697727916086 -32.551522961875889 0 0 0 0 210.41534635321295 45.817984761464686 0 45.817984761464686 -31.576451489927422 0 0 0 0 224.97252062259213 81.056590761969574 0 81.056590761969574 -38.412066409991894 0 0 0 0 14.988837315941055 34.488249716577968 0 34.488249716577968 32.673855125718092 0 0 0 0 -8.9267932228904101 109.91353751098015 0 109.91353751098015 -26.85895368056299 0 0 0 0 188.65983202356438 22.572109227196052 0 22.572109227196052 -1.6777302263014917 0 0 0 0 343.32240525918314 -2.1898694460919614 0 -2.1898694460919614 -56.808027046659788 0 0 0 0 487.38575185619447 39.328928265615218 0 39.328928265615218 -99.975181382101255 0 0 0 0 411.95365971133288 71.487121049704911 0 71.487121049704911 -64.934389631086106 0 0 0 0 
</DataArray>
<DataArray type="Float64" Name="cross_section_updated" format="ascii">
1 1 1 1 1 1 0.012116917029367472 1 1 1 1 1 0.012566464919592499 1 1 1 0.013203214655694611 1 1 1 0.011091683312511619 1 1 1 1 1 0.0098822424493468369 0.0098786761294708883 1 1 1 1 0.020401539594792354 1 1 1 0.017096665684700953 1 1 1 1 1 1 1 1 1 1 1 1 1 1 1 1 1 1 1 1 1 1 1 1 1 0.013061560004801282 1 1 1 1 1 1 1 1 0.014534563874250228 1 1 1 1 1 0.011991777176362635 1 1 1 1 1 1 1 1 1 1 1 1 1 1 1 1 1 1 1 1 1 1 1 1 1 1 1 1 1 1 0.0091171739962698679 0.010406146290683945 1 1 0.011934215058865619 1 1 1 1 1 1 1 0.010833589091076819 1 1 1 1 1 1 1 1 1 1 1 1 1 1 0.010732263293189914 1 1 0.011895705010655967 1 1 1 1 1 1 1 1 1 1 1 1 1 1 1 1 1 0.011166532154941997 1 0.010839605949817078 1 1 1 1 1 1 1 1 1 1 1 1 1 1 1 1 1 0.011936828316922159 1 1 1 1 1 1 1 1 1 1 1 1 1 1 1 1 1 0.0097483583237690467 1 1 0.0099010884968145935 1 1 1 0.0098468252884169136 1 1 1 1 1 1 1 1 1 1 1 1 0.017669609910104904 1 1 0.016964367092286561 1 0.016859205206559702 1 0.017892209747162588 1 1 1 1 1 1 1 1 0.010044355869005078 0.011781755987140537 1 1 0.024534606540444176 1 1 1 0.02185201908854462 1 0.017524385227838109 0.014357633060712263 0.0098520970367808342 1 1 1 1 1 1 1 1 1 1 1 1 1 1 1 0.0084854870315113871 1 1 1 1 0.0094519444477851149 1 1 1 1 1 1 1 1 1 1 1 1 1 1 0.019211277308158886 1 1 1 1 1 1 1 1 0.013753410528642325 1 1 1 1 0.0058458692694701182 1 0.011421603068397696 1 0.010991953893290534 1 1 1 1 1 1 1 1 1 1 1 1 1 1 1 1 1 1 1 1 1 1 1 1 1 1 0.0097259213548679321 1 1 1 1 1 0.020648588484491928 1 1 1 1 1 1 1 1 1 0.023822200765708488 1 1 1 0.005452564911909985 0.010027366257686798 0.017380084943211523 1 1 1 0.031883437451353358 1.9949319973733282e-17 0.0077848120152799027 1 1 1 1 1 1 1 1 1 1 1 1 0.009816869627773778 1 1 1 1 1 1 1 1 1 1 1 1 1 1 1 1 1 1 1 1 1 1 1 1 1 1 1 1 1 1 1 1 1 1 1 1 1 1 0.0033023462064433861 1 1 0.021721799748980222 1 1 1 0.010122897948642249 1 1 0.012492822289948751 1 1 1 0.0071113304804104431 1 1 0.0080184971296689226 1 0.0047410998252988105 1 1 1 1 1 1 0.0096726978260527757 1 1 1 1 0.0090909194005123987 1 1 0.010014865550892676 1 1 1 1 1 1 1 0.0098665271247621693 1 1 1 1 1 1 0.010208604302778375 1 1 1 1 1 0.012728179905143976 1 1 1 1 1 1 1 1 1 1 1 1 1 1 1 0.010955370988202918 1 0.011124271534067391 1 1 1 1 1 1 1 1 1 1 1 1 1 1 0.010528783749211314 1 1 1 1 1 1 1 1 1 1 1 1 1 1 1 1 1 1 0.010492571190776878 1 1 1 1 1 1 1 1 1 1 1 1 1 1 1 1 1 1 1 1 1 1 1 0.010713787242946585 1 1 1 1 0.011739629237319964 1 1 1 1 1 1 1 1 1 0.0099363368117499039 1 1 1 1 0.0092954662978280474 1 1 1 1 1 1 1 1 1 1 1 1 1 1 1 1 1 1 1 1 1 1 1 1 1 0.0097802496896981748 1 1 1 1 1 1 1 1 1 1 1 1 1 1 1 1 1 1 0.0096891646243216986 1 1 0.0099089149346235188 1 1 1 1 1 1 0.01006511148332786 1 1 1 1 1 1 1 1 1 1 1 1 1 0.0043620382599764782 1 1 0.0060664943791431392 1 1 1 1 0.0077731513954049248 1 1 1 1 1 1 1 1 1 1 1 1 1 0.022167698168463878 0.0026679510179960821 1 1 1 1 1 1 1 1 0.011404493964440378 1 1 1 0.016723526633493392 1 1 1 1 1 1 0.0079491549126816854 1 1 1 1 0.009455215681656394 0.010633947903995949 1 1 1 1 1 1 1 1 1 1 1 1 1 1 1 1 1 1 1 1 0.010295412149328798 1 1 1 1 1 1 0.0076860714836258478 1 0.013377001424180227 1 1 1 1 1 1 0.010870299842266532 1 1 1 1 1 1 1 1 1 1 1 1 1 1 0.0099143439565009331 1 1 1 0.011213062411052707 1 1 1 1 1 1 0.013296685689860459 1 1 1 1 1 1 0.009740885371469464 1 1 1 0.018865372639730288 0.0097305227899028568 1 1 0.0094256057914563311 1 1 1 1 1 1 0.012738577289088292 1 1 1 0.014448836843497789 1 1 0.014131746372215391 1 1 1 0.010074845421064191 1 1 1 0.010185819540332253 1 1 1 1 0.011269497564722515 1 1 1 0.010110974119268059 1 1 1 1 1 0.009800761249860953 1 1 1 1 1 1 1 1 1 0.010459602376856994 1 1 1 1 1 1 1 1 1 1 1 0.016381589583577404 0.0099143034768328885 1 1 1 1 1 1 1 1 1 1 1 1 1 1 1 0.01381834769429529 1 0.0091190728409264645 1 0.012926412560321839 1 1 1 1 1 1 1 1 0.011120939119803363 1 1 1 1 1 1 1 1 1 1 0.011930834307668886 1 1 1 1 0.011313783620694035 1 1 1 1 1 1 1 1 1 1 1 1 0.0099163984329933164 1 1 1 1 1 1 1 1 1 1 1 1 1 1 1 0.010872863269664152 1 1 1 1 1 1 1 1 1 1 1 1 1 1 1 1 1 1 1 1 0.011743163111930683 0.0095595937166546869 1 1 1 0.015554674552090603 1 1 1 1 1 1 1 1 1 1 1 1 1 1 1 1 1 1 1 1 1 1 1 1 1 1 1 1 1 1 1 1 1 1 1 1 1 1 1 1 1 1 1 1 0.011788897012809689 1 1 1 1 1 1 1 1 1 0.017053712332817803 1 1 1 1 1 1 1 1 1 0.0094596081103728909 1 1 1 1 1 1 1 0.019054914344120145 0.012194852129660049 1 1 1 0.012179499046421564 0.016449753796141775 1 1 0.0079615695864180182 1 1 1 0.022563362068085221 1 1 1 1 1 1 1 1 1 0.020982263831502816 1 1 1 1 1 1 1 0.012629567373706291 1 1 1 0.010931763315332993 1 1 1 1 1 1 1 1 1 1 1 1 1 1 1 1 1 1 1 1 1 1 1 0.010288983352393758 1 0.010096180543765921 1 1 1 1 1 0.010644638206945663 1 1 1 1 1 0.010314506050607269 1 1 1 1 1 0.0087473276327006862 0.014345093157413568 1 0.014136631401978296 1 1 1 1 1 1 1 1 1 1 1 1 1 1 1 1 0.010717788390685264 1 1 1 1 1 0.009547417807204351 1 1 0.0099849931918712057 1 1 1 1 1 1 1 1 1 1 1 1 1 0.011101473271213753 1 1 1 0.013053072453134142 1 0.012216489657624447 1 1 1 1 1 1 1 1 1 1 1 1 1 1 1 1 1 1 0.011201703943455597 1 1 1 1 1 1 1 1 1 1 0.011567483540453442 1 1 1 1 1 1 1 1 1 1 1 1 1 1 1 1 1 1 1 0.011267496370355597 1 1 1 1 1 1 1 1 1 1 1 1 0.012362007352025634 1 1 1 1 1 1 1 1 1 1 1 0.0095529200527904139 1 1 1 1 0.0087820130672705866 1 1 0.0085428399789003913 1 0.020343546006555614 1 0.0095887591925552778 1 1 1 1 1 1 1 1 1 0.012359803852422462 0.010798181049932094 1 1 1 0.016042649094365917 1 1 1 1 1 0.014415965655989247 1 1 1 1 0.010234129322673077 1 1 1 1 1 1 1 1 1 1 1 1 1 1 1 1 1 0.010328666268167613 1 1 0.017967498683088973 1 1 1 1 1 0.011047257139020748 1 1 0.01738745817541499 1 1 1 1 1 1 1 1 1 1 0.01811533310666498 1 1 1 1 1 1 1 0.00707741453681319 1 0.0098906312113432888 1 0.014303770556910338 1 0.010022512027830126 1 1 0.010194406659905319 1 1 1 0.0098058904569598704 1 1 1 1 1 1 0.010383284012421147 1 1 1 1 1 1 1 1 0.010107661349234432 1 1 1 0.010936396935026496 1 1 1 0.01038887973844967 1 1 0.01315708431337001 1 1 0.010421709771346179 1 1 0.011257757638136811 0.0099858711186882887 1 1 1 0.0099956622198570291 1 1 1 1 1 1 0.011168065344438123 0.017438807968603191 1 1 0.012292655603533058 1 1 1 1 0.013960078779003042 1 1 1 1 0.014225666675776455 1 0.013936548387925168 0.0089493296808853835 1 1 1 1 1 1 0.010382098185418378 1 1 0.010131961768152301 1 1 1 1 1 0.013385579133582209 1 1 1 1 0.0099883994323856258 0.010386308196231743 1 1 1 1 1 1 1 0.019201177131662275 1 1 1 1 1 1 1 1 1 1 1 1 0.010897960568929048 1 1 1 1 1 1 0.010222110904617235 1 1 1 1 1 1 1 0.010496711167101949 1 1 1 1 0.010173035925025097 1 1 1 0.0097062048589196693 1 1 1 1 1 1 0.0089109049450224638 1 1 0.010401249401827099 1 1 1 0.0099984456336159652 1 0.011774443979199941 1 0.010589612155276922 1 1 1 0.012289801623551252 1 1 1 1 1 0.01262996065301111 1 1 1 1 1 1 0.012655901579074272 1 1 1 1 1 1 1 1 0.013244344682398757 1 1 1 0.014808284807888591 1 1 1 1 1 1 1 1 1 1 0.010802937499163643 1 0.010688670130954266 1 1 1 1 0.010321779236103501 1 1 1 1 1 1 1 1 1 1 1 1 1 0.010997508824469709 1 1 0.01268078798500168 1 1 0.010059919865498776 1 1 1 1 1 1 1 1 1 1 1 1 1 1 1 1 1 1 1 1 1 1 1 1 1 1 1 1 1 1 0.0098595195388883217 1 1 1 1 1 1 1 1 1 1 1 1 1 1 1 1 1 1 1 1 0.010885448377236775 1 1 1 1 1 1 1 1 1 1 1 0.0097896028384469105 1 1 1 1 1 1 1 1 1 1 1 1 1 1 1 1 1 1 1 1 1 1 1 1 0.019139867258410943 1 1 1 0.020467158615781904 1 1 0.0080742441818849181 1 1 1 1 1 1 0.013492220372517965 1 0.015922782946072203 1 1 1 0.010252391126770479 1 1 1 1 1 0.013238489977186723 0.010267064994587488 1 1 0.0080689704614989241 1 1 1 1 1 1 1 1 1 1 1 1 1 1 0.0097803783506721816 1 0.01211946874260573 1 1 0.0095538825593847448 0.011675455062341808 1 1 0.010670048278655614 1 1 1 0.02588664430335836 1 1 1 1 0.026497247310220587 1 0.01461227604133873 1 0.018222199043905919 1 1 1 1 1 1 1 1 1 1 1 1 1 1 0.013465235407408958 0.0098050313380833171 1 1 1 1 1 1 1 1 1 1 1 1 0.027212898700740475 1 0.024608366382530028 1 1 1 1 1 1 1 0.011664871302048699 0.024610567929476954 1 1 1 1 1 1 1 1 1 1 1 1 1 1 0.010522874914477086 1 1 1 1 1 1 1 1 1 1 1 0.013082843793702913 1 1 1 1 1 1 1 1 0.010864090866456465 1 1 1 1 1 0.01034121595197938 1 1 1 1 0.017559829999884397 1 1 1 1 1 1 0.014837461325400005 1 1 1 1 1 1 1 1 1 1 1 1 1 1 1 0.010121296415221304 1 0.02159911312433517 1 1 1 1 1 1 1 1 1 0.015349854718353415 1 1 1 1 0.013481742459454852 1 1 1 1 1 1 0.011023754676554446 1 1 0.01003082310826872 1 0.0096118925432732098 1 1 0.012798755650824549 1 1 1 1 1 1 0.013774556952974358 1 1 0.01487315260342585 1 1 1 0.014267946783291793 1 1 1 1 0.0090050994804883912 0.010011395464561324 1 1 0.0089111648167172017 1 1 1 1 1 1 1 1 1 1 1 1 1 1 1 1 1 0.010941814200436958 1 1 1 1 1 1 1 1 1 1 1 0.0097120984566136607 1 1 1 0.010847401647777489 1 1 1 1 1 1 1 1 0.012756683379870128 1 1 1 1 1 1 1 1 1 1 1 1 1 1 1 1 1 1 1 1 1 1 1 1 1 1 1 1 1 1 1 1 1 1 1 1 1 1 1 1 1 1 1 1 1 1 1 1 1 1 1 1 1 1 1 1 1 1 1 1 1 1 1 1 1 1 1 1 1 1 1 1 1 1 1 1 1 1 1 1 1 1 1 1 1 1 1 1 1 0.0086098658701523143 1 1 1 1 0.0099753159530316972 1 1 0.0087463345502070966 1 1 1 1 1 1 1 1 1 1 0.0082507646153518813 1 1 1 1 1 1 1 1 1 1 1 1 1 1 1 1 1 0.011436012618048689 1 1 0.01170095034399783 1 1 0.0099786169442675505 1 0.013706192401291277 1 1 1 1 1 1 1 0.010641942446474385 1 0.011235428293612758 1 1 1 1 1 1 1 1 1 1 1 1 1 1 1 1 1 0.0099989220838422755 1 1 1 0.009503499751407931 1 1 0.0096550385885039447 1 1 1 0.0098869311027819807 1 1 1 1 1 1 0.0097497831281669282 1 1 1 0.010434951206806289 1 0.010302646684866997 1 0.010358162589206616 1 1 1 0.010154262660871709 1 1 0.010238414836287405 1 1 0.0094921848101719112 1 0.01027014605208113 1 1 1 1 0.0096448633545273207 1 1 1 1 1 1 1 1 1 0.011097632011595599 1 1 1 1 1 1 0.0098348180169757059 1 1 0.010039556806299988 1 1 1 1 1 1 1 1 1 1 1 1 1 1 1 1 1 1 1 0.012427239164607747 1 1 1 1 1 1 1 1 1 1 1 1 0.010365653293547879 1 1 0.010647274236717057 1 1 0.012632408700383195 1 0.0087939194214118072 1 0.012177008800789641 1 1 1 1 1 1 1 1 1 1 1 1 1 1 1 1 1 1 1 1 1 1 1 1 1 1 1 1 0.012131791851903426 1 1 1 1 0.01542729234523026 1 1 1 1 1 1 1 1 1 1 1 1 1 1 1 1 1 1 1 0.010316436631740067 1 1 1 1 0.017274324478356189 1 1 1 1 1 0.010471967826915356 1 1 1 1 1 1 1 1 1 1 1 0.011183170808588204 1 1 1 0.012651476449920726 1 0.010097911783821537 1 1 1 1 1 0.011249862291995441 0.01330958195079811 1 1 1 1 0.018043534876420169 1 1 0.0097224510513230777 1 0.011032722622168679 1 1 0.0096594506557526934 1 0.012371608529755095 1 1 1 1 0.01324217129039636 1 1 1 1 1 1 1 1 1 1 1 1 1 1 1 1 1 1 0.011278114793512468 1 1 1 1 1 1 1 1 1 1 0.010779301559116723 1 1 1 1 1 0.011585448525713832 1 1 1 1 1 1 0.011530503953361596 1 1 1 1 0.01419198487137238 1 0.009887982847773813 1 1 1 1 1 1 1 0.0097212843533077773 1 1 1 0.013422505756439593 1 1 1 1 1 1 1 0.012989817817294649 1 0.0099841948215687679 1 1 1 1 0.010080517317288306 1 1 1 1 1 0.01140415890906913 1 1 1 1 1 1 1 1 1 1 1 1 1 1 1 1 1 1 1 1 1 1 1 1 1 1 0.010554235978213091 1 1 1 1 1 0.010091335146969012 1 1 1 1 1 1 1 1 1 1 1 1 0.010472167314063793 1 1 1 1 1 1 1 1 1 1 1 1 1 1 1 1 1 1 1 1 1 1 1 1 1 1 1 1 1 1 0.0098871135662647047 1 0.012474731201986715 1 0.0096842514279799619 1 1 1 1 0.012194581696101596 1 1 1 1 1 1 0.010316994421290936 1 1 0.012197066828096702 1 1 0.010009793537989121 0.010255216155006686 1 1 1 1 0.012963583848650723 0.013152309978400001 1 1 1 1 0.010018308037568556 0.011749898566015925 1 1 1 1 1 1 1 0.0087121329206366095 1 0.0095100872515458453 1 1 1 1 1 1 1 1 1 0.011942209054012354 1 1 0.010100875965980152 1 1 0.011082260631844611 1 0.011971453400140367 1 0.0092330864959860731 0.01048848421246853 1 0.0097190252996510861 1 1 1 1 1 1 1 0.011340579867047392 0.01178877767424723 0.011769353035053071 1 1 1 1 1 1 1 1 0.012112293578678187 1 1 0.0099121134582880292 0.010000565182705114 0.0092081900375713469 1 0.011436876243948338 1 1 1 1 1 1 1 0.010008575156502305 1 1 1 0.010020406407288579 1 1 0.011274178102435714 1 1 1 1 1 1 0.010185386386385779 1 1 1 1 1 0.01036684174497424 1 1 1 1 0.010367596026105402 1 0.01083284544792637 1 1 1 0.01192828272928749 0.010085733449701284 1 1 1 0.010075707427077226 1 1 1 1 1 1 1 1 1 1 0.010749541805838661 1 1 1 1 1 1 1 0.010011811040666941 1 1 1 0.0099969071214211502 1 1 1 1 1 1 0.010962834924871379 1 1 1 1 1 1 1 1 1 1 1 1 0.010026344490612252 1 1 1 1 0.010466575480517288 1 1 1 1 1 1 1 1 1 1 1 1 1 1 1 1 1 1 0.01010524974365061 1 1 1 0.010003428063681298 1 0.010345142675158065 1 1 1 1 0.01102990641878468 1 1 1 1 0.010010506732549027 0.011511908285369229 1 1 0.0098023804192973081 1 1 0.010785166185786659 1 1 1 0.010957828628556404 1 1 0.009999645632514079 1 1 1 1 1 1 1 1 0.0099177489664703002 1 0.010751155930708668 1 1 0.010847775843014468 1 1 1 1 1 1 0.010691975730956243 0.0098930270241729054 1 1 1 1 1 1 1 1 1 1 1 1 1 1 0.01114387379569446 1 1 1 1 1 1 1 1 1 1 1 1 1 1 1 1 1 1 1 1 1 1 1 1 1 1 1 1 1 1 1 1 1 1 1 1 1 1 1 1 1 1 1 1 1 1 1 1 1 1 1 1 1 1 1 1 1 1 1 1 1 1 1 1 1 1 1 1 1 1 1 1 1 1 1 1 1 1 1 1 1 1 1 1 1 1 1 1 1 1 1 1 1 1 1 1 1 1 1 0.010302833576842828 0.009952355357483747 1 1 1 1 1 1 1 1 1 1 1 1 1 1 1 1 1 1 1 1 1 1 1 1 1 1 1 1 1 1 1 1 1 1 1 1 1 1 1 1 1 1 1 1 1 1 1 1 1 1 1 1 1 1 1 1 1 1 1 1 1 1 1 1 1 1 1 1 1 1 1 1 1 1 1 1 1 1 1 1 1 1 1 1 1 1 1 0.013185861581301608 1 1 1 1 1 1 0.0099876997160751897 1 1 0.010238091129508159 1 1 0.0113455358155558 1 1 1 1 0.010680283122641163 0.010322278223359717 1 1 0.010766884644789615 1 1 1 0.011097448537469589 1 0.012482627999004237 1 1 1 1 1 1 0.011037216774274529 1 1 1 0.01225344380722429 0.0099750571693288052 1 1 1 1 1 0.010135636942753245 1 0.01141978714098725 1 0.010570834490637273 1 1 1 0.0099935918239243277 1 1 1 1 0.0103516384610777 1 0.0096318105537495993 1 0.0099620630731828905 1 1 1 1 1 1 1 0.010005026394363563 1 1 1 1 1 1 1 1 1 1 1 1 1 1 1 1 1 1 1 1 1 1 1 1 1 1 1 1 1 1 1 1 1 1 1 1 1 1 1 1 1 0.010001060420515639 1 1 1 1 1 1 1 1 0.010391855433297981 1 0.0099915331680814033 1 1 1 1 0.01013403347883882 0.010000150301539355 1 1 1 1 1 1 1 1 1 1 1 1 1 1 1 1 1 1 0.0099939656779044761 1 0.0096996554070896187 1 1 1 1 1 1 1 1 0.010992266094924987 1 1 1 1 1 0.014379105776413213 1 0.01381639174466137 1 0.014342168550592791 1 0.011024209180039941 1 1 1 1 1 0.010789013929093032 1 1 1 1 1 1 1 1 1 1 1 1 1 0.016303621736704871 1 0.019628147143933135 1 1 0.0086597929486256844 1 0.015724642131032345 1 1 1 1 1 1 1 1 1 1 1 1 1 1 1 1 1 1 1 1 0.017985561642931677 1 1 0.014840752804826801 1 1 1 0.010129979538749561 0.014463535749862354 0.016221900341658418 0.011545348126300538 1 1 1 0.010026206063737957 1 1 1 0.011681140561495461 0.0099971487877621966 1 0.014639352413937714 1 1 0.010002408895980582 1 1 1 0.0097736074200723364 0.015664199402876104 1 1 0.011474514019546907 1 1 1 0.01564208674409364 1 1 1 0.014235247945852883 1 1 1 0.011642377895868923 1 1 1 1 0.01706359566886418 1 1 0.0107944366363102 1 1 1 0.016531894052841424 0.010718520945793049 1 1 1 1 1 1 1 1 1 1 1 1 0.0096561338015143869 1 1 0.0098475516622655596 1 1 1 1 1 0.018595617230586139 1 1 0.01533491895338481 1 1 1 1 1 1 1 1 1 1 1 1 1 1 1 1 0.010527389829176002 1 1 1 0.011386467825393855 1 0.014347155166042427 1 1 1 1 1 1 1 0.014069993786662112 1 1 1 1 1 0.012140494142781991 1 0.015087932818731878 1 1 1 1 1 1 1 1 1 1 1 0.010267814446092849 1 0.010016051179708213 0.016300201242453766 1 1 0.011668762274685307 1 1 1 1 0.01187651628480758 1 1 1 1 0.012487460155651308 1 1 1 0.014302703024285282 1 1 0.012507163436957009 1 1 0.010003543509998667 1 0.013024024464042036 1 1 0.01002258757094554 1 1 1 1 0.013690752445808769 1 1 1 1 1 1 0.014398126584314814 1 1 1 1 0.01001135605037397 1 1 1 1 1 0.014754997306179929 1 1 1 1 1 1 1 1 1 1 1 1 1 1 1 1 1 1 1 1 1 1 1 1 0.010645152631816148 1 1 1 0.021376302582314523 1 1 0.010021416671993903 1 1 1 1 1 1 0.010377338185723312 1 1 1 1 1 1 1 1 1 0.010357055302793631 1 1 1 1 1 0.010696906384859324 1 1 1 1 1 1 1 1 1 1 0.011226728049377974 1 1 1 1 1 1 1 1 0.012158438506166467 1 1 1 1 1 1 1 1 1 0.018877095327202359 0.014437649863244402 1 1 1 1 1 1 1 1 1 0.012865287042122336 1 1 0.020467447350115492 1 1 1 1 1 1 0.011155274099810913 1 1 1 1 1 1 1 1 0.0095662338361531558 1 1 1 1 1 1 1 0.010200862393594032 1 0.012873867678654059 1 1 1 1 1 1 1 1 1 1 1 1 1 1 1 1 1 1 1 1 1 1 1 1 1 1 1 1 1 1 1 1 1 1 1 1 1 1 1 1 1 1 1 1 1 1 0.014932983171788618 1 1 0.012228110381323511 1 1 1 0.013889976377538462 1 1 0.014083103068930115 1 1 1 1 1 1 1 1 1 1 1 1 1 1 1 1 0.011798532890985487 1 1 0.012048516889185183 1 1 1 0.010528773514035517 1 1 0.011877888971353317 0.012532611166677126 1 1 0.011176871233353508 1 1 1 1 1 1 1 1 1 1 1 1 1 1 1 1 1 1 1 1 1 1 1 0.010293398203898562 1 1 1 1 1 1 1 1 1 1 1 1 1 1 1 1 1 1 1 1 1 1 1 1 1 1 0.01485130753437729 1 1 1 1 1 1 0.017740765185209596 1 1 1 1 1 1 0.0099818888950117604 0.010312510464448024 1 1 1 1 1 0.011738889500356188 1 0.013059775600707681 1 1 1 1 1 1 0.008429049126664305 1 1 1 1 0.010584106651061192 1 1 1 1 1 1 1 0.01752370015443918 1 1 1 0.011631998146465771 1 1 1 0.012578158329745116 1 1 1 1 1 1 1 1 1 1 0.020636873988282248 1 1 0.0099324005670269871 0.0098747925495861737 1 1 1 1 0.013618482173997443 1 1 1 0.016535847726508679 1 1 1 0.016234814056949425 1 1 1 1 1 1 1 1 1 1 1 1 1 1 1 1 0.0098859303356626429 1 1 1 1 1 1 1 1 0.016467108539824027 1 0.014923009038276744 1 1 0.0096652451711604168 1 1 0.010130119500327231 1 1 1 1 1 1 1 1 1 0.010043952527136749 1 1 1 1 1 1 1 1 1 1 1 1 1 1 1 1 0.015840725613562409 1 1 0.012021170647986499 0.018184647877203114 1 1 1 0.01258586464386797 1 1 1 1 0.017454752476769465 1 1 0.015634283772576696 1 1 1 1 1 1 1 0.016542997916040206 1 1 1 1 1 1 1 1 0.0099901937416247266 0.009973294619879506 1 1 1 0.015825812634568989 1 1 1 1 1 1 0.011551740830959147 1 1 1 1 1 1 1 1 1 0.010852717183019327 1 1 1 1 1 0.010298802583189562 1 1 1 1 1 1 1 1 1 1 1 1 1 0.010227528625898971 1 1 1 1 1 1 1 1 0.010464103446026576 1 1 1 1 1 1 0.010469038976636228 1 0.0099990919050189937 1 0.014697793148498704 1 1 1 1 1 1 1 1 1 0.016979974180589504 1 1 1 1 1 1 1 1 1 1 1 0.0083823109693526889 1 1 1 1 1 1 0.0094666864658825029 1 1 1 1 1 1 1 1 1 1 1 1 1 1 1 0.011426224213293756 1 1 1 1 1 1 1 1 1 1 1 1 1 1 1 0.011836875319655391 1 1 1 1 1 1 1 1 1 1 0.015008480686661651 1 1 1 1 1 0.011761392851374309 1 1 1 1 1 1 1 1 1 1 1 1 1 1 1 1 1 1 0.010482722809895491 1 1 1 1 1 1 1 0.01399131884629007 1 1 1 1 1 1 0.016223419170486295 1 1 1 1 1 1 1 1 1 1 1 1 1 1 1 1 1 1 1 1 1 1 1 0.011180070518271041 1 1 1 1 1 1 1 1 1 1 1 1 1 1 1 1 1 1 1 1 1 1 1 1 1 1 1 1 1 1 0.010023939709921992 1 1 1 1 0.0099882963543934163 1 1 1 0.011289733269220743 1 1 0.011050496529394539 1 0.010625743447117315 1 0.014089703453328481 1 1 0.010771632530883158 1 0.012763612706482106 1 1 1 1 0.011582747627368028 0.012149594594759691 1 1 1 0.013338422125772856 0.010776025774474861 1 1 1 1 1 1 1 1 1 1 1 1 1 1 1 1 0.0067560767679124582 1 1 1 1 0.010244483362889478 1 0.017918387125510894 1 1 1 1 1 1 1 1 1 1 1 1 1 1 0.0097421956117419318 1 1 1 0.0087816845704068516 1 1 1 1 1 1 1 1 1 1 1 1 1 1 1 1 1 1 1 1 1 1 1 1 1 1 1 1 1 1 1 1 1 0.0078053880399908942 1 1 1 1 1 1 1 1 1 1 0.0092088587931902985 1 1 1 1 1 1 1 1 1 1 1 1 1 1 1 1 1 1 1 1 1 1 1 1 1 1 1 1 1 1 1 1 1 1 1 1 1 1 1 1 0.014415818602576425 1 1 1 0.012898026179576728 1 1 0.013745136471650913 1 1 1 1 0.011780176495762459 0.01189708192757067 0.014401784070390923 1 1 1 1 1 0.011841365667866725 1 1 1 0.014554042393152795 0.01005128746931354 1 0.010459664331528947 1 1 1 1 1 1 1 1 1 0.010844439577003054 1 1 1 1 1 1 1 1 1 1 0.010600988351370286 1 1 1 1 1 1 1 1 1 1 1 1 1 0.016473725006267714 1 1 1 0.011332471078097102 1 0.01357759904145271 1 1 0.0096018769818475604 1 1 1 1 1 1 1 1 1 0.011561029764728803 1 1 1 1 1 1 1 1 1 1 1 1 1 1 1 1 1 1 1 1 1 1 1 0.016892187584740492 1 0.0073212600519958222 1 1 1 0.008379939818914774 0.0094579010589770571 1 1 1 1 1 1 0.0064155245081979253 1 1 1 1 0.010284231869235973 1 1 1 1 0.0048135536083687962 1 1 1 1 1 1 1 1 1 1 1 1 0.010005103824363159 1 0.01355336248404313 1 0.014926965223984311 1 1 1 1 1 1 0.0098892506529825765 1 1 1 1 1 1 1 0.010571614258852571 1 1 1 0.01690978417139212 1 0.010137730545873943 1 1 1 0.011744394838052164 1 1 1 1 1 1 1 1 1 1 1 1 0.0088169874321778613 1 0.012826832951314548 1 1 1 1 1 1 1 0.0099990591349558219 1 1 1 1 1 1 1 1 1 1 1 1 1 0.010432365370244251 1 1 1 1 0.010940134677989551 1 1 1 1 1 0.011053027418515248 1 0.010308920130188918 1 1 0.0098568505457603799 1 1 1 1 0.0089447379057168569 0.0070692558061349331 1 1 1 0.010103316484884306 1 1 1 1 0.0079296501868581365 1 0.007924332072824794 1 1 1 0.010993265243808109 1 1 0.010507769307745302 1 1 1 1 0.010137269890468474 1 0.01080130847021298 1 1 1 1 1 1 1 1 1 1 1 1 1 1 1 1 1 1 1 1 1 1 1 1 0.0098040828677926212 1 0.01095629411198254 1 1 1 1 1 1 0.01278173689575377 1 1 1 1 0.010280059352814879 0.015953016485546648 1 1 1 1 1 1 1 1 1 1 1 1 1 1 1 1 1 1 1 1 1 1 1 1 1 1 1 1 1 1 1 1 1 1 1 1 1 0.010478561981577809 0.011078398057441794 1 1 1 1 1 1 1 1 1 1 1 1 1 1 0.011120115696391 1 1 0.0091469268381072846 1 1 1 1 1 1 1 1 1 1 1 1 1 1 1 1 1 1 1 1 1 1 1 0.010483211009422459 1 1 1 1 1 1 1 1 1 1 1 1 1 1 1 1 1 1 1 1 1 0.020796610945676985 1 1 1 1 0.019762687443666674 1 1 1 1 1 1 1 1 1 1 0.017776135000064135 1 1 1 1 1 1 1 1 1 1 1 1 1 1 1 1 1 1 1 1 1 0.011950945544045289 1 0.01526557813597082 1 1 1 1 1 1 1 1 1 1 0.009621871030833843 1 1 1 1 1 1 1 1 1 1 1 1 1 1 1 1 1 1 1 1 1 1 1 1 1 1 1 1 1 1 0.010212277076590254 1 1 1 1 1 0.010231336841892962 1 1 1 1 0.0099173620098698505 0.010429026195071979 0.012596471202445246 1 1 1 1 1 1 1 1 1 0.01129961755321137 1 0.012763273877838679 1 1 0.011303908210926399 1 1 1 1 0.01092663663619152 1 1 1 1 1 1 1 1 1 1 0.010261863126657238 0.0098995617221615956 0.011056737390346351 1 1 1 1 1 1 0.010117281984319495 1 1 1 1 1 1 1 1 1 1 1 0.0087156867798267434 0.012538601707272449 1 1 1 1 1 0.011392244508865848 1 1 1 1 1 1 1 1 1 1 1 1 1 1 1 0.010611006275646947 1 1 1 1 0.0098079181390232015 1 1 1 1 1 1 1 1 1 1 1 1 1 1 1 1 0.014532445381100123 1 1 1 1 1 1 1 1 1 1 1 1 1 1 1 1 1 0.011996389592733265 1 1 1 1 1 1 1 0.0121359102224591 1 1 1 1 0.0092379484796318006 1 1 1 1 0.014981269066988472 1 0.0098332777120723747 1 1 1 1 0.008562936745414907 0.013564983084946542 1 0.010705965262839505 1 1 0.0097854049631622923 1 1 1 1 1 1 1 1 1 1 1 1 1 1 1 1 1 1 1 1 1 1 1 0.010161397393953239 1 1 1 1 0.010463727998965801 1 1 0.010716702973782731 1 1 1 1 1 1 1 0.010203215468389096 1 1 1 1 0.01048793862546421 0.010007446064687479 1 1 1 0.015932044300387405 0.0086217902200049108 0.010184618406455324 0.0080728319373202101 0.0099990094738421041 1 1 1 1 1 1 1 1 1 1 0.017942341120328484 1 1 0.01801098644331826 1 1 1 0.012848229152806626 1 1 1 1 1 1 1 1 1 0.012524661255103441 0.0081929385699972233 1 1 1 1 1 1 0.022386136487894198 0.013673355715044692 1 1 0.0068283985339815285 1 0.0098280501524531279 1 0.010480847563007052 1 1 1 1 1 0.018925947979891312 1 0.019684520854373531 1 0.021397200267604992 1 1 1 1 1 1 1 1 0.011373558927592694 1 1 1 1 0.010892711364585646 1 0.010368595745437663 1 1 1 1 1 1 1 1 1 0.010339851082065695 1 1 1 1 1 0.015622511712675508 1 1 1 0.019861828225803364 1 1 0.019527468683897372 0.011121189662884929 1 1 1 1 0.010541115072073235 1 0.011483594958379818 1 1 1 1 1 1 1 1 1 1 1 1 1 1 1 0.018531416557513399 1 0.012863952184087986 1 1 0.016645540483717788 0.010066630266994928 1 0.015957708564785691 0.013310210314626893 1 1 0.013384075749305332 1 1 1 1 0.015046076449067119 1 1 0.01249101685673688 1 0.010003847100319575 1 0.014376023600001633 1 0.014157312732684838 1 1 1 0.011282742023638159 1 0.011968642601899832 1 0.010059403835828144 1 1 1 0.015070449880693072 1 1 0.016701296906410552 1 1 1 1 1 1 1 1 1 1 1 1 1 1 1 0.011025248153829548 0.013661942725791599 1 1 1 1 1 1 1 1 0.0098867835772129282 1 1 1 1 1 1 1 1 1 1 1 1 1 1 1 0.01140632043819536 1 1 1 1 0.015078279404176784 1 1 1 1 1 1 0.015879696840417713 1 1 1 1 0.016761570386373381 1 1 0.014729830166859996 1 1 1 1 1 0.01022767953292701 1 1 1 1 1 1 1 0.020810068095318657 1 1 1 1 0.020196990431173185 1 1 1 1 1 1 1 1 0.010341279704224129 1 0.01294033382357818 1 1 1 0.0090495557097766671 1 1 1 1 1 0.012243083804897824 1 0.011948354144138477 1 0.010082926948478269 1 1 1 1 1 1 1 1 1 1 1 1 1 1 1 1 1 1 1 1 1 1 1 1 1 1 1 1 1 0.0096183138130084521 1 0.010100156072541572 1 1 1 1 1 0.010477266495592606 1 1 1 1 1 1 1 1 1 1 1 1 1 1 1 1 1 1 1 1 1 1 1 1 1 1 1 1 1 1 1 1 1 1 1 1 0.010745349568290485 1 1 1 1 1 1 1 1 1 1 1 1 1 1 1 1 1 1 1 1 1 1 1 1 1 1 1 1 1 1 1 1 1 1 1 1 1 1 1 1 1 1 1 1 1 1 1 1 1 1 1 1 1 1 1 1 1 1 1 1 1 1 1 0.010793448420939017 0.010327335830280749 1 1 1 1 1 1 1 1 1 1 1 1 1 1 1 1 1 1 1 1 1 1 0.010336219524850206 1 1 1 1 1 1 1 0.016502957520539551 1 1 1 0.010712916676871459 1 1 1 1 1 0.00992486132754717 0.010816477489691997 0.0099237293942715729 1 1 1 1 1 1 1 1 0.011049231918576697 1 1 0.010898040236636054 0.010524453315833489 1 1 1 0.010016506119089863 1 1 0.010970764842817903 1 1 1 1 1 1 1 0.010177487438576601 1 0.010553156243516163 1 1 1 0.011194184645188595 1 1 1 1 1 1 1 1 1 1 1 1 1 1 1 0.010148583282574985 1 0.0096122820265615583 1 1 1 1 1 1 1 1 1 1 1 1 1 1 1 1 1 1 1 0.011175984847899226 1 1 1 0.011244668381046348 1 1 1 1 1 1 1 1 1 1 1 1 1 1 1 1 1 1 1 1 1 1 1 1 1 1 1 1 1 1 1 1 1 1 0.01006610057970323 1 1 1 1 1 1 1 1 1 1 1 0.010088788621460886 1 1 1 1 1 1 1 1 1 1 1 1 1 1 1 1 0.0099951150729858575 1 0.0099724270312282013 1 1 1 1 1 1 1 1 1 1 1 1 1 0.010319945676300494 1 1 1 1 1 1 0.013992152121391778 1 1 1 1 1 1 1 0.011337926049830718 1 1 1 1 0.010282440031757463 1 0.010287588843966217 1 1 1 1 1 1 1 0.01011822482213879 1 1 0.01123614836324624 1 0.010403362314707159 1 1 1 0.012049432162946783 1 1 1 1 1 1 1 1 1 1 0.011545109169352365 0.011388348338868134 0.011322282132517741 1 1 0.011794151035618712 1 1 0.010320693352242167 1 1 1 1 1 0.0099513179872878499 1 1 1 0.013774184793306561 1 1 0.0099982974653873048 1 0.010025326156117882 1 1 1 1 1 1 1 1 1 1 1 1 1 1 1 1 1 1 1 1 0.010021530871109054 1 0.011439776404050627 1 0.010136564843498969 0.013579241812815473 1 1 1 1 1 1 1 1 1 1 1 1 1 1 1 1 1 1 1 1 1 1 1 1 1 1 1 1 1 0.011610151957911825 1 1 1 1 1 1 1 1 1 1 1 1 1 1 0.011131992287976735 1 1 1 1 1 0.01663633035440306 1 1 1 1 1 1 1 1 1 0.012375260356184963 1 1 1 1 0.0087604748782206497 1 1 1 1 1 1 0.01647674636346225 0.0058110773973980099 1 1 0.014611734852417785 1 1 1 1 1 1 1 1 1 1 1 1 1 1 1 1 1 1 1 1 1 0.017793313028940182 1 1 1 1 0.012334235949738084 1 1 1 1 1 1 0.010302329651811088 1 1 1 1 1 1 1 1 1 1 1 1 1 1 1 1 1 1 1 1 1 1 1 1 1 1 1 1 1 1 1 1 1 1 1 1 1 1 1 1 1 1 1 1 1 1 1 1 1 1 1 1 1 1 1 1 1 1 1 0.010654199234037726 1 1 1 1 1 1 1 1 0.0098445590166941679 1 0.010072217157240508 1 1 1 1 1 1 1 0.010167860277180987 1 1 1 1 1 1 1 1 1 1 0.011705129694482119 1 1 1 1 1 1 1 1 1 1 1 1 1 1 1 1 1 1 1 1 0.009162634082984426 1 1 1 1 0.0099597436046292113 1 1 1 1 0.011183411480474069 1 1 1 1 1 1 1 1 0.0069984988782087025 1 1 1 1 1 1 1 1 1 1 1 1 0.0097034164813639412 1 1 1 0.011243180884905449 1 1 1 1 1 0.015817705371868284 1 1 1 1 0.010571786129652292 1 1 1 0.010225989996591574 1 1 1 1 1 1 1 1 0.013809089662096954 1 1 1 1 1 0.015614917028538643 1 1 1 0.01028210831687211 1 1 0.011679271358360234 1 1 0.0098833149476805476 1 1 1 1 1 0.010531915891960522 1 1 1 1 1 1 1 1 1 1 1 1 1 1 1 1 0.010851060078374145 1 0.010375582736715749 1 1 1 1 1 0.0069412373432397936 1 1 1 1 1 1 0.0042361207121263331 1 1 1 1 1 1 1 1 0.015352036248603554 0.013108838986032354 1 1 1 0.012621646814760565 1 1 1 1 0.010006371847527607 1 1 0.0095727479096292985 1 0.0095591548793341058 1 1 1 0.010004580711400032 1 0.0084944972063611436 0.0144169665007909 1 1 0.019012691856318743 1 1 0.0092928842199989092 1 1 1 1 0.020073160321124998 1 1 0.013116178870668828 1 0.0099937438871941595 0.015065319804931795 1 1 1 1 1 1 1 1 1 1 1 1 1 1 1 1 1 0.010014028287318975 1 0.009760490481243278 1 1 1 0.010390194556017449 1 1 0.011562675147988144 1 0.0099619415543075393 0.011087133894580038 1 1 0.009964261864048269 1 1 0.010244299860009146 0.010515985241845074 1 0.0098952941147619246 0.010030269198807461 1 1 1 1 1 1 1 1 1 1 0.011913747988313296 1 1 1 1 1 1 1 1 1 0.0099408357980603629 1 1 1 1 1 1 1 1 1 1 1 1 1 1 1 1 1 1 1 1 1 1 1 1 1 1 1 1 1 1 1 1 1 1 1 1 1 1 1 1 1 1 1 1 1 1 0.014291915779652367 1 1 1 1 0.016510807774445725 1 1 1 1 1 1 0.010385492319322212 1 1 1 1 0.010247744848733762 1 1 1 0.015854441962507487 0.0099510108056531255 1 1 1 1 1 1 1 1 1 0.01341390330430901 1 0.010534534186718488 1 1 1 1 1 1 1 1 1 1 1 1 1 1 1 1 1 1 1 1 1 1 1 1 1 1 1 1 1 1 1 1 1 1 1 1 1 0.010792983711227125 1 1 0.0095764683057542252 1 1 1 1 1 1 1 1 1 1 1 1 1 0.014290109176059664 0.0087962624419090432 0.009625408386669726 1 1 1 0.012165759375887524 0.009946681808334204 0.010220106102847269 1 1 1 1 1 1 1 1 1 1 1 1 1 1 1 1 0.011371628032186432 1 1 0.010128879259359064 1 1 1 1 1 1 1 0.011153282012730425 1 1 1 1 1 1 1 1 1 1 1 1 1 1 1 1 1 1 1 1 1 1 1 1 1 1 1 1 1 1 1 1 0.012160210138963096 1 1 1 1 1 1 1 1 1 1 0.012805832094567343 1 1 1 0.012160195789139031 1 1 1 1 1 1 0.010014224809036338 0.011203070929600991 1 1 1 1 0.0094572317422237373 1 0.011487262911468368 1 1 1 1 1 1 1 1 1 1 1 1 0.015228840300970561 1 1 1 1 1 1 1 1 1 1 1 1 0.010564625208805333 1 1 1 1 1 1 1 1 1 1 1 1 1 1 0.01441215656296424 1 1 1 0.015633077643688428 0.010024429725923378 1 1 1 1 1 1 0.010983045082282566 1 1 1 1 1 1 1 1 1 1 1 1 1 1 1 1 1 1 1 0.0094633718476916026 1 1 1 1 1 1 1 1 1 1 1 1 1 1 1 1 1 1 1 1 1 1 0.0088009163016273227 1 1 1 1 1 1 1 1 0.0093383390622108122 1 1 1 1 1 1 1 1 1 1 1 1 1 1 1 1 1 1 1 1 1 0.0098798379632089733 1 1 0.01202618405129198 1 1 1 1 1 1 1 1 1 1 1 1 1 1 1 1 1 1 1 1 1 1 1 1 1 1 1 1 1 0.009118267414754435 1 1 1 1 1 1 1 1 0.012922683364699152 1 1 1 0.011175532787744391 1 1 1 0.010142713518055728 1 1 1 1 1 0.012980070528231866 1 1 1 1 1 1 0.0082720208790292189 0.011509015998641799 1 0.014440207961440864 0.0073270461763113928 1 1 0.013446039353613548 1 1 1 1 1 1 1 1 1 1 1 1 1 1 1 1 1 1 1 1 1 1 1 1 1 1 1 1 1 1 1 1 1 1 1 1 1 1 1 1 1 1 1 1 1 1 1 1 1 1 1 1 1 1 1 1 1 1 1 1 1 1 1 1 1 1 1 1 1 1 1 1 1 1 1 1 1 1 1 1 1 1 1 1 1 1 1 1 1 1 1 1 1 1 0.018388658791863362 1 1 1 1 1 1 1 1 1 1 1 1 1 1 1 1 1 1 1 1 1 1 1 1 1 1 1 1 1 1 1 1 1 1 1 1 1 1 0.0099425734108630898 1 1 1 1 1 1 1 1 1 1 1 1 1 1 1 1 0.012686369564605622 1 1 1 1 1 1 0.010168306923428145 0.007521866317095679 1 1 0.013408295270706484 1 1 0.010335375531135289 1 1 1 1 0.010193560937552481 1 1 1 1 1 1 1 1 1 1 1 1 1 1 1 1 1 1 1 1 1 1 1 1 1 1 1 1 1 1 1 1 1 0.011357213313569481 1 1 1 1 0.010042797712803017 1 1 1 0.010105017494979775 1 1 1 1 1 1 0.010631305483183775 1 1 1 1 1 1 1 1 1 0.009658912633695841 1 1 1 1 1 1 1 1 1 1 0.0088197964102732455 1 1 1 0.011477468172264804 1 0.010264015432007513 1 1 0.0087727183485227893 0.01202313595938807 0.0089782419061058497 1 1 1 1 0.0098447801400014211 1 1 1 1 1 1 1 1 1 1 1 1 1 1 0.010267330003912788 1 1 1 1 1 0.0096587903599787486 1 0.01067156698866204 1 1 0.012093335716562112 1 1 1 1 1 1 0.013218894865456649 1 1 1 1 0.0086975075337725732 1 1 1 1 1 0.0090121972471636572 0.0099888518732049302 1 1 0.010426880701583999 1 1 1 1 1 1 1 0.0099795372670395746 0.010614836068274562 1 0.0079040429337097623 1 1 1 0.0096859523150195706 1 1 1 0.013813688437184111 1 1 1 0.015163657148671439 1 1 1 1 1 1 0.0086644420400528287 0.0095405340697018899 1 1 1 1 1 0.010151991949625362 1 0.010002319661867142 1 1 0.0090210772339212111 0.013516729537472721 1 1 0.012481077070897658 1 0.0094719180996016162 0.01015757961075309 1 1 0.0080877519613080425 1 0.012028481047748726 1 1 0.012602688107826065 0.010301535792386131 1 1 1 1 1 1 1 0.013489537559037916 1 0.012583787824412114 1 0.015471002462973449 1 1 1 1 0.01399984412437558 1 1 1 1 1 1 1 1 1 0.010154171222230333 1 1 1 1 1 1 1 0.012733251028012092 1 1 1 0.01055240343205943 1 0.0098242206899476544 1 1 1 1 0.0099748295811839475 1 0.0095148370566012167 1 0.0067594079202168856 1 0.010008451708966581 1 1 1 0.019029718581321794 1 1 1 1 0.010314229422066459 1 1 1 1 1 1 0.010670845468351233 1 0.010047837659303243 1 1 0.010480919223857892 1 1 1 1 1 1 0.012022911879103695 1 1 1 1 1 1 1 1 1 1 1 0.011252449612845956 1 0.01005038568648197 1 1 0.011951197841561458 0.012472899404373414 1 1 1 1 0.0095050111178495954 1 0.012054330609624119 0.011549776562664172 1 0.010000673927693129 1 1 0.013838904857334026 1 1 1 1 0.01085104138463143 1 1 1 1 1 1 0.010146523505373841 1 1 1 1 1 1 1 1 1 0.010301792376714525 1 1 1 0.0090735148745856482 1 1 1 1 1 1 1 1 1 1 1 1 1 1 1 1 1 1 0.015192022892663219 1 1 1 1 1 0.020377688934979418 0.0083073375868706612 1 1 1 0.010836937705512898 1 1 1 0.020641457513542783 1 1 1 1 1 1 1 1 1 1 1 1 1 1 1 1 1 1 1 1 1 1 1 1 1 1 1 1 1 1 1 0.010762566079931885 1 1 1 1 1 0.019978620940223169 1 1 1 1 1 1 1 1 1 1 1 1 1 1 1 0.02159597854041808 1 1 1 0.020414341424246585 1 1 1 1 1 1 1 1 1 1 1 1 1 1 1 1 1 1 1 1 1 1 1 1 1 1 1 0.010270114783659013 1 1 1 1 1 1 0.015166343726892321 1 1 0.011256946374685483 1 1 1 1 0.013896363915651206 1 1 0.01697065647716367 0.01077266248204611 1 1 1 0.010007452505281917 1 1 1 0.015917712236054107 1 1 1 1 1 1 1 1 1 1 1 1 1 0.012597318050825441 1 1 1 1 1 1 1 1 1 1 1 1 1 1 1 1 1 1 1 1 0.011764230647899984 1 1 1 1 1 1 1 1 0.011341777129948001 1 1 1 0.013025959088134422 1 1 1 1 1 1 1 1 1 1 0.012528878618785136 1 1 1 1 1 1 1 1 1 0.0098702993636459076 1 1 0.01603211535642678 1 0.0091744121191682012 1 1 1 1 1 1 1 1 1 0.011789567525324585 0.010131175938147788 1 1 1 1 1 0.011270338710109332 1 1 0.012399710693619998 0.0099971319847996978 0.012977555023799259 1 1 1 1 1 1 0.013767572508473574 1 0.0099977227679762526 1 1 0.013294925376159904 0.010024141846570033 1 1 0.013173787688368559 1 1 1 1 1 0.013767468822464383 1 1 1 1 1 1 1 1 1 1 1 0.012691772673359199 1 1 1 0.012179141255158416 0.010862416750974751 1 1 1 1 1 1 1 1 1 1 0.015089254274967727 1 1 0.01275355139506962 1 0.012588381515712505 0.011253022073658811 1 0.01049433444514501 1 0.010585679332609812 1 0.0099714097062730198 1 1 1 1 1 1 0.010457721893203945 0.012873023730458531 1 1 1 1 1 1 1 0.0099950468929331081 1 0.010865907230435857 1 1 1 1 1 1 1 0.013404002019192207 1 1 1 1 1 1 0.012816907134819755 1 1 1 1 1 1 1 1 1 0.013930758597321275 1 1 1 1 0.010969838035949642 1 1 1 1 1 1 1 1 1 1 1 1 1 1 1 1 1 1 1 1 1 1 1 1 1 1 1 1 1 1 1 1 0.0092391575966751186 1 1 1 1 1 1 1 1 1 1 0.0088707113595308685 1 0.010930660890544945 1 1 0.0099513314670435088 1 1 1 1 1 1 1 1 1 1 1 1 0.016205275744610573 1 0.012927705895384386 1 1 1 1 1 1 1 1 1 1 1 1 1 1 1 0.010638047097969817 1 1 1 1 1 0.01408460700500164 0.013862645864312092 1 1 0.0095907304346479257 1 1 1 1 1 1 1 1 1 1 1 0.0099694437547806995 1 1 1 1 0.017089396094189462 1 1 1 1 1 1 0.013358191473266433 0.012335858712422893 0.008659913762222908 1 0.0091152038774803615 1 0.0093986809946675978 0.0092974889852157107 1 0.014216074479540132 0.012920928056448719 0.013659582017205622 1 1 1 0.010005224008271115 1 0.01362485253011988 1 1 0.012503773423010546 1 1 1 1 1 1 0.0098690444267687805 1 0.0097034582532022143 1 1 1 1 1 1 0.012659958796447018 1 1 1 0.012866333197999775 1 1 1 0.012219622409219861 1 0.013556938921897351 1 1 1 0.011638008027608017 1 1 1 1 1 0.013742356791155288 1 1 1 1 1 1 1 1 1 1 1 1 0.0099909506261380756 0.008711544108629064 1 1 1 1 1 1 0.0090617349994469368 1 0.0091613672426682832 1 1 0.01045825877962021 1 1 1 1 1 1 1 1 1 1 1 1 0.014947815426696223 1 1 1 1 1 1 1 1 0.0098055395955989021 1 0.016686927421825849 1 0.010683249900417364 1 1 0.014563919138264728 1 1 1 1 1 1 1 1 1 1 1 1 0.010705860359673802 1 1 1 1 1 0.010512192629685189 1 1 1 1 1 1 0.011987961105149061 1 1 1 1 1 1 1 1 1 1 1 1 1 0.0099705654157499074 1 0.012843708648888508 1 1 1 0.010858220456220501 1 1 1 1 1 0.010163746483524614 1 1 1 1 0.010512709846631553 1 0.0091992791225218376 1 1 1 1 0.0099622244484511551 1 1 1 1 0.012659709896559767 1 1 1 1 1 1 0.010254637543208187 1 0.0095162504305392644 0.010686780130415555 0.0099047667339993567 1 1 0.010002842551764264 0.011206350496207759 1 1 1 1 0.010254679397807019 1 0.0099999856339909737 1 1 1 0.010168653466391814 1 1 1 1 1 1 1 1 1 1 1 1 1 1 1 1 1 1 1 1 1 1 1 1 1 1 1 1 1 0.010431855204236085 1 1 0.01343606508473727 0.011111776225598013 1 1 1 1 0.010009608652184367 0.013438284908597678 0.01095287581722278 1 1 1 1 0.0089856887481751524 1 0.0099887992035540846 1 1 0.010471035339004269 0.011039404810424369 1 1 1 1 0.0088385126251164601 1 0.0090867059700033056 0.0090353808670764531 1 1 1 1 1 1 1 1 1 1 0.013427754049598098 1 1 0.010511067664242998 1 1 1 1 1 0.010690976128881303 1 1 1 1 1 1 1 0.010234414049730162 1 0.012594445975754766 1 1 0.010126811019349372 1 1 1 1 1 1 1 1 1 1 0.010361652537078951 1 1 1 1 1 1 1 1 1 0.010397422147673589 1 0.010162580629944009 1 1 1 1 1 1 1 1 1 1 1 1 1 1 1 0.011946255686085332 1 1 1 1 1 1 1 1 1 1 1 1 1 1 0.0098933192970148496 1 1 1 0.010248469151714573 1 1 1 1 1 1 1 0.010166922618282377 1 1 1 1 1 1 1 1 1 1 0.011029238880904298 1 1 1 1 1 1 1 1 1 1 1 1 1 1 0.012625204108376432 1 1 1 0.010988852198633027 1 1 1 1 1 0.012827292828967291 1 1 1 1 1 1 1 1 1 1 1 1 1 1 1 1 1 1 0.011231327601495155 1 1 1 1 1 1 1 1 1 1 1 1 1 1 1 0.010521626364539158 1 1 1 1 1 1 1 1 0.010417915293972457 1 1 1 0.010146656665807564 1 1 1 1 0.010215632662425764 1 1 1 1 1 1 1 1 1 1 0.010118127422310941 0.010770011527457992 1 1 1 0.010462344621624209 1 1 1 0.010236241446946204 1 1 1 1 1 0.0100887429633882 1 1 1 1 1 1 1 1 1 0.011544834493809483 1 1 0.012485053440043211 1 1 1 1 1 1 1 0.01000251521136738 1 0.010567009731529731 1 1 0.010065251406870595 1 0.0093344442314737316 1 0.0099154071269668461 1 1 1 1 1 1 0.010807731478072565 1 1 1 1 1 1 0.013035791924126371 1 1 0.010614259930152014 1 1 1 0.010153817103313433 1 0.0099975971890894147 1 0.010584958112286158 1 0.012332849813191273 1 1 0.0096154599448671618 1 0.010009571189341603 1 1 0.014770170626669915 0.016455345167755715 0.0099432271591904445 1 1 1 1 1 1 0.010060328588286689 1 1 0.012672377358636251 1 1 0.013785061921534281 1 0.010093688391993955 1 1 1 1 1 1 1 1 0.0085480863812107677 1 1 0.010019909208918458 1 0.0087957074903953544 1 1 1 1 1 1 1 1 1 1 1 1 1 1 1 1 0.010257181437578925 1 0.0092965163883326138 1 1 1 1 0.0093682036885851389 1 0.0099473836731527182 1 1 1 1 1 0.009551698829697669 1 0.011294272213467552 1 1 1 1 1 1 1 0.010550353029927302 1 1 1 1 1 1 0.011333623353081475 1 0.010014284728378663 1 0.010151981830727757 1 1 1 1 0.010011674157558912 1 1 1 1 1 1 1 0.010685744395667237 1 0.013129111032104941 1 0.0087889346284703799 1 1 1 0.009941453877271576 1 1 1 1 1 1 1 1 1 1 1 1 1 0.013082140154943198 1 1 1 1 1 1 1 1 1 0.010300062261531649 1 1 0.0082970462945976958 1 1 1 0.012738629988232617 1 1 0.0097559567485456279 1 1 0.017347864324155152 1 0.0094663790355161669 1 1 1 1 1 1 1 1 1 1 1 1 1 0.01018207319601043 1 0.013085594035619897 1 1 1 1 1 0.0093795419595634807 1 1 0.010173573989118969 1 1 1 1 0.013224969491633149 1 1 1 1 1 0.015910675681189639 1 1 0.01438583235673329 1 0.0099987304110494453 1 0.0091053905327774 0.01360824128209917 1 1 1 0.010853537512813319 1 1 1 1 0.0099234892519959178 1 0.015905259088248351 1 1 1 1 1 1 1 1 1 1 1 1 1 1 1 1 1 1 1 1 0.011010714361021398 1 1 1 0.010763248449580792 1 1 1 1 1 1 1 1 1 1 1 1 1 1 0.010029801035605933 1 1 1 1 1 1 1 1 1 1 1 1 1 1 1 1 1 1 1 1 1 1 1 1 1 0.010029893628840637 1 1 1 1 1 1 1 1 1 1 1 1 1 1 1 1 1 1 1 1 1 1 0.011122340039680313 0.010107818339351272 1 1 1 1 0.01026472671824457 1 1 1 1 1 1 1 1 1 1 1 1 1 1 1 1 0.010027744908348929 0.0099960808831129847 1 1 0.010000772777812571 0.01005536013715419 1 0.012408519620043574 1 1 1 0.015282728608949414 1 1 0.014461720630149083 1 1 1 0.016307415221207381 1 1 1 0.010074517306476301 1 1 1 1 0.010058406756162241 1 0.017234775567597338 1 1 1 1 0.014289049757427903 0.012498636497527242 1 1 1 1 1 1 0.014568086836463327 1 1 1 0.014405959546781498 1 1 1 1 1 1 1 1 0.014183738921351543 1 1 1 0.014625152664125129 0.0099340169137191545 1 1 0.0094746629170698905 1 1 1 0.009470196914092413 1 1 1 1 1 1 1 0.01109831074353688 1 1 1 1 0.013780936649573874 1 1 1 0.0070389012930777463 0.012993150632977866 1 1 0.012680230287624118 0.01238724630989772 1 1 1 1 1 1 1 1 1 1 1 1 1 1 1 1 1 1 1 1 0.0093900239318849936 1 1 0.0088203150457465268 1 1 1 0.013266435697558488 1 1 1 1 0.012958771141685997 1 0.013720963751947561 1 0.012227157232667825 0.010685455409528066 1 1 0.013014605812054124 1 1 0.011116164270776071 0.011021130324199879 1 1 1 1 1 1 1 1 1 1 1 0.01035445707044054 1 1 0.0099618198510324427 1 0.010037436407651628 1 1 0.011525884729490905 1 1 0.015603695370429507 1 1 1 1 0.010001197622690566 1 1 1 0.01502918095372488 1 1 1 0.012724452808724576 1 1 1 1 1 1 1 1 0.010182877891339724 1 1 1 1 1 1 1 1 1 1 0.010324599833396536 1 1 1 1 1 1 1 1 0.010108527613762741 1 1 1 1 1 1 0.010830849631724836 1 1 1 1 1 1 1 0.010506249798328295 1 1 1 1 1 1 1 1 1 1 1 1 1 0.012364698757992173 1 1 1 1 1 0.016011407380025988 1 1 1 1 1 1 1 1 1 1 1 1 1 1 1 1 1 1 1 1 1 1 1 1 1 0.009911829587795927 1 1 1 1 1 1 1 1 1 0.011956514891978513 1 1 1 1 1 1 0.0097607070992801227 1 1 1 1 1 1 1 1 1 1 1 1 1 1 1 1 1 1 1 1 1 1 1 1 0.012081467339761426 0.0095237694563711436 1 1 1 0.011671076614482672 1 1 1 0.0084313040630412568 1 1 1 1 1 1 1 1 1 1 1 1 1 1 1 1 1 1 0.010958327836298286 1 1 1 1 1 1 1 1 1 1 1 1 1 1 1 1 0.0090108011893672724 1 1 1 1 1 1 1 1 1 1 1 1 1 0.010177501194758914 0.0090541312857941088 1 1 1 1 1 1 1 1 1 0.011532913130490152 1 1 1 1 1 1 0.010588854245809177 1 1 1 1 0.010400553492714813 1 1 1 1 1 1 0.010223052297955884 1 1 1 1 1 1 1 1 1 1 1 1 1 1 1 1 1 0.00985526895027437 1 1 0.02044651828684255 1 1 1 1 0.01375361572158333 0.014104853385837855 1 1 1 1 1 1 0.010234759881233714 0.012972961631810232 1 1 1 0.018802187198974474 1 0.010155586597718754 1 1 1 0.017871616966532975 1 1 1 1 1 1 1 1 1 1 0.011472533694922817 1 0.012701002470957581 1 1 1 0.010840412923536888 1 1 1 1 1 1 1 1 1 1 1 1 1 1 1 1 1 1 1 1 1 1 1 1 1 1 1 1 1 1 1 1 1 0.010225783408921756 0.0099710190667322285 1 1 0.015104041772025871 1 1 1 1 1 1 0.014998559199404734 0.010201164238418523 1 1 1 1 1 1 1 1 1 1 1 1 1 0.011943171716503987 1 1 1 1 1 1 1 1 1 1 1 1 1 1 1 1 1 1 1 1 1 1 1 1 1 1 1 1 1 1 1 1 1 1 1 1 1 1 1 1 1 1 1 1 1 1 1 1 1 1 1 1 1 1 1 1 1 1 1 1 1 1 1 1 1 1 1 1 1 1 0.010777038277804801 1 1 1 0.010492252834583458 1 1 1 1 1 1 1 1 1 1 1 1 1 1 1 1 0.0099170824478801677 1 1 1 1 1 1 1 1 1 1 1 1 1 1 1 1 1 1 1 1 0.0099950037239163701 1 1 1 1 1 1 1 0.012218924949766213 1 1 0.012623984331990712 1 1 1 1 1 1 0.011322557969758791 1 1 1 1 1 1 1 1 1 1 1 0.012645429759767351 1 1 1 1 1 1 1 0.013258773407854037 1 1 1 1 0.012490756426559911 1 1 0.0099977339391858159 1 1 1 1 1 1 1 1 1 1 1 1 0.010002315648387956 1 1 1 0.0099784086584747585 1 1 1 1 1 1 1 1 1 1 0.011310808815556316 1 1 1 1 1 1 1 1 1 0.0097659599593643755 1 1 1 1 1 1 1 1 1 1 1 1 1 1 1 0.0098883305654468463 1 1 0.0099912658543467384 0.011267506652430908 1 1 1 1 0.011165296834190118 1 1 1 1 1 0.010747260880316464 1 1 0.01025419065895285 1 1 1 1 1 1 1 1 1 1 1 1 1 1 1 1 1 1 1 1 0.0099637775336908589 1 1 1 1 1 1 1 1 1 1 0.0096290220281916653 1 1 0.010001410449125316 1 1 1 0.011268356976246802 1 1 0.010050327947507402 1 1 1 1 1 0.01014458813415554 1 1 1 0.0096732204345916367 1 1 1 0.0098597008334812518 1 0.010000209106501236 1 1 1 1 1 1 1 0.010001413012703395 1 1 1 1 0.010389059275590661 1 1 0.010775038438501687 1 1 1 1 1 0.010466306162755689 1 1 1 0.010287508409798543 0.01106429386512927 1 1 1 1 1 0.010787646691217408 1 1 1 1 1 1 0.01009244833012014 1 1 1 1 1 1 1 1 1 1 1 1 0.010422616029775275 1 0.0099312938727669255 1 1 1 1 0.011126132412218298 1 1 1 1 0.0096329943070710827 1 1 0.0099026998757271827 1 1 1 0.010341339388145271 1 1 1 1 1 1 1 1 0.009856319559538345 1 1 1 1 1 1 1 1 1 1 1 1 1 1 1 1 1 1 1 0.01011032125602207 1 1 1 1 1 1 0.010020547025837705 1 1 1 1 1 1 1 1 1 1 1 0.010200420186801538 1 1 1 1 1 1 1 1 1 1 1 0.011056247651382758 1 1 1 1 1 0.010676395724598553 1 1 1 1 0.012118285113509347 0.011435221561269082 1 1 0.0099965841972516987 1 0.0099962270901109204 1 0.0099383352617920494 0.010502750519485175 0.0099998531452223163 0.0090123677740629633 1 1 1 1 1 1 0.0083563651197834741 0.0088353911770814933 1 1 1 1 0.01005542776325195 1 1 1 1 1 0.010316767331948477 1 1 1 1 1 0.010065766765082154 1 1 1 1 0.0099925185133685201 1 1 0.010998085562460489 1 1 1 0.010403225911587812 1 0.00999826152165606 1 1 0.010000454751804749 1 1 1 1 1 1 1 1 1 1 1 1 1 1 1 1 1 1 1 1 1 0.010671446345656477 1 1 1 1 1 1 1 0.010077045857272572 1 1 1 0.0097140052425541464 1 1 1 1 0.0098902692532671348 1 1 1 1 1 0.010330106957511208 1 1 1 1 1 1 1 1 1 1 1 1 1 1 1 1 1 1 1 1 1 1 0.016328450879290201 1 1 1 1 1 0.014408475227396817 1 1 1 0.011874819740302283 1 0.014862169155690231 1 1 1 0.011374501877570053 1 0.0085022835661691023 1 1 1 1 1 1 1 1 1 1 1 1 1 1 1 1 1 1 0.010831724074264788 1 1 1 1 0.017564967288226849 1 1 0.01196875936306889 1 1 1 1 1 1 1 1 1 1 1 1 1 0.015414355603864697 1 1 1 1 1 0.014885794930010561 1 1 1 1 1 0.013425735111866446 1 1 1 0.016624630213817021 1 0.010626575677692558 0.015965077765573307 1 1 1 1 1 1 1 1 1 1 1 1 1 1 1 1 0.014892293963939348 1 1 0.016992958903758518 1 0.0099026742516148732 1 1 1 1 1 1 1 1 1 1 1 1 1 1 0.016022501188665703 1 1 1 0.015285215971451554 1 1 0.011431627334959876 1 1 0.016389169427496846 1 0.013765948335260261 1 1 1 1 1 1 1 1 1 1 1 1 1 1 0.019474429528338406 1 1 0.010558537821971661 1 1 1 1 0.011525780038899114 1 1 1 1 1 1 1 1 1 1 1 1 1 1 1 1 1 1 1 1 1 1 1 0.012358846305569493 1 0.0099040374932319892 1 1 0.008087239068541115 1 1 1 1 1 0.0092416877922485222 1 1 1 1 1 1 1 1 1 1 1 1 1 1 0.0093951932048868293 1 1 1 1 1 0.010259200925117774 1 1 1 1 1 1 1 1 1 1 1 1 1 1 1 1 1 1 1 1 1 1 1 1 0.012649179662630277 0.013865069482620344 0.010243880898974201 1 0.012704318845438742 1 1 1 1 1 1 0.009895961175466721 1 1 0.013589106943731423 0.014396267936372517 1 1 1 1 1 1 1 1 1 1 1 0.016702938391549776 1 1 1 1 0.011372151693999353 0.010079705754731695 1 1 1 1 1 1 0.010355306387835271 1 1 1 1 1 0.010771968431214064 1 1 0.016293529386392606 0.014093898198438794 0.010034578792907785 1 1 0.0085098095449557855 1 1 1 1 1 0.014527118016098343 0.014719891482088018 1 0.014341180030789323 1 1 1 1 1 1 1 0.013546790602593943 1 1 1 1 1 1 1 1 1 1 1 1 1 1 1 1 1 1 1 1 1 1 1 1 1 1 1 1 0.013048713308066097 1 1 1 1 1 1 0.014602306936428739 0.015468821523421033 1 1 1 1 1 1 1 1 1 0.016836202390089709 1 1 1 1 1 1 1 1 0.0098567043387253819 1 1 1 0.0094518429265726296 1 1 1 0.0098865085157702828 1 1 0.010852974959149844 1 1 1 1 1 0.011224963243652587 1 1 1 1 0.0092886927225296831 0.012694061957995845 1 1 1 1 1 0.010843263406425024 1 1 1 1 1 1 1 1 1 1 1 1 1 0.009859546824288681 1 1 1 1 1 1 1 1 1 1 1 1 1 1 1 1 1 1 1 1 1 1 1 1 1 1 1 1 1 1 1 1 1 1 1 1 1 1 1 1 1 1 1 1 1 1 1 1 1 1 1 1 1 1 1 0.010937202420364431 0.010016452938519743 1 1 1 1 1 1 1 1 1 1 1 1 0.0095721313103774366 1 1 1 1 1 1 1 1 1 0.0087802687458380206 1 1 1 1 1 1 1 1 1 1 1 1 1 1 0.015577636995126003 1 1 1 0.0092390723995378447 1 1 1 0.010000968903190393 0.011702118034622254 0.014539863036925602 1 1 0.0088599708801959838 1 1 0.0082990448722745878 1 1 0.016912314219307993 1 1 0.013719608691294861 0.01277283103920417 1 1 1 0.018417393013798727 1 1 1 1 0.010026241509510727 1 0.01007225548991398 1 0.014162100670015835 1 0.019256723306841094 1 1 1 1 1 0.020164223393859496 1 1 1 1 1 1 1 1 1 1 1 1 1 1 1 1 1 1 1 1 1 1 1 1 1 1 1 1 1 1 1 1 1 1 0.018210447142527241 1 0.010557672113959913 1 1 1 0.019437076753611265 1 1 1 1 1 1 1 1 1 1 1 1 1 1 0.01170354584484278 1 1 0.016459119104168758 1 0.014957889340574855 1 1 1 1 1 1 1 1 1 1 0.015173339027460306 1 1 1 1 1 1 1 0.010906108019402351 1 1 1 0.014520862580227004 1 1 1 1 1 1 1 1 1 1 1 1 1 1 1 1 1 1 1 1 0.0099729317324971228 1 1 1 1 1 1 0.012410897208410342 1 0.0096191573380932354 1 1 1 1 0.0080503186105382527 1 1 1 1 0.012125762208962209 1 1 0.010102022192160172 1 1 1 1 0.014971228468684216 1 1 1 1 1 1 1 1 1 1 1 1 1 1 1 1 1 1 1 1 0.0073356907155218871 1 1 1 1 1 1 1 0.014359537503733442 1 1 1 1 1 1 1 1 1 1 1 1 0.011470416082859777 1 0.0099770359260031045 1 1 1 1 1 1 1 1 1 1 1 1 1 1 0.015981872472478995 1 1 1 1 1 1 1 1 0.012108534634278807 1 1 1 0.012168073033183424 1 1 1 1 1 1 1 1 1 1 1 1 1 1 1 1 1 1 1 1 1 1 1 1 1 1 1 1 1 1 1 1 1 1 1 1 1 1 0.011999066501186643 1 1 1 1 0.01226400203647309 1 0.012095888634618836 1 1 1 1 1 1 0.010871860874433299 1 1 1 1 1 1 1 1 1 1 1 1 1 1 1 1 1 1 1 1 1 1 1 1 1 1 1 1 1 1 0.011086308245764008 1 1 1 1 1 1 1 1 1 1 1 1 1 1 1 0.012717478255255201 1 1 1 1 1 1 0.011469874299879956 1 1 1 1 0.011367788561289562 1 1 1 1 1 0.01310525674023579 1 1 1 1 1 1 0.011737468178946227 1 1 1 1 1 1 1 1 0.010338663266794921 1 1 1 0.011217082225227819 1 1 1 1 1 1 1 1 1 1 1 1 1 1 1 1 1 1 1 0.011113711816383534 1 1 1 1 0.010888682599362596 1 1 1 1 0.010713865584392863 0.010700976513874043 1 1 1 1 1 1 1 1 1 1 1 1 1 1 0.01022948456268297 0.010299835978917551 1 1 1 1 1 1 1 1 1 0.013259921945785062 1 1 1 1 1 1 1 1 1 1 1 1 1 0.01199241626516636 1 1 1 1 1 1 1 1 1 1 1 1 1 1 1 1 1 1 1 1 1 1 1 1 1 0.010163775254257677 1 1 1 1 1 1 0.010428805038291506 1 1 0.011247603955375244 1 1 1 1 1 1 1 0.010372934050586981 1 0.010305339340095225 1 1 1 0.010330132156338396 1 1 1 1 1 1 1 1 1 1 1 0.010414979578441863 1 1 1 1 1 1 1 1 1 1 1 1 0.010933056245080829 0.011454907293632846 1 0.010080902237918394 1 0.010442712857431136 0.010394061033388134 1 1 1 0.0099944325193470386 1 1 0.010444868414130044 1 1 0.010465394603846115 1 0.010158084831831837 1 0.010843317053638973 1 1 1 1 1 1 1 1 1 1 1 1 1 1 1 1 1 0.010049779166988338 1 1 1 1 1 0.010526977991962033 1 1 1 1 1 1 1 1 1 1 1 1 1 1 1 1 0.010323420817843734 1 1 1 1 0.010706121545191049 1 1 1 1 1 1 1 1 1 1 0.018132982022149385 1 1 1 1 1 1 1 0.016569316074753461 0.01032728731240932 1 1 1 1 1 1 1 1 1 1 1 0.011371949531937721 1 1 0.012429815630928071 1 1 1 1 1 1 1 1 1 0.010409381727718044 1 1 1 0.019268472999739078 1 1 1 1 1 1 1 1 1 1 1 1 0.01957803239170517 1 1 1 1 1 1 1 0.019454870232456695 1 1 1 1 0.019486685473023548 1 1 1 1 1 1 1 1 1 1 1 1 1 1 1 1 1 1 1 1 1 1 1 1 1 1 1 0.0099333722521819171 1 1 1 1 1 1 1 1 1 1 1 0.010714829691197431 1 1 0.010129460197184945 1 1 1 0.010368668988615106 1 0.010017832125565302 1 1 1 1 1 1 1 1 1 1 1 1 1 1 1 1 1 1 0.0099476867220658367 1 1 0.010481826944604247 1 1 1 1 1 1 1 1 1 1 1 0.010049428699955077 1 0.01022531336507753 1 1 1 1 1 1 1 1 1 1 1 1 1 1 1 1 1 1 0.0078756305176877206 1 1 1 1 0.0092859515153437509 1 1 1 1 1 1 1 1 0.0098719499674584585 1 1 1 1 1 1 1 1 1 1 1 1 1 1 1 1 1 1 0.0099385777152765364 1 1 0.013635876563108282 1 1 1 1 1 1 1 0.014533998725482554 1 1 1 0.015455825979303098 1 1 1 1 1 1 1 1 1 1 1 1 1 1 1 1 1 1 1 1 1 1 0.015290092251468162 1 1 1 1 1 1 1 1 1 1 1 1 0.016699097206724533 0.010289352693709612 1 0.010004180612028723 1 1 0.011175983716099631 1 1 1 1 0.0096548379997316927 1 1 1 1 1 1 1 1 1 1 1 1 1 1 1 1 1 1 1 1 1 1 1 1 1 1 1 1 1 1 1 1 1 1 1 1 0.011711633901609791 1 1 1 1 1 1 1 1 0.013630677096243771 1 1 0.011919043194633978 1 0.011467926636873325 1 1 1 1 1 1 1 1 1 1 1 1 1 1 1 1 1 1 1 1 1 1 1 1 1 1 1 1 1 1 1 1 1 1 1 0.010286562938583356 1 1 1 0.011804341496040361 1 1 1 1 1 1 1 0.009946630852573371 0.010594929106266778 1 0.021439029759841952 1 1 1 1 1 1 1 1 1 1 1 1 1 1 1 1 1 1 1 1 1 1 1 1 1 1 0.01016953636762674 0.010121677219075894 1 1 1 1 1 1 1 1 1 1 1 1 1 1 1 1 1 1 1 1 1 1 1 1 1 1 1 1 1 1 1 1 1 1 0.020456160714142767 1 1 1 1 1 0.02143464529451445 1 1 1 1 1 0.018927628831794011 1 1 1 1 1 1 1 1 1 1 0.017259327289294732 1 1 1 0.012144942327220583 1 0.012679128350318333 1 1 1 0.009977908978482785 1 1 0.010482756435632356 1 0.01058054233641839 1 1 1 1 1 1 1 1 0.0099556542032264179 1 0.0099950825445027421 1 1 1 1 0.012350774708987464 1 0.0081894205783556162 1 1 0.0099969023843264025 1 1 1 1 1 1 1 1 1 1 0.015256319816889611 1 1 1 0.0042522820206012703 1 0.013401080822106544 1 0.014861161419180473 0.0099951811095237778 1 1 1 1 1 1 1 1 1 1 0.0070466707389867204 1 0.011628347165562427 1 0.011204228625110009 1 1 1 1 1 1 1 1 1 0.010493184543035454 1 1 1 1 1 1 1 1 0.010023012554419791 1 0.0096102612396494775 1 1 1 1 1 1 1 1 1 1 1 1 1 1 1 0.0098471221693786602 1 1 1 1 1 1 1 1 1 1 1 1 1 1 1 1 1 1 1 1 1 1 1 1 1 1 1 1 1 1 1 1 
</DataArray>
</CellData>
</Piece>
</UnstructuredGrid>
</VTKFile>
