<?xml version="1.0"?>
<VTKFile type="UnstructuredGrid" version="0.1" byte_order="LittleEndian">
<UnstructuredGrid>
<Piece NumberOfPoints="31301" NumberOfCells="10957">
<Points>
<DataArray type="Float64" NumberOfComponents="3" format="ascii">
-0.5 -0.5 0 -0.46638663260497448 -0.45096699443765093 0 -0.4752875195671884 -0.42645049165647703 0 -0.5 -0.5 0 -0.45748574564276068 -0.47548349721882471 0 -0.46638663260497448 -0.45096699443765093 0 -0.5 -0.5 0 -0.45748574564276068 -0.47548349721882471 0 -0.44858485868054743 -0.49999999999999872 0 -0.44638705120756123 -0.47907182558991779 0 -0.43858978110863878 -0.48419188083360631 0 -0.43655704025590358 -0.46793682688149568 0 -0.45748574564276068 -0.47548349721882471 0 -0.44638705120756123 -0.47907182558991779 0 -0.45071783034995572 -0.46774692301566229 0 -0.44638705120756123 -0.47907182558991779 0 -0.45071783034995572 -0.46774692301566229 0 -0.43655704025590358 -0.46793682688149568 0 -0.45748574564276068 -0.47548349721882471 0 -0.44858485868054743 -0.49999999999999872 0 -0.44638705120756123 -0.47907182558991779 0 -0.43858978110863878 -0.48419188083360631 0 -0.44858485868054743 -0.49999999999999872 0 -0.45748574564276068 -0.47548349721882471 0 -0.44638705120756123 -0.47907182558991779 0 -0.44858485868054743 -0.49999999999999872 0 -0.43858978110863878 -0.48419188083360631 0 -0.44858485868054743 -0.49999999999999872 0 -0.43061719251594133 -0.50000000000000444 0 -0.44868503478737248 -0.44598917038306501 0 -0.43583338767575092 -0.43369267196034877 0 -0.43574456427468933 -0.44650494779330818 0 -0.44868503478737248 -0.44598917038306501 0 -0.44004111594584422 -0.45624936009898848 0 -0.43574456427468933 -0.44650494779330818 0 -0.44868503478737248 -0.44598917038306501 0 -0.45071783034995572 -0.46774692301566229 0 -0.44868503478737248 -0.44598917038306501 0 -0.44004111594584422 -0.45624936009898848 0 -0.45071783034995572 -0.46774692301566229 0 -0.44004111594584422 -0.45624936009898848 0 -0.45071783034995572 -0.46774692301566229 0 -0.43655704025590358 -0.46793682688149568 0 -0.45748574564276068 -0.47548349721882471 0 -0.45071783034995572 -0.46774692301566229 0 -0.46638663260497448 -0.45096699443765093 0 -0.45748574564276068 -0.47548349721882471 0 -0.46638663260497448 -0.45096699443765093 0 -0.44868503478737248 -0.44598917038306501 0 -0.45071783034995572 -0.46774692301566229 0 -0.46638663260497448 -0.45096699443765093 0 -0.46638663260497448 -0.45096699443765093 0 -0.4752875195671884 -0.42645049165647703 0 -0.45982653659801898 -0.43643022365340017 0 -0.44868503478737248 -0.44598917038306501 0 -0.46638663260497448 -0.45096699443765093 0 -0.45982653659801898 -0.43643022365340017 0 -0.46638663260497448 -0.45096699443765093 0 -0.4752875195671884 -0.42645049165647703 0 -0.5 -0.5 0 -0.4752875195671884 -0.42645049165647703 0 -0.5 -0.37994680708575929 0 -0.5 -0.37994680708575929 0 -0.45675460445725402 -0.3901296854313363 0 -0.46454068268534932 -0.36624217470093601 0 -0.4752875195671884 -0.42645049165647703 0 -0.5 -0.37994680708575929 0 -0.45675460445725402 -0.3901296854313363 0 -0.45675460445725402 -0.3901296854313363 0 -0.4422018499973413 -0.37659727799144932 0 -0.46454068268534932 -0.36624217470093601 0 -0.45675460445725402 -0.3901296854313363 0 -0.45074697470592878 -0.40470458864898901 0 -0.44461944366220629 -0.40247366511787042 0 -0.45074697470592878 -0.40470458864898901 0 -0.44461944366220629 -0.40247366511787042 0 -0.44461944366220629 -0.40247366511787042 0 -0.4422018499973413 -0.37659727799144932 0 -0.45675460445725402 -0.3901296854313363 0 -0.44461944366220629 -0.40247366511787042 0 -0.4422018499973413 -0.37659727799144932 0 -0.4752875195671884 -0.42645049165647703 0 -0.45675460445725402 -0.3901296854313363 0 -0.45074697470592878 -0.40470458864898901 0 -0.4752875195671884 -0.42645049165647703 0 -0.45982653659801898 -0.43643022365340017 0 -0.44665223922478953 -0.42423141775046769 0 -0.4752875195671884 -0.42645049165647703 0 -0.45074697470592878 -0.40470458864898901 0 -0.44665223922478953 -0.42423141775046769 0 -0.44461944366220629 -0.40247366511787042 0 -0.44665223922478953 -0.42423141775046769 0 -0.45074697470592878 -0.40470458864898901 0 -0.44461944366220629 -0.40247366511787042 0 -0.44665223922478953 -0.42423141775046769 0 -0.44461944366220629 -0.40247366511787042 0 -0.44665223922478953 -0.42423141775046769 0 -0.43190992604339917 -0.41146058259026358 0 -0.44665223922478953 -0.42423141775046769 0 -0.43583338767575092 -0.43369267196034877 0 -0.43179441525183287 -0.42341725705951538 0 -0.44868503478737248 -0.44598917038306501 0 -0.44665223922478953 -0.42423141775046769 0 -0.44868503478737248 -0.44598917038306501 0 -0.44665223922478953 -0.42423141775046769 0 -0.43583338767575092 -0.43369267196034877 0 -0.44868503478737248 -0.44598917038306501 0 -0.45982653659801898 -0.43643022365340017 0 -0.44665223922478953 -0.42423141775046769 0 -0.43583338767575092 -0.43369267196034877 0 -0.42139824175997731 -0.43005810479360151 0 -0.42440061003392793 -0.44176447442364009 0 -0.43179441525183287 -0.42341725705951538 0 -0.42224515979673422 -0.4177634137272877 0 -0.42139824175997731 -0.43005810479360151 0 -0.43583338767575092 -0.43369267196034877 0 -0.43179441525183287 -0.42341725705951538 0 -0.42139824175997731 -0.43005810479360151 0 -0.44665223922478953 -0.42423141775046769 0 -0.43179441525183287 -0.42341725705951538 0 -0.43190992604339917 -0.41146058259026358 0 -0.43190992604339917 -0.41146058259026358 0 -0.42224515979673422 -0.4177634137272877 0 -0.41973040802004191 -0.40709713166068501 0 -0.43179441525183287 -0.42341725705951538 0 -0.43190992604339917 -0.41146058259026358 0 -0.42224515979673422 -0.4177634137272877 0 -0.42224515979673422 -0.4177634137272877 0 -0.41437056647242948 -0.41338818489405371 0 -0.41272245210148961 -0.42103391996631812 0 -0.41973040802004191 -0.40709713166068501 0 -0.41437056647242948 -0.41338818489405371 0 -0.41159354162164608 -0.40714795687614203 0 -0.42224515979673422 -0.4177634137272877 0 -0.41973040802004191 -0.40709713166068501 0 -0.41437056647242948 -0.41338818489405371 0 -0.41159354162164608 -0.40714795687614203 0 -0.40880770822346801 -0.41347540877526212 0 -0.405112952370972 -0.40517584771015519 0 -0.41437056647242948 -0.41338818489405371 0 -0.41159354162164608 -0.40714795687614203 0 -0.40880770822346801 -0.41347540877526212 0 -0.40880770822346801 -0.41347540877526212 0 -0.41272245210148961 -0.42103391996631812 0 -0.40023902855080279 -0.42063113442964117 0 -0.41437056647242948 -0.41338818489405371 0 -0.40880770822346801 -0.41347540877526212 0 -0.41272245210148961 -0.42103391996631812 0 -0.41272245210148961 -0.42103391996631812 0 -0.41126030545594622 -0.43202220800462199 0 -0.40023902855080279 -0.42063113442964117 0 -0.41126030545594622 -0.43202220800462199 0 -0.40023902855080279 -0.42063113442964117 0 -0.41036508320584852 -0.44708742295309578 0 -0.41126030545594622 -0.43202220800462199 0 -0.42139824175997731 -0.43005810479360151 0 -0.41681480434218471 -0.4398092100823302 0 -0.42139824175997731 -0.43005810479360151 0 -0.42440061003392793 -0.44176447442364009 0 -0.41681480434218471 -0.4398092100823302 0 -0.42224515979673422 -0.4177634137272877 0 -0.41272245210148961 -0.42103391996631812 0 -0.42139824175997731 -0.43005810479360151 0 -0.41272245210148961 -0.42103391996631812 0 -0.41126030545594622 -0.43202220800462199 0 -0.42139824175997731 -0.43005810479360151 0 -0.4422018499973413 -0.37659727799144932 0 -0.42446809264834062 -0.3753320770450318 0 -0.42234390670551109 -0.39436354389442929 0 -0.43190992604339917 -0.41146058259026358 0 -0.41973040802004191 -0.40709713166068501 0 -0.42234390670551109 -0.39436354389442929 0 -0.44461944366220629 -0.40247366511787042 0 -0.43190992604339917 -0.41146058259026358 0 -0.42234390670551109 -0.39436354389442929 0 -0.44461944366220629 -0.40247366511787042 0 -0.4422018499973413 -0.37659727799144932 0 -0.42234390670551109 -0.39436354389442929 0 -0.44461944366220629 -0.40247366511787042 0 -0.42234390670551109 -0.39436354389442929 0 -0.42234390670551109 -0.39436354389442929 0 -0.4115574467008829 -0.39869852860455468 0 -0.40006836974881582 -0.38625342267098922 0 -0.41973040802004191 -0.40709713166068501 0 -0.42234390670551109 -0.39436354389442929 0 -0.4115574467008829 -0.39869852860455468 0 -0.41973040802004191 -0.40709713166068501 0 -0.41159354162164608 -0.40714795687614203 0 -0.4115574467008829 -0.39869852860455468 0 -0.4115574467008829 -0.39869852860455468 0 -0.40230818894741388 -0.39568539256312141 0 -0.405112952370972 -0.40517584771015519 0 -0.41159354162164608 -0.40714795687614203 0 -0.4115574467008829 -0.39869852860455468 0 -0.405112952370972 -0.40517584771015519 0 -0.42234390670551109 -0.39436354389442929 0 -0.413932837228626 -0.38103170464959779 0 -0.40006836974881582 -0.38625342267098922 0 -0.413932837228626 -0.38103170464959779 0 -0.40006836974881582 -0.38625342267098922 0 -0.40885097981183632 -0.36817777498794202 0 -0.42446809264834062 -0.3753320770450318 0 -0.42234390670551109 -0.39436354389442929 0 -0.413932837228626 -0.38103170464959779 0 -0.42234390670551109 -0.39436354389442929 0 -0.40006836974881582 -0.38625342267098922 0 -0.40006836974881582 -0.38625342267098922 0 -0.38741328428810612 -0.38164593431374128 0 -0.38926558404644362 -0.35919355171370199 0 -0.40006836974881582 -0.38625342267098922 0 -0.39745516787158269 -0.39094336719246509 0 -0.39951298741224928 -0.39248028101319049 0 -0.40006836974881582 -0.38625342267098922 0 -0.3953415595839625 -0.38861439195611841 0 -0.39745516787158269 -0.39094336719246509 0 -0.40006836974881582 -0.38625342267098922 0 -0.3953415595839625 -0.38861439195611841 0 -0.38741328428810612 -0.38164593431374128 0 -0.3953415595839625 -0.38861439195611841 0 -0.39227608070761327 -0.39179550925761591 0 -0.38741328428810612 -0.38164593431374128 0 -0.40006836974881582 -0.38625342267098922 0 -0.38741328428810612 -0.38164593431374128 0 -0.3953415595839625 -0.38861439195611841 0 -0.39514368495759311 -0.39208274393630921 0 -0.39745516787158269 -0.39094336719246509 0 -0.38811298669521599 -0.40125369306302222 0 -0.39011297389575722 -0.39417484590618651 0 -0.40023902855080279 -0.42063113442964117 0 -0.39590273889158872 -0.39741544852794009 0 -0.39011297389575722 -0.39417484590618651 0 -0.40023902855080279 -0.42063113442964117 0 -0.39387514702316412 -0.39408878588584523 0 -0.39227608070761327 -0.39179550925761591 0 -0.39514368495759311 -0.39208274393630921 0 -0.3953415595839625 -0.38861439195611841 0 -0.39227608070761327 -0.39179550925761591 0 -0.39514368495759311 -0.39208274393630921 0 -0.39387514702316412 -0.39408878588584523 0 -0.39227608070761327 -0.39179550925761591 0 -0.39011297389575722 -0.39417484590618651 0 -0.39387514702316412 -0.39408878588584523 0 -0.39590273889158872 -0.39741544852794009 0 -0.39011297389575722 -0.39417484590618651 0 -0.39387514702316412 -0.39408878588584523 0 -0.39590273889158872 -0.39741544852794009 0 -0.39676518791298537 -0.39417369729393092 0 -0.39590273889158872 -0.39741544852794009 0 -0.39676518791298537 -0.39417369729393092 0 -0.3990293165271554 -0.39654883241867211 0 -0.39676518791298537 -0.39417369729393092 0 -0.39951298741224928 -0.39248028101319049 0 -0.3990293165271554 -0.39654883241867211 0 -0.39387514702316412 -0.39408878588584523 0 -0.39676518791298537 -0.39417369729393092 0 -0.39514368495759311 -0.39208274393630921 0 -0.39676518791298537 -0.39417369729393092 0 -0.39514368495759311 -0.39208274393630921 0 -0.39745516787158269 -0.39094336719246509 0 -0.39676518791298537 -0.39417369729393092 0 -0.39745516787158269 -0.39094336719246509 0 -0.39951298741224928 -0.39248028101319049 0 -0.40006836974881582 -0.38625342267098922 0 -0.39951298741224928 -0.39248028101319049 0 -0.40230818894741388 -0.39568539256312141 0 -0.4115574467008829 -0.39869852860455468 0 -0.40006836974881582 -0.38625342267098922 0 -0.40230818894741388 -0.39568539256312141 0 -0.39951298741224928 -0.39248028101319049 0 -0.40230818894741388 -0.39568539256312141 0 -0.3990293165271554 -0.39654883241867211 0 -0.39590273889158872 -0.39741544852794009 0 -0.3990293165271554 -0.39654883241867211 0 -0.40053108454976399 -0.40308205945402159 0 -0.40230818894741388 -0.39568539256312141 0 -0.3990293165271554 -0.39654883241867211 0 -0.40053108454976399 -0.40308205945402159 0 -0.40230818894741388 -0.39568539256312141 0 -0.405112952370972 -0.40517584771015519 0 -0.40053108454976399 -0.40308205945402159 0 -0.38811298669521599 -0.40125369306302222 0 -0.37984372746960182 -0.39670452309269538 0 -0.38720828053872081 -0.40674883440694187 0 -0.37984372746960182 -0.39670452309269538 0 -0.38720828053872081 -0.40674883440694187 0 -0.38133285336139833 -0.41154992220653008 0 -0.37984372746960182 -0.39670452309269538 0 -0.38133285336139833 -0.41154992220653008 0 -0.36847528268411139 -0.39778951826182318 0 -0.37984372746960182 -0.39670452309269538 0 -0.37945286301085601 -0.38931624771511159 0 -0.36847528268411139 -0.39778951826182318 0 -0.37984372746960182 -0.39670452309269538 0 -0.38455187086546888 -0.39429699780788863 0 -0.37945286301085601 -0.38931624771511159 0 -0.38455187086546888 -0.39429699780788863 0 -0.38912882189674891 -0.39113593671106878 0 -0.37945286301085601 -0.38931624771511159 0 -0.38811298669521599 -0.40125369306302222 0 -0.37984372746960182 -0.39670452309269538 0 -0.38455187086546888 -0.39429699780788863 0 -0.38811298669521599 -0.40125369306302222 0 -0.38455187086546888 -0.39429699780788863 0 -0.39011297389575722 -0.39417484590618651 0 -0.38455187086546888 -0.39429699780788863 0 -0.39011297389575722 -0.39417484590618651 0 -0.38912882189674891 -0.39113593671106878 0 -0.39227608070761327 -0.39179550925761591 0 -0.39011297389575722 -0.39417484590618651 0 -0.38912882189674891 -0.39113593671106878 0 -0.37945286301085601 -0.38931624771511159 0 -0.38741328428810612 -0.38164593431374128 0 -0.36730419086109922 -0.37432457610345171 0 -0.38741328428810612 -0.38164593431374128 0 -0.36730419086109922 -0.37432457610345171 0 -0.38912882189674891 -0.39113593671106878 0 -0.38741328428810612 -0.38164593431374128 0 -0.38912882189674891 -0.39113593671106878 0 -0.37945286301085601 -0.38931624771511159 0 -0.38741328428810612 -0.38164593431374128 0 -0.39227608070761327 -0.39179550925761591 0 -0.38912882189674891 -0.39113593671106878 0 -0.38741328428810612 -0.38164593431374128 0 -0.40023902855080279 -0.42063113442964117 0 -0.41036508320584852 -0.44708742295309578 0 -0.39912464431934819 -0.43015594745611341 0 -0.40023902855080279 -0.42063113442964117 0 -0.41036508320584852 -0.44708742295309578 0 -0.39912464431934819 -0.43015594745611341 0 -0.40023902855080279 -0.42063113442964117 0 -0.38879636464581152 -0.42483524215514717 0 -0.39912464431934819 -0.43015594745611341 0 -0.38879636464581152 -0.42483524215514717 0 -0.39004145574790072 -0.43455158422562162 0 -0.39912464431934819 -0.43015594745611341 0 -0.39004145574790072 -0.43455158422562162 0 -0.39285071382934478 -0.44329883840223488 0 -0.38811298669521599 -0.40125369306302222 0 -0.40023902855080279 -0.42063113442964117 0 -0.38720828053872081 -0.40674883440694187 0 -0.405112952370972 -0.40517584771015519 0 -0.40053108454976399 -0.40308205945402159 0 -0.40023902855080279 -0.42063113442964117 0 -0.39590273889158872 -0.39741544852794009 0 -0.40053108454976399 -0.40308205945402159 0 -0.40023902855080279 -0.42063113442964117 0 -0.39011297389575722 -0.39417484590618651 0 -0.40023902855080279 -0.42063113442964117 0 -0.40880770822346801 -0.41347540877526212 0 -0.405112952370972 -0.40517584771015519 0 -0.40023902855080279 -0.42063113442964117 0 -0.38133285336139833 -0.41154992220653008 0 -0.37849854396674221 -0.42203906389385337 0 -0.38879636464581152 -0.42483524215514717 0 -0.40023902855080279 -0.42063113442964117 0 -0.38720828053872081 -0.40674883440694187 0 -0.38133285336139833 -0.41154992220653008 0 -0.40023902855080279 -0.42063113442964117 0 -0.38133285336139833 -0.41154992220653008 0 -0.38879636464581152 -0.42483524215514717 0 -0.38133285336139833 -0.41154992220653008 0 -0.37849854396674221 -0.42203906389385337 0 -0.36748323434732472 -0.421319198237808 0 -0.37849854396674221 -0.42203906389385337 0 -0.38212453795478157 -0.43111669326824348 0 -0.37001532204696752 -0.43493727515579628 0 -0.37849854396674221 -0.42203906389385337 0 -0.38879636464581152 -0.42483524215514717 0 -0.38212453795478157 -0.43111669326824348 0 -0.39004145574790072 -0.43455158422562162 0 -0.38212453795478157 -0.43111669326824348 0 -0.38143463625248958 -0.4437269855840838 0 -0.38879636464581152 -0.42483524215514717 0 -0.39004145574790072 -0.43455158422562162 0 -0.38212453795478157 -0.43111669326824348 0 -0.38212453795478157 -0.43111669326824348 0 -0.38143463625248958 -0.4437269855840838 0 -0.37001532204696752 -0.43493727515579628 0 -0.38143463625248958 -0.4437269855840838 0 -0.39285071382934478 -0.44329883840223488 0 -0.39016672042024059 -0.45558794441608941 0 -0.39004145574790072 -0.43455158422562162 0 -0.38143463625248958 -0.4437269855840838 0 -0.39285071382934478 -0.44329883840223488 0 -0.39912464431934819 -0.43015594745611341 0 -0.39285071382934478 -0.44329883840223488 0 -0.40330582822536071 -0.45343729830407598 0 -0.39912464431934819 -0.43015594745611341 0 -0.40330582822536071 -0.45343729830407598 0 -0.41036508320584852 -0.44708742295309578 0 -0.39912464431934819 -0.43015594745611341 0 -0.40330582822536071 -0.45343729830407598 0 -0.39285071382934478 -0.44329883840223488 0 -0.40330582822536071 -0.45343729830407598 0 -0.39016672042024059 -0.45558794441608941 0 -0.40330582822536071 -0.45343729830407598 0 -0.396271956705188 -0.46654886686784508 0 -0.40748701213137328 -0.47671864915203849 0 -0.40330582822536071 -0.45343729830407598 0 -0.40748701213137328 -0.47671864915203849 0 -0.40330582822536071 -0.45343729830407598 0 -0.396271956705188 -0.46654886686784508 0 -0.39016672042024059 -0.45558794441608941 0 -0.396271956705188 -0.46654886686784508 0 -0.38618400323683699 -0.46847026812496378 0 -0.39016672042024059 -0.45558794441608941 0 -0.38618400323683699 -0.46847026812496378 0 -0.39016672042024059 -0.45558794441608941 0 -0.37583771151230311 -0.4601105666377408 0 -0.38143463625248958 -0.4437269855840838 0 -0.39016672042024059 -0.45558794441608941 0 -0.37583771151230311 -0.4601105666377408 0 -0.38618400323683699 -0.46847026812496378 0 -0.37583771151230311 -0.4601105666377408 0 -0.37190504839516181 -0.47853018028075012 0 -0.38618400323683699 -0.46847026812496378 0 -0.39100392827393432 -0.47998334147699051 0 -0.37190504839516181 -0.47853018028075012 0 -0.38168482993466157 -0.5 0 -0.39100392827393432 -0.47998334147699051 0 -0.37190504839516181 -0.47853018028075012 0 -0.38168482993466157 -0.5 0 -0.39796099159433868 -0.48917549765725732 0 -0.39100392827393432 -0.47998334147699051 0 -0.39796099159433868 -0.48917549765725732 0 -0.40748701213137328 -0.47671864915203849 0 -0.41166819603738602 -0.500000000000001 0 -0.38168482993466157 -0.5 0 -0.39796099159433868 -0.48917549765725732 0 -0.41166819603738602 -0.500000000000001 0 -0.396271956705188 -0.46654886686784508 0 -0.39100392827393432 -0.47998334147699051 0 -0.40748701213137328 -0.47671864915203849 0 -0.39796099159433868 -0.48917549765725732 0 -0.39100392827393432 -0.47998334147699051 0 -0.40748701213137328 -0.47671864915203849 0 -0.396271956705188 -0.46654886686784508 0 -0.38618400323683699 -0.46847026812496378 0 -0.39100392827393432 -0.47998334147699051 0 -0.40748701213137328 -0.47671864915203849 0 -0.42049113786089409 -0.47354371147655039 0 -0.41041226535586922 -0.46269677047144009 0 -0.40748701213137328 -0.47671864915203849 0 -0.42049113786089409 -0.47354371147655039 0 -0.41689773671913821 -0.48704467488227021 0 -0.40748701213137328 -0.47671864915203849 0 -0.41166819603738602 -0.500000000000001 0 -0.41689773671913821 -0.48704467488227021 0 -0.41166819603738602 -0.500000000000001 0 -0.41689773671913821 -0.48704467488227021 0 -0.43061719251594133 -0.50000000000000444 0 -0.40748701213137328 -0.47671864915203849 0 -0.41166819603738602 -0.500000000000001 0 -0.42049113786089409 -0.47354371147655039 0 -0.41689773671913821 -0.48704467488227021 0 -0.43061719251594133 -0.50000000000000444 0 -0.42049113786089409 -0.47354371147655039 0 -0.43061719251594133 -0.50000000000000444 0 -0.43858978110863878 -0.48419188083360631 0 -0.43061719251594133 -0.50000000000000444 0 -0.43022453006944961 -0.47562676305425278 0 -0.42049113786089409 -0.47354371147655039 0 -0.43061719251594133 -0.50000000000000444 0 -0.43022453006944961 -0.47562676305425278 0 -0.43858978110863878 -0.48419188083360631 0 -0.43022453006944961 -0.47562676305425278 0 -0.43655704025590358 -0.46793682688149568 0 -0.42049113786089409 -0.47354371147655039 0 -0.43022453006944961 -0.47562676305425278 0 -0.4246013645742584 -0.46135014547530939 0 -0.43022453006944961 -0.47562676305425278 0 -0.43655704025590358 -0.46793682688149568 0 -0.4246013645742584 -0.46135014547530939 0 -0.43655704025590358 -0.46793682688149568 0 -0.4246013645742584 -0.46135014547530939 0 -0.4297626729305507 -0.45482906210049839 0 -0.4246013645742584 -0.46135014547530939 0 -0.4297626729305507 -0.45482906210049839 0 -0.42020772312290372 -0.44907708638596361 0 -0.44004111594584422 -0.45624936009898848 0 -0.43655704025590358 -0.46793682688149568 0 -0.4297626729305507 -0.45482906210049839 0 -0.4297626729305507 -0.45482906210049839 0 -0.43574456427468933 -0.44650494779330818 0 -0.42440061003392793 -0.44176447442364009 0 -0.44004111594584422 -0.45624936009898848 0 -0.4297626729305507 -0.45482906210049839 0 -0.43574456427468933 -0.44650494779330818 0 -0.43583338767575092 -0.43369267196034877 0 -0.43574456427468933 -0.44650494779330818 0 -0.42440061003392793 -0.44176447442364009 0 -0.4297626729305507 -0.45482906210049839 0 -0.42440061003392793 -0.44176447442364009 0 -0.42020772312290372 -0.44907708638596361 0 -0.42020772312290372 -0.44907708638596361 0 -0.41681480434218471 -0.4398092100823302 0 -0.41036508320584852 -0.44708742295309578 0 -0.4246013645742584 -0.46135014547530939 0 -0.42020772312290372 -0.44907708638596361 0 -0.41036508320584852 -0.44708742295309578 0 -0.42440061003392793 -0.44176447442364009 0 -0.42020772312290372 -0.44907708638596361 0 -0.41681480434218471 -0.4398092100823302 0 -0.41126030545594622 -0.43202220800462199 0 -0.41681480434218471 -0.4398092100823302 0 -0.41036508320584852 -0.44708742295309578 0 -0.40330582822536071 -0.45343729830407598 0 -0.41036508320584852 -0.44708742295309578 0 -0.41041226535586922 -0.46269677047144009 0 -0.42049113786089409 -0.47354371147655039 0 -0.41036508320584852 -0.44708742295309578 0 -0.40330582822536071 -0.45343729830407598 0 -0.40748701213137328 -0.47671864915203849 0 -0.41041226535586922 -0.46269677047144009 0 -0.42049113786089409 -0.47354371147655039 0 -0.4246013645742584 -0.46135014547530939 0 -0.41036508320584852 -0.44708742295309578 0 -0.42049113786089409 -0.47354371147655039 0 -0.41036508320584852 -0.44708742295309578 0 -0.41041226535586922 -0.46269677047144009 0 -0.4422929472126545 -0.26199235859238229 0 -0.46139595381974607 -0.27843795491821199 0 -0.46449094791441381 -0.2433377566233508 0 -0.4422929472126545 -0.26199235859238229 0 -0.44279072992149809 -0.27921520833262858 0 -0.46139595381974607 -0.27843795491821199 0 -0.46139595381974607 -0.27843795491821199 0 -0.5 -0.28594455838845612 0 -0.46449094791441381 -0.2433377566233508 0 -0.46139595381974607 -0.27843795491821199 0 -0.5 -0.28594455838845612 0 -0.47350382472614522 -0.30263755408937992 0 -0.5 -0.28594455838845612 0 -0.5 -0.30910953872873159 0 -0.47350382472614522 -0.30263755408937992 0 -0.5 -0.30910953872873159 0 -0.47350382472614522 -0.30263755408937992 0 -0.47823899863872532 -0.32573295687776221 0 -0.47350382472614522 -0.30263755408937992 0 -0.44314255490423282 -0.29863206160437711 0 -0.45851941973427479 -0.3179682540187404 0 -0.46139595381974607 -0.27843795491821199 0 -0.47350382472614522 -0.30263755408937992 0 -0.44314255490423282 -0.29863206160437711 0 -0.44279072992149809 -0.27921520833262858 0 -0.46139595381974607 -0.27843795491821199 0 -0.44314255490423282 -0.29863206160437711 0 -0.5 -0.37994680708575929 0 -0.5 -0.30910953872873159 0 -0.47830756380624512 -0.34802009084889107 0 -0.43858570850901679 -0.32263737714525481 0 -0.45675197601755868 -0.34235637502679278 0 -0.45851941973427479 -0.3179682540187404 0 -0.44314255490423282 -0.29863206160437711 0 -0.43858570850901679 -0.32263737714525481 0 -0.45851941973427479 -0.3179682540187404 0 -0.43858570850901679 -0.32263737714525481 0 -0.45675197601755868 -0.34235637502679278 0 -0.43028742384402219 -0.34107554417053848 0 -0.45675197601755868 -0.34235637502679278 0 -0.45851941973427479 -0.3179682540187404 0 -0.47823899863872532 -0.32573295687776221 0 -0.45675197601755868 -0.34235637502679278 0 -0.47823899863872532 -0.32573295687776221 0 -0.5 -0.30910953872873159 0 -0.47823899863872532 -0.32573295687776221 0 -0.47830756380624512 -0.34802009084889107 0 -0.47350382472614522 -0.30263755408937992 0 -0.45851941973427479 -0.3179682540187404 0 -0.47823899863872532 -0.32573295687776221 0 -0.5 -0.30910953872873159 0 -0.47823899863872532 -0.32573295687776221 0 -0.45675197601755868 -0.34235637502679278 0 -0.47823899863872532 -0.32573295687776221 0 -0.47830756380624512 -0.34802009084889107 0 -0.5 -0.37994680708575929 0 -0.47830756380624512 -0.34802009084889107 0 -0.46454068268534932 -0.36624217470093601 0 -0.45675197601755868 -0.34235637502679278 0 -0.47830756380624512 -0.34802009084889107 0 -0.46454068268534932 -0.36624217470093601 0 -0.45675197601755868 -0.34235637502679278 0 -0.43526495339639198 -0.35897979317582351 0 -0.45675197601755868 -0.34235637502679278 0 -0.43526495339639198 -0.35897979317582351 0 -0.43028742384402219 -0.34107554417053848 0 -0.45675197601755868 -0.34235637502679278 0 -0.46454068268534932 -0.36624217470093601 0 -0.43526495339639198 -0.35897979317582351 0 -0.4422018499973413 -0.37659727799144932 0 -0.46454068268534932 -0.36624217470093601 0 -0.43526495339639198 -0.35897979317582351 0 -0.42446809264834062 -0.3753320770450318 0 -0.43526495339639198 -0.35897979317582351 0 -0.41947533589226221 -0.35641740222131091 0 -0.4422018499973413 -0.37659727799144932 0 -0.42446809264834062 -0.3753320770450318 0 -0.43526495339639198 -0.35897979317582351 0 -0.43526495339639198 -0.35897979317582351 0 -0.41947533589226221 -0.35641740222131091 0 -0.43028742384402219 -0.34107554417053848 0 -0.41947533589226221 -0.35641740222131091 0 -0.41190280306357269 -0.34154251577599037 0 -0.43028742384402219 -0.34107554417053848 0 -0.41947533589226221 -0.35641740222131091 0 -0.40556734195466698 -0.35379465302017299 0 -0.41190280306357269 -0.34154251577599037 0 -0.41947533589226221 -0.35641740222131091 0 -0.40885097981183632 -0.36817777498794202 0 -0.40556734195466698 -0.35379465302017299 0 -0.42446809264834062 -0.3753320770450318 0 -0.41947533589226221 -0.35641740222131091 0 -0.40885097981183632 -0.36817777498794202 0 -0.42446809264834062 -0.3753320770450318 0 -0.413932837228626 -0.38103170464959779 0 -0.40885097981183632 -0.36817777498794202 0 -0.40885097981183632 -0.36817777498794202 0 -0.38926558404644362 -0.35919355171370199 0 -0.40556734195466698 -0.35379465302017299 0 -0.40006836974881582 -0.38625342267098922 0 -0.38926558404644362 -0.35919355171370199 0 -0.40006836974881582 -0.38625342267098922 0 -0.40885097981183632 -0.36817777498794202 0 -0.38926558404644362 -0.35919355171370199 0 -0.38741328428810612 -0.38164593431374128 0 -0.38293804131609022 -0.3568898075350776 0 -0.36730419086109922 -0.37432457610345171 0 -0.38741328428810612 -0.38164593431374128 0 -0.38293804131609022 -0.3568898075350776 0 -0.38741328428810612 -0.38164593431374128 0 -0.38926558404644362 -0.35919355171370199 0 -0.38293804131609022 -0.3568898075350776 0 -0.38293804131609022 -0.3568898075350776 0 -0.37846279834407259 -0.33213368075641431 0 -0.38926558404644362 -0.35919355171370199 0 -0.38293804131609022 -0.3568898075350776 0 -0.37846279834407259 -0.33213368075641431 0 -0.38926558404644362 -0.35919355171370199 0 -0.37846279834407259 -0.33213368075641431 0 -0.38293804131609022 -0.3568898075350776 0 -0.37846279834407259 -0.33213368075641431 0 -0.36842733252389143 -0.35241572257452458 0 -0.38926558404644362 -0.35919355171370199 0 -0.40556734195466698 -0.35379465302017299 0 -0.39834200695922017 -0.34364202040191949 0 -0.38926558404644362 -0.35919355171370199 0 -0.39834200695922017 -0.34364202040191949 0 -0.38547772613569231 -0.33299101918542018 0 -0.40556734195466698 -0.35379465302017299 0 -0.39834200695922017 -0.34364202040191949 0 -0.41190280306357269 -0.34154251577599037 0 -0.39898615896098288 -0.33108630716194531 0 -0.39834200695922017 -0.34364202040191949 0 -0.41190280306357269 -0.34154251577599037 0 -0.39898615896098288 -0.33108630716194531 0 -0.39834200695922017 -0.34364202040191949 0 -0.38547772613569231 -0.33299101918542018 0 -0.38926558404644362 -0.35919355171370199 0 -0.38547772613569231 -0.33299101918542018 0 -0.37846279834407259 -0.33213368075641431 0 -0.39898615896098288 -0.33108630716194531 0 -0.38547772613569231 -0.33299101918542018 0 -0.38188451804572499 -0.32765464354844948 0 -0.38547772613569231 -0.33299101918542018 0 -0.38188451804572499 -0.32765464354844948 0 -0.37772705956075059 -0.33029073051343938 0 -0.38188451804572499 -0.32765464354844948 0 -0.38547772613569231 -0.33299101918542018 0 -0.37846279834407259 -0.33213368075641431 0 -0.38188451804572499 -0.32765464354844948 0 -0.37772705956075059 -0.33029073051343938 0 -0.37846279834407259 -0.33213368075641431 0 -0.38188451804572499 -0.32765464354844948 0 -0.37772705956075059 -0.33029073051343938 0 -0.37846279834407259 -0.33213368075641431 0 -0.38188451804572499 -0.32765464354844948 0 -0.40191403514781732 -0.31495468535554649 0 -0.38732607221503512 -0.31241184912977732 0 -0.37610017952058672 -0.31906415771831231 0 -0.38188451804572499 -0.32765464354844948 0 -0.38732607221503512 -0.31241184912977732 0 -0.37610017952058672 -0.31906415771831231 0 -0.38732607221503512 -0.31241184912977732 0 -0.37445765267039022 -0.30997803587084721 0 -0.37610017952058672 -0.31906415771831231 0 -0.37445765267039022 -0.30997803587084721 0 -0.37772705956075059 -0.33029073051343938 0 -0.37610017952058672 -0.31906415771831231 0 -0.38188451804572499 -0.32765464354844948 0 -0.37610017952058672 -0.31906415771831231 0 -0.38188451804572499 -0.32765464354844948 0 -0.37772705956075059 -0.33029073051343938 0 -0.37610017952058672 -0.31906415771831231 0 -0.38188451804572499 -0.32765464354844948 0 -0.40191403514781732 -0.31495468535554649 0 -0.39898615896098288 -0.33108630716194531 0 -0.38188451804572499 -0.32765464354844948 0 -0.40191403514781732 -0.31495468535554649 0 -0.40191403514781732 -0.31495468535554649 0 -0.41810808875290739 -0.32723971608403518 0 -0.42601367337217327 -0.31135364170199581 0 -0.39898615896098288 -0.33108630716194531 0 -0.40191403514781732 -0.31495468535554649 0 -0.41810808875290739 -0.32723971608403518 0 -0.41810808875290739 -0.32723971608403518 0 -0.41190280306357269 -0.34154251577599037 0 -0.43028742384402219 -0.34107554417053848 0 -0.39898615896098288 -0.33108630716194531 0 -0.41810808875290739 -0.32723971608403518 0 -0.41190280306357269 -0.34154251577599037 0 -0.43858570850901679 -0.32263737714525481 0 -0.41810808875290739 -0.32723971608403518 0 -0.43028742384402219 -0.34107554417053848 0 -0.43858570850901679 -0.32263737714525481 0 -0.41810808875290739 -0.32723971608403518 0 -0.42601367337217327 -0.31135364170199581 0 -0.44314255490423282 -0.29863206160437711 0 -0.43858570850901679 -0.32263737714525481 0 -0.42601367337217327 -0.31135364170199581 0 -0.44314255490423282 -0.29863206160437711 0 -0.42601367337217327 -0.31135364170199581 0 -0.41603236187712972 -0.29606164618540881 0 -0.44314255490423282 -0.29863206160437711 0 -0.41603236187712972 -0.29606164618540881 0 -0.42433146374935871 -0.27779845821554311 0 -0.44279072992149809 -0.27921520833262858 0 -0.44314255490423282 -0.29863206160437711 0 -0.42433146374935871 -0.27779845821554311 0 -0.41603236187712972 -0.29606164618540881 0 -0.40417604879057828 -0.27747006054772122 0 -0.42433146374935871 -0.27779845821554311 0 -0.40191403514781732 -0.31495468535554649 0 -0.42601367337217327 -0.31135364170199581 0 -0.41603236187712972 -0.29606164618540881 0 -0.40191403514781732 -0.31495468535554649 0 -0.41603236187712972 -0.29606164618540881 0 -0.38931685073048411 -0.29372404820928399 0 -0.40191403514781732 -0.31495468535554649 0 -0.38732607221503512 -0.31241184912977732 0 -0.38931685073048411 -0.29372404820928399 0 -0.38931685073048411 -0.29372404820928399 0 -0.37445765267039022 -0.30997803587084721 0 -0.38732607221503512 -0.31241184912977732 0 -0.38931685073048411 -0.29372404820928399 0 -0.37445765267039022 -0.30997803587084721 0 -0.38931685073048411 -0.29372404820928399 0 -0.36994931305706169 -0.28503882525665653 0 -0.37445765267039022 -0.30997803587084721 0 -0.38931685073048411 -0.29372404820928399 0 -0.38540291582848563 -0.2794928499521307 0 -0.36994931305706169 -0.28503882525665653 0 -0.41603236187712972 -0.29606164618540881 0 -0.38931685073048411 -0.29372404820928399 0 -0.40417604879057828 -0.27747006054772122 0 -0.38931685073048411 -0.29372404820928399 0 -0.40417604879057828 -0.27747006054772122 0 -0.38931685073048411 -0.29372404820928399 0 -0.40417604879057828 -0.27747006054772122 0 -0.38540291582848563 -0.2794928499521307 0 -0.40417604879057828 -0.27747006054772122 0 -0.39089406276588412 -0.26827292996143848 0 -0.38540291582848563 -0.2794928499521307 0 -0.40417604879057828 -0.27747006054772122 0 -0.39089406276588412 -0.26827292996143848 0 -0.39860507647727672 -0.25526751824771909 0 -0.39089406276588412 -0.26827292996143848 0 -0.38540291582848563 -0.2794928499521307 0 -0.37617707386967758 -0.26941457276943748 0 -0.38540291582848563 -0.2794928499521307 0 -0.37617707386967758 -0.26941457276943748 0 -0.36994931305706169 -0.28503882525665653 0 -0.3830880296455455 -0.25549359971904922 0 -0.37146974310017977 -0.25985006006412531 0 -0.37261567676119389 -0.24220522709947209 0 -0.37617707386967758 -0.26941457276943748 0 -0.3830880296455455 -0.25549359971904922 0 -0.37146974310017977 -0.25985006006412531 0 -0.39089406276588412 -0.26827292996143848 0 -0.37617707386967758 -0.26941457276943748 0 -0.3830880296455455 -0.25549359971904922 0 -0.39089406276588412 -0.26827292996143848 0 -0.3830880296455455 -0.25549359971904922 0 -0.39860507647727672 -0.25526751824771909 0 -0.40417604879057828 -0.27747006054772122 0 -0.39860507647727672 -0.25526751824771909 0 -0.41853086337149498 -0.25309053714782143 0 -0.40417604879057828 -0.27747006054772122 0 -0.41853086337149498 -0.25309053714782143 0 -0.42433146374935871 -0.27779845821554311 0 -0.4422929472126545 -0.26199235859238229 0 -0.44279072992149809 -0.27921520833262858 0 -0.42433146374935871 -0.27779845821554311 0 -0.4422929472126545 -0.26199235859238229 0 -0.41853086337149498 -0.25309053714782143 0 -0.42433146374935871 -0.27779845821554311 0 -0.4422929472126545 -0.26199235859238229 0 -0.41853086337149498 -0.25309053714782143 0 -0.43822346061495648 -0.23801048684192611 0 -0.31853112913857229 -0.26119389127741799 0 -0.32472736928580792 -0.2404601480234084 0 -0.31853112913857229 -0.26119389127741799 0 -0.3158589578121852 -0.24952041115528059 0 -0.32472736928580792 -0.2404601480234084 0 -0.32723301537407917 -0.2523527637654861 0 -0.31853112913857229 -0.26119389127741799 0 -0.32472736928580792 -0.2404601480234084 0 -0.32465554199097518 -0.26885852284762751 0 -0.33051866780724531 -0.26637671029319249 0 -0.32837742012887211 -0.25975823425007633 0 -0.31853112913857229 -0.26119389127741799 0 -0.32465554199097518 -0.26885852284762751 0 -0.32837742012887211 -0.25975823425007633 0 -0.32723301537407917 -0.2523527637654861 0 -0.31853112913857229 -0.26119389127741799 0 -0.32837742012887211 -0.25975823425007633 0 -0.31853112913857229 -0.26119389127741799 0 -0.30627292041572213 -0.25636185243388721 0 -0.3158589578121852 -0.24952041115528059 0 -0.31853112913857229 -0.26119389127741799 0 -0.32465554199097518 -0.26885852284762751 0 -0.31233488899133882 -0.28192763453142827 0 -0.31853112913857229 -0.26119389127741799 0 -0.31233488899133882 -0.28192763453142827 0 -0.30894509174210949 -0.26803533255602457 0 -0.31853112913857229 -0.26119389127741799 0 -0.31233488899133882 -0.28192763453142827 0 -0.32531780909554292 -0.28091581421661022 0 -0.32465554199097518 -0.26885852284762751 0 -0.31233488899133882 -0.28192763453142827 0 -0.32531780909554292 -0.28091581421661022 0 -0.32465554199097518 -0.26885852284762751 0 -0.33051866780724531 -0.26637671029319249 0 -0.3378956391244865 -0.27909836263308241 0 -0.33845369617186721 -0.26315429346053681 0 -0.35108546741670049 -0.28191409657659461 0 -0.32531780909554292 -0.28091581421661022 0 -0.33051866780724531 -0.26637671029319249 0 -0.33845369617186721 -0.26315429346053681 0 -0.32531780909554292 -0.28091581421661022 0 -0.33845369617186721 -0.26315429346053681 0 -0.32531780909554292 -0.28091581421661022 0 -0.3378956391244865 -0.27909836263308241 0 -0.33845369617186721 -0.26315429346053681 0 -0.33845369617186721 -0.26315429346053681 0 -0.34574933721119638 -0.25328958626596532 0 -0.33845369617186721 -0.26315429346053681 0 -0.34574933721119638 -0.25328958626596532 0 -0.34612792183420438 -0.25978579584363759 0 -0.33845369617186721 -0.26315429346053681 0 -0.3357888716489692 -0.2591966866911119 0 -0.33845369617186721 -0.26315429346053681 0 -0.3357888716489692 -0.2591966866911119 0 -0.33857751500883082 -0.25576448183358919 0 -0.33051866780724531 -0.26637671029319249 0 -0.33845369617186721 -0.26315429346053681 0 -0.3357888716489692 -0.2591966866911119 0 -0.33051866780724531 -0.26637671029319249 0 -0.3357888716489692 -0.2591966866911119 0 -0.32837742012887211 -0.25975823425007633 0 -0.32723301537407917 -0.2523527637654861 0 -0.33310626696609241 -0.25402647907691422 0 -0.3315076224095731 -0.24714144879994501 0 -0.32723301537407917 -0.2523527637654861 0 -0.32837742012887211 -0.25975823425007633 0 -0.33310626696609241 -0.25402647907691422 0 -0.3357888716489692 -0.2591966866911119 0 -0.33310626696609241 -0.25402647907691422 0 -0.33857751500883082 -0.25576448183358919 0 -0.3357888716489692 -0.2591966866911119 0 -0.32837742012887211 -0.25975823425007633 0 -0.33310626696609241 -0.25402647907691422 0 -0.33310626696609241 -0.25402647907691422 0 -0.33668400879166471 -0.25003653060852321 0 -0.3315076224095731 -0.24714144879994501 0 -0.33310626696609241 -0.25402647907691422 0 -0.33668400879166471 -0.25003653060852321 0 -0.33857751500883082 -0.25576448183358919 0 -0.33668400879166471 -0.25003653060852321 0 -0.33857751500883082 -0.25576448183358919 0 -0.34574933721119638 -0.25328958626596532 0 -0.33845369617186721 -0.26315429346053681 0 -0.33857751500883082 -0.25576448183358919 0 -0.34574933721119638 -0.25328958626596532 0 -0.34574933721119638 -0.25328958626596532 0 -0.34612792183420438 -0.25978579584363759 0 -0.35043400020212151 -0.25876591977431029 0 -0.34574933721119638 -0.25328958626596532 0 -0.35043400020212151 -0.25876591977431029 0 -0.35228165108508203 -0.25342443067102521 0 -0.33845369617186721 -0.26315429346053681 0 -0.34612792183420438 -0.25978579584363759 0 -0.34987465375163229 -0.2639333838737381 0 -0.34612792183420438 -0.25978579584363759 0 -0.35043400020212151 -0.25876591977431029 0 -0.34987465375163229 -0.2639333838737381 0 -0.35522874833779311 -0.26004770753802631 0 -0.35822344834074732 -0.25421052090076218 0 -0.36210558027941581 -0.26343215094350192 0 -0.34987465375163229 -0.2639333838737381 0 -0.35522874833779311 -0.26004770753802631 0 -0.35588413222873361 -0.26653042982573699 0 -0.35043400020212151 -0.25876591977431029 0 -0.34987465375163229 -0.2639333838737381 0 -0.35522874833779311 -0.26004770753802631 0 -0.35522874833779311 -0.26004770753802631 0 -0.36210558027941581 -0.26343215094350192 0 -0.35588413222873361 -0.26653042982573699 0 -0.35043400020212151 -0.25876591977431029 0 -0.35522874833779311 -0.26004770753802631 0 -0.35228165108508203 -0.25342443067102521 0 -0.35522874833779311 -0.26004770753802631 0 -0.35228165108508203 -0.25342443067102521 0 -0.35822344834074732 -0.25421052090076218 0 -0.35822344834074732 -0.25421052090076218 0 -0.36482927333241238 -0.25212951776171361 0 -0.36210558027941581 -0.26343215094350192 0 -0.36482927333241238 -0.25212951776171361 0 -0.37146974310017977 -0.25985006006412531 0 -0.37261567676119389 -0.24220522709947209 0 -0.36482927333241238 -0.25212951776171361 0 -0.36210558027941581 -0.26343215094350192 0 -0.37146974310017977 -0.25985006006412531 0 -0.36210558027941581 -0.26343215094350192 0 -0.37146974310017977 -0.25985006006412531 0 -0.36781625935653961 -0.26908191870935078 0 -0.37617707386967758 -0.26941457276943748 0 -0.36864495376161222 -0.27782337700390219 0 -0.36994931305706169 -0.28503882525665653 0 -0.37617707386967758 -0.26941457276943748 0 -0.36994931305706169 -0.28503882525665653 0 -0.37617707386967758 -0.26941457276943748 0 -0.36864495376161222 -0.27782337700390219 0 -0.36781625935653961 -0.26908191870935078 0 -0.37617707386967758 -0.26941457276943748 0 -0.37146974310017977 -0.25985006006412531 0 -0.36781625935653961 -0.26908191870935078 0 -0.36210558027941581 -0.26343215094350192 0 -0.36781625935653961 -0.26908191870935078 0 -0.3599842570309435 -0.27342000991141591 0 -0.36864495376161222 -0.27782337700390219 0 -0.36781625935653961 -0.26908191870935078 0 -0.3599842570309435 -0.27342000991141591 0 -0.36864495376161222 -0.27782337700390219 0 -0.3599842570309435 -0.27342000991141591 0 -0.36183464556697209 -0.28319777959060272 0 -0.33845369617186721 -0.26315429346053681 0 -0.35108546741670049 -0.28191409657659461 0 -0.33845369617186721 -0.26315429346053681 0 -0.35162998275209351 -0.27078397128424869 0 -0.35108546741670049 -0.28191409657659461 0 -0.3599842570309435 -0.27342000991141591 0 -0.35162998275209351 -0.27078397128424869 0 -0.35108546741670049 -0.28191409657659461 0 -0.3599842570309435 -0.27342000991141591 0 -0.35108546741670049 -0.28191409657659461 0 -0.36183464556697209 -0.28319777959060272 0 -0.3599842570309435 -0.27342000991141591 0 -0.35588413222873361 -0.26653042982573699 0 -0.35162998275209351 -0.27078397128424869 0 -0.36210558027941581 -0.26343215094350192 0 -0.3599842570309435 -0.27342000991141591 0 -0.35588413222873361 -0.26653042982573699 0 -0.34987465375163229 -0.2639333838737381 0 -0.35588413222873361 -0.26653042982573699 0 -0.35162998275209351 -0.27078397128424869 0 -0.33845369617186721 -0.26315429346053681 0 -0.34987465375163229 -0.2639333838737381 0 -0.35162998275209351 -0.27078397128424869 0 -0.35108546741670049 -0.28191409657659461 0 -0.36183464556697209 -0.28319777959060272 0 -0.36371723866153438 -0.30067389969265218 0 -0.35108546741670049 -0.28191409657659461 0 -0.35067606162742382 -0.29501044530671328 0 -0.36371723866153438 -0.30067389969265218 0 -0.35108546741670049 -0.28191409657659461 0 -0.36371723866153438 -0.30067389969265218 0 -0.35108546741670049 -0.28191409657659461 0 -0.35067606162742382 -0.29501044530671328 0 -0.33672558381383538 -0.29040924627858788 0 -0.36183464556697209 -0.28319777959060272 0 -0.36994931305706169 -0.28503882525665653 0 -0.36371723866153438 -0.30067389969265218 0 -0.36864495376161222 -0.27782337700390219 0 -0.36183464556697209 -0.28319777959060272 0 -0.36994931305706169 -0.28503882525665653 0 -0.36994931305706169 -0.28503882525665653 0 -0.36371723866153438 -0.30067389969265218 0 -0.36864495376161222 -0.27782337700390219 0 -0.36994931305706169 -0.28503882525665653 0 -0.36994931305706169 -0.28503882525665653 0 -0.37445765267039022 -0.30997803587084721 0 -0.36994931305706169 -0.28503882525665653 0 -0.37445765267039022 -0.30997803587084721 0 -0.36371723866153438 -0.30067389969265218 0 -0.37445765267039022 -0.30997803587084721 0 -0.36371723866153438 -0.30067389969265218 0 -0.37108895066847752 -0.31366294810858242 0 -0.36987163811543278 -0.31061370493116242 0 -0.36371723866153438 -0.30067389969265218 0 -0.37108895066847752 -0.31366294810858242 0 -0.36371723866153438 -0.30067389969265218 0 -0.37108895066847752 -0.31366294810858242 0 -0.36987163811543278 -0.31061370493116242 0 -0.37108895066847752 -0.31366294810858242 0 -0.37445765267039022 -0.30997803587084721 0 -0.37108895066847752 -0.31366294810858242 0 -0.35067606162742382 -0.29501044530671328 0 -0.36371723866153438 -0.30067389969265218 0 -0.3419268414160167 -0.30404310688203112 0 -0.36371723866153438 -0.30067389969265218 0 -0.3419268414160167 -0.30404310688203112 0 -0.35344919640397487 -0.32643444021574403 0 -0.33313701514714328 -0.30808027299174079 0 -0.3419268414160167 -0.30404310688203112 0 -0.33678708541475932 -0.31614773122966489 0 -0.33313701514714328 -0.30808027299174079 0 -0.32581517423005818 -0.31120498876712599 0 -0.33678708541475932 -0.31614773122966489 0 -0.33313701514714328 -0.30808027299174079 0 -0.32581517423005818 -0.31120498876712599 0 -0.32801895952773902 -0.3009252650881411 0 -0.3419268414160167 -0.30404310688203112 0 -0.33672558381383538 -0.29040924627858788 0 -0.32801895952773902 -0.3009252650881411 0 -0.33313701514714328 -0.30808027299174079 0 -0.3419268414160167 -0.30404310688203112 0 -0.32801895952773902 -0.3009252650881411 0 -0.35067606162742382 -0.29501044530671328 0 -0.3419268414160167 -0.30404310688203112 0 -0.33672558381383538 -0.29040924627858788 0 -0.3378956391244865 -0.27909836263308241 0 -0.35108546741670049 -0.28191409657659461 0 -0.33672558381383538 -0.29040924627858788 0 -0.32531780909554292 -0.28091581421661022 0 -0.3378956391244865 -0.27909836263308241 0 -0.33672558381383538 -0.29040924627858788 0 -0.32531780909554292 -0.28091581421661022 0 -0.33672558381383538 -0.29040924627858788 0 -0.32278643406680307 -0.29278189937870241 0 -0.33672558381383538 -0.29040924627858788 0 -0.32278643406680307 -0.29278189937870241 0 -0.32801895952773902 -0.3009252650881411 0 -0.32531780909554292 -0.28091581421661022 0 -0.31218192201921818 -0.29867733497268339 0 -0.32531780909554292 -0.28091581421661022 0 -0.31301504371894212 -0.28793291081601691 0 -0.31218192201921818 -0.29867733497268339 0 -0.32531780909554292 -0.28091581421661022 0 -0.32278643406680307 -0.29278189937870241 0 -0.31218192201921818 -0.29867733497268339 0 -0.32531780909554292 -0.28091581421661022 0 -0.31301504371894212 -0.28793291081601691 0 -0.31233488899133882 -0.28192763453142827 0 -0.32278643406680307 -0.29278189937870241 0 -0.31959253470172522 -0.29852895132181217 0 -0.31218192201921818 -0.29867733497268339 0 -0.31959253470172522 -0.29852895132181217 0 -0.3173098962731174 -0.30360868885686698 0 -0.31218192201921818 -0.29867733497268339 0 -0.3173098962731174 -0.30360868885686698 0 -0.30862291628133032 -0.31008179625925392 0 -0.31218192201921818 -0.29867733497268339 0 -0.3173098962731174 -0.30360868885686698 0 -0.32581517423005818 -0.31120498876712599 0 -0.31621794560821659 -0.31458126093000138 0 -0.3173098962731174 -0.30360868885686698 0 -0.32581517423005818 -0.31120498876712599 0 -0.32801895952773902 -0.3009252650881411 0 -0.32278643406680307 -0.29278189937870241 0 -0.31959253470172522 -0.29852895132181217 0 -0.32801895952773902 -0.3009252650881411 0 -0.31959253470172522 -0.29852895132181217 0 -0.3173098962731174 -0.30360868885686698 0 -0.32801895952773902 -0.3009252650881411 0 -0.3173098962731174 -0.30360868885686698 0 -0.31621794560821659 -0.31458126093000138 0 -0.30595381189009219 -0.32160230547870838 0 -0.32750024914519299 -0.32146374566264629 0 -0.31876858432125482 -0.32680160650868051 0 -0.32797824132466091 -0.33111176895654049 0 -0.32750024914519299 -0.32146374566264629 0 -0.31892443077425131 -0.31904278892450388 0 -0.31876858432125482 -0.32680160650868051 0 -0.32581517423005818 -0.31120498876712599 0 -0.32750024914519299 -0.32146374566264629 0 -0.31892443077425131 -0.31904278892450388 0 -0.32581517423005818 -0.31120498876712599 0 -0.31892443077425131 -0.31904278892450388 0 -0.31621794560821659 -0.31458126093000138 0 -0.31892443077425131 -0.31904278892450388 0 -0.31621794560821659 -0.31458126093000138 0 -0.31376055213619541 -0.32044547087900799 0 -0.31621794560821659 -0.31458126093000138 0 -0.31376055213619541 -0.32044547087900799 0 -0.31041271117248448 -0.32001787319218472 0 -0.31376055213619541 -0.32044547087900799 0 -0.31527182061290893 -0.32371045810180749 0 -0.31196724448654772 -0.3247613030566221 0 -0.31892443077425131 -0.31904278892450388 0 -0.31376055213619541 -0.32044547087900799 0 -0.31527182061290893 -0.32371045810180749 0 -0.31892443077425131 -0.31904278892450388 0 -0.31527182061290893 -0.32371045810180749 0 -0.31876858432125482 -0.32680160650868051 0 -0.31527182061290893 -0.32371045810180749 0 -0.31876858432125482 -0.32680160650868051 0 -0.31293829134629542 -0.32750112114022328 0 -0.31527182061290893 -0.32371045810180749 0 -0.31293829134629542 -0.32750112114022328 0 -0.31196724448654772 -0.3247613030566221 0 -0.31876858432125482 -0.32680160650868051 0 -0.31293829134629542 -0.32750112114022328 0 -0.31350630397067247 -0.33255425366815389 0 -0.31876858432125482 -0.32680160650868051 0 -0.31350630397067247 -0.33255425366815389 0 -0.31994377041455552 -0.33493024368420587 0 -0.31350630397067247 -0.33255425366815389 0 -0.31994377041455552 -0.33493024368420587 0 -0.31469219948583599 -0.33885057637206573 0 -0.31994377041455552 -0.33493024368420587 0 -0.31469219948583599 -0.33885057637206573 0 -0.31903303711794279 -0.34345648992926991 0 -0.31469219948583599 -0.33885057637206573 0 -0.31903303711794279 -0.34345648992926991 0 -0.3117831403081931 -0.34499217606536431 0 -0.31994377041455552 -0.33493024368420587 0 -0.31903303711794279 -0.34345648992926991 0 -0.3263920363871482 -0.33915781638978171 0 -0.31876858432125482 -0.32680160650868051 0 -0.31994377041455552 -0.33493024368420587 0 -0.32797824132466091 -0.33111176895654049 0 -0.31994377041455552 -0.33493024368420587 0 -0.3263920363871482 -0.33915781638978171 0 -0.32797824132466091 -0.33111176895654049 0 -0.32797824132466091 -0.33111176895654049 0 -0.33641442925410392 -0.33765043415606322 0 -0.33885037842571031 -0.32666676733786543 0 -0.33641442925410392 -0.33765043415606322 0 -0.33885037842571031 -0.32666676733786543 0 -0.35344919640397487 -0.32643444021574403 0 -0.3263920363871482 -0.33915781638978171 0 -0.33641442925410392 -0.33765043415606322 0 -0.32745043223466119 -0.34921271928881908 0 -0.3263920363871482 -0.33915781638978171 0 -0.32797824132466091 -0.33111176895654049 0 -0.33641442925410392 -0.33765043415606322 0 -0.33885037842571031 -0.32666676733786543 0 -0.33678708541475932 -0.31614773122966489 0 -0.35344919640397487 -0.32643444021574403 0 -0.32750024914519299 -0.32146374566264629 0 -0.32797824132466091 -0.33111176895654049 0 -0.33885037842571031 -0.32666676733786543 0 -0.32750024914519299 -0.32146374566264629 0 -0.33885037842571031 -0.32666676733786543 0 -0.33678708541475932 -0.31614773122966489 0 -0.32581517423005818 -0.31120498876712599 0 -0.32750024914519299 -0.32146374566264629 0 -0.33678708541475932 -0.31614773122966489 0 -0.36371723866153438 -0.30067389969265218 0 -0.35344919640397487 -0.32643444021574403 0 -0.35344919640397487 -0.32643444021574403 0 -0.37108895066847752 -0.31366294810858242 0 -0.35107795271500097 -0.33555232009998631 0 -0.3419268414160167 -0.30404310688203112 0 -0.33678708541475932 -0.31614773122966489 0 -0.35344919640397487 -0.32643444021574403 0 -0.37772705956075059 -0.33029073051343938 0 -0.37108895066847752 -0.31366294810858242 0 -0.37772705956075059 -0.33029073051343938 0 -0.37610017952058672 -0.31906415771831231 0 -0.37108895066847752 -0.31366294810858242 0 -0.36987163811543278 -0.31061370493116242 0 -0.36371723866153438 -0.30067389969265218 0 -0.35344919640397487 -0.32643444021574403 0 -0.36987163811543278 -0.31061370493116242 0 -0.35344919640397487 -0.32643444021574403 0 -0.37108895066847752 -0.31366294810858242 0 -0.37108895066847752 -0.31366294810858242 0 -0.35107795271500097 -0.33555232009998631 0 -0.37772705956075059 -0.33029073051343938 0 -0.37108895066847752 -0.31366294810858242 0 -0.35107795271500097 -0.33555232009998631 0 -0.37610017952058672 -0.31906415771831231 0 -0.37445765267039022 -0.30997803587084721 0 -0.37108895066847752 -0.31366294810858242 0 -0.37610017952058672 -0.31906415771831231 0 -0.37108895066847752 -0.31366294810858242 0 -0.37772705956075059 -0.33029073051343938 0 -0.37846279834407259 -0.33213368075641431 0 -0.36045410685358342 -0.34124285562613837 0 -0.37846279834407259 -0.33213368075641431 0 -0.36045410685358342 -0.34124285562613837 0 -0.36842733252389143 -0.35241572257452458 0 -0.37772705956075059 -0.33029073051343938 0 -0.36045410685358342 -0.34124285562613837 0 -0.35107795271500097 -0.33555232009998631 0 -0.37772705956075059 -0.33029073051343938 0 -0.36045410685358342 -0.34124285562613837 0 -0.33641442925410392 -0.33765043415606322 0 -0.35344919640397487 -0.32643444021574403 0 -0.34318115414641548 -0.35219498073883593 0 -0.36045410685358342 -0.34124285562613837 0 -0.35107795271500097 -0.33555232009998631 0 -0.34318115414641548 -0.35219498073883593 0 -0.35344919640397487 -0.32643444021574403 0 -0.34318115414641548 -0.35219498073883593 0 -0.35344919640397487 -0.32643444021574403 0 -0.35107795271500097 -0.33555232009998631 0 -0.34318115414641548 -0.35219498073883593 0 -0.36045410685358342 -0.34124285562613837 0 -0.34318115414641548 -0.35219498073883593 0 -0.36045410685358342 -0.34124285562613837 0 -0.35297752524461129 -0.35748769285154142 0 -0.34318115414641548 -0.35219498073883593 0 -0.35297752524461129 -0.35748769285154142 0 -0.34222640515868952 -0.35459026207589828 0 -0.34318115414641548 -0.35219498073883593 0 -0.36045410685358342 -0.34124285562613837 0 -0.35297752524461129 -0.35748769285154142 0 -0.36842733252389143 -0.35241572257452458 0 -0.35297752524461129 -0.35748769285154142 0 -0.36842733252389143 -0.35241572257452458 0 -0.36730419086109922 -0.37432457610345171 0 -0.38293804131609022 -0.3568898075350776 0 -0.36842733252389143 -0.35241572257452458 0 -0.36730419086109922 -0.37432457610345171 0 -0.35297752524461129 -0.35748769285154142 0 -0.36730419086109922 -0.37432457610345171 0 -0.34719509743409238 -0.36700321789316109 0 -0.36730419086109922 -0.37432457610345171 0 -0.34719509743409238 -0.36700321789316109 0 -0.35297752524461129 -0.35748769285154142 0 -0.34719509743409238 -0.36700321789316109 0 -0.34222640515868952 -0.35459026207589828 0 -0.34719509743409238 -0.36700321789316109 0 -0.34222640515868952 -0.35459026207589828 0 -0.32264304973165142 -0.36521741488437681 0 -0.34719509743409238 -0.36700321789316109 0 -0.32264304973165142 -0.36521741488437681 0 -0.33491528359534312 -0.37953536381560549 0 -0.33641442925410392 -0.33765043415606322 0 -0.34318115414641548 -0.35219498073883593 0 -0.32745043223466119 -0.34921271928881908 0 -0.34318115414641548 -0.35219498073883593 0 -0.32264304973165142 -0.36521741488437681 0 -0.34222640515868952 -0.35459026207589828 0 -0.34318115414641548 -0.35219498073883593 0 -0.32264304973165142 -0.36521741488437681 0 -0.34318115414641548 -0.35219498073883593 0 -0.32745043223466119 -0.34921271928881908 0 -0.32264304973165142 -0.36521741488437681 0 -0.34222640515868952 -0.35459026207589828 0 -0.34318115414641548 -0.35219498073883593 0 -0.32745043223466119 -0.34921271928881908 0 -0.31306978792759632 -0.35354170128379492 0 -0.32264304973165142 -0.36521741488437681 0 -0.31903303711794279 -0.34345648992926991 0 -0.3263920363871482 -0.33915781638978171 0 -0.32745043223466119 -0.34921271928881908 0 -0.31903303711794279 -0.34345648992926991 0 -0.31306978792759632 -0.35354170128379492 0 -0.3117831403081931 -0.34499217606536431 0 -0.31903303711794279 -0.34345648992926991 0 -0.32745043223466119 -0.34921271928881908 0 -0.31306978792759632 -0.35354170128379492 0 -0.31306978792759632 -0.35354170128379492 0 -0.32264304973165142 -0.36521741488437681 0 -0.30068586207167941 -0.36076550975177429 0 -0.32264304973165142 -0.36521741488437681 0 -0.30068586207167941 -0.36076550975177429 0 -0.30210494531688731 -0.37823984902991792 0 -0.30068586207167941 -0.36076550975177429 0 -0.28969130638331192 -0.36984495691052699 0 -0.30210494531688731 -0.37823984902991792 0 -0.32264304973165142 -0.36521741488437681 0 -0.30210494531688731 -0.37823984902991792 0 -0.31306978792759632 -0.35354170128379492 0 -0.30068586207167941 -0.36076550975177429 0 -0.3043753838312423 -0.34576310412497968 0 -0.31306978792759632 -0.35354170128379492 0 -0.3117831403081931 -0.34499217606536431 0 -0.3043753838312423 -0.34576310412497968 0 -0.30068586207167941 -0.36076550975177429 0 -0.3043753838312423 -0.34576310412497968 0 -0.29001756517198662 -0.34685314935806372 0 -0.30068586207167941 -0.36076550975177429 0 -0.29001756517198662 -0.34685314935806372 0 -0.28969130638331192 -0.36984495691052699 0 -0.29001756517198662 -0.34685314935806372 0 -0.2745373117416352 -0.35089566187627358 0 -0.28180351178332758 -0.33621502238809958 0 -0.29001756517198662 -0.34685314935806372 0 -0.28969130638331192 -0.36984495691052699 0 -0.274081318453883 -0.37210399323742022 0 -0.29001756517198662 -0.34685314935806372 0 -0.274081318453883 -0.37210399323742022 0 -0.274081318453883 -0.37210399323742022 0 -0.25765321167656191 -0.35082773929748912 0 -0.25267829693629529 -0.37721023905921808 0 -0.274081318453883 -0.37210399323742022 0 -0.25765321167656191 -0.35082773929748912 0 -0.2745373117416352 -0.35089566187627358 0 -0.29001756517198662 -0.34685314935806372 0 -0.274081318453883 -0.37210399323742022 0 -0.2745373117416352 -0.35089566187627358 0 -0.25765321167656191 -0.35082773929748912 0 -0.2745373117416352 -0.35089566187627358 0 -0.28180351178332758 -0.33621502238809958 0 -0.26125226075895552 -0.32951300830988711 0 -0.27531043627044172 -0.32611009453338308 0 -0.28180351178332758 -0.33621502238809958 0 -0.25765321167656191 -0.35082773929748912 0 -0.28180351178332758 -0.33621502238809958 0 -0.25765321167656191 -0.35082773929748912 0 -0.26125226075895552 -0.32951300830988711 0 -0.28180351178332758 -0.33621502238809958 0 -0.27531043627044172 -0.32611009453338308 0 -0.28401976835125609 -0.32350498540097561 0 -0.28180351178332758 -0.33621502238809958 0 -0.25765321167656191 -0.35082773929748912 0 -0.26125226075895552 -0.32951300830988711 0 -0.2382503854121765 -0.33608356444967119 0 -0.26125226075895552 -0.32951300830988711 0 -0.27638760335880141 -0.31452021985203438 0 -0.25628992497112491 -0.30501346688070519 0 -0.26125226075895552 -0.32951300830988711 0 -0.25628992497112491 -0.30501346688070519 0 -0.24753126157558589 -0.31963043698069538 0 -0.26125226075895552 -0.32951300830988711 0 -0.27531043627044172 -0.32611009453338308 0 -0.27638760335880141 -0.31452021985203438 0 -0.27531043627044172 -0.32611009453338308 0 -0.27638760335880141 -0.31452021985203438 0 -0.28401976835125609 -0.32350498540097561 0 -0.27638760335880141 -0.31452021985203438 0 -0.28935967376406629 -0.31723525339387171 0 -0.28401976835125609 -0.32350498540097561 0 -0.29203656014632717 -0.3229992844780824 0 -0.28180351178332758 -0.33621502238809958 0 -0.30595381189009219 -0.32160230547870838 0 -0.27638760335880141 -0.31452021985203438 0 -0.28935967376406629 -0.31723525339387171 0 -0.28822209348315547 -0.30884844805614309 0 -0.28935967376406629 -0.31723525339387171 0 -0.29203656014632717 -0.3229992844780824 0 -0.29904603494289361 -0.31643885572875657 0 -0.28935967376406629 -0.31723525339387171 0 -0.29904603494289361 -0.31643885572875657 0 -0.28822209348315547 -0.30884844805614309 0 -0.29203656014632717 -0.3229992844780824 0 -0.28401976835125609 -0.32350498540097561 0 -0.28180351178332758 -0.33621502238809958 0 -0.28935967376406629 -0.31723525339387171 0 -0.29203656014632717 -0.3229992844780824 0 -0.28401976835125609 -0.32350498540097561 0 -0.29001756517198662 -0.34685314935806372 0 -0.28180351178332758 -0.33621502238809958 0 -0.30595381189009219 -0.32160230547870838 0 -0.28180351178332758 -0.33621502238809958 0 -0.30595381189009219 -0.32160230547870838 0 -0.29001756517198662 -0.34685314935806372 0 -0.30280341835851471 -0.33392178058384597 0 -0.30595381189009219 -0.32160230547870838 0 -0.29001756517198662 -0.34685314935806372 0 -0.30595381189009219 -0.32160230547870838 0 -0.3043753838312423 -0.34576310412497968 0 -0.29001756517198662 -0.34685314935806372 0 -0.30280341835851471 -0.33392178058384597 0 -0.3043753838312423 -0.34576310412497968 0 -0.30280341835851471 -0.33392178058384597 0 -0.30919474561781662 -0.33831971851333459 0 -0.3117831403081931 -0.34499217606536431 0 -0.3043753838312423 -0.34576310412497968 0 -0.30919474561781662 -0.33831971851333459 0 -0.31350630397067247 -0.33255425366815389 0 -0.31469219948583599 -0.33885057637206573 0 -0.30919474561781662 -0.33831971851333459 0 -0.31469219948583599 -0.33885057637206573 0 -0.3117831403081931 -0.34499217606536431 0 -0.30919474561781662 -0.33831971851333459 0 -0.30280341835851471 -0.33392178058384597 0 -0.30594603558918892 -0.3291593442816404 0 -0.30589425936354647 -0.32641151188401768 0 -0.30280341835851471 -0.33392178058384597 0 -0.30594603558918892 -0.3291593442816404 0 -0.30813824300539749 -0.33080082886405771 0 -0.30594603558918892 -0.3291593442816404 0 -0.30813824300539749 -0.33080082886405771 0 -0.30589425936354647 -0.32641151188401768 0 -0.30280341835851471 -0.33392178058384597 0 -0.30919474561781662 -0.33831971851333459 0 -0.30813824300539749 -0.33080082886405771 0 -0.31350630397067247 -0.33255425366815389 0 -0.30919474561781662 -0.33831971851333459 0 -0.30813824300539749 -0.33080082886405771 0 -0.31293829134629542 -0.32750112114022328 0 -0.30813824300539749 -0.33080082886405771 0 -0.30946463746592517 -0.32680893776580378 0 -0.31293829134629542 -0.32750112114022328 0 -0.31350630397067247 -0.33255425366815389 0 -0.30813824300539749 -0.33080082886405771 0 -0.31293829134629542 -0.32750112114022328 0 -0.31196724448654772 -0.3247613030566221 0 -0.30946463746592517 -0.32680893776580378 0 -0.30280341835851471 -0.33392178058384597 0 -0.30589425936354647 -0.32641151188401768 0 -0.30595381189009219 -0.32160230547870838 0 -0.3173098962731174 -0.30360868885686698 0 -0.30595381189009219 -0.32160230547870838 0 -0.31196724448654772 -0.3247613030566221 0 -0.30946463746592517 -0.32680893776580378 0 -0.30843118893272869 -0.32492381323053021 0 -0.31196724448654772 -0.3247613030566221 0 -0.30843118893272869 -0.32492381323053021 0 -0.30931712961740399 -0.3231685083710425 0 -0.30813824300539749 -0.33080082886405771 0 -0.30946463746592517 -0.32680893776580378 0 -0.30589425936354647 -0.32641151188401768 0 -0.30843118893272869 -0.32492381323053021 0 -0.30589425936354647 -0.32641151188401768 0 -0.30769615957485419 -0.32347376348654078 0 -0.30946463746592517 -0.32680893776580378 0 -0.30843118893272869 -0.32492381323053021 0 -0.30589425936354647 -0.32641151188401768 0 -0.30589425936354647 -0.32641151188401768 0 -0.30595381189009219 -0.32160230547870838 0 -0.30769615957485419 -0.32347376348654078 0 -0.30595381189009219 -0.32160230547870838 0 -0.30775588261164027 -0.32135141476248852 0 -0.31041271117248448 -0.32001787319218472 0 -0.30769615957485419 -0.32347376348654078 0 -0.30775588261164027 -0.32135141476248852 0 -0.30931712961740399 -0.3231685083710425 0 -0.30843118893272869 -0.32492381323053021 0 -0.30769615957485419 -0.32347376348654078 0 -0.30931712961740399 -0.3231685083710425 0 -0.30595381189009219 -0.32160230547870838 0 -0.30769615957485419 -0.32347376348654078 0 -0.30775588261164027 -0.32135141476248852 0 -0.31376055213619541 -0.32044547087900799 0 -0.30931712961740399 -0.3231685083710425 0 -0.31041271117248448 -0.32001787319218472 0 -0.31376055213619541 -0.32044547087900799 0 -0.31196724448654772 -0.3247613030566221 0 -0.30931712961740399 -0.3231685083710425 0 -0.30775588261164027 -0.32135141476248852 0 -0.30931712961740399 -0.3231685083710425 0 -0.31041271117248448 -0.32001787319218472 0 -0.31621794560821659 -0.31458126093000138 0 -0.30595381189009219 -0.32160230547870838 0 -0.31041271117248448 -0.32001787319218472 0 -0.30595381189009219 -0.32160230547870838 0 -0.29904603494289361 -0.31643885572875657 0 -0.30862291628133032 -0.31008179625925392 0 -0.29203656014632717 -0.3229992844780824 0 -0.30595381189009219 -0.32160230547870838 0 -0.29904603494289361 -0.31643885572875657 0 -0.3173098962731174 -0.30360868885686698 0 -0.30595381189009219 -0.32160230547870838 0 -0.30862291628133032 -0.31008179625925392 0 -0.29904603494289361 -0.31643885572875657 0 -0.2980783697320965 -0.30194004475606251 0 -0.31218192201921818 -0.29867733497268339 0 -0.29904603494289361 -0.31643885572875657 0 -0.31218192201921818 -0.29867733497268339 0 -0.29904603494289361 -0.31643885572875657 0 -0.30862291628133032 -0.31008179625925392 0 -0.31218192201921818 -0.29867733497268339 0 -0.2980783697320965 -0.30194004475606251 0 -0.31218192201921818 -0.29867733497268339 0 -0.30222555476966839 -0.29021085954334558 0 -0.31301504371894212 -0.28793291081601691 0 -0.31218192201921818 -0.29867733497268339 0 -0.30222555476966839 -0.29021085954334558 0 -0.30222555476966839 -0.29021085954334558 0 -0.29086922051457581 -0.28450465029809391 0 -0.29864142842280478 -0.27265795198136522 0 -0.31233488899133882 -0.28192763453142827 0 -0.30222555476966839 -0.29021085954334558 0 -0.29864142842280478 -0.27265795198136522 0 -0.31301504371894212 -0.28793291081601691 0 -0.31233488899133882 -0.28192763453142827 0 -0.30222555476966839 -0.29021085954334558 0 -0.2980783697320965 -0.30194004475606251 0 -0.30222555476966839 -0.29021085954334558 0 -0.28858776766145711 -0.29496602140978351 0 -0.30222555476966839 -0.29021085954334558 0 -0.29086922051457581 -0.28450465029809391 0 -0.28858776766145711 -0.29496602140978351 0 -0.29086922051457581 -0.28450465029809391 0 -0.27944300050462773 -0.28896659060135488 0 -0.28251309286160098 -0.27574639934856909 0 -0.29086922051457581 -0.28450465029809391 0 -0.28858776766145711 -0.29496602140978351 0 -0.27944300050462773 -0.28896659060135488 0 -0.28858776766145711 -0.29496602140978351 0 -0.28822209348315547 -0.30884844805614309 0 -0.27379739860661878 -0.2990451911973403 0 -0.2980783697320965 -0.30194004475606251 0 -0.28858776766145711 -0.29496602140978351 0 -0.28822209348315547 -0.30884844805614309 0 -0.29904603494289361 -0.31643885572875657 0 -0.2980783697320965 -0.30194004475606251 0 -0.28822209348315547 -0.30884844805614309 0 -0.27638760335880141 -0.31452021985203438 0 -0.27379739860661878 -0.2990451911973403 0 -0.25628992497112491 -0.30501346688070519 0 -0.27638760335880141 -0.31452021985203438 0 -0.28822209348315547 -0.30884844805614309 0 -0.27379739860661878 -0.2990451911973403 0 -0.27379739860661878 -0.2990451911973403 0 -0.25628992497112491 -0.30501346688070519 0 -0.26667948678682851 -0.28545365065699979 0 -0.25628992497112491 -0.30501346688070519 0 -0.26667948678682851 -0.28545365065699979 0 -0.24663593115704921 -0.28625109768023738 0 -0.26667948678682851 -0.28545365065699979 0 -0.27944300050462773 -0.28896659060135488 0 -0.28251309286160098 -0.27574639934856909 0 -0.27379739860661878 -0.2990451911973403 0 -0.26667948678682851 -0.28545365065699979 0 -0.27944300050462773 -0.28896659060135488 0 -0.28858776766145711 -0.29496602140978351 0 -0.27379739860661878 -0.2990451911973403 0 -0.27944300050462773 -0.28896659060135488 0 -0.2697175437558243 -0.2705419377985594 0 -0.27768781240853779 -0.25792173907992338 0 -0.28251309286160098 -0.27574639934856909 0 -0.26667948678682851 -0.28545365065699979 0 -0.2697175437558243 -0.2705419377985594 0 -0.28251309286160098 -0.27574639934856909 0 -0.26667948678682851 -0.28545365065699979 0 -0.25662264465878432 -0.27115822271739082 0 -0.24663593115704921 -0.28625109768023738 0 -0.26667948678682851 -0.28545365065699979 0 -0.25662264465878432 -0.27115822271739082 0 -0.26667948678682851 -0.28545365065699979 0 -0.2697175437558243 -0.2705419377985594 0 -0.25662264465878432 -0.27115822271739082 0 -0.2697175437558243 -0.2705419377985594 0 -0.25662264465878432 -0.27115822271739082 0 -0.26362027925237758 -0.25928143193522751 0 -0.25662264465878432 -0.27115822271739082 0 -0.26362027925237758 -0.25928143193522751 0 -0.2465658025307402 -0.25686279477778151 0 -0.26362027925237758 -0.25928143193522751 0 -0.2465658025307402 -0.25686279477778151 0 -0.26677539150250512 -0.23834834267513871 0 -0.25662264465878432 -0.27115822271739082 0 -0.2465658025307402 -0.25686279477778151 0 -0.26362027925237758 -0.25928143193522751 0 -0.27768781240853779 -0.25792173907992338 0 -0.26677539150250512 -0.23834834267513871 0 -0.2697175437558243 -0.2705419377985594 0 -0.26362027925237758 -0.25928143193522751 0 -0.27768781240853779 -0.25792173907992338 0 -0.27768781240853779 -0.25792173907992338 0 -0.29190503483251101 -0.26000267559595203 0 -0.28251309286160098 -0.27574639934856909 0 -0.29190503483251101 -0.26000267559595203 0 -0.30627292041572213 -0.25636185243388721 0 -0.2903399019555718 -0.2392070477807737 0 -0.27768781240853779 -0.25792173907992338 0 -0.29190503483251101 -0.26000267559595203 0 -0.2903399019555718 -0.2392070477807737 0 -0.29190503483251101 -0.26000267559595203 0 -0.28251309286160098 -0.27574639934856909 0 -0.29864142842280478 -0.27265795198136522 0 -0.29086922051457581 -0.28450465029809391 0 -0.28251309286160098 -0.27574639934856909 0 -0.29864142842280478 -0.27265795198136522 0 -0.29864142842280478 -0.27265795198136522 0 -0.30894509174210949 -0.26803533255602457 0 -0.30627292041572213 -0.25636185243388721 0 -0.31233488899133882 -0.28192763453142827 0 -0.29864142842280478 -0.27265795198136522 0 -0.30894509174210949 -0.26803533255602457 0 -0.29864142842280478 -0.27265795198136522 0 -0.30627292041572213 -0.25636185243388721 0 -0.29190503483251101 -0.26000267559595203 0 -0.29864142842280478 -0.27265795198136522 0 -0.30627292041572213 -0.25636185243388721 0 -0.31853112913857229 -0.26119389127741799 0 -0.30894509174210949 -0.26803533255602457 0 -0.30627292041572213 -0.25636185243388721 0 -0.34247718151608791 -0.45567184783567 0 -0.31497301231111419 -0.45998124928556028 0 -0.33124115549892053 -0.47860566552828221 0 -0.34247718151608791 -0.45567184783567 0 -0.32614207977283438 -0.44471907968318652 0 -0.35343555273762889 -0.43934050437178412 0 -0.32614207977283438 -0.44471907968318652 0 -0.35343555273762889 -0.43934050437178412 0 -0.32614207977283438 -0.44471907968318652 0 -0.31497301231111419 -0.45998124928556028 0 -0.29884860680803987 -0.45009765499458892 0 -0.32614207977283438 -0.44471907968318652 0 -0.31357127361143933 -0.42846472623606691 0 -0.29884860680803987 -0.45009765499458892 0 -0.34247718151608791 -0.45567184783567 0 -0.32614207977283438 -0.44471907968318652 0 -0.31497301231111419 -0.45998124928556028 0 -0.31497301231111419 -0.45998124928556028 0 -0.33124115549892053 -0.47860566552828221 0 -0.30586502139809618 -0.47655612154643923 0 -0.32171809772921289 -0.5 0 -0.33124115549892053 -0.47860566552828221 0 -0.30586502139809618 -0.47655612154643923 0 -0.32171809772921289 -0.5 0 -0.33124115549892053 -0.47860566552828221 0 -0.35170146383193718 -0.5 0 -0.34247718151608791 -0.45567184783567 0 -0.33124115549892053 -0.47860566552828221 0 -0.35105715396288478 -0.47800626620983838 0 -0.33124115549892053 -0.47860566552828221 0 -0.35105715396288478 -0.47800626620983838 0 -0.35170146383193718 -0.5 0 -0.35105715396288478 -0.47800626620983838 0 -0.35170146383193718 -0.5 0 -0.37190504839516181 -0.47853018028075012 0 -0.38168482993466157 -0.5 0 -0.35170146383193718 -0.5 0 -0.37190504839516181 -0.47853018028075012 0 -0.35105715396288478 -0.47800626620983838 0 -0.37190504839516181 -0.47853018028075012 0 -0.36096930100297803 -0.46485424509663459 0 -0.37583771151230311 -0.4601105666377408 0 -0.37190504839516181 -0.47853018028075012 0 -0.36096930100297803 -0.46485424509663459 0 -0.37583771151230311 -0.4601105666377408 0 -0.36096930100297803 -0.46485424509663459 0 -0.36436655976611121 -0.44949377632392329 0 -0.34247718151608791 -0.45567184783567 0 -0.36096930100297803 -0.46485424509663459 0 -0.36436655976611121 -0.44949377632392329 0 -0.34247718151608791 -0.45567184783567 0 -0.35105715396288478 -0.47800626620983838 0 -0.36096930100297803 -0.46485424509663459 0 -0.34247718151608791 -0.45567184783567 0 -0.35343555273762889 -0.43934050437178412 0 -0.36436655976611121 -0.44949377632392329 0 -0.35343555273762889 -0.43934050437178412 0 -0.36436655976611121 -0.44949377632392329 0 -0.37001532204696752 -0.43493727515579628 0 -0.38143463625248958 -0.4437269855840838 0 -0.37583771151230311 -0.4601105666377408 0 -0.36436655976611121 -0.44949377632392329 0 -0.38143463625248958 -0.4437269855840838 0 -0.36436655976611121 -0.44949377632392329 0 -0.37001532204696752 -0.43493727515579628 0 -0.35343555273762889 -0.43934050437178412 0 -0.37001532204696752 -0.43493727515579628 0 -0.36748323434732472 -0.421319198237808 0 -0.37849854396674221 -0.42203906389385337 0 -0.37001532204696752 -0.43493727515579628 0 -0.36748323434732472 -0.421319198237808 0 -0.36748323434732472 -0.421319198237808 0 -0.34894348266427849 -0.40666647016039642 0 -0.36847528268411139 -0.39778951826182318 0 -0.38133285336139833 -0.41154992220653008 0 -0.36748323434732472 -0.421319198237808 0 -0.36847528268411139 -0.39778951826182318 0 -0.36748323434732472 -0.421319198237808 0 -0.34894348266427849 -0.40666647016039642 0 -0.34052725397938199 -0.42489196223693748 0 -0.35343555273762889 -0.43934050437178412 0 -0.36748323434732472 -0.421319198237808 0 -0.34052725397938199 -0.42489196223693748 0 -0.36748323434732472 -0.421319198237808 0 -0.34052725397938199 -0.42489196223693748 0 -0.36730419086109922 -0.37432457610345171 0 -0.36847528268411139 -0.39778951826182318 0 -0.35098140708062903 -0.38655272614998742 0 -0.37945286301085601 -0.38931624771511159 0 -0.36730419086109922 -0.37432457610345171 0 -0.36847528268411139 -0.39778951826182318 0 -0.34894348266427849 -0.40666647016039642 0 -0.35098140708062903 -0.38655272614998742 0 -0.33556095940503899 -0.39379596556885432 0 -0.34894348266427849 -0.40666647016039642 0 -0.36847528268411139 -0.39778951826182318 0 -0.35098140708062903 -0.38655272614998742 0 -0.36730419086109922 -0.37432457610345171 0 -0.34719509743409238 -0.36700321789316109 0 -0.35098140708062903 -0.38655272614998742 0 -0.34719509743409238 -0.36700321789316109 0 -0.35098140708062903 -0.38655272614998742 0 -0.33491528359534312 -0.37953536381560549 0 -0.33491528359534312 -0.37953536381560549 0 -0.33556095940503899 -0.39379596556885432 0 -0.31955665558391821 -0.38689578850972639 0 -0.35098140708062903 -0.38655272614998742 0 -0.33491528359534312 -0.37953536381560549 0 -0.33556095940503899 -0.39379596556885432 0 -0.34894348266427849 -0.40666647016039642 0 -0.33556095940503899 -0.39379596556885432 0 -0.32579130563396819 -0.41069524056642481 0 -0.31955665558391821 -0.38689578850972639 0 -0.32579130563396819 -0.41069524056642481 0 -0.30416231707024011 -0.40419147021891177 0 -0.33556095940503899 -0.39379596556885432 0 -0.31955665558391821 -0.38689578850972639 0 -0.32579130563396819 -0.41069524056642481 0 -0.32264304973165142 -0.36521741488437681 0 -0.33491528359534312 -0.37953536381560549 0 -0.31955665558391821 -0.38689578850972639 0 -0.32264304973165142 -0.36521741488437681 0 -0.31955665558391821 -0.38689578850972639 0 -0.30210494531688731 -0.37823984902991792 0 -0.32614207977283438 -0.44471907968318652 0 -0.35343555273762889 -0.43934050437178412 0 -0.34052725397938199 -0.42489196223693748 0 -0.34894348266427849 -0.40666647016039642 0 -0.34052725397938199 -0.42489196223693748 0 -0.32579130563396819 -0.41069524056642481 0 -0.34052725397938199 -0.42489196223693748 0 -0.32579130563396819 -0.41069524056642481 0 -0.31357127361143933 -0.42846472623606691 0 -0.32579130563396819 -0.41069524056642481 0 -0.31357127361143933 -0.42846472623606691 0 -0.30416231707024011 -0.40419147021891177 0 -0.32614207977283438 -0.44471907968318652 0 -0.34052725397938199 -0.42489196223693748 0 -0.31357127361143933 -0.42846472623606691 0 -0.34052725397938199 -0.42489196223693748 0 -0.31357127361143933 -0.42846472623606691 0 -0.31357127361143933 -0.42846472623606691 0 -0.29876681745235162 -0.42024311700176048 0 -0.28661529324349638 -0.43203749023519639 0 -0.31357127361143933 -0.42846472623606691 0 -0.28661529324349638 -0.43203749023519639 0 -0.29884860680803987 -0.45009765499458892 0 -0.31357127361143933 -0.42846472623606691 0 -0.28661529324349638 -0.43203749023519639 0 -0.31357127361143933 -0.42846472623606691 0 -0.29876681745235162 -0.42024311700176048 0 -0.30416231707024011 -0.40419147021891177 0 -0.29876681745235162 -0.42024311700176048 0 -0.30416231707024011 -0.40419147021891177 0 -0.2804488404924188 -0.4122955907469863 0 -0.29876681745235162 -0.42024311700176048 0 -0.28661529324349638 -0.43203749023519639 0 -0.2804488404924188 -0.4122955907469863 0 -0.31955665558391821 -0.38689578850972639 0 -0.30210494531688731 -0.37823984902991792 0 -0.30416231707024011 -0.40419147021891177 0 -0.30210494531688731 -0.37823984902991792 0 -0.30416231707024011 -0.40419147021891177 0 -0.28156684090212319 -0.39126228317545891 0 -0.30416231707024011 -0.40419147021891177 0 -0.28156684090212319 -0.39126228317545891 0 -0.2804488404924188 -0.4122955907469863 0 -0.30210494531688731 -0.37823984902991792 0 -0.28156684090212319 -0.39126228317545891 0 -0.28969130638331192 -0.36984495691052699 0 -0.274081318453883 -0.37210399323742022 0 -0.28156684090212319 -0.39126228317545891 0 -0.28969130638331192 -0.36984495691052699 0 -0.30210494531688731 -0.37823984902991792 0 -0.28156684090212319 -0.39126228317545891 0 -0.274081318453883 -0.37210399323742022 0 -0.28156684090212319 -0.39126228317545891 0 -0.26589265982301902 -0.39461427804334442 0 -0.28156684090212319 -0.39126228317545891 0 -0.26589265982301902 -0.39461427804334442 0 -0.2804488404924188 -0.4122955907469863 0 -0.26589265982301902 -0.39461427804334442 0 -0.25762040219633159 -0.41281349898793379 0 -0.2491354795475737 -0.39424758185502962 0 -0.274081318453883 -0.37210399323742022 0 -0.26589265982301902 -0.39461427804334442 0 -0.25267829693629529 -0.37721023905921808 0 -0.26589265982301902 -0.39461427804334442 0 -0.25267829693629529 -0.37721023905921808 0 -0.2491354795475737 -0.39424758185502962 0 -0.28661529324349638 -0.43203749023519639 0 -0.26859056092208278 -0.42767679706712358 0 -0.2804488404924188 -0.4122955907469863 0 -0.26589265982301902 -0.39461427804334442 0 -0.2804488404924188 -0.4122955907469863 0 -0.25762040219633159 -0.41281349898793379 0 -0.26859056092208278 -0.42767679706712358 0 -0.2804488404924188 -0.4122955907469863 0 -0.25762040219633159 -0.41281349898793379 0 -0.26859056092208278 -0.42767679706712358 0 -0.25762040219633159 -0.41281349898793379 0 -0.25286395948778351 -0.43736885668238312 0 -0.25286395948778351 -0.43736885668238312 0 -0.27155513384324548 -0.45547623030599133 0 -0.244261660878451 -0.46085480561739373 0 -0.26859056092208278 -0.42767679706712358 0 -0.25286395948778351 -0.43736885668238312 0 -0.27155513384324548 -0.45547623030599133 0 -0.27155513384324548 -0.45547623030599133 0 -0.244261660878451 -0.46085480561739373 0 -0.27155513384324548 -0.45547623030599133 0 -0.25334752532759142 -0.4788530086314452 0 -0.244261660878451 -0.46085480561739373 0 -0.28661529324349638 -0.43203749023519639 0 -0.26859056092208278 -0.42767679706712358 0 -0.27155513384324548 -0.45547623030599133 0 -0.27155513384324548 -0.45547623030599133 0 -0.29884860680803987 -0.45009765499458892 0 -0.28661529324349638 -0.43203749023519639 0 -0.27155513384324548 -0.45547623030599133 0 -0.29884860680803987 -0.45009765499458892 0 -0.29884860680803987 -0.45009765499458892 0 -0.30586502139809618 -0.47655612154643923 0 -0.28009861916084672 -0.47725446536498117 0 -0.27155513384324548 -0.45547623030599133 0 -0.29884860680803987 -0.45009765499458892 0 -0.28009861916084672 -0.47725446536498117 0 -0.31497301231111419 -0.45998124928556028 0 -0.29884860680803987 -0.45009765499458892 0 -0.30586502139809618 -0.47655612154643923 0 -0.32614207977283438 -0.44471907968318652 0 -0.29884860680803987 -0.45009765499458892 0 -0.32171809772921289 -0.5 0 -0.30586502139809618 -0.47655612154643923 0 -0.29173473162648861 -0.5 0 -0.30586502139809618 -0.47655612154643923 0 -0.29173473162648861 -0.5 0 -0.28009861916084672 -0.47725446536498117 0 -0.29173473162648861 -0.5 0 -0.28009861916084672 -0.47725446536498117 0 -0.26175136552376421 -0.5 0 -0.27155513384324548 -0.45547623030599133 0 -0.28009861916084672 -0.47725446536498117 0 -0.25334752532759142 -0.4788530086314452 0 -0.28009861916084672 -0.47725446536498117 0 -0.25334752532759142 -0.4788530086314452 0 -0.26175136552376421 -0.5 0 -0.25334752532759142 -0.4788530086314452 0 -0.23065037313820119 -0.4795325505003053 0 -0.2317679994210399 -0.5 0 -0.25334752532759142 -0.4788530086314452 0 -0.26175136552376421 -0.5 0 -0.2317679994210399 -0.5 0 -0.25334752532759142 -0.4788530086314452 0 -0.23065037313820119 -0.4795325505003053 0 -0.244261660878451 -0.46085480561739373 0 -0.23065037313820119 -0.4795325505003053 0 -0.244261660878451 -0.46085480561739373 0 -0.21696818791365649 -0.46623338092879602 0 -0.23065037313820119 -0.4795325505003053 0 -0.2190764290596611 -0.4769773643028799 0 -0.21696818791365649 -0.46623338092879602 0 -0.23065037313820119 -0.4795325505003053 0 -0.2190764290596611 -0.4769773643028799 0 -0.21710626493714161 -0.4872600543548043 0 -0.23065037313820119 -0.4795325505003053 0 -0.2317679994210399 -0.5 0 -0.21710626493714161 -0.4872600543548043 0 -0.25286395948778351 -0.43736885668238312 0 -0.244261660878451 -0.46085480561739373 0 -0.22806293189277529 -0.44131058174695398 0 -0.22806293189277529 -0.44131058174695398 0 -0.21696818791365649 -0.46623338092879602 0 -0.244261660878451 -0.46085480561739373 0 -0.21696818791365649 -0.46623338092879602 0 -0.244261660878451 -0.46085480561739373 0 -0.22806293189277529 -0.44131058174695398 0 -0.21696818791365649 -0.46623338092879602 0 -0.22806293189277529 -0.44131058174695398 0 -0.20448254800553831 -0.44749160947833722 0 -0.21696818791365649 -0.46623338092879602 0 -0.20448254800553831 -0.44749160947833722 0 -0.21696818791365649 -0.46623338092879602 0 -0.20389185994873329 -0.46714790813398421 0 -0.20448254800553831 -0.44749160947833722 0 -0.20389185994873329 -0.46714790813398421 0 -0.19237835994323829 -0.46354216221684569 0 -0.20448254800553831 -0.44749160947833722 0 -0.19237835994323829 -0.46354216221684569 0 -0.18023707737272759 -0.4479075242477199 0 -0.20448254800553831 -0.44749160947833722 0 -0.18023707737272759 -0.4479075242477199 0 -0.19196468754180041 -0.42564695993836249 0 -0.2317679994210399 -0.5 0 -0.21710626493714161 -0.4872600543548043 0 -0.20178463331831559 -0.50000000000000111 0 -0.21710626493714161 -0.4872600543548043 0 -0.2091218619725895 -0.48361318256245889 0 -0.20178463331831559 -0.50000000000000111 0 -0.2091218619725895 -0.48361318256245889 0 -0.20178463331831559 -0.50000000000000111 0 -0.2190764290596611 -0.4769773643028799 0 -0.21710626493714161 -0.4872600543548043 0 -0.2091218619725895 -0.48361318256245889 0 -0.2190764290596611 -0.4769773643028799 0 -0.21696818791365649 -0.46623338092879602 0 -0.2091218619725895 -0.48361318256245889 0 -0.21696818791365649 -0.46623338092879602 0 -0.20389185994873329 -0.46714790813398421 0 -0.2091218619725895 -0.48361318256245889 0 -0.21696818791365649 -0.46623338092879602 0 -0.2091218619725895 -0.48361318256245889 0 -0.20389185994873329 -0.46714790813398421 0 -0.2091218619725895 -0.48361318256245889 0 -0.19555431773154511 -0.47618179165445368 0 -0.2091218619725895 -0.48361318256245889 0 -0.19555431773154511 -0.47618179165445368 0 -0.18558405722948559 -0.48732948903253931 0 -0.20389185994873329 -0.46714790813398421 0 -0.19237835994323829 -0.46354216221684569 0 -0.19555431773154511 -0.47618179165445368 0 -0.19237835994323829 -0.46354216221684569 0 -0.19555431773154511 -0.47618179165445368 0 -0.18479349526489841 -0.47472934504029618 0 -0.19555431773154511 -0.47618179165445368 0 -0.18558405722948559 -0.48732948903253931 0 -0.18479349526489841 -0.47472934504029618 0 -0.20178463331831559 -0.50000000000000111 0 -0.18558405722948559 -0.48732948903253931 0 -0.17653181061334369 -0.4985803381824907 0 -0.2091218619725895 -0.48361318256245889 0 -0.18558405722948559 -0.48732948903253931 0 -0.2091218619725895 -0.48361318256245889 0 -0.20178463331831559 -0.50000000000000111 0 -0.18558405722948559 -0.48732948903253931 0 -0.20178463331831559 -0.50000000000000111 0 -0.17653181061334369 -0.4985803381824907 0 -0.17207973532722359 -0.5 0 -0.18558405722948559 -0.48732948903253931 0 -0.16204625248638141 -0.49104579550261829 0 -0.17189755945179799 -0.47654246417722712 0 -0.18558405722948559 -0.48732948903253931 0 -0.17653181061334369 -0.4985803381824907 0 -0.16204625248638141 -0.49104579550261829 0 -0.18558405722948559 -0.48732948903253931 0 -0.16204625248638141 -0.49104579550261829 0 -0.17653181061334369 -0.4985803381824907 0 -0.16204625248638141 -0.49104579550261829 0 -0.17207973532722359 -0.5 0 -0.16204625248638141 -0.49104579550261829 0 -0.14237483733613149 -0.5 0 -0.17653181061334369 -0.4985803381824907 0 -0.17207973532722359 -0.5 0 -0.16204625248638141 -0.49104579550261829 0 -0.16204625248638141 -0.49104579550261829 0 -0.15722912036137049 -0.47571968633209388 0 -0.17189755945179799 -0.47654246417722712 0 -0.15722912036137049 -0.47571968633209388 0 -0.17189755945179799 -0.47654246417722712 0 -0.16346408798408429 -0.46172177923853319 0 -0.17189755945179799 -0.47654246417722712 0 -0.18479349526489841 -0.47472934504029618 0 -0.17855411600334931 -0.46488865498412452 0 -0.18558405722948559 -0.48732948903253931 0 -0.17189755945179799 -0.47654246417722712 0 -0.18479349526489841 -0.47472934504029618 0 -0.19237835994323829 -0.46354216221684569 0 -0.18479349526489841 -0.47472934504029618 0 -0.17855411600334931 -0.46488865498412452 0 -0.19237835994323829 -0.46354216221684569 0 -0.17855411600334931 -0.46488865498412452 0 -0.18023707737272759 -0.4479075242477199 0 -0.17855411600334931 -0.46488865498412452 0 -0.18023707737272759 -0.4479075242477199 0 -0.16346408798408429 -0.46172177923853319 0 -0.18023707737272759 -0.4479075242477199 0 -0.16183609349488029 -0.44518281874335752 0 -0.16834133469072271 -0.43026452259726777 0 -0.18023707737272759 -0.4479075242477199 0 -0.16183609349488029 -0.44518281874335752 0 -0.16346408798408429 -0.46172177923853319 0 -0.17189755945179799 -0.47654246417722712 0 -0.17855411600334931 -0.46488865498412452 0 -0.16346408798408429 -0.46172177923853319 0 -0.16346408798408429 -0.46172177923853319 0 -0.1451699107658149 -0.46824288441858708 0 -0.14126684519844299 -0.4529954580980789 0 -0.16183609349488029 -0.44518281874335752 0 -0.16346408798408429 -0.46172177923853319 0 -0.14126684519844299 -0.4529954580980789 0 -0.15722912036137049 -0.47571968633209388 0 -0.16346408798408429 -0.46172177923853319 0 -0.1451699107658149 -0.46824288441858708 0 -0.16183609349488029 -0.44518281874335752 0 -0.14126684519844299 -0.4529954580980789 0 -0.14811161939969961 -0.43650603961756718 0 -0.14126684519844299 -0.4529954580980789 0 -0.12925744212726331 -0.43629998275471921 0 -0.1181183874658143 -0.45147491278412177 0 -0.14126684519844299 -0.4529954580980789 0 -0.12925744212726331 -0.43629998275471921 0 -0.14811161939969961 -0.43650603961756718 0 -0.1451699107658149 -0.46824288441858708 0 -0.14126684519844299 -0.4529954580980789 0 -0.1219109160279906 -0.47016973378194687 0 -0.14126684519844299 -0.4529954580980789 0 -0.1219109160279906 -0.47016973378194687 0 -0.1181183874658143 -0.45147491278412177 0 -0.14197858425718621 -0.48060776464228222 0 -0.1219109160279906 -0.47016973378194687 0 -0.1451699107658149 -0.46824288441858708 0 -0.14197858425718621 -0.48060776464228222 0 -0.1219109160279906 -0.47016973378194687 0 -0.12954218601469991 -0.48471465532121621 0 -0.14197858425718621 -0.48060776464228222 0 -0.1219109160279906 -0.47016973378194687 0 -0.1252016248406197 -0.48989954101064448 0 -0.12954218601469991 -0.48471465532121621 0 -0.13481432462882961 -0.49534535490479492 0 -0.1252016248406197 -0.48989954101064448 0 -0.13481432462882961 -0.49534535490479492 0 -0.11699517830683021 -0.49329984359857593 0 -0.13481432462882961 -0.49534535490479492 0 -0.14237483733613149 -0.5 0 -0.1126699393450394 -0.5 0 -0.12954218601469991 -0.48471465532121621 0 -0.13481432462882961 -0.49534535490479492 0 -0.14197858425718621 -0.48060776464228222 0 -0.16204625248638141 -0.49104579550261829 0 -0.14197858425718621 -0.48060776464228222 0 -0.16204625248638141 -0.49104579550261829 0 -0.13481432462882961 -0.49534535490479492 0 -0.14197858425718621 -0.48060776464228222 0 -0.16204625248638141 -0.49104579550261829 0 -0.13481432462882961 -0.49534535490479492 0 -0.16204625248638141 -0.49104579550261829 0 -0.13481432462882961 -0.49534535490479492 0 -0.14237483733613149 -0.5 0 -0.16204625248638141 -0.49104579550261829 0 -0.15722912036137049 -0.47571968633209388 0 -0.14197858425718621 -0.48060776464228222 0 -0.15722912036137049 -0.47571968633209388 0 -0.1451699107658149 -0.46824288441858708 0 -0.14197858425718621 -0.48060776464228222 0 -0.14973454762322691 -0.39794154183497099 0 -0.13405445746913611 -0.40502949172506519 0 -0.14779602751190801 -0.41135747734576389 0 -0.14973454762322691 -0.39794154183497099 0 -0.14779602751190801 -0.41135747734576389 0 -0.16105201124949889 -0.40927860693504731 0 -0.14973454762322691 -0.39794154183497099 0 -0.1612028534957396 -0.38161944141293341 0 -0.14331713641722341 -0.37278574873320769 0 -0.14973454762322691 -0.39794154183497099 0 -0.14331713641722341 -0.37278574873320769 0 -0.1279409644580716 -0.38975093746775302 0 -0.14331713641722341 -0.37278574873320769 0 -0.12954167267392819 -0.37092982091023941 0 -0.14973454762322691 -0.39794154183497099 0 -0.1279409644580716 -0.38975093746775302 0 -0.14331713641722341 -0.37278574873320769 0 -0.14973454762322691 -0.39794154183497099 0 -0.1279409644580716 -0.38975093746775302 0 -0.13405445746913611 -0.40502949172506519 0 -0.13405445746913611 -0.40502949172506519 0 -0.13908786717193969 -0.42141590695978481 0 -0.12126011619242399 -0.41923157065313771 0 -0.13405445746913611 -0.40502949172506519 0 -0.13908786717193969 -0.42141590695978481 0 -0.14779602751190801 -0.41135747734576389 0 -0.13908786717193969 -0.42141590695978481 0 -0.12925744212726331 -0.43629998275471921 0 -0.12126011619242399 -0.41923157065313771 0 -0.13908786717193969 -0.42141590695978481 0 -0.12925744212726331 -0.43629998275471921 0 -0.14811161939969961 -0.43650603961756718 0 -0.13908786717193969 -0.42141590695978481 0 -0.14811161939969961 -0.43650603961756718 0 -0.1550512540457383 -0.42312183927395142 0 -0.13908786717193969 -0.42141590695978481 0 -0.1550512540457383 -0.42312183927395142 0 -0.14779602751190801 -0.41135747734576389 0 -0.1550512540457383 -0.42312183927395142 0 -0.14779602751190801 -0.41135747734576389 0 -0.16105201124949889 -0.40927860693504731 0 -0.16105201124949889 -0.40927860693504731 0 -0.16834133469072271 -0.43026452259726777 0 -0.18117935291569909 -0.41260571966953058 0 -0.1550512540457383 -0.42312183927395142 0 -0.16105201124949889 -0.40927860693504731 0 -0.16834133469072271 -0.43026452259726777 0 -0.16183609349488029 -0.44518281874335752 0 -0.14811161939969961 -0.43650603961756718 0 -0.16834133469072271 -0.43026452259726777 0 -0.14811161939969961 -0.43650603961756718 0 -0.1550512540457383 -0.42312183927395142 0 -0.16834133469072271 -0.43026452259726777 0 -0.16834133469072271 -0.43026452259726777 0 -0.19196468754180041 -0.42564695993836249 0 -0.16834133469072271 -0.43026452259726777 0 -0.18117935291569909 -0.41260571966953058 0 -0.19196468754180041 -0.42564695993836249 0 -0.18023707737272759 -0.4479075242477199 0 -0.16834133469072271 -0.43026452259726777 0 -0.19196468754180041 -0.42564695993836249 0 -0.16105201124949889 -0.40927860693504731 0 -0.18117935291569909 -0.41260571966953058 0 -0.18520231135626461 -0.39466589002565772 0 -0.16105201124949889 -0.40927860693504731 0 -0.18520231135626461 -0.39466589002565772 0 -0.14973454762322691 -0.39794154183497099 0 -0.16355520128586179 -0.39546226427394698 0 -0.1612028534957396 -0.38161944141293341 0 -0.16105201124949889 -0.40927860693504731 0 -0.18520231135626461 -0.39466589002565772 0 -0.16355520128586179 -0.39546226427394698 0 -0.14973454762322691 -0.39794154183497099 0 -0.16105201124949889 -0.40927860693504731 0 -0.16355520128586179 -0.39546226427394698 0 -0.18520231135626461 -0.39466589002565772 0 -0.16355520128586179 -0.39546226427394698 0 -0.1612028534957396 -0.38161944141293341 0 -0.18520231135626461 -0.39466589002565772 0 -0.1612028534957396 -0.38161944141293341 0 -0.17818153256261629 -0.37114769566942979 0 -0.18520231135626461 -0.39466589002565772 0 -0.20935261146303041 -0.38005317311626818 0 -0.17818153256261629 -0.37114769566942979 0 -0.18520231135626461 -0.39466589002565772 0 -0.20935261146303041 -0.38005317311626818 0 -0.18117935291569909 -0.41260571966953058 0 -0.18520231135626461 -0.39466589002565772 0 -0.20308578845703959 -0.40402054469351312 0 -0.18520231135626461 -0.39466589002565772 0 -0.20308578845703959 -0.40402054469351312 0 -0.20935261146303041 -0.38005317311626818 0 -0.20308578845703959 -0.40402054469351312 0 -0.20935261146303041 -0.38005317311626818 0 -0.22570487674579209 -0.39950084532368602 0 -0.18117935291569909 -0.41260571966953058 0 -0.20308578845703959 -0.40402054469351312 0 -0.19196468754180041 -0.42564695993836249 0 -0.20308578845703959 -0.40402054469351312 0 -0.19196468754180041 -0.42564695993836249 0 -0.21558804039287821 -0.42102939727945721 0 -0.20308578845703959 -0.40402054469351312 0 -0.21558804039287821 -0.42102939727945721 0 -0.22570487674579209 -0.39950084532368602 0 -0.19196468754180041 -0.42564695993836249 0 -0.21558804039287821 -0.42102939727945721 0 -0.22806293189277529 -0.44131058174695398 0 -0.20448254800553831 -0.44749160947833722 0 -0.21558804039287821 -0.42102939727945721 0 -0.20448254800553831 -0.44749160947833722 0 -0.19196468754180041 -0.42564695993836249 0 -0.21558804039287821 -0.42102939727945721 0 -0.22806293189277529 -0.44131058174695398 0 -0.21558804039287821 -0.42102939727945721 0 -0.23921139324395649 -0.41641183462055409 0 -0.22806293189277529 -0.44131058174695398 0 -0.23921139324395649 -0.41641183462055409 0 -0.21558804039287821 -0.42102939727945721 0 -0.23921139324395649 -0.41641183462055409 0 -0.21558804039287821 -0.42102939727945721 0 -0.23921139324395649 -0.41641183462055409 0 -0.22570487674579209 -0.39950084532368602 0 -0.25762040219633159 -0.41281349898793379 0 -0.23921139324395649 -0.41641183462055409 0 -0.2491354795475737 -0.39424758185502962 0 -0.25762040219633159 -0.41281349898793379 0 -0.23921139324395649 -0.41641183462055409 0 -0.25286395948778351 -0.43736885668238312 0 -0.22806293189277529 -0.44131058174695398 0 -0.23921139324395649 -0.41641183462055409 0 -0.25762040219633159 -0.41281349898793379 0 -0.25286395948778351 -0.43736885668238312 0 -0.23921139324395649 -0.41641183462055409 0 -0.20935261146303041 -0.38005317311626818 0 -0.2340748352524975 -0.38329045911221621 0 -0.23350291156979611 -0.36544045620687871 0 -0.20935261146303041 -0.38005317311626818 0 -0.2340748352524975 -0.38329045911221621 0 -0.22570487674579209 -0.39950084532368602 0 -0.2340748352524975 -0.38329045911221621 0 -0.22570487674579209 -0.39950084532368602 0 -0.2491354795475737 -0.39424758185502962 0 -0.23921139324395649 -0.41641183462055409 0 -0.22570487674579209 -0.39950084532368602 0 -0.2491354795475737 -0.39424758185502962 0 -0.23921139324395649 -0.41641183462055409 0 -0.2491354795475737 -0.39424758185502962 0 -0.25267829693629529 -0.37721023905921808 0 -0.2340748352524975 -0.38329045911221621 0 -0.23350291156979611 -0.36544045620687871 0 -0.25267829693629529 -0.37721023905921808 0 -0.2340748352524975 -0.38329045911221621 0 -0.2491354795475737 -0.39424758185502962 0 -0.25765321167656191 -0.35082773929748912 0 -0.25267829693629529 -0.37721023905921808 0 -0.23350291156979611 -0.36544045620687871 0 -0.20935261146303041 -0.38005317311626818 0 -0.23350291156979611 -0.36544045620687871 0 -0.20935261146303041 -0.38005317311626818 0 -0.23350291156979611 -0.36544045620687871 0 -0.21861603636200541 -0.35159505139228281 0 -0.23350291156979611 -0.36544045620687871 0 -0.2382503854121765 -0.33608356444967119 0 -0.21861603636200541 -0.35159505139228281 0 -0.25765321167656191 -0.35082773929748912 0 -0.23350291156979611 -0.36544045620687871 0 -0.25765321167656191 -0.35082773929748912 0 -0.23350291156979611 -0.36544045620687871 0 -0.2382503854121765 -0.33608356444967119 0 -0.26125226075895552 -0.32951300830988711 0 -0.2382503854121765 -0.33608356444967119 0 -0.24753126157558589 -0.31963043698069538 0 -0.2382503854121765 -0.33608356444967119 0 -0.24753126157558589 -0.31963043698069538 0 -0.23433247516008671 -0.30791170828251818 0 -0.2156154942942631 -0.32899037074482212 0 -0.23433247516008671 -0.30791170828251818 0 -0.2382503854121765 -0.33608356444967119 0 -0.2156154942942631 -0.32899037074482212 0 -0.23433247516008671 -0.30791170828251818 0 -0.2382503854121765 -0.33608356444967119 0 -0.2156154942942631 -0.32899037074482212 0 -0.21861603636200541 -0.35159505139228281 0 -0.2156154942942631 -0.32899037074482212 0 -0.1968985134284397 -0.35006903320712601 0 -0.21861603636200541 -0.35159505139228281 0 -0.2156154942942631 -0.32899037074482212 0 -0.1968985134284397 -0.35006903320712601 0 -0.2156154942942631 -0.32899037074482212 0 -0.1981055924437323 -0.32990453222403338 0 -0.1968985134284397 -0.35006903320712601 0 -0.2156154942942631 -0.32899037074482212 0 -0.23433247516008671 -0.30791170828251818 0 -0.20090624704543869 -0.30558228282934541 0 -0.2156154942942631 -0.32899037074482212 0 -0.1981055924437323 -0.32990453222403338 0 -0.20090624704543869 -0.30558228282934541 0 -0.1981055924437323 -0.32990453222403338 0 -0.20090624704543869 -0.30558228282934541 0 -0.18444403941520501 -0.3222806730206893 0 -0.20090624704543869 -0.30558228282934541 0 -0.18444403941520501 -0.3222806730206893 0 -0.1981055924437323 -0.32990453222403338 0 -0.1968985134284397 -0.35006903320712601 0 -0.18492964114360191 -0.33780647905371691 0 -0.1981055924437323 -0.32990453222403338 0 -0.18492964114360191 -0.33780647905371691 0 -0.18444403941520501 -0.3222806730206893 0 -0.20935261146303041 -0.38005317311626818 0 -0.1968985134284397 -0.35006903320712601 0 -0.17818153256261629 -0.37114769566942979 0 -0.1968985134284397 -0.35006903320712601 0 -0.17818153256261629 -0.37114769566942979 0 -0.20935261146303041 -0.38005317311626818 0 -0.1968985134284397 -0.35006903320712601 0 -0.21861603636200541 -0.35159505139228281 0 -0.23190529603631399 -0.25240867011539941 0 -0.23506131662697829 -0.26740230914041402 0 -0.21760187781827181 -0.25419728823726118 0 -0.23506131662697829 -0.26740230914041402 0 -0.216153830016861 -0.27350470718570291 0 -0.21760187781827181 -0.25419728823726118 0 -0.25662264465878432 -0.27115822271739082 0 -0.2465658025307402 -0.25686279477778151 0 -0.23506131662697829 -0.26740230914041402 0 -0.23190529603631399 -0.25240867011539941 0 -0.2465658025307402 -0.25686279477778151 0 -0.23506131662697829 -0.26740230914041402 0 -0.2465658025307402 -0.25686279477778151 0 -0.23506131662697829 -0.26740230914041402 0 -0.25662264465878432 -0.27115822271739082 0 -0.23506131662697829 -0.26740230914041402 0 -0.24663593115704921 -0.28625109768023738 0 -0.23506131662697829 -0.26740230914041402 0 -0.23082973873849291 -0.28056722840339682 0 -0.24663593115704921 -0.28625109768023738 0 -0.23506131662697829 -0.26740230914041402 0 -0.23082973873849291 -0.28056722840339682 0 -0.216153830016861 -0.27350470718570291 0 -0.23082973873849291 -0.28056722840339682 0 -0.21736845467567251 -0.28888389263800163 0 -0.216153830016861 -0.27350470718570291 0 -0.23082973873849291 -0.28056722840339682 0 -0.23433247516008671 -0.30791170828251818 0 -0.21736845467567251 -0.28888389263800163 0 -0.23082973873849291 -0.28056722840339682 0 -0.24663593115704921 -0.28625109768023738 0 -0.23433247516008671 -0.30791170828251818 0 -0.25628992497112491 -0.30501346688070519 0 -0.24753126157558589 -0.31963043698069538 0 -0.23433247516008671 -0.30791170828251818 0 -0.25628992497112491 -0.30501346688070519 0 -0.24663593115704921 -0.28625109768023738 0 -0.23433247516008671 -0.30791170828251818 0 -0.23433247516008671 -0.30791170828251818 0 -0.20090624704543869 -0.30558228282934541 0 -0.21736845467567251 -0.28888389263800163 0 -0.20090624704543869 -0.30558228282934541 0 -0.21736845467567251 -0.28888389263800163 0 -0.20090624704543869 -0.30558228282934541 0 -0.19755363564619999 -0.28512796657089712 0 -0.17955006318582339 -0.30671932567548121 0 -0.20090624704543869 -0.30558228282934541 0 -0.17955006318582339 -0.30671932567548121 0 -0.18444403941520501 -0.3222806730206893 0 -0.19755363564619999 -0.28512796657089712 0 -0.21736845467567251 -0.28888389263800163 0 -0.216153830016861 -0.27350470718570291 0 -0.20090624704543869 -0.30558228282934541 0 -0.19755363564619999 -0.28512796657089712 0 -0.21736845467567251 -0.28888389263800163 0 -0.19755363564619999 -0.28512796657089712 0 -0.216153830016861 -0.27350470718570291 0 -0.1985079565955509 -0.2648495581242471 0 -0.19755363564619999 -0.28512796657089712 0 -0.1985079565955509 -0.2648495581242471 0 -0.18079740324809801 -0.27274507175844981 0 -0.1985079565955509 -0.2648495581242471 0 -0.18024488942319691 -0.25378078528003239 0 -0.19850728873847889 -0.24890370094164491 0 -0.216153830016861 -0.27350470718570291 0 -0.1985079565955509 -0.2648495581242471 0 -0.21760187781827181 -0.25419728823726118 0 -0.1985079565955509 -0.2648495581242471 0 -0.21760187781827181 -0.25419728823726118 0 -0.19850728873847889 -0.24890370094164491 0 -0.16180816582484039 -0.25059360564324651 0 -0.16569614310299199 -0.26432130050281738 0 -0.18024488942319691 -0.25378078528003239 0 -0.16180816582484039 -0.25059360564324651 0 -0.16569614310299199 -0.26432130050281738 0 -0.15116313881795321 -0.2777653555565992 0 -0.16180816582484039 -0.25059360564324651 0 -0.15116313881795321 -0.2777653555565992 0 -0.16180816582484039 -0.25059360564324651 0 -0.16569614310299199 -0.26432130050281738 0 -0.16569614310299199 -0.26432130050281738 0 -0.18024488942319691 -0.25378078528003239 0 -0.18079740324809801 -0.27274507175844981 0 -0.1985079565955509 -0.2648495581242471 0 -0.18024488942319691 -0.25378078528003239 0 -0.18079740324809801 -0.27274507175844981 0 -0.18079740324809801 -0.27274507175844981 0 -0.16657556048631561 -0.27983990278265392 0 -0.1765148292431406 -0.28887535544926352 0 -0.16569614310299199 -0.26432130050281738 0 -0.18079740324809801 -0.27274507175844981 0 -0.16657556048631561 -0.27983990278265392 0 -0.16569614310299199 -0.26432130050281738 0 -0.16657556048631561 -0.27983990278265392 0 -0.15116313881795321 -0.2777653555565992 0 -0.16657556048631561 -0.27983990278265392 0 -0.1765148292431406 -0.28887535544926352 0 -0.16139723649620011 -0.29832153139447432 0 -0.16657556048631561 -0.27983990278265392 0 -0.16139723649620011 -0.29832153139447432 0 -0.15116313881795321 -0.2777653555565992 0 -0.19755363564619999 -0.28512796657089712 0 -0.18079740324809801 -0.27274507175844981 0 -0.1765148292431406 -0.28887535544926352 0 -0.19755363564619999 -0.28512796657089712 0 -0.1765148292431406 -0.28887535544926352 0 -0.17955006318582339 -0.30671932567548121 0 -0.1765148292431406 -0.28887535544926352 0 -0.17955006318582339 -0.30671932567548121 0 -0.16139723649620011 -0.29832153139447432 0 -0.16139723649620011 -0.29832153139447432 0 -0.16987053149794831 -0.31705868920075109 0 -0.15578624879789679 -0.3197057145135434 0 -0.17955006318582339 -0.30671932567548121 0 -0.16139723649620011 -0.29832153139447432 0 -0.16987053149794831 -0.31705868920075109 0 -0.1405181118110625 -0.30493710546995029 0 -0.15116313881795321 -0.2777653555565992 0 -0.13370906969254409 -0.27336374496182919 0 -0.1405181118110625 -0.30493710546995029 0 -0.13370906969254409 -0.27336374496182919 0 -0.1220911833121683 -0.28711305115942409 0 -0.16139723649620011 -0.29832153139447432 0 -0.1405181118110625 -0.30493710546995029 0 -0.15578624879789679 -0.3197057145135434 0 -0.1405181118110625 -0.30493710546995029 0 -0.15578624879789679 -0.3197057145135434 0 -0.1405181118110625 -0.30493710546995029 0 -0.1311919661336382 -0.31124018649745983 0 -0.1220911833121683 -0.28711305115942409 0 -0.1405181118110625 -0.30493710546995029 0 -0.1220911833121683 -0.28711305115942409 0 -0.16139723649620011 -0.29832153139447432 0 -0.1405181118110625 -0.30493710546995029 0 -0.15116313881795321 -0.2777653555565992 0 -0.1405181118110625 -0.30493710546995029 0 -0.15116313881795321 -0.2777653555565992 0 -0.15116313881795321 -0.2777653555565992 0 -0.13370906969254409 -0.27336374496182919 0 -0.14552188088216611 -0.26004099895123972 0 -0.13370906969254409 -0.27336374496182919 0 -0.1206528625699053 -0.26465102107573729 0 -0.1220911833121683 -0.28711305115942409 0 -0.13370906969254409 -0.27336374496182919 0 -0.13363707598743549 -0.2532616675208415 0 -0.14552188088216611 -0.26004099895123972 0 -0.13370906969254409 -0.27336374496182919 0 -0.13363707598743549 -0.2532616675208415 0 -0.1206528625699053 -0.26465102107573729 0 -0.16180816582484039 -0.25059360564324651 0 -0.15116313881795321 -0.2777653555565992 0 -0.14552188088216611 -0.26004099895123972 0 -0.16180816582484039 -0.25059360564324651 0 -0.14552188088216611 -0.26004099895123972 0 -0.14729195408805709 -0.24522062107368231 0 -0.13363707598743549 -0.2532616675208415 0 -0.14552188088216611 -0.26004099895123972 0 -0.14729195408805709 -0.24522062107368231 0 -0.16675649676248619 -0.35608606118617819 0 -0.17894960313642311 -0.35081766646569679 0 -0.1679818317849712 -0.33897906321203308 0 -0.1679818317849712 -0.33897906321203308 0 -0.15151962415473741 -0.35567745340337698 0 -0.16675649676248619 -0.35608606118617819 0 -0.1679818317849712 -0.33897906321203308 0 -0.15151962415473741 -0.35567745340337698 0 -0.1679818317849712 -0.33897906321203308 0 -0.15960462708769479 -0.33792017872018287 0 -0.15151962415473741 -0.35567745340337698 0 -0.16675649676248619 -0.35608606118617819 0 -0.1597681963538615 -0.36737675030103462 0 -0.17818153256261629 -0.37114769566942979 0 -0.16675649676248619 -0.35608606118617819 0 -0.1597681963538615 -0.36737675030103462 0 -0.15151962415473741 -0.35567745340337698 0 -0.1612028534957396 -0.38161944141293341 0 -0.1597681963538615 -0.36737675030103462 0 -0.17818153256261629 -0.37114769566942979 0 -0.1968985134284397 -0.35006903320712601 0 -0.17894960313642311 -0.35081766646569679 0 -0.18492964114360191 -0.33780647905371691 0 -0.16675649676248619 -0.35608606118617819 0 -0.17818153256261629 -0.37114769566942979 0 -0.17894960313642311 -0.35081766646569679 0 -0.1968985134284397 -0.35006903320712601 0 -0.17818153256261629 -0.37114769566942979 0 -0.17894960313642311 -0.35081766646569679 0 -0.18444403941520501 -0.3222806730206893 0 -0.1679818317849712 -0.33897906321203308 0 -0.17105438578473889 -0.33447432355712842 0 -0.17894960313642311 -0.35081766646569679 0 -0.18492964114360191 -0.33780647905371691 0 -0.1679818317849712 -0.33897906321203308 0 -0.18444403941520501 -0.3222806730206893 0 -0.1679818317849712 -0.33897906321203308 0 -0.18492964114360191 -0.33780647905371691 0 -0.18444403941520501 -0.3222806730206893 0 -0.1679818317849712 -0.33897906321203308 0 -0.18444403941520501 -0.3222806730206893 0 -0.16987053149794831 -0.31705868920075109 0 -0.17105438578473889 -0.33447432355712842 0 -0.17955006318582339 -0.30671932567548121 0 -0.18444403941520501 -0.3222806730206893 0 -0.16987053149794831 -0.31705868920075109 0 -0.16987053149794831 -0.31705868920075109 0 -0.17105438578473889 -0.33447432355712842 0 -0.15578624879789679 -0.3197057145135434 0 -0.17105438578473889 -0.33447432355712842 0 -0.15578624879789679 -0.3197057145135434 0 -0.1679818317849712 -0.33897906321203308 0 -0.17105438578473889 -0.33447432355712842 0 -0.15960462708769479 -0.33792017872018287 0 -0.17105438578473889 -0.33447432355712842 0 -0.15960462708769479 -0.33792017872018287 0 -0.15591800347803411 -0.33073113561137019 0 -0.17105438578473889 -0.33447432355712842 0 -0.15591800347803411 -0.33073113561137019 0 -0.15578624879789679 -0.3197057145135434 0 -0.15960462708769479 -0.33792017872018287 0 -0.15040679186219669 -0.34145227619889901 0 -0.15591800347803411 -0.33073113561137019 0 -0.15040679186219669 -0.34145227619889901 0 -0.15591800347803411 -0.33073113561137019 0 -0.14674455792219071 -0.33330262209606842 0 -0.15591800347803411 -0.33073113561137019 0 -0.14674455792219071 -0.33330262209606842 0 -0.1450953244353114 -0.32475637176243233 0 -0.14674455792219071 -0.33330262209606842 0 -0.1435783332057908 -0.34098955750617738 0 -0.13918556168713 -0.3328934063491793 0 -0.14674455792219071 -0.33330262209606842 0 -0.1450953244353114 -0.32475637176243233 0 -0.13918556168713 -0.3328934063491793 0 -0.15040679186219669 -0.34145227619889901 0 -0.14674455792219071 -0.33330262209606842 0 -0.1435783332057908 -0.34098955750617738 0 -0.1405181118110625 -0.30493710546995029 0 -0.15578624879789679 -0.3197057145135434 0 -0.1450953244353114 -0.32475637176243233 0 -0.15591800347803411 -0.33073113561137019 0 -0.15578624879789679 -0.3197057145135434 0 -0.1450953244353114 -0.32475637176243233 0 -0.1405181118110625 -0.30493710546995029 0 -0.1450953244353114 -0.32475637176243233 0 -0.13338004563277989 -0.32315723294693138 0 -0.1405181118110625 -0.30493710546995029 0 -0.13338004563277989 -0.32315723294693138 0 -0.1405181118110625 -0.30493710546995029 0 -0.1311919661336382 -0.31124018649745983 0 -0.13338004563277989 -0.32315723294693138 0 -0.13338004563277989 -0.32315723294693138 0 -0.13048231400521609 -0.3224741625296807 0 -0.13918556168713 -0.3328934063491793 0 -0.1450953244353114 -0.32475637176243233 0 -0.13338004563277989 -0.32315723294693138 0 -0.13918556168713 -0.3328934063491793 0 -0.12805144640391769 -0.32546720385265038 0 -0.13048231400521609 -0.3224741625296807 0 -0.12906235360867871 -0.33057552674331669 0 -0.12530360792056811 -0.32590387168458479 0 -0.12805144640391769 -0.32546720385265038 0 -0.12906235360867871 -0.33057552674331669 0 -0.12530360792056811 -0.32590387168458479 0 -0.12805144640391769 -0.32546720385265038 0 -0.12735751008120799 -0.32291525445301961 0 -0.12735751008120799 -0.32291525445301961 0 -0.12528521203825899 -0.32053522452263628 0 -0.1292861191661836 -0.31747235504250682 0 -0.12530360792056811 -0.32590387168458479 0 -0.12735751008120799 -0.32291525445301961 0 -0.12528521203825899 -0.32053522452263628 0 -0.12805144640391769 -0.32546720385265038 0 -0.12735751008120799 -0.32291525445301961 0 -0.13048231400521609 -0.3224741625296807 0 -0.13338004563277989 -0.32315723294693138 0 -0.13048231400521609 -0.3224741625296807 0 -0.1292861191661836 -0.31747235504250682 0 -0.12735751008120799 -0.32291525445301961 0 -0.13048231400521609 -0.3224741625296807 0 -0.1292861191661836 -0.31747235504250682 0 -0.1311919661336382 -0.31124018649745983 0 -0.1292861191661836 -0.31747235504250682 0 -0.1218882644260182 -0.31628381945792899 0 -0.1311919661336382 -0.31124018649745983 0 -0.13338004563277989 -0.32315723294693138 0 -0.1292861191661836 -0.31747235504250682 0 -0.12528521203825899 -0.32053522452263628 0 -0.1292861191661836 -0.31747235504250682 0 -0.1218882644260182 -0.31628381945792899 0 -0.12906235360867871 -0.33057552674331669 0 -0.12723566247473331 -0.34448525978245309 0 -0.13689972521121971 -0.34762995563144422 0 -0.13048231400521609 -0.3224741625296807 0 -0.13689972521121971 -0.34762995563144422 0 -0.13048231400521609 -0.3224741625296807 0 -0.12906235360867871 -0.33057552674331669 0 -0.13689972521121971 -0.34762995563144422 0 -0.13048231400521609 -0.3224741625296807 0 -0.13918556168713 -0.3328934063491793 0 -0.13689972521121971 -0.34762995563144422 0 -0.1435783332057908 -0.34098955750617738 0 -0.13918556168713 -0.3328934063491793 0 -0.13689972521121971 -0.34762995563144422 0 -0.12530360792056811 -0.32590387168458479 0 -0.12906235360867871 -0.33057552674331669 0 -0.1238073112747016 -0.33185980778004409 0 -0.12906235360867871 -0.33057552674331669 0 -0.1236047499552851 -0.33712275366872357 0 -0.1238073112747016 -0.33185980778004409 0 -0.12906235360867871 -0.33057552674331669 0 -0.12723566247473331 -0.34448525978245309 0 -0.1236047499552851 -0.33712275366872357 0 -0.13493346461383579 -0.35637011501225802 0 -0.13689972521121971 -0.34762995563144422 0 -0.14331713641722341 -0.37278574873320769 0 -0.12723566247473331 -0.34448525978245309 0 -0.1265521542025258 -0.35408523076482451 0 -0.13689972521121971 -0.34762995563144422 0 -0.1265521542025258 -0.35408523076482451 0 -0.13493346461383579 -0.35637011501225802 0 -0.13689972521121971 -0.34762995563144422 0 -0.15960462708769479 -0.33792017872018287 0 -0.15040679186219669 -0.34145227619889901 0 -0.15151962415473741 -0.35567745340337698 0 -0.15040679186219669 -0.34145227619889901 0 -0.1435783332057908 -0.34098955750617738 0 -0.1451443221702336 -0.35170699829462099 0 -0.1435783332057908 -0.34098955750617738 0 -0.13689972521121971 -0.34762995563144422 0 -0.1451443221702336 -0.35170699829462099 0 -0.13689972521121971 -0.34762995563144422 0 -0.1451443221702336 -0.35170699829462099 0 -0.14331713641722341 -0.37278574873320769 0 -0.15040679186219669 -0.34145227619889901 0 -0.1451443221702336 -0.35170699829462099 0 -0.15151962415473741 -0.35567745340337698 0 -0.1597681963538615 -0.36737675030103462 0 -0.15151962415473741 -0.35567745340337698 0 -0.14331713641722341 -0.37278574873320769 0 -0.1612028534957396 -0.38161944141293341 0 -0.1597681963538615 -0.36737675030103462 0 -0.14331713641722341 -0.37278574873320769 0 -0.1451443221702336 -0.35170699829462099 0 -0.15151962415473741 -0.35567745340337698 0 -0.14331713641722341 -0.37278574873320769 0 -0.1265521542025258 -0.35408523076482451 0 -0.13493346461383579 -0.35637011501225802 0 -0.1142696659494902 -0.36923708224716861 0 -0.13493346461383579 -0.35637011501225802 0 -0.14331713641722341 -0.37278574873320769 0 -0.12954167267392819 -0.37092982091023941 0 -0.13493346461383579 -0.35637011501225802 0 -0.12954167267392819 -0.37092982091023941 0 -0.1142696659494902 -0.36923708224716861 0 -0.13689972521121971 -0.34762995563144422 0 -0.14331713641722341 -0.37278574873320769 0 -0.13493346461383579 -0.35637011501225802 0 -0.1142696659494902 -0.36923708224716861 0 -0.1142696659494902 -0.36923708224716861 0 -0.1108306068255583 -0.35668570239979419 0 -0.11942225276335031 -0.35270374115079872 0 -0.1142696659494902 -0.36923708224716861 0 -0.1108306068255583 -0.35668570239979419 0 -0.093744099962334404 -0.3605901655978293 0 -0.1142696659494902 -0.36923708224716861 0 -0.093744099962334404 -0.3605901655978293 0 -0.093605867285144306 -0.38210404948207882 0 -0.093882332639525348 -0.33907628171357979 0 -0.093744099962334404 -0.3605901655978293 0 -0.1014866852977343 -0.35271598439941437 0 -0.093882332639525348 -0.33907628171357979 0 -0.093744099962334404 -0.3605901655978293 0 -0.1014866852977343 -0.35271598439941437 0 -0.1108306068255583 -0.35668570239979419 0 -0.093744099962334404 -0.3605901655978293 0 -0.1014866852977343 -0.35271598439941437 0 -0.1019361461625108 -0.34316679415779061 0 -0.093882332639525348 -0.33907628171357979 0 -0.1014866852977343 -0.35271598439941437 0 -0.1087212301557281 -0.34525372337674742 0 -0.1108306068255583 -0.35668570239979419 0 -0.1014866852977343 -0.35271598439941437 0 -0.1087212301557281 -0.34525372337674742 0 -0.1019361461625108 -0.34316679415779061 0 -0.1087212301557281 -0.34525372337674742 0 -0.11449217648709729 -0.34940139185962998 0 -0.11784210507665489 -0.34287342091232631 0 -0.1265521542025258 -0.35408523076482451 0 -0.1142696659494902 -0.36923708224716861 0 -0.11942225276335031 -0.35270374115079872 0 -0.1087212301557281 -0.34525372337674742 0 -0.11449217648709729 -0.34940139185962998 0 -0.1108306068255583 -0.35668570239979419 0 -0.11449217648709729 -0.34940139185962998 0 -0.1108306068255583 -0.35668570239979419 0 -0.11942225276335031 -0.35270374115079872 0 -0.11449217648709729 -0.34940139185962998 0 -0.11942225276335031 -0.35270374115079872 0 -0.11784210507665489 -0.34287342091232631 0 -0.12723566247473331 -0.34448525978245309 0 -0.1265521542025258 -0.35408523076482451 0 -0.11942225276335031 -0.35270374115079872 0 -0.12723566247473331 -0.34448525978245309 0 -0.11942225276335031 -0.35270374115079872 0 -0.11784210507665489 -0.34287342091232631 0 -0.11784210507665489 -0.34287342091232631 0 -0.1236047499552851 -0.33712275366872357 0 -0.1168454862859193 -0.3343328813887893 0 -0.12723566247473331 -0.34448525978245309 0 -0.11784210507665489 -0.34287342091232631 0 -0.1236047499552851 -0.33712275366872357 0 -0.1236047499552851 -0.33712275366872357 0 -0.1238073112747016 -0.33185980778004409 0 -0.1168454862859193 -0.3343328813887893 0 -0.12530360792056811 -0.32590387168458479 0 -0.1238073112747016 -0.33185980778004409 0 -0.1214319270730902 -0.32750551362694308 0 -0.1168454862859193 -0.3343328813887893 0 -0.1163731425889139 -0.3290613664392798 0 -0.1214319270730902 -0.32750551362694308 0 -0.1238073112747016 -0.33185980778004409 0 -0.1168454862859193 -0.3343328813887893 0 -0.1214319270730902 -0.32750551362694308 0 -0.1168454862859193 -0.3343328813887893 0 -0.1163731425889139 -0.3290613664392798 0 -0.1111183445467501 -0.32842964184179629 0 -0.1111183445467501 -0.32842964184179629 0 -0.11062615177038709 -0.3358526717393383 0 -0.10679627015973329 -0.3303959434188084 0 -0.1168454862859193 -0.3343328813887893 0 -0.1111183445467501 -0.32842964184179629 0 -0.11062615177038709 -0.3358526717393383 0 -0.11784210507665489 -0.34287342091232631 0 -0.1168454862859193 -0.3343328813887893 0 -0.11062615177038709 -0.3358526717393383 0 -0.1087212301557281 -0.34525372337674742 0 -0.11784210507665489 -0.34287342091232631 0 -0.11062615177038709 -0.3358526717393383 0 -0.12528521203825899 -0.32053522452263628 0 -0.1218882644260182 -0.31628381945792899 0 -0.1207253094385301 -0.32256466164760372 0 -0.1218882644260182 -0.31628381945792899 0 -0.1207253094385301 -0.32256466164760372 0 -0.1144555671291249 -0.32175397254165528 0 -0.12530360792056811 -0.32590387168458479 0 -0.12528521203825899 -0.32053522452263628 0 -0.1207253094385301 -0.32256466164760372 0 -0.12530360792056811 -0.32590387168458479 0 -0.1207253094385301 -0.32256466164760372 0 -0.1214319270730902 -0.32750551362694308 0 -0.1163731425889139 -0.3290613664392798 0 -0.1207253094385301 -0.32256466164760372 0 -0.1214319270730902 -0.32750551362694308 0 -0.1163731425889139 -0.3290613664392798 0 -0.1111183445467501 -0.32842964184179629 0 -0.1144555671291249 -0.32175397254165528 0 -0.1163731425889139 -0.3290613664392798 0 -0.1207253094385301 -0.32256466164760372 0 -0.1144555671291249 -0.32175397254165528 0 -0.1111183445467501 -0.32842964184179629 0 -0.1144555671291249 -0.32175397254165528 0 -0.1069531871339168 -0.32397590891302752 0 -0.1218882644260182 -0.31628381945792899 0 -0.1144555671291249 -0.32175397254165528 0 -0.113597128035994 -0.31389801618099811 0 -0.1144555671291249 -0.32175397254165528 0 -0.113597128035994 -0.31389801618099811 0 -0.10658082563776861 -0.31668480324164711 0 -0.098571687424305762 -0.32363272768577228 0 -0.094020565316716292 -0.31756239782933038 0 -0.093882332639525348 -0.33907628171357979 0 -0.113597128035994 -0.31389801618099811 0 -0.10658082563776861 -0.31668480324164711 0 -0.1078068769430429 -0.30690765836828648 0 -0.10658082563776861 -0.31668480324164711 0 -0.1023596466990854 -0.32028155261965818 0 -0.10096656167564461 -0.31314309880783397 0 -0.1023596466990854 -0.32028155261965818 0 -0.1069531871339168 -0.32397590891302752 0 -0.10162933079055721 -0.32810030745845892 0 -0.1144555671291249 -0.32175397254165528 0 -0.10658082563776861 -0.31668480324164711 0 -0.1069531871339168 -0.32397590891302752 0 -0.10658082563776861 -0.31668480324164711 0 -0.1023596466990854 -0.32028155261965818 0 -0.1069531871339168 -0.32397590891302752 0 -0.1111183445467501 -0.32842964184179629 0 -0.1069531871339168 -0.32397590891302752 0 -0.10679627015973329 -0.3303959434188084 0 -0.1069531871339168 -0.32397590891302752 0 -0.10162933079055721 -0.32810030745845892 0 -0.10679627015973329 -0.3303959434188084 0 -0.1023596466990854 -0.32028155261965818 0 -0.10162933079055721 -0.32810030745845892 0 -0.098571687424305762 -0.32363272768577228 0 -0.1023596466990854 -0.32028155261965818 0 -0.098571687424305762 -0.32363272768577228 0 -0.10096656167564461 -0.31314309880783397 0 -0.098571687424305762 -0.32363272768577228 0 -0.094020565316716292 -0.31756239782933038 0 -0.10096656167564461 -0.31314309880783397 0 -0.094020565316716292 -0.31756239782933038 0 -0.093882332639525348 -0.33907628171357979 0 -0.1087212301557281 -0.34525372337674742 0 -0.1019361461625108 -0.34316679415779061 0 -0.1036543365570554 -0.33562118714142092 0 -0.1087212301557281 -0.34525372337674742 0 -0.11062615177038709 -0.3358526717393383 0 -0.1036543365570554 -0.33562118714142092 0 -0.11062615177038709 -0.3358526717393383 0 -0.10679627015973329 -0.3303959434188084 0 -0.1036543365570554 -0.33562118714142092 0 -0.10162933079055721 -0.32810030745845892 0 -0.10679627015973329 -0.3303959434188084 0 -0.1036543365570554 -0.33562118714142092 0 -0.10162933079055721 -0.32810030745845892 0 -0.098571687424305762 -0.32363272768577228 0 -0.093882332639525348 -0.33907628171357979 0 -0.10162933079055721 -0.32810030745845892 0 -0.1036543365570554 -0.33562118714142092 0 -0.093882332639525348 -0.33907628171357979 0 -0.1019361461625108 -0.34316679415779061 0 -0.1036543365570554 -0.33562118714142092 0 -0.093882332639525348 -0.33907628171357979 0 -0.079856395395410562 -0.32617929626531372 0 -0.074698955329004224 -0.33662737047545011 0 -0.085973026742836481 -0.34840464574108848 0 -0.093882332639525348 -0.33907628171357979 0 -0.091870102766315992 -0.3220327627770227 0 -0.085973026742836481 -0.34840464574108848 0 -0.091870102766315992 -0.3220327627770227 0 -0.085973026742836481 -0.34840464574108848 0 -0.091870102766315992 -0.3220327627770227 0 -0.079856395395410562 -0.32617929626531372 0 -0.085973026742836481 -0.34840464574108848 0 -0.094020565316716292 -0.31756239782933038 0 -0.093882332639525348 -0.33907628171357979 0 -0.091870102766315992 -0.3220327627770227 0 -0.091870102766315992 -0.3220327627770227 0 -0.08307580703749079 -0.31539485860826832 0 -0.084060435309079501 -0.3001955445982103 0 -0.091870102766315992 -0.3220327627770227 0 -0.079856395395410562 -0.32617929626531372 0 -0.08307580703749079 -0.31539485860826832 0 -0.079856395395410562 -0.32617929626531372 0 -0.08307580703749079 -0.31539485860826832 0 -0.07651629467915709 -0.31317183079252647 0 -0.079856395395410562 -0.32617929626531372 0 -0.07651629467915709 -0.31317183079252647 0 -0.064373563168819356 -0.32177456098011742 0 -0.064373563168819356 -0.32177456098011742 0 -0.074698955329004224 -0.33662737047545011 0 -0.059114751186226062 -0.34387230816650322 0 -0.079856395395410562 -0.32617929626531372 0 -0.064373563168819356 -0.32177456098011742 0 -0.074698955329004224 -0.33662737047545011 0 -0.074698955329004224 -0.33662737047545011 0 -0.073113759071782775 -0.34725044047981218 0 -0.059114751186226062 -0.34387230816650322 0 -0.074698955329004224 -0.33662737047545011 0 -0.059114751186226062 -0.34387230816650322 0 -0.073113759071782775 -0.34725044047981218 0 -0.070412260638746324 -0.35877033855193619 0 -0.059114751186226062 -0.34387230816650322 0 -0.073113759071782775 -0.34725044047981218 0 -0.070412260638746324 -0.35877033855193619 0 -0.085973026742836481 -0.34840464574108848 0 -0.074698955329004224 -0.33662737047545011 0 -0.073113759071782775 -0.34725044047981218 0 -0.085973026742836481 -0.34840464574108848 0 -0.070412260638746324 -0.35877033855193619 0 -0.08007595071935697 -0.37477652870515438 0 -0.064079591518304252 -0.38091008353044908 0 -0.070412260638746324 -0.35877033855193619 0 -0.053508973415171253 -0.36742802006072361 0 -0.064079591518304252 -0.38091008353044908 0 -0.093744099962334404 -0.3605901655978293 0 -0.08007595071935697 -0.37477652870515438 0 -0.093605867285144306 -0.38210404948207882 0 -0.070412260638746324 -0.35877033855193619 0 -0.08007595071935697 -0.37477652870515438 0 -0.085973026742836481 -0.34840464574108848 0 -0.093744099962334404 -0.3605901655978293 0 -0.093605867285144306 -0.38210404948207882 0 -0.08007595071935697 -0.37477652870515438 0 -0.085973026742836481 -0.34840464574108848 0 -0.093744099962334404 -0.3605901655978293 0 -0.08007595071935697 -0.37477652870515438 0 -0.085973026742836481 -0.34840464574108848 0 -0.093882332639525348 -0.33907628171357979 0 -0.093744099962334404 -0.3605901655978293 0 -0.085973026742836481 -0.34840464574108848 0 -0.10366425481328 -0.26928899684889168 0 -0.086143967499887036 -0.25234192112604298 0 -0.1101627290440967 -0.24022764488770201 0 -0.10366425481328 -0.26928899684889168 0 -0.086143967499887036 -0.25234192112604298 0 -0.10366425481328 -0.26928899684889168 0 -0.1101627290440967 -0.24022764488770201 0 -0.13363707598743549 -0.2532616675208415 0 -0.1206528625699053 -0.26465102107573729 0 -0.1101627290440967 -0.24022764488770201 0 -0.1206528625699053 -0.26465102107573729 0 -0.10366425481328 -0.26928899684889168 0 -0.1101627290440967 -0.24022764488770201 0 -0.10366425481328 -0.26928899684889168 0 -0.1220911833121683 -0.28711305115942409 0 -0.1206528625699053 -0.26465102107573729 0 -0.10366425481328 -0.26928899684889168 0 -0.1220911833121683 -0.28711305115942409 0 -0.10366425481328 -0.26928899684889168 0 -0.097767178789795545 -0.29566087981295658 0 -0.11126625047289079 -0.2945396455151319 0 -0.10366425481328 -0.26928899684889168 0 -0.097767178789795545 -0.29566087981295658 0 -0.091274296711309807 -0.28036372116385111 0 -0.10366425481328 -0.26928899684889168 0 -0.097767178789795545 -0.29566087981295658 0 -0.10366425481328 -0.26928899684889168 0 -0.1220911833121683 -0.28711305115942409 0 -0.11126625047289079 -0.2945396455151319 0 -0.1220911833121683 -0.28711305115942409 0 -0.11126625047289079 -0.2945396455151319 0 -0.1167856477006454 -0.30580143912451119 0 -0.1311919661336382 -0.31124018649745983 0 -0.1220911833121683 -0.28711305115942409 0 -0.1167856477006454 -0.30580143912451119 0 -0.11126625047289079 -0.2945396455151319 0 -0.1167856477006454 -0.30580143912451119 0 -0.1078068769430429 -0.30690765836828648 0 -0.1311919661336382 -0.31124018649745983 0 -0.1218882644260182 -0.31628381945792899 0 -0.1167856477006454 -0.30580143912451119 0 -0.1218882644260182 -0.31628381945792899 0 -0.113597128035994 -0.31389801618099811 0 -0.1167856477006454 -0.30580143912451119 0 -0.113597128035994 -0.31389801618099811 0 -0.1167856477006454 -0.30580143912451119 0 -0.1078068769430429 -0.30690765836828648 0 -0.10658082563776861 -0.31668480324164711 0 -0.10096656167564461 -0.31314309880783397 0 -0.1078068769430429 -0.30690765836828648 0 -0.10096656167564461 -0.31314309880783397 0 -0.097767178789795545 -0.29566087981295658 0 -0.1078068769430429 -0.30690765836828648 0 -0.091870102766315992 -0.3220327627770227 0 -0.097767178789795545 -0.29566087981295658 0 -0.094020565316716292 -0.31756239782933038 0 -0.091870102766315992 -0.3220327627770227 0 -0.097767178789795545 -0.29566087981295658 0 -0.094020565316716292 -0.31756239782933038 0 -0.10096656167564461 -0.31314309880783397 0 -0.097767178789795545 -0.29566087981295658 0 -0.097767178789795545 -0.29566087981295658 0 -0.11126625047289079 -0.2945396455151319 0 -0.1078068769430429 -0.30690765836828648 0 -0.091870102766315992 -0.3220327627770227 0 -0.097767178789795545 -0.29566087981295658 0 -0.084060435309079501 -0.3001955445982103 0 -0.08307580703749079 -0.31539485860826832 0 -0.07651629467915709 -0.31317183079252647 0 -0.084060435309079501 -0.3001955445982103 0 -0.064373563168819356 -0.32177456098011742 0 -0.069632375151412448 -0.2996768137937314 0 -0.053704702293469811 -0.30305239479993312 0 -0.07651629467915709 -0.31317183079252647 0 -0.064373563168819356 -0.32177456098011742 0 -0.069632375151412448 -0.2996768137937314 0 -0.064373563168819356 -0.32177456098011742 0 -0.069632375151412448 -0.2996768137937314 0 -0.07651629467915709 -0.31317183079252647 0 -0.084060435309079501 -0.3001955445982103 0 -0.069632375151412448 -0.2996768137937314 0 -0.084060435309079501 -0.3001955445982103 0 -0.069632375151412448 -0.2996768137937314 0 -0.074891187134005541 -0.27757906660734538 0 -0.069632375151412448 -0.2996768137937314 0 -0.074891187134005541 -0.27757906660734538 0 -0.054941005904939749 -0.28474111444978761 0 -0.069632375151412448 -0.2996768137937314 0 -0.074891187134005541 -0.27757906660734538 0 -0.097767178789795545 -0.29566087981295658 0 -0.084060435309079501 -0.3001955445982103 0 -0.091274296711309807 -0.28036372116385111 0 -0.084060435309079501 -0.3001955445982103 0 -0.091274296711309807 -0.28036372116385111 0 -0.074891187134005541 -0.27757906660734538 0 -0.091274296711309807 -0.28036372116385111 0 -0.074891187134005541 -0.27757906660734538 0 -0.086143967499887036 -0.25234192112604298 0 -0.10366425481328 -0.26928899684889168 0 -0.091274296711309807 -0.28036372116385111 0 -0.086143967499887036 -0.25234192112604298 0 -0.074891187134005541 -0.27757906660734538 0 -0.068024863348320641 -0.25877973592827141 0 -0.051552945432800888 -0.26596553823294172 0 -0.074891187134005541 -0.27757906660734538 0 -0.068024863348320641 -0.25877973592827141 0 -0.086143967499887036 -0.25234192112604298 0 -0.039176545593521468 -0.25965662681093349 0 -0.01891283023970295 -0.26577982372269371 0 -0.036153264592620818 -0.24251984825047071 0 -0.039176545593521468 -0.25965662681093349 0 -0.051196552554431993 -0.249781983371651 0 -0.036153264592620818 -0.24251984825047071 0 -0.068024863348320641 -0.25877973592827141 0 -0.051552945432800888 -0.26596553823294172 0 -0.051196552554431993 -0.249781983371651 0 -0.039176545593521468 -0.25965662681093349 0 -0.051552945432800888 -0.26596553823294172 0 -0.051196552554431993 -0.249781983371651 0 -0.074891187134005541 -0.27757906660734538 0 -0.051552945432800888 -0.26596553823294172 0 -0.054941005904939749 -0.28474111444978761 0 -0.051552945432800888 -0.26596553823294172 0 -0.037527826964481627 -0.27506110308354659 0 -0.054941005904939749 -0.28474111444978761 0 -0.039176545593521468 -0.25965662681093349 0 -0.037527826964481627 -0.27506110308354659 0 -0.01891283023970295 -0.26577982372269371 0 -0.039176545593521468 -0.25965662681093349 0 -0.051552945432800888 -0.26596553823294172 0 -0.037527826964481627 -0.27506110308354659 0 -0.037527826964481627 -0.27506110308354659 0 -0.037477931082273319 -0.28939846047307238 0 -0.02181136389308572 -0.28680544506777778 0 -0.037527826964481627 -0.27506110308354659 0 -0.037477931082273319 -0.28939846047307238 0 -0.054941005904939749 -0.28474111444978761 0 -0.037477931082273319 -0.28939846047307238 0 -0.054941005904939749 -0.28474111444978761 0 -0.053704702293469811 -0.30305239479993312 0 -0.069632375151412448 -0.2996768137937314 0 -0.054941005904939749 -0.28474111444978761 0 -0.053704702293469811 -0.30305239479993312 0 -0.053704702293469811 -0.30305239479993312 0 -0.03961629112459239 -0.30847771182215311 0 -0.048618097332594423 -0.31835595162452462 0 -0.037477931082273319 -0.28939846047307238 0 -0.03961629112459239 -0.30847771182215311 0 -0.02147586758955438 -0.31380338595054957 0 -0.037477931082273319 -0.28939846047307238 0 -0.053704702293469811 -0.30305239479993312 0 -0.03961629112459239 -0.30847771182215311 0 -0.024794551333250991 -0.30099800509369429 0 -0.02147586758955438 -0.31380338595054957 0 -0.0058562422159927369 -0.31566351695783967 0 -0.037477931082273319 -0.28939846047307238 0 -0.024794551333250991 -0.30099800509369429 0 -0.02147586758955438 -0.31380338595054957 0 -0.037477931082273319 -0.28939846047307238 0 -0.02147586758955438 -0.31380338595054957 0 -0.024794551333250991 -0.30099800509369429 0 -0.0099433396684511944 -0.30138064144538018 0 -0.0058562422159927369 -0.31566351695783967 0 -0.024794551333250991 -0.30099800509369429 0 -0.0058562422159927369 -0.31566351695783967 0 -0.0099433396684511944 -0.30138064144538018 0 -0.0058562422159927369 -0.31566351695783967 0 0.01556803846613254 -0.31229977466713921 0 -0.0099433396684511944 -0.30138064144538018 0 -0.001672395886785232 -0.28903979919491629 0 -0.02181136389308572 -0.28680544506777778 0 -0.037477931082273319 -0.28939846047307238 0 -0.024794551333250991 -0.30099800509369429 0 -0.02181136389308572 -0.28680544506777778 0 -0.024794551333250991 -0.30099800509369429 0 -0.0099433396684511944 -0.30138064144538018 0 -0.02181136389308572 -0.28680544506777778 0 -0.037527826964481627 -0.27506110308354659 0 -0.02181136389308572 -0.28680544506777778 0 -0.01891283023970295 -0.26577982372269371 0 -0.001672395886785232 -0.28903979919491629 0 -0.01891283023970295 -0.26577982372269371 0 -0.001672395886785232 -0.28903979919491629 0 -0.02181136389308572 -0.28680544506777778 0 -0.01891283023970295 -0.26577982372269371 0 -0.001672395886785232 -0.28903979919491629 0 -0.01891283023970295 -0.26577982372269371 0 0.0012650324002853009 -0.26969392882808513 0 -0.01891283023970295 -0.26577982372269371 0 -0.0037676009972298589 -0.25546460003562632 0 0.0012650324002853009 -0.26969392882808513 0 -0.01891283023970295 -0.26577982372269371 0 -0.0037676009972298589 -0.25546460003562632 0 -0.01719112655688302 -0.24802023597079551 0 -0.01891283023970295 -0.26577982372269371 0 -0.01719112655688302 -0.24802023597079551 0 -0.036153264592620818 -0.24251984825047071 0 -0.01891283023970295 -0.26577982372269371 0 -0.036153264592620818 -0.24251984825047071 0 -0.039491833495996609 -0.35299480262819521 0 -0.045150482824253303 -0.33936664226302932 0 -0.034470091163863202 -0.34008710442778223 0 -0.039491833495996609 -0.35299480262819521 0 -0.037934655832104307 -0.37026631736442023 0 -0.053508973415171253 -0.36742802006072361 0 -0.039491833495996609 -0.35299480262819521 0 -0.037934655832104307 -0.37026631736442023 0 -0.019868915805767232 -0.36211729708988732 0 -0.039491833495996609 -0.35299480262819521 0 -0.053508973415171253 -0.36742802006072361 0 -0.059114751186226062 -0.34387230816650322 0 -0.039491833495996609 -0.35299480262819521 0 -0.059114751186226062 -0.34387230816650322 0 -0.045150482824253303 -0.33936664226302932 0 -0.039491833495996609 -0.35299480262819521 0 -0.059114751186226062 -0.34387230816650322 0 -0.053508973415171253 -0.36742802006072361 0 -0.059114751186226062 -0.34387230816650322 0 -0.070412260638746324 -0.35877033855193619 0 -0.053508973415171253 -0.36742802006072361 0 -0.059114751186226062 -0.34387230816650322 0 -0.064373563168819356 -0.32177456098011742 0 -0.059114751186226062 -0.34387230816650322 0 -0.064373563168819356 -0.32177456098011742 0 -0.059114751186226062 -0.34387230816650322 0 -0.051951134604086228 -0.33083342656626008 0 -0.059114751186226062 -0.34387230816650322 0 -0.051951134604086228 -0.33083342656626008 0 -0.045150482824253303 -0.33936664226302932 0 -0.064373563168819356 -0.32177456098011742 0 -0.051951134604086228 -0.33083342656626008 0 -0.048618097332594423 -0.31835595162452462 0 -0.064373563168819356 -0.32177456098011742 0 -0.053704702293469811 -0.30305239479993312 0 -0.048618097332594423 -0.31835595162452462 0 -0.051951134604086228 -0.33083342656626008 0 -0.048618097332594423 -0.31835595162452462 0 -0.040724603671094393 -0.32904556952640568 0 -0.033538252198315417 -0.31925833631163569 0 -0.040724603671094393 -0.32904556952640568 0 -0.02303421015982874 -0.33227383401489852 0 -0.03961629112459239 -0.30847771182215311 0 -0.033538252198315417 -0.31925833631163569 0 -0.02147586758955438 -0.31380338595054957 0 -0.03961629112459239 -0.30847771182215311 0 -0.048618097332594423 -0.31835595162452462 0 -0.033538252198315417 -0.31925833631163569 0 -0.048618097332594423 -0.31835595162452462 0 -0.033538252198315417 -0.31925833631163569 0 -0.040724603671094393 -0.32904556952640568 0 -0.040724603671094393 -0.32904556952640568 0 -0.034470091163863202 -0.34008710442778223 0 -0.02303421015982874 -0.33227383401489852 0 -0.045150482824253303 -0.33936664226302932 0 -0.040724603671094393 -0.32904556952640568 0 -0.034470091163863202 -0.34008710442778223 0 -0.051951134604086228 -0.33083342656626008 0 -0.045150482824253303 -0.33936664226302932 0 -0.040724603671094393 -0.32904556952640568 0 -0.034470091163863202 -0.34008710442778223 0 -0.02303421015982874 -0.33227383401489852 0 -0.01967357117292522 -0.34664075391822319 0 -0.02303421015982874 -0.33227383401489852 0 -0.0054738040968354334 -0.33820831142802682 0 -0.01967357117292522 -0.34664075391822319 0 -0.033538252198315417 -0.31925833631163569 0 -0.02303421015982874 -0.33227383401489852 0 -0.02147586758955438 -0.31380338595054957 0 -0.02303421015982874 -0.33227383401489852 0 -0.02147586758955438 -0.31380338595054957 0 -0.0054738040968354334 -0.33820831142802682 0 -0.02147586758955438 -0.31380338595054957 0 -0.0054738040968354334 -0.33820831142802682 0 -0.02147586758955438 -0.31380338595054957 0 -0.0058562422159927369 -0.31566351695783967 0 -0.0054738040968354334 -0.33820831142802682 0 -0.0054738040968354334 -0.33820831142802682 0 -0.01967357117292522 -0.34664075391822319 0 0.00070469466344070218 -0.35366527386759589 0 -0.01967357117292522 -0.34664075391822319 0 -0.019868915805767232 -0.36211729708988732 0 0.00070469466344070218 -0.35366527386759589 0 -0.039491833495996609 -0.35299480262819521 0 -0.034470091163863202 -0.34008710442778223 0 -0.01967357117292522 -0.34664075391822319 0 -0.039491833495996609 -0.35299480262819521 0 -0.01967357117292522 -0.34664075391822319 0 -0.019868915805767232 -0.36211729708988732 0 -0.039491833495996609 -0.35299480262819521 0 -0.019868915805767232 -0.36211729708988732 0 -0.037934655832104307 -0.37026631736442023 0 -0.019868915805767232 -0.36211729708988732 0 -0.028389835969148219 -0.38177572227102419 0 -0.019868915805767232 -0.36211729708988732 0 -0.014033762696486689 -0.37698096505979051 0 -0.028389835969148219 -0.38177572227102419 0 -0.019868915805767232 -0.36211729708988732 0 -0.00024599811553788209 -0.37123979155157932 0 -0.019868915805767232 -0.36211729708988732 0 -0.00024599811553788209 -0.37123979155157932 0 0.00070469466344070218 -0.35366527386759589 0 -0.019868915805767232 -0.36211729708988732 0 -0.00024599811553788209 -0.37123979155157932 0 -0.014033762696486689 -0.37698096505979051 0 -0.0056360938850787152 -0.38607414576439381 0 -0.014033762696486689 -0.37698096505979051 0 -0.017183606652602539 -0.39457985246228638 0 -0.00024599811553788209 -0.37123979155157932 0 -0.0056360938850787152 -0.38607414576439381 0 -0.014033762696486689 -0.37698096505979051 0 -0.0030508565299749478 -0.40163911683637288 0 -0.017183606652602539 -0.39457985246228638 0 -0.022260474487640361 -0.41311508364538629 0 -0.0056360938850787152 -0.38607414576439381 0 -0.0030508565299749478 -0.40163911683637288 0 -0.017183606652602539 -0.39457985246228638 0 -0.017183606652602539 -0.39457985246228638 0 -0.031606906125313708 -0.39899876683656099 0 -0.022260474487640361 -0.41311508364538629 0 -0.017183606652602539 -0.39457985246228638 0 -0.028389835969148219 -0.38177572227102419 0 -0.031606906125313708 -0.39899876683656099 0 -0.014033762696486689 -0.37698096505979051 0 -0.017183606652602539 -0.39457985246228638 0 -0.028389835969148219 -0.38177572227102419 0 -0.037934655832104307 -0.37026631736442023 0 -0.053508973415171253 -0.36742802006072361 0 -0.047903195644116242 -0.39098373195494379 0 -0.028389835969148219 -0.38177572227102419 0 -0.031606906125313708 -0.39899876683656099 0 -0.047903195644116242 -0.39098373195494379 0 -0.037934655832104307 -0.37026631736442023 0 -0.028389835969148219 -0.38177572227102419 0 -0.047903195644116242 -0.39098373195494379 0 -0.031606906125313708 -0.39899876683656099 0 -0.047903195644116242 -0.39098373195494379 0 -0.042297417873061197 -0.41453944384916408 0 -0.047903195644116242 -0.39098373195494379 0 -0.042297417873061197 -0.41453944384916408 0 -0.047903195644116242 -0.39098373195494379 0 -0.05950637732044492 -0.41163436845398338 0 -0.042297417873061197 -0.41453944384916408 0 -0.047903195644116242 -0.39098373195494379 0 -0.05950637732044492 -0.41163436845398338 0 -0.069338389103050596 -0.39721496164856679 0 -0.047903195644116242 -0.39098373195494379 0 -0.064079591518304252 -0.38091008353044908 0 -0.069338389103050596 -0.39721496164856679 0 -0.053508973415171253 -0.36742802006072361 0 -0.047903195644116242 -0.39098373195494379 0 -0.053508973415171253 -0.36742802006072361 0 -0.047903195644116242 -0.39098373195494379 0 -0.064079591518304252 -0.38091008353044908 0 -0.050816804239513028 -0.43665108064929359 0 -0.072119330997018324 -0.42369675411628088 0 -0.050816804239513028 -0.43665108064929359 0 -0.05950637732044492 -0.41163436845398338 0 -0.072119330997018324 -0.42369675411628088 0 -0.050816804239513028 -0.43665108064929359 0 -0.05950637732044492 -0.41163436845398338 0 -0.042297417873061197 -0.41453944384916408 0 -0.042297417873061197 -0.41453944384916408 0 -0.030363429996082911 -0.42835995322024562 0 -0.022260474487640361 -0.41311508364538629 0 -0.031606906125313708 -0.39899876683656099 0 -0.042297417873061197 -0.41453944384916408 0 -0.022260474487640361 -0.41311508364538629 0 -0.050816804239513028 -0.43665108064929359 0 -0.042297417873061197 -0.41453944384916408 0 -0.030363429996082911 -0.42835995322024562 0 -0.030363429996082911 -0.42835995322024562 0 -0.022260474487640361 -0.41311508364538629 0 -0.006928175898192333 -0.42788875077507749 0 -0.030363429996082911 -0.42835995322024562 0 -0.006928175898192333 -0.42788875077507749 0 -0.02951427748200763 -0.4496054071823064 0 -0.0030508565299749478 -0.40163911683637288 0 -0.022260474487640361 -0.41311508364538629 0 -0.006928175898192333 -0.42788875077507749 0 -0.006928175898192333 -0.42788875077507749 0 -0.02951427748200763 -0.4496054071823064 0 0.00018356116932998889 -0.45460021365762759 0 -0.02951427748200763 -0.4496054071823064 0 -0.01125188331078086 -0.47583166011634043 0 0.00018356116932998889 -0.45460021365762759 0 -0.02951427748200763 -0.4496054071823064 0 -0.01125188331078086 -0.47583166011634043 0 -0.03400154211981176 -0.47138489666466421 0 -0.01125188331078086 -0.47583166011634043 0 -0.023555245371763511 -0.5 0 0.0061496526193284273 -0.5 0 -0.01125188331078086 -0.47583166011634043 0 -0.023555245371763511 -0.5 0 -0.03400154211981176 -0.47138489666466421 0 -0.023555245371763511 -0.5 0 -0.03400154211981176 -0.47138489666466421 0 -0.05326014336285545 -0.5 0 -0.03400154211981176 -0.47138489666466421 0 -0.057845218395842779 -0.47086247906995471 0 -0.05326014336285545 -0.5 0 -0.057845218395842779 -0.47086247906995471 0 -0.05326014336285545 -0.5 0 -0.070510273362421827 -0.48508122278263721 0 -0.050816804239513028 -0.43665108064929359 0 -0.02951427748200763 -0.4496054071823064 0 -0.052650782710239388 -0.45386099549155889 0 -0.050816804239513028 -0.43665108064929359 0 -0.030363429996082911 -0.42835995322024562 0 -0.02951427748200763 -0.4496054071823064 0 -0.050816804239513028 -0.43665108064929359 0 -0.02951427748200763 -0.4496054071823064 0 -0.02951427748200763 -0.4496054071823064 0 -0.03400154211981176 -0.47138489666466421 0 -0.052650782710239388 -0.45386099549155889 0 -0.057845218395842779 -0.47086247906995471 0 -0.052650782710239388 -0.45386099549155889 0 -0.070745177235672738 -0.45802681895442532 0 -0.03400154211981176 -0.47138489666466421 0 -0.057845218395842779 -0.47086247906995471 0 -0.052650782710239388 -0.45386099549155889 0 -0.050816804239513028 -0.43665108064929359 0 -0.052650782710239388 -0.45386099549155889 0 -0.068212471968392252 -0.44260882046197098 0 -0.052650782710239388 -0.45386099549155889 0 -0.068212471968392252 -0.44260882046197098 0 -0.070745177235672738 -0.45802681895442532 0 -0.068212471968392252 -0.44260882046197098 0 -0.081775579569599383 -0.44929367206127641 0 -0.08158797528087218 -0.43666144433361209 0 -0.068212471968392252 -0.44260882046197098 0 -0.070745177235672738 -0.45802681895442532 0 -0.081775579569599383 -0.44929367206127641 0 -0.057845218395842779 -0.47086247906995471 0 -0.070745177235672738 -0.45802681895442532 0 -0.073954558227682654 -0.47227449067861221 0 -0.070745177235672738 -0.45802681895442532 0 -0.085663022255332649 -0.46658107516531577 0 -0.073954558227682654 -0.47227449067861221 0 -0.085663022255332649 -0.46658107516531577 0 -0.081775579569599383 -0.44929367206127641 0 -0.101843247798795 -0.4597317029216117 0 -0.081775579569599383 -0.44929367206127641 0 -0.101843247798795 -0.4597317029216117 0 -0.070745177235672738 -0.45802681895442532 0 -0.085663022255332649 -0.46658107516531577 0 -0.081775579569599383 -0.44929367206127641 0 -0.093210360406904585 -0.44365888027002193 0 -0.081775579569599383 -0.44929367206127641 0 -0.101843247798795 -0.4597317029216117 0 -0.093210360406904585 -0.44365888027002193 0 -0.081775579569599383 -0.44929367206127641 0 -0.08158797528087218 -0.43666144433361209 0 -0.05326014336285545 -0.5 0 -0.070510273362421827 -0.48508122278263721 0 -0.082965041353947389 -0.5 0 -0.057845218395842779 -0.47086247906995471 0 -0.070510273362421827 -0.48508122278263721 0 -0.073954558227682654 -0.47227449067861221 0 -0.070510273362421827 -0.48508122278263721 0 -0.073954558227682654 -0.47227449067861221 0 -0.084526405471780863 -0.48226914416461908 0 -0.085663022255332649 -0.46658107516531577 0 -0.073954558227682654 -0.47227449067861221 0 -0.084526405471780863 -0.48226914416461908 0 -0.085663022255332649 -0.46658107516531577 0 -0.084526405471780863 -0.48226914416461908 0 -0.098900203825244629 -0.47725990951687591 0 -0.084526405471780863 -0.48226914416461908 0 -0.096889875506136813 -0.48961664594026427 0 -0.098900203825244629 -0.47725990951687591 0 -0.070510273362421827 -0.48508122278263721 0 -0.084526405471780863 -0.48226914416461908 0 -0.082965041353947389 -0.5 0 -0.084526405471780863 -0.48226914416461908 0 -0.082965041353947389 -0.5 0 -0.096889875506136813 -0.48961664594026427 0 -0.082965041353947389 -0.5 0 -0.10758239677127771 -0.5 0 -0.096889875506136813 -0.48961664594026427 0 -0.10758239677127771 -0.5 0 -0.096889875506136813 -0.48961664594026427 0 -0.1082423687052128 -0.48827854901838252 0 -0.096889875506136813 -0.48961664594026427 0 -0.1082423687052128 -0.48827854901838252 0 -0.098900203825244629 -0.47725990951687591 0 -0.098900203825244629 -0.47725990951687591 0 -0.11007030935387239 -0.47633564109136162 0 -0.101843247798795 -0.4597317029216117 0 -0.1082423687052128 -0.48827854901838252 0 -0.098900203825244629 -0.47725990951687591 0 -0.11007030935387239 -0.47633564109136162 0 -0.12954218601469991 -0.48471465532121621 0 -0.1219109160279906 -0.47016973378194687 0 -0.1194548104121191 -0.48623831021799108 0 -0.1219109160279906 -0.47016973378194687 0 -0.11007030935387239 -0.47633564109136162 0 -0.1194548104121191 -0.48623831021799108 0 -0.1082423687052128 -0.48827854901838252 0 -0.11007030935387239 -0.47633564109136162 0 -0.1194548104121191 -0.48623831021799108 0 -0.13481432462882961 -0.49534535490479492 0 -0.10758239677127771 -0.5 0 -0.13481432462882961 -0.49534535490479492 0 -0.10758239677127771 -0.5 0 -0.1126699393450394 -0.5 0 -0.13481432462882961 -0.49534535490479492 0 -0.10758239677127771 -0.5 0 -0.11699517830683021 -0.49329984359857593 0 -0.1082423687052128 -0.48827854901838252 0 -0.1194548104121191 -0.48623831021799108 0 -0.11699517830683021 -0.49329984359857593 0 -0.1252016248406197 -0.48989954101064448 0 -0.1194548104121191 -0.48623831021799108 0 -0.11699517830683021 -0.49329984359857593 0 -0.1252016248406197 -0.48989954101064448 0 -0.12954218601469991 -0.48471465532121621 0 -0.1194548104121191 -0.48623831021799108 0 -0.10758239677127771 -0.5 0 -0.1082423687052128 -0.48827854901838252 0 -0.11699517830683021 -0.49329984359857593 0 -0.093210360406904585 -0.44365888027002193 0 -0.1052542259544781 -0.44754480949812903 0 -0.101843247798795 -0.4597317029216117 0 -0.1052542259544781 -0.44754480949812903 0 -0.101843247798795 -0.4597317029216117 0 -0.1181183874658143 -0.45147491278412177 0 -0.093210360406904585 -0.44365888027002193 0 -0.1052542259544781 -0.44754480949812903 0 -0.1088565166324873 -0.4347792566880489 0 -0.085663022255332649 -0.46658107516531577 0 -0.098900203825244629 -0.47725990951687591 0 -0.101843247798795 -0.4597317029216117 0 -0.1219109160279906 -0.47016973378194687 0 -0.101843247798795 -0.4597317029216117 0 -0.1181183874658143 -0.45147491278412177 0 -0.1219109160279906 -0.47016973378194687 0 -0.11007030935387239 -0.47633564109136162 0 -0.101843247798795 -0.4597317029216117 0 -0.1219109160279906 -0.47016973378194687 0 -0.101843247798795 -0.4597317029216117 0 -0.12925744212726331 -0.43629998275471921 0 -0.1181183874658143 -0.45147491278412177 0 -0.1088565166324873 -0.4347792566880489 0 -0.1052542259544781 -0.44754480949812903 0 -0.1181183874658143 -0.45147491278412177 0 -0.1088565166324873 -0.4347792566880489 0 -0.1088565166324873 -0.4347792566880489 0 -0.1055072021532895 -0.41844011827532229 0 -0.12126011619242399 -0.41923157065313771 0 -0.12925744212726331 -0.43629998275471921 0 -0.1088565166324873 -0.4347792566880489 0 -0.12126011619242399 -0.41923157065313771 0 -0.1088565166324873 -0.4347792566880489 0 -0.1055072021532895 -0.41844011827532229 0 -0.093316109080714485 -0.4272006539266453 0 -0.093210360406904585 -0.44365888027002193 0 -0.1088565166324873 -0.4347792566880489 0 -0.093316109080714485 -0.4272006539266453 0 -0.1055072021532895 -0.41844011827532229 0 -0.1106814111062976 -0.40024668252551049 0 -0.093421857754523996 -0.41074242758326868 0 -0.1055072021532895 -0.41844011827532229 0 -0.093316109080714485 -0.4272006539266453 0 -0.093421857754523996 -0.41074242758326868 0 -0.13405445746913611 -0.40502949172506519 0 -0.12126011619242399 -0.41923157065313771 0 -0.1106814111062976 -0.40024668252551049 0 -0.1055072021532895 -0.41844011827532229 0 -0.12126011619242399 -0.41923157065313771 0 -0.1106814111062976 -0.40024668252551049 0 -0.1279409644580716 -0.38975093746775302 0 -0.1106814111062976 -0.40024668252551049 0 -0.10936196569222249 -0.38438159741952449 0 -0.1279409644580716 -0.38975093746775302 0 -0.1106814111062976 -0.40024668252551049 0 -0.1279409644580716 -0.38975093746775302 0 -0.13405445746913611 -0.40502949172506519 0 -0.1106814111062976 -0.40024668252551049 0 -0.1279409644580716 -0.38975093746775302 0 -0.12954167267392819 -0.37092982091023941 0 -0.1142696659494902 -0.36923708224716861 0 -0.1279409644580716 -0.38975093746775302 0 -0.1142696659494902 -0.36923708224716861 0 -0.10936196569222249 -0.38438159741952449 0 -0.1142696659494902 -0.36923708224716861 0 -0.10936196569222249 -0.38438159741952449 0 -0.093605867285144306 -0.38210404948207882 0 -0.1142696659494902 -0.36923708224716861 0 -0.093605867285144306 -0.38210404948207882 0 -0.1106814111062976 -0.40024668252551049 0 -0.10936196569222249 -0.38438159741952449 0 -0.093605867285144306 -0.38210404948207882 0 -0.1106814111062976 -0.40024668252551049 0 -0.093605867285144306 -0.38210404948207882 0 -0.093421857754523996 -0.41074242758326868 0 -0.1106814111062976 -0.40024668252551049 0 -0.093421857754523996 -0.41074242758326868 0 -0.083631626901062683 -0.39993422158356101 0 -0.093605867285144306 -0.38210404948207882 0 -0.093421857754523996 -0.41074242758326868 0 -0.093605867285144306 -0.38210404948207882 0 -0.093421857754523996 -0.41074242758326868 0 -0.083631626901062683 -0.39993422158356101 0 -0.093605867285144306 -0.38210404948207882 0 -0.069338389103050596 -0.39721496164856679 0 -0.093605867285144306 -0.38210404948207882 0 -0.069338389103050596 -0.39721496164856679 0 -0.08007595071935697 -0.37477652870515438 0 -0.093605867285144306 -0.38210404948207882 0 -0.069338389103050596 -0.39721496164856679 0 -0.08007595071935697 -0.37477652870515438 0 -0.064079591518304252 -0.38091008353044908 0 -0.069338389103050596 -0.39721496164856679 0 -0.05950637732044492 -0.41163436845398338 0 -0.069338389103050596 -0.39721496164856679 0 -0.075603516415220104 -0.40864454667713218 0 -0.083631626901062683 -0.39993422158356101 0 -0.069338389103050596 -0.39721496164856679 0 -0.075603516415220104 -0.40864454667713218 0 -0.05950637732044492 -0.41163436845398338 0 -0.075603516415220104 -0.40864454667713218 0 -0.072119330997018324 -0.42369675411628088 0 -0.050816804239513028 -0.43665108064929359 0 -0.068212471968392252 -0.44260882046197098 0 -0.072119330997018324 -0.42369675411628088 0 -0.068212471968392252 -0.44260882046197098 0 -0.072119330997018324 -0.42369675411628088 0 -0.08158797528087218 -0.43666144433361209 0 -0.072119330997018324 -0.42369675411628088 0 -0.093316109080714485 -0.4272006539266453 0 -0.08158797528087218 -0.43666144433361209 0 -0.093210360406904585 -0.44365888027002193 0 -0.093316109080714485 -0.4272006539266453 0 -0.08158797528087218 -0.43666144433361209 0 -0.093210360406904585 -0.44365888027002193 0 -0.093316109080714485 -0.4272006539266453 0 -0.072119330997018324 -0.42369675411628088 0 -0.093421857754523996 -0.41074242758326868 0 -0.075603516415220104 -0.40864454667713218 0 -0.072119330997018324 -0.42369675411628088 0 -0.093421857754523996 -0.41074242758326868 0 -0.083631626901062683 -0.39993422158356101 0 -0.075603516415220104 -0.40864454667713218 0 -0.093421857754523996 -0.41074242758326868 0 -0.072119330997018324 -0.42369675411628088 0 -0.093316109080714485 -0.4272006539266453 0 -0.093421857754523996 -0.41074242758326868 0 -0.093316109080714485 -0.4272006539266453 0 -0.093421857754523996 -0.41074242758326868 0 -0.080507957652018736 -0.088558042158619399 0 -0.087839285783300594 -0.072031554011163068 0 -0.10464983967478921 -0.089215899442861388 0 -0.080507957652018736 -0.088558042158619399 0 -0.087839285783300594 -0.072031554011163068 0 -0.073737605050866767 -0.072008573715759791 0 -0.087839285783300594 -0.072031554011163068 0 -0.073737605050866767 -0.072008573715759791 0 -0.083123622436293107 -0.05911796644564353 0 -0.073737605050866767 -0.072008573715759791 0 -0.061968826784957583 -0.086482841765197743 0 -0.054533931193457341 -0.072018426815968123 0 -0.073737605050866767 -0.072008573715759791 0 -0.072370782994968505 -0.056291394480853851 0 -0.054533931193457341 -0.072018426815968123 0 -0.072370782994968505 -0.056291394480853851 0 -0.054533931193457341 -0.072018426815968123 0 -0.080507957652018736 -0.088558042158619399 0 -0.073737605050866767 -0.072008573715759791 0 -0.061968826784957583 -0.086482841765197743 0 -0.080507957652018736 -0.088558042158619399 0 -0.070708237065965948 -0.1132321810895198 0 -0.061968826784957583 -0.086482841765197743 0 -0.070708237065965948 -0.1132321810895198 0 -0.054241644927164261 -0.1229162681213274 0 -0.071918961933606973 -0.13378207477775181 0 -0.070708237065965948 -0.1132321810895198 0 -0.08771381590298527 -0.12597554205873859 0 -0.071918961933606973 -0.13378207477775181 0 -0.070708237065965948 -0.1132321810895198 0 -0.08771381590298527 -0.12597554205873859 0 -0.070708237065965948 -0.1132321810895198 0 -0.090537103116394582 -0.1065179173440079 0 -0.08771381590298527 -0.12597554205873859 0 -0.080507957652018736 -0.088558042158619399 0 -0.070708237065965948 -0.1132321810895198 0 -0.090537103116394582 -0.1065179173440079 0 -0.080507957652018736 -0.088558042158619399 0 -0.090537103116394582 -0.1065179173440079 0 -0.10464983967478921 -0.089215899442861388 0 -0.090537103116394582 -0.1065179173440079 0 -0.10910566528621379 -0.1156079219703004 0 -0.10464983967478921 -0.089215899442861388 0 -0.090537103116394582 -0.1065179173440079 0 -0.10910566528621379 -0.1156079219703004 0 -0.08771381590298527 -0.12597554205873859 0 -0.10910566528621379 -0.1156079219703004 0 -0.13477124601368931 -0.13017769354615469 0 -0.1284090075068029 -0.10531499392795469 0 -0.10910566528621379 -0.1156079219703004 0 -0.10464983967478921 -0.089215899442861388 0 -0.1284090075068029 -0.10531499392795469 0 -0.1235405153330069 -0.086060361932581597 0 -0.10464983967478921 -0.089215899442861388 0 -0.1178533253688711 -0.072054272591921154 0 -0.1235405153330069 -0.086060361932581597 0 -0.10464983967478921 -0.089215899442861388 0 -0.1284090075068029 -0.10531499392795469 0 -0.087839285783300594 -0.072031554011163068 0 -0.103207740731139 -0.068944668083862209 0 -0.097497671220764262 -0.055864528001337337 0 -0.10464983967478921 -0.089215899442861388 0 -0.103207740731139 -0.068944668083862209 0 -0.1178533253688711 -0.072054272591921154 0 -0.087839285783300594 -0.072031554011163068 0 -0.10464983967478921 -0.089215899442861388 0 -0.103207740731139 -0.068944668083862209 0 -0.103207740731139 -0.068944668083862209 0 -0.1178533253688711 -0.072054272591921154 0 -0.11431823111001541 -0.053049749990636948 0 -0.1235405153330069 -0.086060361932581597 0 -0.1178533253688711 -0.072054272591921154 0 -0.132948838303063 -0.075019825605675064 0 -0.1178533253688711 -0.072054272591921154 0 -0.11431823111001541 -0.053049749990636948 0 -0.13069577916492961 -0.05940471413077867 0 -0.11431823111001541 -0.053049749990636948 0 -0.12878194217520569 -0.044366267572887683 0 -0.13069577916492961 -0.05940471413077867 0 -0.11431823111001541 -0.053049749990636948 0 -0.11873873503008781 -0.032280082648662438 0 -0.12878194217520569 -0.044366267572887683 0 -0.11431823111001541 -0.053049749990636948 0 -0.11873873503008781 -0.032280082648662438 0 -0.11431823111001541 -0.053049749990636948 0 -0.11873873503008781 -0.032280082648662438 0 -0.10521693186120171 -0.041799234085638487 0 -0.11873873503008781 -0.032280082648662438 0 -0.10521693186120171 -0.041799234085638487 0 -0.1062297536317673 -0.02643740836474795 0 -0.1062297536317673 -0.02643740836474795 0 -0.089300268313373898 -0.041364401422807777 0 -0.10521693186120171 -0.041799234085638487 0 -0.097497671220764262 -0.055864528001337337 0 -0.089300268313373898 -0.041364401422807777 0 -0.10521693186120171 -0.041799234085638487 0 -0.1062297536317673 -0.02643740836474795 0 -0.089300268313373898 -0.041364401422807777 0 -0.103207740731139 -0.068944668083862209 0 -0.11431823111001541 -0.053049749990636948 0 -0.097497671220764262 -0.055864528001337337 0 -0.11431823111001541 -0.053049749990636948 0 -0.10521693186120171 -0.041799234085638487 0 -0.097497671220764262 -0.055864528001337337 0 -0.1231592389501604 -0.01151041530668794 0 -0.1022364627064003 -0.0092294706397440755 0 -0.1107478437432257 0.0076006666536393543 0 -0.11873873503008781 -0.032280082648662438 0 -0.1231592389501604 -0.01151041530668794 0 -0.1231592389501604 -0.01151041530668794 0 -0.1062297536317673 -0.02643740836474795 0 -0.1022364627064003 -0.0092294706397440755 0 -0.11873873503008781 -0.032280082648662438 0 -0.1231592389501604 -0.01151041530668794 0 -0.1062297536317673 -0.02643740836474795 0 -0.1231592389501604 -0.01151041530668794 0 -0.1062297536317673 -0.02643740836474795 0 -0.1062297536317673 -0.02643740836474795 0 -0.1022364627064003 -0.0092294706397440755 0 -0.083795932197764073 -0.0227685960135562 0 -0.1022364627064003 -0.0092294706397440755 0 -0.086168345632243293 -0.0058649827448112217 0 -0.094987884996875799 0.0073395273471782464 0 -0.086168345632243293 -0.0058649827448112217 0 -0.073841079145465033 -0.0099659898851858358 0 -0.078462057111030492 0.0076527769379092746 0 -0.086168345632243293 -0.0058649827448112217 0 -0.083795932197764073 -0.0227685960135562 0 -0.073841079145465033 -0.0099659898851858358 0 -0.1022364627064003 -0.0092294706397440755 0 -0.086168345632243293 -0.0058649827448112217 0 -0.083795932197764073 -0.0227685960135562 0 -0.1062297536317673 -0.02643740836474795 0 -0.083795932197764073 -0.0227685960135562 0 -0.089300268313373898 -0.041364401422807777 0 -0.083795932197764073 -0.0227685960135562 0 -0.06363986287267473 -0.022537188626711311 0 -0.074998802815724519 -0.037206642979606207 0 -0.083795932197764073 -0.0227685960135562 0 -0.06363986287267473 -0.022537188626711311 0 -0.073841079145465033 -0.0099659898851858358 0 -0.073841079145465033 -0.0099659898851858358 0 -0.060466491373628979 -0.0028009421811297751 0 -0.078462057111030492 0.0076527769379092746 0 -0.06363986287267473 -0.022537188626711311 0 -0.073841079145465033 -0.0099659898851858358 0 -0.060466491373628979 -0.0028009421811297751 0 -0.089300268313373898 -0.041364401422807777 0 -0.072370782994968505 -0.056291394480853851 0 -0.083123622436293107 -0.05911796644564353 0 -0.089300268313373898 -0.041364401422807777 0 -0.072370782994968505 -0.056291394480853851 0 -0.097497671220764262 -0.055864528001337337 0 -0.083123622436293107 -0.05911796644564353 0 -0.089300268313373898 -0.041364401422807777 0 -0.087839285783300594 -0.072031554011163068 0 -0.097497671220764262 -0.055864528001337337 0 -0.083123622436293107 -0.05911796644564353 0 -0.089300268313373898 -0.041364401422807777 0 -0.074998802815724519 -0.037206642979606207 0 -0.072370782994968505 -0.056291394480853851 0 -0.083795932197764073 -0.0227685960135562 0 -0.089300268313373898 -0.041364401422807777 0 -0.074998802815724519 -0.037206642979606207 0 -0.074998802815724519 -0.037206642979606207 0 -0.072370782994968505 -0.056291394480853851 0 -0.061347754515817782 -0.039367228469393979 0 -0.06363986287267473 -0.022537188626711311 0 -0.074998802815724519 -0.037206642979606207 0 -0.061347754515817782 -0.039367228469393979 0 -0.072370782994968505 -0.056291394480853851 0 -0.053641540733381038 -0.051368085489935177 0 -0.073737605050866767 -0.072008573715759791 0 -0.083123622436293107 -0.05911796644564353 0 -0.072370782994968505 -0.056291394480853851 0 -0.083123622436293107 -0.05911796644564353 0 -0.072370782994968505 -0.056291394480853851 0 -0.072370782994968505 -0.056291394480853851 0 -0.053641540733381038 -0.051368085489935177 0 -0.054533931193457341 -0.072018426815968123 0 -0.053641540733381038 -0.051368085489935177 0 -0.043003878089039702 -0.067934076524116149 0 -0.072370782994968505 -0.056291394480853851 0 -0.053641540733381038 -0.051368085489935177 0 -0.061347754515817782 -0.039367228469393979 0 -0.053641540733381038 -0.051368085489935177 0 -0.061347754515817782 -0.039367228469393979 0 -0.061347754515817782 -0.039367228469393979 0 -0.048712263985468608 -0.037890703626714137 0 -0.053432227384019093 -0.028571097335117829 0 -0.053641540733381038 -0.051368085489935177 0 -0.061347754515817782 -0.039367228469393979 0 -0.048712263985468608 -0.037890703626714137 0 -0.033084088148661657 -0.04596419943163306 0 -0.042733653384756889 -0.023808759273827911 0 -0.053641540733381038 -0.051368085489935177 0 -0.048712263985468608 -0.037890703626714137 0 -0.033084088148661657 -0.04596419943163306 0 -0.048712263985468608 -0.037890703626714137 0 -0.033084088148661657 -0.04596419943163306 0 -0.042733653384756889 -0.023808759273827911 0 -0.033084088148661657 -0.04596419943163306 0 -0.042733653384756889 -0.023808759273827911 0 -0.02857696783615123 -0.034409657958946328 0 -0.053641540733381038 -0.051368085489935177 0 -0.033084088148661657 -0.04596419943163306 0 -0.053641540733381038 -0.051368085489935177 0 -0.033084088148661657 -0.04596419943163306 0 -0.037996372647884663 -0.057639563218205063 0 -0.053641540733381038 -0.051368085489935177 0 -0.037996372647884663 -0.057639563218205063 0 -0.043003878089039702 -0.067934076524116149 0 -0.033084088148661657 -0.04596419943163306 0 -0.037996372647884663 -0.057639563218205063 0 -0.026668800767266309 -0.060693724772522738 0 -0.060466491373628979 -0.0028009421811297751 0 -0.040823162424032437 -0.01442441650764823 0 -0.042516026620283989 -0.0011487078488288669 0 -0.060466491373628979 -0.0028009421811297751 0 -0.052083490639963793 -0.018503310411619261 0 -0.040823162424032437 -0.01442441650764823 0 -0.06363986287267473 -0.022537188626711311 0 -0.060466491373628979 -0.0028009421811297751 0 -0.052083490639963793 -0.018503310411619261 0 -0.060466491373628979 -0.0028009421811297751 0 -0.040823162424032437 -0.01442441650764823 0 -0.06363986287267473 -0.022537188626711311 0 -0.061347754515817782 -0.039367228469393979 0 -0.053432227384019093 -0.028571097335117829 0 -0.06363986287267473 -0.022537188626711311 0 -0.052083490639963793 -0.018503310411619261 0 -0.053432227384019093 -0.028571097335117829 0 -0.052083490639963793 -0.018503310411619261 0 -0.053432227384019093 -0.028571097335117829 0 -0.042733653384756889 -0.023808759273827911 0 -0.048712263985468608 -0.037890703626714137 0 -0.053432227384019093 -0.028571097335117829 0 -0.042733653384756889 -0.023808759273827911 0 -0.042733653384756889 -0.023808759273827911 0 -0.040823162424032437 -0.01442441650764823 0 -0.021179833474435882 -0.026047890834166691 0 -0.052083490639963793 -0.018503310411619261 0 -0.042733653384756889 -0.023808759273827911 0 -0.040823162424032437 -0.01442441650764823 0 -0.040823162424032437 -0.01442441650764823 0 -0.042516026620283989 -0.0011487078488288669 0 -0.029909871257333048 -0.012833316735615311 0 -0.042516026620283989 -0.0011487078488288669 0 -0.029909871257333048 -0.012833316735615311 0 -0.015120462510579869 -0.0097122517518174346 0 -0.042516026620283989 -0.0011487078488288669 0 -0.015120462510579869 -0.0097122517518174346 0 -0.029909871257333048 -0.012833316735615311 0 -0.021179833474435882 -0.026047890834166691 0 -0.015120462510579869 -0.0097122517518174346 0 -0.040823162424032437 -0.01442441650764823 0 -0.029909871257333048 -0.012833316735615311 0 -0.021179833474435882 -0.026047890834166691 0 -0.042733653384756889 -0.023808759273827911 0 -0.021179833474435882 -0.026047890834166691 0 -0.02857696783615123 -0.034409657958946328 0 -0.040823162424032437 -0.01442441650764823 0 -0.021179833474435882 -0.026047890834166691 0 -0.021179833474435882 -0.026047890834166691 0 -0.0039213121239204214 -0.024019612186942811 0 -0.0015365045248385699 -0.037671365160683951 0 -0.0039213121239204214 -0.024019612186942811 0 -0.015120462510579869 -0.0097122517518174346 0 0.012275101599124399 -0.018275795654806051 0 -0.021179833474435882 -0.026047890834166691 0 -0.0039213121239204214 -0.024019612186942811 0 -0.015120462510579869 -0.0097122517518174346 0 -0.015120462510579869 -0.0097122517518174346 0 0.012275101599124399 -0.018275795654806051 0 -0.033084088148661657 -0.04596419943163306 0 -0.026668800767266309 -0.060693724772522738 0 -0.017310296336750349 -0.041817782296157603 0 -0.026668800767266309 -0.060693724772522738 0 -0.017310296336750349 -0.041817782296157603 0 -0.012719548513722669 -0.054844996069052923 0 -0.033084088148661657 -0.04596419943163306 0 -0.026668800767266309 -0.060693724772522738 0 -0.021179833474435882 -0.026047890834166691 0 -0.02857696783615123 -0.034409657958946328 0 -0.017310296336750349 -0.041817782296157603 0 -0.033084088148661657 -0.04596419943163306 0 -0.02857696783615123 -0.034409657958946328 0 -0.017310296336750349 -0.041817782296157603 0 -0.033084088148661657 -0.04596419943163306 0 -0.017310296336750349 -0.041817782296157603 0 -0.017310296336750349 -0.041817782296157603 0 -0.0015365045248385699 -0.037671365160683951 0 -0.012719548513722669 -0.054844996069052923 0 -0.021179833474435882 -0.026047890834166691 0 -0.017310296336750349 -0.041817782296157603 0 -0.0015365045248385699 -0.037671365160683951 0 -0.021179833474435882 -0.026047890834166691 0 -0.0015365045248385699 -0.037671365160683951 0 -0.017310296336750349 -0.041817782296157603 0 -0.0015365045248385699 -0.037671365160683951 0 -0.0015365045248385699 -0.037671365160683951 0 -0.012719548513722669 -0.054844996069052923 0 0.002171372446112714 -0.058618858002487888 0 -0.0083840766596059071 -0.080417808071053185 0 0.0030420178430166892 -0.078936690626402614 0 0.002171372446112714 -0.058618858002487888 0 -0.012719548513722669 -0.054844996069052923 0 -0.020253513385871051 -0.075423250113412554 0 0.002171372446112714 -0.058618858002487888 0 -0.020253513385871051 -0.075423250113412554 0 0.002171372446112714 -0.058618858002487888 0 -0.0083840766596059071 -0.080417808071053185 0 -0.020253513385871051 -0.075423250113412554 0 0.002171372446112714 -0.058618858002487888 0 -0.0083840766596059071 -0.080417808071053185 0 -0.01314239525443584 -0.091750405623669054 0 -0.020253513385871051 -0.075423250113412554 0 -0.0083840766596059071 -0.080417808071053185 0 0.0013244843624020371 -0.094741037539600739 0 0.0030420178430166892 -0.078936690626402614 0 -0.0083840766596059071 -0.080417808071053185 0 -0.01314239525443584 -0.091750405623669054 0 0.0013244843624020371 -0.094741037539600739 0 -0.032366215444702029 -0.084500067558299446 0 -0.036697079391935811 -0.08774545915107089 0 -0.02191004782168765 -0.1007834170953024 0 -0.01314239525443584 -0.091750405623669054 0 -0.021896581143787071 -0.085851034235711249 0 -0.020253513385871051 -0.075423250113412554 0 -0.01314239525443584 -0.091750405623669054 0 -0.020253513385871051 -0.075423250113412554 0 -0.032366215444702029 -0.084500067558299446 0 -0.02191004782168765 -0.1007834170953024 0 -0.021896581143787071 -0.085851034235711249 0 -0.032366215444702029 -0.084500067558299446 0 -0.02191004782168765 -0.1007834170953024 0 -0.01314239525443584 -0.091750405623669054 0 -0.021896581143787071 -0.085851034235711249 0 -0.02191004782168765 -0.1007834170953024 0 -0.020253513385871051 -0.075423250113412554 0 -0.032366215444702029 -0.084500067558299446 0 -0.021896581143787071 -0.085851034235711249 0 -0.020253513385871051 -0.075423250113412554 0 -0.032366215444702029 -0.084500067558299446 0 -0.026668800767266309 -0.060693724772522738 0 -0.012719548513722669 -0.054844996069052923 0 -0.020253513385871051 -0.075423250113412554 0 -0.020253513385871051 -0.075423250113412554 0 -0.031899769421595107 -0.072502122022462562 0 -0.032366215444702029 -0.084500067558299446 0 -0.026668800767266309 -0.060693724772522738 0 -0.020253513385871051 -0.075423250113412554 0 -0.031899769421595107 -0.072502122022462562 0 -0.026668800767266309 -0.060693724772522738 0 -0.020253513385871051 -0.075423250113412554 0 -0.043003878089039702 -0.067934076524116149 0 -0.031899769421595107 -0.072502122022462562 0 -0.032366215444702029 -0.084500067558299446 0 -0.037996372647884663 -0.057639563218205063 0 -0.043003878089039702 -0.067934076524116149 0 -0.031899769421595107 -0.072502122022462562 0 -0.037996372647884663 -0.057639563218205063 0 -0.026668800767266309 -0.060693724772522738 0 -0.031899769421595107 -0.072502122022462562 0 -0.043003878089039702 -0.067934076524116149 0 -0.036697079391935811 -0.08774545915107089 0 -0.054533931193457341 -0.072018426815968123 0 -0.043003878089039702 -0.067934076524116149 0 -0.032366215444702029 -0.084500067558299446 0 -0.043003878089039702 -0.067934076524116149 0 -0.032366215444702029 -0.084500067558299446 0 -0.036697079391935811 -0.08774545915107089 0 -0.036697079391935811 -0.08774545915107089 0 -0.054533931193457341 -0.072018426815968123 0 -0.032366215444702029 -0.084500067558299446 0 -0.036697079391935811 -0.08774545915107089 0 -0.036697079391935811 -0.08774545915107089 0 -0.061968826784957583 -0.086482841765197743 0 -0.054533931193457341 -0.072018426815968123 0 -0.036697079391935811 -0.08774545915107089 0 -0.061968826784957583 -0.086482841765197743 0 -0.053702658228946612 -0.100488820120301 0 -0.053641540733381038 -0.051368085489935177 0 -0.043003878089039702 -0.067934076524116149 0 -0.054533931193457341 -0.072018426815968123 0 -0.070708237065965948 -0.1132321810895198 0 -0.054241644927164261 -0.1229162681213274 0 -0.053702658228946612 -0.100488820120301 0 -0.054241644927164261 -0.1229162681213274 0 -0.053702658228946612 -0.100488820120301 0 -0.038076012839783041 -0.11457364086478281 0 -0.070708237065965948 -0.1132321810895198 0 -0.061968826784957583 -0.086482841765197743 0 -0.053702658228946612 -0.100488820120301 0 -0.070708237065965948 -0.1132321810895198 0 -0.053702658228946612 -0.100488820120301 0 -0.053702658228946612 -0.100488820120301 0 -0.034338370015975138 -0.1014349425270665 0 -0.038076012839783041 -0.11457364086478281 0 -0.036697079391935811 -0.08774545915107089 0 -0.053702658228946612 -0.100488820120301 0 -0.034338370015975138 -0.1014349425270665 0 -0.036697079391935811 -0.08774545915107089 0 -0.053702658228946612 -0.100488820120301 0 -0.034338370015975138 -0.1014349425270665 0 -0.038076012839783041 -0.11457364086478281 0 -0.02565558109139349 -0.1097054465338109 0 -0.038076012839783041 -0.11457364086478281 0 -0.021543215134451059 -0.1243562784724742 0 -0.038637905002645627 -0.12996603760966779 0 -0.054241644927164261 -0.1229162681213274 0 -0.038076012839783041 -0.11457364086478281 0 -0.038637905002645627 -0.12996603760966779 0 -0.038076012839783041 -0.11457364086478281 0 -0.02565558109139349 -0.1097054465338109 0 -0.021543215134451059 -0.1243562784724742 0 -0.02565558109139349 -0.1097054465338109 0 -0.017018451323041941 -0.1143159618690619 0 -0.021543215134451059 -0.1243562784724742 0 -0.036697079391935811 -0.08774545915107089 0 -0.02191004782168765 -0.1007834170953024 0 -0.036697079391935811 -0.08774545915107089 0 -0.034338370015975138 -0.1014349425270665 0 -0.02191004782168765 -0.1007834170953024 0 -0.034338370015975138 -0.1014349425270665 0 -0.02565558109139349 -0.1097054465338109 0 -0.02191004782168765 -0.1007834170953024 0 -0.02565558109139349 -0.1097054465338109 0 -0.019831472069815479 -0.10402037510205391 0 -0.02191004782168765 -0.1007834170953024 0 -0.02565558109139349 -0.1097054465338109 0 -0.017018451323041941 -0.1143159618690619 0 -0.019831472069815479 -0.10402037510205391 0 -0.019831472069815479 -0.10402037510205391 0 -0.02191004782168765 -0.1007834170953024 0 -0.01314239525443584 -0.091750405623669054 0 -0.0060312771230008706 -0.10807756113392571 0 -0.02191004782168765 -0.1007834170953024 0 -0.0060312771230008706 -0.10807756113392571 0 -0.001043536996507721 -0.1191817473679085 0 -0.019831472069815479 -0.10402037510205391 0 -0.02191004782168765 -0.1007834170953024 0 -0.001043536996507721 -0.1191817473679085 0 -0.01314239525443584 -0.091750405623669054 0 -0.02191004782168765 -0.1007834170953024 0 -0.0060312771230008706 -0.10807756113392571 0 -0.01314239525443584 -0.091750405623669054 0 -0.0060312771230008706 -0.10807756113392571 0 0.0013244843624020371 -0.094741037539600739 0 -0.0060312771230008706 -0.10807756113392571 0 0.0046327842355795186 -0.1097690924407289 0 0.0013244843624020371 -0.094741037539600739 0 -0.017018451323041941 -0.1143159618690619 0 -0.019831472069815479 -0.10402037510205391 0 -0.001043536996507721 -0.1191817473679085 0 -0.017018451323041941 -0.1143159618690619 0 -0.021543215134451059 -0.1243562784724742 0 -0.001043536996507721 -0.1191817473679085 0 -0.02191004782168765 -0.1007834170953024 0 -0.001043536996507721 -0.1191817473679085 0 -0.0060312771230008706 -0.10807756113392571 0 -0.001043536996507721 -0.1191817473679085 0 0.0046327842355795186 -0.1097690924407289 0 -0.021543215134451059 -0.1243562784724742 0 -0.001043536996507721 -0.1191817473679085 0 -0.0035679149115061628 -0.14124214058008361 0 -0.021543215134451059 -0.1243562784724742 0 -0.027226732801425589 -0.14288523495042249 0 -0.0035679149115061628 -0.14124214058008361 0 -0.021543215134451059 -0.1243562784724742 0 -0.027226732801425589 -0.14288523495042249 0 -0.038637905002645627 -0.12996603760966779 0 -0.027226732801425589 -0.14288523495042249 0 -0.016302216196717911 -0.1558765054960721 0 -0.031349504810743729 -0.1668193094281068 0 -0.027226732801425589 -0.14288523495042249 0 -0.016302216196717911 -0.1558765054960721 0 -0.0035679149115061628 -0.14124214058008361 0 -0.016302216196717911 -0.1558765054960721 0 -0.0035679149115061628 -0.14124214058008361 0 -0.0024628466161756421 -0.1602726340402203 0 -0.0024628466161756421 -0.1602726340402203 0 -0.01207319725151865 -0.16943126008911619 0 0.0028716684178432539 -0.176104986180316 0 -0.016302216196717911 -0.1558765054960721 0 -0.0024628466161756421 -0.1602726340402203 0 -0.01207319725151865 -0.16943126008911619 0 -0.01207319725151865 -0.16943126008911619 0 -0.01070764475568931 -0.18871689110466081 0 0.0028716684178432539 -0.176104986180316 0 -0.031349504810743729 -0.1668193094281068 0 -0.01070764475568931 -0.18871689110466081 0 -0.02298969475000414 -0.1888532719062192 0 -0.01207319725151865 -0.16943126008911619 0 -0.031349504810743729 -0.1668193094281068 0 -0.01070764475568931 -0.18871689110466081 0 -0.031349504810743729 -0.1668193094281068 0 -0.01070764475568931 -0.18871689110466081 0 -0.031349504810743729 -0.1668193094281068 0 -0.02298969475000414 -0.1888532719062192 0 -0.031815660174230917 -0.18892782119971829 0 -0.016302216196717911 -0.1558765054960721 0 -0.01207319725151865 -0.16943126008911619 0 -0.031349504810743729 -0.1668193094281068 0 -0.031349504810743729 -0.1668193094281068 0 -0.05280397398114528 -0.16808894962107271 0 -0.051991364865798147 -0.1449217277515529 0 -0.031349504810743729 -0.1668193094281068 0 -0.041949498606674018 -0.17781725730558251 0 -0.05280397398114528 -0.16808894962107271 0 -0.031349504810743729 -0.1668193094281068 0 -0.041949498606674018 -0.17781725730558251 0 -0.031815660174230917 -0.18892782119971829 0 -0.041949498606674018 -0.17781725730558251 0 -0.051828855460576202 -0.18743294897343321 0 -0.031815660174230917 -0.18892782119971829 0 -0.051828855460576202 -0.18743294897343321 0 -0.067820020887906285 -0.17510352220545061 0 -0.041949498606674018 -0.17781725730558251 0 -0.051828855460576202 -0.18743294897343321 0 -0.05280397398114528 -0.16808894962107271 0 -0.051828855460576202 -0.18743294897343321 0 -0.05280397398114528 -0.16808894962107271 0 -0.067820020887906285 -0.17510352220545061 0 -0.05280397398114528 -0.16808894962107271 0 -0.051991364865798147 -0.1449217277515529 0 -0.072701217301150214 -0.1553051159387481 0 -0.054241644927164261 -0.1229162681213274 0 -0.051991364865798147 -0.1449217277515529 0 -0.038637905002645627 -0.12996603760966779 0 -0.054241644927164261 -0.1229162681213274 0 -0.051991364865798147 -0.1449217277515529 0 -0.071918961933606973 -0.13378207477775181 0 -0.027226732801425589 -0.14288523495042249 0 -0.051991364865798147 -0.1449217277515529 0 -0.038637905002645627 -0.12996603760966779 0 -0.027226732801425589 -0.14288523495042249 0 -0.031349504810743729 -0.1668193094281068 0 -0.051991364865798147 -0.1449217277515529 0 -0.031349504810743729 -0.1668193094281068 0 -0.051991364865798147 -0.1449217277515529 0 -0.02415883817859597 -0.2349609586475076 0 -0.01719112655688302 -0.24802023597079551 0 -0.036153264592620818 -0.24251984825047071 0 -0.02415883817859597 -0.2349609586475076 0 -0.01719112655688302 -0.24802023597079551 0 -0.0029630987762654971 -0.24137594919767921 0 -0.02415883817859597 -0.2349609586475076 0 -0.0029630987762654971 -0.24137594919767921 0 -0.0094330388027927987 -0.23073595219582699 0 -0.0037676009972298589 -0.25546460003562632 0 -0.01719112655688302 -0.24802023597079551 0 -0.0029630987762654971 -0.24137594919767921 0 -0.02415883817859597 -0.2349609586475076 0 -0.0029630987762654971 -0.24137594919767921 0 -0.0037676009972298589 -0.25546460003562632 0 -0.0029630987762654971 -0.24137594919767921 0 0.0051357754909989034 -0.24696665200157411 0 -0.01473110793867119 -0.21603586496520871 0 0.0041208896823614616 -0.23057103597291281 0 0.0099342152993651192 -0.2106144727812147 0 -0.0094330388027927987 -0.23073595219582699 0 -0.01473110793867119 -0.21603586496520871 0 0.0041208896823614616 -0.23057103597291281 0 -0.01473110793867119 -0.21603586496520871 0 0.0041208896823614616 -0.23057103597291281 0 -0.0029630987762654971 -0.24137594919767921 0 -0.0094330388027927987 -0.23073595219582699 0 0.0041208896823614616 -0.23057103597291281 0 -0.02415883817859597 -0.2349609586475076 0 -0.0094330388027927987 -0.23073595219582699 0 -0.01473110793867119 -0.21603586496520871 0 -0.02415883817859597 -0.2349609586475076 0 -0.01473110793867119 -0.21603586496520871 0 -0.032169093297146643 -0.21915976032262621 0 -0.02415883817859597 -0.2349609586475076 0 -0.032169093297146643 -0.21915976032262621 0 -0.037384725348727478 -0.23029698604351809 0 -0.01473110793867119 -0.21603586496520871 0 -0.016522141316891451 -0.20090900943049739 0 -0.033583105559702342 -0.20150069395750281 0 -0.01473110793867119 -0.21603586496520871 0 -0.033583105559702342 -0.20150069395750281 0 -0.032169093297146643 -0.21915976032262621 0 -0.01473110793867119 -0.21603586496520871 0 -0.033583105559702342 -0.20150069395750281 0 -0.01473110793867119 -0.21603586496520871 0 -0.016522141316891451 -0.20090900943049739 0 0.0099342152993651192 -0.2106144727812147 0 -0.01070764475568931 -0.18871689110466081 0 -0.016522141316891451 -0.20090900943049739 0 0.0099342152993651192 -0.2106144727812147 0 -0.01070764475568931 -0.18871689110466081 0 0.0099342152993651192 -0.2106144727812147 0 -0.01070764475568931 -0.18871689110466081 0 -0.02298969475000414 -0.1888532719062192 0 -0.016522141316891451 -0.20090900943049739 0 -0.016522141316891451 -0.20090900943049739 0 -0.02870724668144975 -0.1967843586517172 0 -0.033583105559702342 -0.20150069395750281 0 -0.02298969475000414 -0.1888532719062192 0 -0.016522141316891451 -0.20090900943049739 0 -0.02870724668144975 -0.1967843586517172 0 -0.02870724668144975 -0.1967843586517172 0 -0.033583105559702342 -0.20150069395750281 0 -0.02298969475000414 -0.1888532719062192 0 -0.02870724668144975 -0.1967843586517172 0 -0.031815660174230917 -0.18892782119971829 0 -0.051828855460576202 -0.18743294897343321 0 -0.033583105559702342 -0.20150069395750281 0 -0.051828855460576202 -0.18743294897343321 0 -0.031815660174230917 -0.18892782119971829 0 -0.033583105559702342 -0.20150069395750281 0 -0.051828855460576202 -0.18743294897343321 0 -0.031815660174230917 -0.18892782119971829 0 -0.051828855460576202 -0.18743294897343321 0 -0.033583105559702342 -0.20150069395750281 0 -0.051103392873097411 -0.2184477696803494 0 -0.02870724668144975 -0.1967843586517172 0 -0.031815660174230917 -0.18892782119971829 0 -0.033583105559702342 -0.20150069395750281 0 -0.051828855460576202 -0.18743294897343321 0 -0.051103392873097411 -0.2184477696803494 0 -0.065403498240902497 -0.20432058984471779 0 -0.033583105559702342 -0.20150069395750281 0 -0.051103392873097411 -0.2184477696803494 0 -0.033583105559702342 -0.20150069395750281 0 -0.051103392873097411 -0.2184477696803494 0 -0.032169093297146643 -0.21915976032262621 0 -0.051103392873097411 -0.2184477696803494 0 -0.032169093297146643 -0.21915976032262621 0 -0.037384725348727478 -0.23029698604351809 0 -0.051103392873097411 -0.2184477696803494 0 -0.037384725348727478 -0.23029698604351809 0 -0.048892323111073978 -0.23528828654983711 0 -0.051103392873097411 -0.2184477696803494 0 -0.048892323111073978 -0.23528828654983711 0 -0.068623680186492217 -0.23539484540319619 0 -0.051103392873097411 -0.2184477696803494 0 -0.068623680186492217 -0.23539484540319619 0 -0.065403498240902497 -0.20432058984471779 0 -0.051103392873097411 -0.2184477696803494 0 -0.068623680186492217 -0.23539484540319619 0 -0.048892323111073978 -0.23528828654983711 0 -0.051196552554431993 -0.249781983371651 0 -0.068623680186492217 -0.23539484540319619 0 -0.048892323111073978 -0.23528828654983711 0 -0.051196552554431993 -0.249781983371651 0 -0.036153264592620818 -0.24251984825047071 0 -0.037384725348727478 -0.23029698604351809 0 -0.048892323111073978 -0.23528828654983711 0 -0.036153264592620818 -0.24251984825047071 0 -0.02415883817859597 -0.2349609586475076 0 -0.037384725348727478 -0.23029698604351809 0 -0.036153264592620818 -0.24251984825047071 0 -0.086143967499887036 -0.25234192112604298 0 -0.068623680186492217 -0.23539484540319619 0 -0.089689484997947461 -0.23182668379059049 0 -0.068024863348320641 -0.25877973592827141 0 -0.051196552554431993 -0.249781983371651 0 -0.068623680186492217 -0.23539484540319619 0 -0.086143967499887036 -0.25234192112604298 0 -0.068623680186492217 -0.23539484540319619 0 -0.068024863348320641 -0.25877973592827141 0 -0.086143967499887036 -0.25234192112604298 0 -0.068623680186492217 -0.23539484540319619 0 -0.068623680186492217 -0.23539484540319619 0 -0.089689484997947461 -0.23182668379059049 0 -0.086078052617673761 -0.2097943934577261 0 -0.068623680186492217 -0.23539484540319619 0 -0.086078052617673761 -0.2097943934577261 0 -0.065403498240902497 -0.20432058984471779 0 -0.086078052617673761 -0.2097943934577261 0 -0.065403498240902497 -0.20432058984471779 0 -0.075605796142297496 -0.18565694630406329 0 -0.051828855460576202 -0.18743294897343321 0 -0.065403498240902497 -0.20432058984471779 0 -0.075605796142297496 -0.18565694630406329 0 -0.086078052617673761 -0.2097943934577261 0 -0.075605796142297496 -0.18565694630406329 0 -0.09938273682401888 -0.18388094363469421 0 -0.086078052617673761 -0.2097943934577261 0 -0.1166612032749183 -0.21116629292651329 0 -0.09938273682401888 -0.18388094363469421 0 -0.1166612032749183 -0.21116629292651329 0 -0.12315967750574031 -0.18210494096532501 0 -0.1302897421874912 -0.1953388420013763 0 -0.1166612032749183 -0.21116629292651329 0 -0.12315967750574031 -0.18210494096532501 0 -0.1166612032749183 -0.21116629292651329 0 -0.09938273682401888 -0.18388094363469421 0 -0.12315967750574031 -0.18210494096532501 0 -0.089689484997947461 -0.23182668379059049 0 -0.086078052617673761 -0.2097943934577261 0 -0.1166612032749183 -0.21116629292651329 0 -0.089689484997947461 -0.23182668379059049 0 -0.1166612032749183 -0.21116629292651329 0 -0.1101627290440967 -0.24022764488770201 0 -0.1166612032749183 -0.21116629292651329 0 -0.1101627290440967 -0.24022764488770201 0 -0.1166612032749183 -0.21116629292651329 0 -0.1101627290440967 -0.24022764488770201 0 -0.13696110654409069 -0.23531972623879291 0 -0.086143967499887036 -0.25234192112604298 0 -0.089689484997947461 -0.23182668379059049 0 -0.1101627290440967 -0.24022764488770201 0 -0.071918961933606973 -0.13378207477775181 0 -0.072701217301150214 -0.1553051159387481 0 -0.09415749153857797 -0.14034161370662401 0 -0.09024751503769983 -0.15559340225916729 0 -0.072701217301150214 -0.1553051159387481 0 -0.09415749153857797 -0.14034161370662401 0 -0.08771381590298527 -0.12597554205873859 0 -0.071918961933606973 -0.13378207477775181 0 -0.09415749153857797 -0.14034161370662401 0 -0.051991364865798147 -0.1449217277515529 0 -0.071918961933606973 -0.13378207477775181 0 -0.072701217301150214 -0.1553051159387481 0 -0.072701217301150214 -0.1553051159387481 0 -0.067820020887906285 -0.17510352220545061 0 -0.084136782310215 -0.17121453710719439 0 -0.05280397398114528 -0.16808894962107271 0 -0.072701217301150214 -0.1553051159387481 0 -0.067820020887906285 -0.17510352220545061 0 -0.051828855460576202 -0.18743294897343321 0 -0.075605796142297496 -0.18565694630406329 0 -0.067820020887906285 -0.17510352220545061 0 -0.075605796142297496 -0.18565694630406329 0 -0.067820020887906285 -0.17510352220545061 0 -0.084136782310215 -0.17121453710719439 0 -0.051828855460576202 -0.18743294897343321 0 -0.075605796142297496 -0.18565694630406329 0 -0.075605796142297496 -0.18565694630406329 0 -0.084136782310215 -0.17121453710719439 0 -0.09938273682401888 -0.18388094363469421 0 -0.075605796142297496 -0.18565694630406329 0 -0.09938273682401888 -0.18388094363469421 0 -0.09024751503769983 -0.15559340225916729 0 -0.072701217301150214 -0.1553051159387481 0 -0.084136782310215 -0.17121453710719439 0 -0.09024751503769983 -0.15559340225916729 0 -0.084136782310215 -0.17121453710719439 0 -0.1071019804619 -0.1649037973911324 0 -0.084136782310215 -0.17121453710719439 0 -0.1071019804619 -0.1649037973911324 0 -0.09938273682401888 -0.18388094363469421 0 -0.1071019804619 -0.1649037973911324 0 -0.09938273682401888 -0.18388094363469421 0 -0.12315967750574031 -0.18210494096532501 0 -0.09938273682401888 -0.18388094363469421 0 -0.12315967750574031 -0.18210494096532501 0 -0.1071019804619 -0.1649037973911324 0 -0.12315967750574031 -0.18210494096532501 0 -0.1289654617597146 -0.15614131725573979 0 -0.1071019804619 -0.1649037973911324 0 -0.109845191779652 -0.13899958858200359 0 -0.1289654617597146 -0.15614131725573979 0 -0.109845191779652 -0.13899958858200359 0 -0.13477124601368931 -0.13017769354615469 0 -0.1289654617597146 -0.15614131725573979 0 -0.09024751503769983 -0.15559340225916729 0 -0.1071019804619 -0.1649037973911324 0 -0.109845191779652 -0.13899958858200359 0 -0.09024751503769983 -0.15559340225916729 0 -0.09415749153857797 -0.14034161370662401 0 -0.109845191779652 -0.13899958858200359 0 -0.08771381590298527 -0.12597554205873859 0 -0.09415749153857797 -0.14034161370662401 0 -0.109845191779652 -0.13899958858200359 0 -0.10910566528621379 -0.1156079219703004 0 -0.08771381590298527 -0.12597554205873859 0 -0.109845191779652 -0.13899958858200359 0 -0.10910566528621379 -0.1156079219703004 0 -0.109845191779652 -0.13899958858200359 0 -0.13477124601368931 -0.13017769354615469 0 -0.14763625720698709 -0.1431841122617841 0 -0.16595226835076551 -0.13753171568135439 0 -0.1549887479566488 -0.11740182579239999 0 -0.13477124601368931 -0.13017769354615469 0 -0.14763625720698709 -0.1431841122617841 0 -0.1549887479566488 -0.11740182579239999 0 -0.14763625720698709 -0.1431841122617841 0 -0.14285073335480841 -0.16270580143985089 0 -0.15828908580629639 -0.15514631985520461 0 -0.14763625720698709 -0.1431841122617841 0 -0.1289654617597146 -0.15614131725573979 0 -0.14285073335480841 -0.16270580143985089 0 -0.13477124601368931 -0.13017769354615469 0 -0.14763625720698709 -0.1431841122617841 0 -0.1289654617597146 -0.15614131725573979 0 -0.13477124601368931 -0.13017769354615469 0 -0.1289654617597146 -0.15614131725573979 0 -0.1289654617597146 -0.15614131725573979 0 -0.13262274363998819 -0.17507966214005369 0 -0.14285073335480841 -0.16270580143985089 0 -0.12315967750574031 -0.18210494096532501 0 -0.1289654617597146 -0.15614131725573979 0 -0.13262274363998819 -0.17507966214005369 0 -0.12315967750574031 -0.18210494096532501 0 -0.1289654617597146 -0.15614131725573979 0 -0.13262274363998819 -0.17507966214005369 0 -0.1405283549113229 -0.17545871415821679 0 -0.14285073335480841 -0.16270580143985089 0 -0.12315967750574031 -0.18210494096532501 0 -0.1308445772393646 -0.1860178128777461 0 -0.12831568845668029 -0.18171981617846791 0 -0.12315967750574031 -0.18210494096532501 0 -0.12831568845668029 -0.18171981617846791 0 -0.1308445772393646 -0.1860178128777461 0 -0.12831568845668029 -0.18171981617846791 0 -0.1343249228315567 -0.18166846351985411 0 -0.12315967750574031 -0.18210494096532501 0 -0.12831568845668029 -0.18171981617846791 0 -0.13262274363998819 -0.17507966214005369 0 -0.12831568845668029 -0.18171981617846791 0 -0.13262274363998819 -0.17507966214005369 0 -0.1343249228315567 -0.18166846351985411 0 -0.13262274363998819 -0.17507966214005369 0 -0.1405283549113229 -0.17545871415821679 0 -0.1343249228315567 -0.18166846351985411 0 -0.1405283549113229 -0.17545871415821679 0 -0.1343249228315567 -0.18166846351985411 0 -0.13813285521535451 -0.1892570017237071 0 -0.1308445772393646 -0.1860178128777461 0 -0.1343249228315567 -0.18166846351985411 0 -0.13813285521535451 -0.1892570017237071 0 -0.1405283549113229 -0.17545871415821679 0 -0.14723771865779869 -0.18708544357809959 0 -0.1487071323038093 -0.17880458417185019 0 -0.1405283549113229 -0.17545871415821679 0 -0.1487071323038093 -0.17880458417185019 0 -0.15371799794104421 -0.1697505184123515 0 -0.1487071323038093 -0.17880458417185019 0 -0.15557233865557729 -0.18285268400126201 0 -0.15371799794104421 -0.1697505184123515 0 -0.14723771865779869 -0.18708544357809959 0 -0.15557233865557729 -0.18285268400126201 0 -0.1539241277654953 -0.18842477248961439 0 -0.14723771865779869 -0.18708544357809959 0 -0.1487071323038093 -0.17880458417185019 0 -0.15557233865557729 -0.18285268400126201 0 -0.1405283549113229 -0.17545871415821679 0 -0.14285073335480841 -0.16270580143985089 0 -0.15371799794104421 -0.1697505184123515 0 -0.14285073335480841 -0.16270580143985089 0 -0.15371799794104421 -0.1697505184123515 0 -0.15828908580629639 -0.15514631985520461 0 -0.15371799794104421 -0.1697505184123515 0 -0.1671302785301739 -0.1649686598787137 0 -0.15828908580629639 -0.15514631985520461 0 -0.1671302785301739 -0.1649686598787137 0 -0.17535667300888791 -0.15211765186482409 0 -0.15828908580629639 -0.15514631985520461 0 -0.15371799794104421 -0.1697505184123515 0 -0.1671302785301739 -0.1649686598787137 0 -0.16204407209454941 -0.17350564455303619 0 -0.1671302785301739 -0.1649686598787137 0 -0.16204407209454941 -0.17350564455303619 0 -0.17089447200106561 -0.17430852506396921 0 -0.15557233865557729 -0.18285268400126201 0 -0.158476845255794 -0.19144037339724429 0 -0.16500368200251889 -0.1879330563769698 0 -0.15557233865557729 -0.18285268400126201 0 -0.16379363188274071 -0.18062301880478701 0 -0.16500368200251889 -0.1879330563769698 0 -0.15557233865557729 -0.18285268400126201 0 -0.16379363188274071 -0.18062301880478701 0 -0.16204407209454941 -0.17350564455303619 0 -0.15557233865557729 -0.18285268400126201 0 -0.15371799794104421 -0.1697505184123515 0 -0.16204407209454941 -0.17350564455303619 0 -0.16379363188274071 -0.18062301880478701 0 -0.16204407209454941 -0.17350564455303619 0 -0.17089447200106561 -0.17430852506396921 0 -0.16379363188274071 -0.18062301880478701 0 -0.17089447200106561 -0.17430852506396921 0 -0.17092407071150831 -0.18319786835307819 0 -0.17092407071150831 -0.18319786835307819 0 -0.17165339212334421 -0.19120142384530889 0 -0.16500368200251889 -0.1879330563769698 0 -0.16379363188274071 -0.18062301880478701 0 -0.17092407071150831 -0.18319786835307819 0 -0.16500368200251889 -0.1879330563769698 0 -0.17092407071150831 -0.18319786835307819 0 -0.17823857558996961 -0.18599114309494311 0 -0.17846332869616269 -0.1778067376398712 0 -0.17092407071150831 -0.18319786835307819 0 -0.17823857558996961 -0.18599114309494311 0 -0.17165339212334421 -0.19120142384530889 0 -0.17089447200106561 -0.17430852506396921 0 -0.17092407071150831 -0.18319786835307819 0 -0.17846332869616269 -0.1778067376398712 0 -0.17089447200106561 -0.17430852506396921 0 -0.17846332869616269 -0.1778067376398712 0 -0.18319652478664539 -0.16678571769514219 0 -0.17846332869616269 -0.1778067376398712 0 -0.18319652478664539 -0.16678571769514219 0 -0.19054768599021379 -0.17723512059121019 0 -0.18319652478664539 -0.16678571769514219 0 -0.19054768599021379 -0.17723512059121019 0 -0.17823857558996961 -0.18599114309494311 0 -0.18481527372426049 -0.19186727440255161 0 -0.19054768599021379 -0.17723512059121019 0 -0.17823857558996961 -0.18599114309494311 0 -0.17846332869616269 -0.1778067376398712 0 -0.19054768599021379 -0.17723512059121019 0 -0.1671302785301739 -0.1649686598787137 0 -0.17089447200106561 -0.17430852506396921 0 -0.18319652478664539 -0.16678571769514219 0 -0.18319652478664539 -0.16678571769514219 0 -0.18796177158060251 -0.15538856431494391 0 -0.19054768599021379 -0.17723512059121019 0 -0.1671302785301739 -0.1649686598787137 0 -0.18319652478664539 -0.16678571769514219 0 -0.17535667300888791 -0.15211765186482409 0 -0.18319652478664539 -0.16678571769514219 0 -0.17535667300888791 -0.15211765186482409 0 -0.18796177158060251 -0.15538856431494391 0 -0.17535667300888791 -0.15211765186482409 0 -0.1870717923548505 -0.14068511841761089 0 -0.18796177158060251 -0.15538856431494391 0 -0.17535667300888791 -0.15211765186482409 0 -0.1870717923548505 -0.14068511841761089 0 -0.16595226835076551 -0.13753171568135439 0 -0.1870717923548505 -0.14068511841761089 0 -0.16595226835076551 -0.13753171568135439 0 -0.1810884072397127 -0.12393129142106039 0 -0.16595226835076551 -0.13753171568135439 0 -0.1810884072397127 -0.12393129142106039 0 -0.1549887479566488 -0.11740182579239999 0 -0.17535667300888791 -0.15211765186482409 0 -0.16595226835076551 -0.13753171568135439 0 -0.15828908580629639 -0.15514631985520461 0 -0.14763625720698709 -0.1431841122617841 0 -0.16595226835076551 -0.13753171568135439 0 -0.15828908580629639 -0.15514631985520461 0 -0.14729195408805709 -0.24522062107368231 0 -0.13696110654409069 -0.23531972623879291 0 -0.15471489552033491 -0.22554864181490331 0 -0.16180816582484039 -0.25059360564324651 0 -0.14729195408805709 -0.24522062107368231 0 -0.15471489552033491 -0.22554864181490331 0 -0.13363707598743549 -0.2532616675208415 0 -0.1101627290440967 -0.24022764488770201 0 -0.13696110654409069 -0.23531972623879291 0 -0.13363707598743549 -0.2532616675208415 0 -0.14729195408805709 -0.24522062107368231 0 -0.13696110654409069 -0.23531972623879291 0 -0.1166612032749183 -0.21116629292651329 0 -0.13696110654409069 -0.23531972623879291 0 -0.1418725936392011 -0.2156588918631526 0 -0.13696110654409069 -0.23531972623879291 0 -0.15471489552033491 -0.22554864181490331 0 -0.1418725936392011 -0.2156588918631526 0 -0.15471489552033491 -0.22554864181490331 0 -0.1418725936392011 -0.2156588918631526 0 -0.14762162521582889 -0.2005036779865601 0 -0.15471489552033491 -0.22554864181490331 0 -0.14762162521582889 -0.2005036779865601 0 -0.1604088171156984 -0.21225623895955861 0 -0.15471489552033491 -0.22554864181490331 0 -0.14762162521582889 -0.2005036779865601 0 -0.14762162521582889 -0.2005036779865601 0 -0.15017918974244401 -0.20018292985386599 0 -0.1604088171156984 -0.21225623895955861 0 -0.1418725936392011 -0.2156588918631526 0 -0.14012729025181039 -0.20497021322299441 0 -0.14762162521582889 -0.2005036779865601 0 -0.1166612032749183 -0.21116629292651329 0 -0.1418725936392011 -0.2156588918631526 0 -0.1329554305439741 -0.2044531736387831 0 -0.1166612032749183 -0.21116629292651329 0 -0.1329554305439741 -0.2044531736387831 0 -0.1302897421874912 -0.1953388420013763 0 -0.1418725936392011 -0.2156588918631526 0 -0.1329554305439741 -0.2044531736387831 0 -0.14012729025181039 -0.20497021322299441 0 -0.1329554305439741 -0.2044531736387831 0 -0.14012729025181039 -0.20497021322299441 0 -0.13805951160823751 -0.19926510940348199 0 -0.1329554305439741 -0.2044531736387831 0 -0.13805951160823751 -0.19926510940348199 0 -0.1302897421874912 -0.1953388420013763 0 -0.12315967750574031 -0.18210494096532501 0 -0.1308445772393646 -0.1860178128777461 0 -0.1302897421874912 -0.1953388420013763 0 -0.13805951160823751 -0.19926510940348199 0 -0.1302897421874912 -0.1953388420013763 0 -0.13813285521535451 -0.1892570017237071 0 -0.1308445772393646 -0.1860178128777461 0 -0.1302897421874912 -0.1953388420013763 0 -0.13813285521535451 -0.1892570017237071 0 -0.14723771865779869 -0.18708544357809959 0 -0.14762162521582889 -0.2005036779865601 0 -0.14886266432980019 -0.19582024359514461 0 -0.1405283549113229 -0.17545871415821679 0 -0.14762162521582889 -0.2005036779865601 0 -0.1405283549113229 -0.17545871415821679 0 -0.13813285521535451 -0.1892570017237071 0 -0.14762162521582889 -0.2005036779865601 0 -0.1405283549113229 -0.17545871415821679 0 -0.14723771865779869 -0.18708544357809959 0 -0.14762162521582889 -0.2005036779865601 0 -0.14012729025181039 -0.20497021322299441 0 -0.13805951160823751 -0.19926510940348199 0 -0.14762162521582889 -0.2005036779865601 0 -0.13805951160823751 -0.19926510940348199 0 -0.13813285521535451 -0.1892570017237071 0 -0.14762162521582889 -0.2005036779865601 0 -0.14762162521582889 -0.2005036779865601 0 -0.14886266432980019 -0.19582024359514461 0 -0.14947723317544129 -0.1982849410671875 0 -0.14886266432980019 -0.19582024359514461 0 -0.14947723317544129 -0.1982849410671875 0 -0.1512454534136923 -0.1966329128331793 0 -0.14947723317544129 -0.1982849410671875 0 -0.1512454534136923 -0.1966329128331793 0 -0.15017918974244401 -0.20018292985386599 0 -0.14762162521582889 -0.2005036779865601 0 -0.14947723317544129 -0.1982849410671875 0 -0.15017918974244401 -0.20018292985386599 0 -0.1512454534136923 -0.1966329128331793 0 -0.15017918974244401 -0.20018292985386599 0 -0.15576569437483009 -0.19578363853805239 0 -0.15576569437483009 -0.19578363853805239 0 -0.15275461565379009 -0.1929107069498569 0 -0.158476845255794 -0.19144037339724429 0 -0.15557233865557729 -0.18285268400126201 0 -0.1539241277654953 -0.18842477248961439 0 -0.158476845255794 -0.19144037339724429 0 -0.14723771865779869 -0.18708544357809959 0 -0.14886266432980019 -0.19582024359514461 0 -0.15275461565379009 -0.1929107069498569 0 -0.1512454534136923 -0.1966329128331793 0 -0.15576569437483009 -0.19578363853805239 0 -0.15275461565379009 -0.1929107069498569 0 -0.15275461565379009 -0.1929107069498569 0 -0.1539241277654953 -0.18842477248961439 0 -0.158476845255794 -0.19144037339724429 0 -0.14723771865779869 -0.18708544357809959 0 -0.15275461565379009 -0.1929107069498569 0 -0.1539241277654953 -0.18842477248961439 0 -0.14886266432980019 -0.19582024359514461 0 -0.1512454534136923 -0.1966329128331793 0 -0.15275461565379009 -0.1929107069498569 0 -0.15017918974244401 -0.20018292985386599 0 -0.16517772290236549 -0.19753030422751189 0 -0.17908286145831079 -0.2064994282138943 0 -0.158476845255794 -0.19144037339724429 0 -0.16517772290236549 -0.19753030422751189 0 -0.16500368200251889 -0.1879330563769698 0 -0.15576569437483009 -0.19578363853805239 0 -0.158476845255794 -0.19144037339724429 0 -0.16517772290236549 -0.19753030422751189 0 -0.15017918974244401 -0.20018292985386599 0 -0.15576569437483009 -0.19578363853805239 0 -0.16517772290236549 -0.19753030422751189 0 -0.16517772290236549 -0.19753030422751189 0 -0.17165339212334421 -0.19120142384530889 0 -0.17473752576327869 -0.19760949217728041 0 -0.16517772290236549 -0.19753030422751189 0 -0.17165339212334421 -0.19120142384530889 0 -0.16500368200251889 -0.1879330563769698 0 -0.17823857558996961 -0.18599114309494311 0 -0.17165339212334421 -0.19120142384530889 0 -0.18481527372426049 -0.19186727440255161 0 -0.17165339212334421 -0.19120142384530889 0 -0.18481527372426049 -0.19186727440255161 0 -0.17473752576327869 -0.19760949217728041 0 -0.18481527372426049 -0.19186727440255161 0 -0.17908286145831079 -0.2064994282138943 0 -0.18481527372426049 -0.19186727440255161 0 -0.17908286145831079 -0.2064994282138943 0 -0.19141787607185939 -0.20125262865911159 0 -0.18481527372426049 -0.19186727440255161 0 -0.17473752576327869 -0.19760949217728041 0 -0.17908286145831079 -0.2064994282138943 0 -0.16517772290236549 -0.19753030422751189 0 -0.17473752576327869 -0.19760949217728041 0 -0.17908286145831079 -0.2064994282138943 0 -0.17908286145831079 -0.2064994282138943 0 -0.1704455136415747 -0.22854651692857 0 -0.17908286145831079 -0.2064994282138943 0 -0.1604088171156984 -0.21225623895955861 0 -0.1704455136415747 -0.22854651692857 0 -0.15017918974244401 -0.20018292985386599 0 -0.17908286145831079 -0.2064994282138943 0 -0.1604088171156984 -0.21225623895955861 0 -0.15017918974244401 -0.20018292985386599 0 -0.17908286145831079 -0.2064994282138943 0 -0.15471489552033491 -0.22554864181490331 0 -0.1604088171156984 -0.21225623895955861 0 -0.1704455136415747 -0.22854651692857 0 -0.17908286145831079 -0.2064994282138943 0 -0.1704455136415747 -0.22854651692857 0 -0.18627724774876461 -0.22128836783371009 0 -0.1704455136415747 -0.22854651692857 0 -0.18627724774876461 -0.22128836783371009 0 -0.1865656605386751 -0.23542545125172459 0 -0.18024488942319691 -0.25378078528003239 0 -0.17476605735707179 -0.2420865897758934 0 -0.1865656605386751 -0.23542545125172459 0 -0.1704455136415747 -0.22854651692857 0 -0.17476605735707179 -0.2420865897758934 0 -0.1865656605386751 -0.23542545125172459 0 -0.16180816582484039 -0.25059360564324651 0 -0.18024488942319691 -0.25378078528003239 0 -0.17476605735707179 -0.2420865897758934 0 -0.16180816582484039 -0.25059360564324651 0 -0.15471489552033491 -0.22554864181490331 0 -0.16180816582484039 -0.25059360564324651 0 -0.1704455136415747 -0.22854651692857 0 -0.17476605735707179 -0.2420865897758934 0 -0.16180816582484039 -0.25059360564324651 0 -0.1704455136415747 -0.22854651692857 0 -0.16180816582484039 -0.25059360564324651 0 -0.15471489552033491 -0.22554864181490331 0 -0.1704455136415747 -0.22854651692857 0 -0.21760187781827181 -0.25419728823726118 0 -0.20961605931669999 -0.23626542181495899 0 -0.19850728873847889 -0.24890370094164491 0 -0.18024488942319691 -0.25378078528003239 0 -0.1865656605386751 -0.23542545125172459 0 -0.19850728873847889 -0.24890370094164491 0 -0.1865656605386751 -0.23542545125172459 0 -0.20961605931669999 -0.23626542181495899 0 -0.1865656605386751 -0.23542545125172459 0 -0.20961605931669999 -0.23626542181495899 0 -0.19850728873847889 -0.24890370094164491 0 -0.1865656605386751 -0.23542545125172459 0 -0.20961605931669999 -0.23626542181495899 0 -0.19784851133590919 -0.2249019862091706 0 -0.18627724774876461 -0.22128836783371009 0 -0.1865656605386751 -0.23542545125172459 0 -0.19784851133590919 -0.2249019862091706 0 -0.18627724774876461 -0.22128836783371009 0 -0.19784851133590919 -0.2249019862091706 0 -0.19802047841945719 -0.21063798291567429 0 -0.20961605931669999 -0.23626542181495899 0 -0.19784851133590919 -0.2249019862091706 0 -0.21695809538060579 -0.21477653761744431 0 -0.21695809538060579 -0.21477653761744431 0 -0.2037528906854105 -0.19600582910432671 0 -0.21695809538060579 -0.21477653761744431 0 -0.19802047841945719 -0.21063798291567429 0 -0.19784851133590919 -0.2249019862091706 0 -0.21695809538060579 -0.21477653761744431 0 -0.19802047841945719 -0.21063798291567429 0 -0.21695809538060579 -0.21477653761744431 0 -0.19802047841945719 -0.21063798291567429 0 -0.2037528906854105 -0.19600582910432671 0 -0.17908286145831079 -0.2064994282138943 0 -0.19802047841945719 -0.21063798291567429 0 -0.17908286145831079 -0.2064994282138943 0 -0.18627724774876461 -0.22128836783371009 0 -0.19802047841945719 -0.21063798291567429 0 -0.17908286145831079 -0.2064994282138943 0 -0.19802047841945719 -0.21063798291567429 0 -0.19141787607185939 -0.20125262865911159 0 -0.18481527372426049 -0.19186727440255161 0 -0.2037528906854105 -0.19600582910432671 0 -0.19054768599021379 -0.17723512059121019 0 -0.18481527372426049 -0.19186727440255161 0 -0.19141787607185939 -0.20125262865911159 0 -0.2037528906854105 -0.19600582910432671 0 -0.19802047841945719 -0.21063798291567429 0 -0.19141787607185939 -0.20125262865911159 0 -0.2037528906854105 -0.19600582910432671 0 -0.2037528906854105 -0.19600582910432671 0 -0.22542312405861351 -0.19442328197901529 0 -0.2059815282801444 -0.17997816972994871 0 -0.21695809538060579 -0.21477653761744431 0 -0.2037528906854105 -0.19600582910432671 0 -0.22542312405861351 -0.19442328197901529 0 -0.22542312405861351 -0.19442328197901529 0 -0.24690285340742571 -0.19114610178065169 0 -0.24488486066899559 -0.20652901969351281 0 -0.22542312405861351 -0.19442328197901529 0 -0.24690285340742571 -0.19114610178065169 0 -0.2347890063656719 -0.17857756518932411 0 -0.24488486066899559 -0.20652901969351281 0 -0.24146418111165299 -0.22013200428108479 0 -0.25976906760045032 -0.2200800725267324 0 -0.24488486066899559 -0.20652901969351281 0 -0.23106921809509659 -0.20895188134742851 0 -0.24146418111165299 -0.22013200428108479 0 -0.21695809538060579 -0.21477653761744431 0 -0.22542312405861351 -0.19442328197901529 0 -0.23106921809509659 -0.20895188134742851 0 -0.22542312405861351 -0.19442328197901529 0 -0.24488486066899559 -0.20652901969351281 0 -0.23106921809509659 -0.20895188134742851 0 -0.21695809538060579 -0.21477653761744431 0 -0.23106921809509659 -0.20895188134742851 0 -0.24146418111165299 -0.22013200428108479 0 -0.21695809538060579 -0.21477653761744431 0 -0.24146418111165299 -0.22013200428108479 0 -0.20961605931669999 -0.23626542181495899 0 -0.21695809538060579 -0.21477653761744431 0 -0.23266645809472469 -0.23710539237819531 0 -0.21695809538060579 -0.21477653761744431 0 -0.23266645809472469 -0.23710539237819531 0 -0.21695809538060579 -0.21477653761744431 0 -0.24146418111165299 -0.22013200428108479 0 -0.23266645809472469 -0.23710539237819531 0 -0.24146418111165299 -0.22013200428108479 0 -0.24972092479861499 -0.23772686752666619 0 -0.23266645809472469 -0.23710539237819531 0 -0.24972092479861499 -0.23772686752666619 0 -0.23266645809472469 -0.23710539237819531 0 -0.2465658025307402 -0.25686279477778151 0 -0.23266645809472469 -0.23710539237819531 0 -0.2465658025307402 -0.25686279477778151 0 -0.24972092479861499 -0.23772686752666619 0 -0.23266645809472469 -0.23710539237819531 0 -0.23190529603631399 -0.25240867011539941 0 -0.2465658025307402 -0.25686279477778151 0 -0.23266645809472469 -0.23710539237819531 0 -0.20961605931669999 -0.23626542181495899 0 -0.23266645809472469 -0.23710539237819531 0 -0.21760187781827181 -0.25419728823726118 0 -0.20961605931669999 -0.23626542181495899 0 -0.23266645809472469 -0.23710539237819531 0 -0.23190529603631399 -0.25240867011539941 0 -0.21760187781827181 -0.25419728823726118 0 -0.23266645809472469 -0.23710539237819531 0 -0.20080672486872531 -0.15104861692353469 0 -0.22691293841788471 -0.151157674909146 0 -0.2110657637472389 -0.12486211325586 0 -0.20080672486872531 -0.15104861692353469 0 -0.2110657637472389 -0.12486211325586 0 -0.1870717923548505 -0.14068511841761089 0 -0.20080672486872531 -0.15104861692353469 0 -0.2110657637472389 -0.12486211325586 0 -0.1870717923548505 -0.14068511841761089 0 -0.2110657637472389 -0.12486211325586 0 -0.1810884072397127 -0.12393129142106039 0 -0.1870717923548505 -0.14068511841761089 0 -0.20080672486872531 -0.15104861692353469 0 -0.18796177158060251 -0.15538856431494391 0 -0.20080672486872531 -0.15104861692353469 0 -0.18796177158060251 -0.15538856431494391 0 -0.19054768599021379 -0.17723512059121019 0 -0.20080672486872531 -0.15104861692353469 0 -0.19054768599021379 -0.17723512059121019 0 -0.20080672486872531 -0.15104861692353469 0 -0.19054768599021379 -0.17723512059121019 0 -0.2059815282801444 -0.17997816972994871 0 -0.2037528906854105 -0.19600582910432671 0 -0.19054768599021379 -0.17723512059121019 0 -0.2037528906854105 -0.19600582910432671 0 -0.19054768599021379 -0.17723512059121019 0 -0.2059815282801444 -0.17997816972994871 0 -0.18481527372426049 -0.19186727440255161 0 -0.19054768599021379 -0.17723512059121019 0 -0.22542312405861351 -0.19442328197901529 0 -0.2059815282801444 -0.17997816972994871 0 -0.2184069609820849 -0.17108013250285289 0 -0.20080672486872531 -0.15104861692353469 0 -0.2059815282801444 -0.17997816972994871 0 -0.2184069609820849 -0.17108013250285289 0 -0.20080672486872531 -0.15104861692353469 0 -0.2184069609820849 -0.17108013250285289 0 -0.22691293841788471 -0.151157674909146 0 -0.2184069609820849 -0.17108013250285289 0 -0.2347890063656719 -0.17857756518932411 0 -0.22691293841788471 -0.151157674909146 0 -0.22542312405861351 -0.19442328197901529 0 -0.2184069609820849 -0.17108013250285289 0 -0.2347890063656719 -0.17857756518932411 0 -0.24690285340742571 -0.19114610178065169 0 -0.2347890063656719 -0.17857756518932411 0 -0.25034570606257017 -0.1645063498948689 0 -0.2347890063656719 -0.17857756518932411 0 -0.22691293841788471 -0.151157674909146 0 -0.25034570606257017 -0.1645063498948689 0 -0.22691293841788471 -0.151157674909146 0 -0.24230833289442899 -0.14031226057926799 0 -0.25034570606257017 -0.1645063498948689 0 -0.22691293841788471 -0.151157674909146 0 -0.2293446891521094 -0.13050141208862501 0 -0.24230833289442899 -0.14031226057926799 0 -0.22691293841788471 -0.151157674909146 0 -0.2293446891521094 -0.13050141208862501 0 -0.2110657637472389 -0.12486211325586 0 -0.24230833289442899 -0.14031226057926799 0 -0.24120545458686549 -0.1198803092441708 0 -0.26108610654798831 -0.14108500890015169 0 -0.2293446891521094 -0.13050141208862501 0 -0.24230833289442899 -0.14031226057926799 0 -0.24120545458686549 -0.1198803092441708 0 -0.24120545458686549 -0.1198803092441708 0 -0.2376370895948571 -0.094167140444009589 0 -0.25193648993446072 -0.099598643599438333 0 -0.24120545458686549 -0.1198803092441708 0 -0.2376370895948571 -0.094167140444009589 0 -0.22132480262574891 -0.098675609588184193 0 -0.24120545458686549 -0.1198803092441708 0 -0.22132480262574891 -0.098675609588184193 0 -0.22132480262574891 -0.098675609588184193 0 -0.21707452693307361 -0.094142266330916546 0 -0.2293446891521094 -0.13050141208862501 0 -0.24120545458686549 -0.1198803092441708 0 -0.22495006219835079 -0.1151987052604827 0 -0.24120545458686549 -0.1198803092441708 0 -0.22132480262574891 -0.098675609588184193 0 -0.22495006219835079 -0.1151987052604827 0 -0.2293446891521094 -0.13050141208862501 0 -0.22495006219835079 -0.1151987052604827 0 -0.2110657637472389 -0.12486211325586 0 -0.22132480262574891 -0.098675609588184193 0 -0.22495006219835079 -0.1151987052604827 0 -0.2110657637472389 -0.12486211325586 0 -0.2432588454446484 -0.067497412278163804 0 -0.2484305854943871 -0.079405895553652295 0 -0.22924327482245299 -0.078463472400991413 0 -0.2432588454446484 -0.067497412278163804 0 -0.22924327482245299 -0.078463472400991413 0 -0.23716174701915349 -0.05825133521379721 0 -0.2432588454446484 -0.067497412278163804 0 -0.2484305854943871 -0.079405895553652295 0 -0.25363952863718459 -0.06394660783385081 0 -0.2376370895948571 -0.094167140444009589 0 -0.2484305854943871 -0.079405895553652295 0 -0.22924327482245299 -0.078463472400991413 0 -0.2376370895948571 -0.094167140444009589 0 -0.2484305854943871 -0.079405895553652295 0 -0.25193648993446072 -0.099598643599438333 0 -0.2376370895948571 -0.094167140444009589 0 -0.22132480262574891 -0.098675609588184193 0 -0.22924327482245299 -0.078463472400991413 0 -0.22132480262574891 -0.098675609588184193 0 -0.22924327482245299 -0.078463472400991413 0 -0.21707452693307361 -0.094142266330916546 0 -0.22924327482245299 -0.078463472400991413 0 -0.21207877263060751 -0.078733367460180753 0 -0.21707452693307361 -0.094142266330916546 0 -0.22132480262574891 -0.098675609588184193 0 -0.22924327482245299 -0.078463472400991413 0 -0.22924327482245299 -0.078463472400991413 0 -0.2220945692109661 -0.063148207013667162 0 -0.21207877263060751 -0.078733367460180753 0 -0.22924327482245299 -0.078463472400991413 0 -0.23716174701915349 -0.05825133521379721 0 -0.22924327482245299 -0.078463472400991413 0 -0.2220945692109661 -0.063148207013667162 0 -0.23716174701915349 -0.05825133521379721 0 -0.2085925474580842 -0.062765947808683248 0 -0.21207877263060751 -0.078733367460180753 0 -0.1928127462815285 -0.080157351421010575 0 -0.2220945692109661 -0.063148207013667162 0 -0.2085925474580842 -0.062765947808683248 0 -0.21207877263060751 -0.078733367460180753 0 -0.21207877263060751 -0.078733367460180753 0 -0.20506338709678651 -0.092538617591083533 0 -0.1928127462815285 -0.080157351421010575 0 -0.21207877263060751 -0.078733367460180753 0 -0.20506338709678651 -0.092538617591083533 0 -0.21707452693307361 -0.094142266330916546 0 -0.20506338709678651 -0.092538617591083533 0 -0.1928127462815285 -0.080157351421010575 0 -0.19428952903084501 -0.1056331262735437 0 -0.2085925474580842 -0.062765947808683248 0 -0.1928127462815285 -0.080157351421010575 0 -0.19314361637026689 -0.055435455617275108 0 -0.1928127462815285 -0.080157351421010575 0 -0.19314361637026689 -0.055435455617275108 0 -0.22132480262574891 -0.098675609588184193 0 -0.2110657637472389 -0.12486211325586 0 -0.2110657637472389 -0.12486211325586 0 -0.20906136060787819 -0.10402697646976609 0 -0.19428952903084501 -0.1056331262735437 0 -0.22132480262574891 -0.098675609588184193 0 -0.2110657637472389 -0.12486211325586 0 -0.20906136060787819 -0.10402697646976609 0 -0.22132480262574891 -0.098675609588184193 0 -0.21707452693307361 -0.094142266330916546 0 -0.20906136060787819 -0.10402697646976609 0 -0.20506338709678651 -0.092538617591083533 0 -0.21707452693307361 -0.094142266330916546 0 -0.20906136060787819 -0.10402697646976609 0 -0.1928127462815285 -0.080157351421010575 0 -0.19428952903084501 -0.1056331262735437 0 -0.17613211032367529 -0.1090851457895753 0 -0.20506338709678651 -0.092538617591083533 0 -0.20906136060787819 -0.10402697646976609 0 -0.19428952903084501 -0.1056331262735437 0 -0.2110657637472389 -0.12486211325586 0 -0.19428952903084501 -0.1056331262735437 0 -0.1810884072397127 -0.12393129142106039 0 -0.19428952903084501 -0.1056331262735437 0 -0.1810884072397127 -0.12393129142106039 0 -0.17613211032367529 -0.1090851457895753 0 -0.1810884072397127 -0.12393129142106039 0 -0.17613211032367529 -0.1090851457895753 0 -0.1549887479566488 -0.11740182579239999 0 -0.16493459317992309 -0.094380591982610729 0 -0.17613211032367529 -0.1090851457895753 0 -0.1549887479566488 -0.11740182579239999 0 -0.1928127462815285 -0.080157351421010575 0 -0.16493459317992309 -0.094380591982610729 0 -0.17613211032367529 -0.1090851457895753 0 -0.1928127462815285 -0.080157351421010575 0 -0.16493459317992309 -0.094380591982610729 0 -0.1659614158824726 -0.067590314180919792 0 -0.1928127462815285 -0.080157351421010575 0 -0.1659614158824726 -0.067590314180919792 0 -0.19314361637026689 -0.055435455617275108 0 -0.16493459317992309 -0.094380591982610729 0 -0.1659614158824726 -0.067590314180919792 0 -0.14518632655292019 -0.08725896811098427 0 -0.16493459317992309 -0.094380591982610729 0 -0.1659614158824726 -0.067590314180919792 0 -0.14518632655292019 -0.08725896811098427 0 -0.14788465952965199 -0.064745311274849823 0 -0.132948838303063 -0.075019825605675064 0 -0.1659614158824726 -0.067590314180919792 0 -0.14518632655292019 -0.08725896811098427 0 -0.14788465952965199 -0.064745311274849823 0 -0.14788465952965199 -0.064745311274849823 0 -0.132948838303063 -0.075019825605675064 0 -0.13069577916492961 -0.05940471413077867 0 -0.1178533253688711 -0.072054272591921154 0 -0.132948838303063 -0.075019825605675064 0 -0.13069577916492961 -0.05940471413077867 0 -0.1235405153330069 -0.086060361932581597 0 -0.14518632655292019 -0.08725896811098427 0 -0.132948838303063 -0.075019825605675064 0 -0.1235405153330069 -0.086060361932581597 0 -0.14518632655292019 -0.08725896811098427 0 -0.1284090075068029 -0.10531499392795469 0 -0.13477124601368931 -0.13017769354615469 0 -0.1284090075068029 -0.10531499392795469 0 -0.1549887479566488 -0.11740182579239999 0 -0.14518632655292019 -0.08725896811098427 0 -0.1284090075068029 -0.10531499392795469 0 -0.1549887479566488 -0.11740182579239999 0 -0.16493459317992309 -0.094380591982610729 0 -0.14518632655292019 -0.08725896811098427 0 -0.1549887479566488 -0.11740182579239999 0 -0.14224593893236689 -0.028738709943654281 0 -0.14987877517658249 -0.01008769233691054 0 -0.16801506128757171 -0.01400975857753816 0 -0.1231592389501604 -0.01151041530668794 0 -0.14987877517658249 -0.01008769233691054 0 -0.1438800315568145 0.0067594329243729767 0 -0.1231592389501604 -0.01151041530668794 0 -0.1438800315568145 0.0067594329243729767 0 -0.1231592389501604 -0.01151041530668794 0 -0.14224593893236689 -0.028738709943654281 0 -0.14987877517658249 -0.01008769233691054 0 -0.11873873503008781 -0.032280082648662438 0 -0.1231592389501604 -0.01151041530668794 0 -0.14224593893236689 -0.028738709943654281 0 -0.11873873503008781 -0.032280082648662438 0 -0.14224593893236689 -0.028738709943654281 0 -0.12878194217520569 -0.044366267572887683 0 -0.14224593893236689 -0.028738709943654281 0 -0.12878194217520569 -0.044366267572887683 0 -0.1423876785027709 -0.047192857748701411 0 -0.14788465952965199 -0.064745311274849823 0 -0.13069577916492961 -0.05940471413077867 0 -0.1423876785027709 -0.047192857748701411 0 -0.12878194217520569 -0.044366267572887683 0 -0.13069577916492961 -0.05940471413077867 0 -0.1423876785027709 -0.047192857748701411 0 -0.14788465952965199 -0.064745311274849823 0 -0.1423876785027709 -0.047192857748701411 0 -0.16698823858502221 -0.040800036379228972 0 -0.14224593893236689 -0.028738709943654281 0 -0.1423876785027709 -0.047192857748701411 0 -0.16698823858502221 -0.040800036379228972 0 -0.1659614158824726 -0.067590314180919792 0 -0.16698823858502221 -0.040800036379228972 0 -0.1659614158824726 -0.067590314180919792 0 -0.14788465952965199 -0.064745311274849823 0 -0.16698823858502221 -0.040800036379228972 0 -0.1659614158824726 -0.067590314180919792 0 -0.16698823858502221 -0.040800036379228972 0 -0.19314361637026689 -0.055435455617275108 0 -0.16698823858502221 -0.040800036379228972 0 -0.1934744864590052 -0.030713559813539681 0 -0.19314361637026689 -0.055435455617275108 0 -0.16698823858502221 -0.040800036379228972 0 -0.16801506128757171 -0.01400975857753816 0 -0.1934744864590052 -0.030713559813539681 0 -0.16801506128757171 -0.01400975857753816 0 -0.19380535654774361 -0.0059916640098042553 0 -0.1934744864590052 -0.030713559813539681 0 -0.16698823858502221 -0.040800036379228972 0 -0.16801506128757171 -0.01400975857753816 0 -0.14224593893236689 -0.028738709943654281 0 -0.16698823858502221 -0.040800036379228972 0 -0.16801506128757171 -0.01400975857753816 0 -0.14987877517658249 -0.01008769233691054 0 -0.16801506128757171 -0.01400975857753816 0 -0.17107803706591429 0.0042598912221591193 0 -0.16801506128757171 -0.01400975857753816 0 -0.19380535654774361 -0.0059916640098042553 0 -0.17107803706591429 0.0042598912221591193 0 -0.19380535654774361 -0.0059916640098042553 0 -0.20828651602488199 -0.01317142839397259 0 -0.20634245682441041 0.0072878254295738404 0 -0.19380535654774361 -0.0059916640098042553 0 -0.1934744864590052 -0.030713559813539681 0 -0.19380535654774361 -0.0059916640098042553 0 -0.1934744864590052 -0.030713559813539681 0 -0.20828651602488199 -0.01317142839397259 0 -0.1934744864590052 -0.030713559813539681 0 -0.21166954635342539 -0.03098515325155099 0 -0.20828651602488199 -0.01317142839397259 0 -0.21166954635342539 -0.03098515325155099 0 -0.20828651602488199 -0.01317142839397259 0 -0.22366896075770001 -0.01833396720848016 0 -0.20828651602488199 -0.01317142839397259 0 -0.20634245682441041 0.0072878254295738404 0 -0.22160413220632469 0.00074689388804805002 0 -0.20828651602488199 -0.01317142839397259 0 -0.22366896075770001 -0.01833396720848016 0 -0.22160413220632469 0.00074689388804805002 0 -0.2085925474580842 -0.062765947808683248 0 -0.19314361637026689 -0.055435455617275108 0 -0.20334406929140569 -0.043168691219554897 0 -0.1934744864590052 -0.030713559813539681 0 -0.19314361637026689 -0.055435455617275108 0 -0.1934744864590052 -0.030713559813539681 0 -0.19314361637026689 -0.055435455617275108 0 -0.20334406929140569 -0.043168691219554897 0 -0.1934744864590052 -0.030713559813539681 0 -0.21166954635342539 -0.03098515325155099 0 -0.20334406929140569 -0.043168691219554897 0 -0.21166954635342539 -0.03098515325155099 0 -0.21631658118153971 -0.047188740802206502 0 -0.2260215160050752 -0.03370974679125413 0 -0.21166954635342539 -0.03098515325155099 0 -0.20334406929140569 -0.043168691219554897 0 -0.21631658118153971 -0.047188740802206502 0 -0.2085925474580842 -0.062765947808683248 0 -0.20334406929140569 -0.043168691219554897 0 -0.21631658118153971 -0.047188740802206502 0 -0.2220945692109661 -0.063148207013667162 0 -0.2085925474580842 -0.062765947808683248 0 -0.21631658118153971 -0.047188740802206502 0 -0.2220945692109661 -0.063148207013667162 0 -0.21631658118153971 -0.047188740802206502 0 -0.22779414312861179 -0.049726573861791787 0 -0.2220945692109661 -0.063148207013667162 0 -0.22779414312861179 -0.049726573861791787 0 -0.23716174701915349 -0.05825133521379721 0 -0.22779414312861179 -0.049726573861791787 0 -0.23769240852554649 -0.044136426162547718 0 -0.23716174701915349 -0.05825133521379721 0 -0.21631658118153971 -0.047188740802206502 0 -0.22779414312861179 -0.049726573861791787 0 -0.2260215160050752 -0.03370974679125413 0 -0.22779414312861179 -0.049726573861791787 0 -0.2260215160050752 -0.03370974679125413 0 -0.23769240852554649 -0.044136426162547718 0 -0.2260215160050752 -0.03370974679125413 0 -0.23588171078730211 -0.03441806567886925 0 -0.23769240852554649 -0.044136426162547718 0 -0.24508021921585699 -0.038039198026604167 0 -0.23769240852554649 -0.044136426162547718 0 -0.23716174701915349 -0.05825133521379721 0 -0.23588171078730211 -0.03441806567886925 0 -0.24508021921585699 -0.038039198026604167 0 -0.23886001108399749 -0.024759974780490759 0 -0.23588171078730211 -0.03441806567886925 0 -0.24508021921585699 -0.038039198026604167 0 -0.23769240852554649 -0.044136426162547718 0 -0.24508021921585699 -0.038039198026604167 0 -0.23769240852554649 -0.044136426162547718 0 -0.24508021921585699 -0.038039198026604167 0 -0.23716174701915349 -0.05825133521379721 0 -0.25080897644395789 -0.052660014619966111 0 -0.24508021921585699 -0.038039198026604167 0 -0.23716174701915349 -0.05825133521379721 0 -0.2432588454446484 -0.067497412278163804 0 -0.23716174701915349 -0.05825133521379721 0 -0.25080897644395789 -0.052660014619966111 0 -0.2432588454446484 -0.067497412278163804 0 -0.25080897644395789 -0.052660014619966111 0 -0.25363952863718459 -0.06394660783385081 0 -0.22366896075770001 -0.01833396720848016 0 -0.23808270299121401 -0.0090090400044546739 0 -0.22160413220632469 0.00074689388804805002 0 -0.22366896075770001 -0.01833396720848016 0 -0.23886001108399749 -0.024759974780490759 0 -0.23808270299121401 -0.0090090400044546739 0 -0.21166954635342539 -0.03098515325155099 0 -0.2260215160050752 -0.03370974679125413 0 -0.22366896075770001 -0.01833396720848016 0 -0.2260215160050752 -0.03370974679125413 0 -0.22366896075770001 -0.01833396720848016 0 -0.23886001108399749 -0.024759974780490759 0 -0.2260215160050752 -0.03370974679125413 0 -0.23588171078730211 -0.03441806567886925 0 -0.23886001108399749 -0.024759974780490759 0 -0.23886001108399749 -0.024759974780490759 0 -0.2443087209063855 -0.017757132543283809 0 -0.23808270299121401 -0.0090090400044546739 0 -0.24508021921585699 -0.038039198026604167 0 -0.23886001108399749 -0.024759974780490759 0 -0.25244519604058868 -0.019239874335844519 0 -0.24508021921585699 -0.038039198026604167 0 -0.25244519604058868 -0.019239874335844519 0 -0.23886001108399749 -0.024759974780490759 0 -0.2443087209063855 -0.017757132543283809 0 -0.25244519604058868 -0.019239874335844519 0 -0.2443087209063855 -0.017757132543283809 0 -0.24734477077779199 -0.01319159618746053 0 -0.25244519604058868 -0.019239874335844519 0 -0.24734477077779199 -0.01319159618746053 0 -0.23808270299121401 -0.0090090400044546739 0 -0.25441168121153462 -0.0055030345160287097 0 -0.2443087209063855 -0.017757132543283809 0 -0.24734477077779199 -0.01319159618746053 0 -0.23808270299121401 -0.0090090400044546739 0 -0.25981017286532337 -0.00044055064508607619 0 -0.25244519604058868 -0.019239874335844519 0 -0.26378572694418828 -0.009283233954968502 0 -0.25981017286532337 -0.00044055064508607619 0 -0.25244519604058868 -0.019239874335844519 0 -0.25441168121153462 -0.0055030345160287097 0 -0.25981017286532337 -0.00044055064508607619 0 -0.25244519604058868 -0.019239874335844519 0 -0.24734477077779199 -0.01319159618746053 0 -0.25441168121153462 -0.0055030345160287097 0 -0.25244519604058868 -0.019239874335844519 0 -0.26378572694418828 -0.009283233954968502 0 -0.25244519604058868 -0.019239874335844519 0 -0.26279607802109561 -0.016589022047721381 0 -0.26378572694418828 -0.009283233954968502 0 -0.26279607802109561 -0.016589022047721381 0 -0.26747911853824852 -0.019553180329694071 0 -0.26378572694418828 -0.009283233954968502 0 -0.25981017286532337 -0.00044055064508607619 0 -0.2666675497691825 -0.0025076994135350612 0 -0.24508021921585699 -0.038039198026604167 0 -0.26747911853824852 -0.019553180329694071 0 -0.24508021921585699 -0.038039198026604167 0 -0.25244519604058868 -0.019239874335844519 0 -0.26747911853824852 -0.019553180329694071 0 -0.25244519604058868 -0.019239874335844519 0 -0.26279607802109561 -0.016589022047721381 0 -0.26747911853824852 -0.019553180329694071 0 -0.26279607802109561 -0.016589022047721381 0 -0.26747911853824852 -0.019553180329694071 0 -0.26747911853824852 -0.019553180329694071 0 -0.28703578881631908 -0.003412880413627258 0 -0.28689875094370781 -0.031844951886372569 0 -0.26747911853824852 -0.019553180329694071 0 -0.28689875094370781 -0.031844951886372569 0 -0.26747911853824852 -0.019553180329694071 0 -0.28689875094370781 -0.031844951886372569 0 -0.26398143241926258 -0.038128162619657881 0 -0.26747911853824852 -0.019553180329694071 0 -0.27186991247003262 -0.0058280833914001904 0 -0.28703578881631908 -0.003412880413627258 0 -0.26747911853824852 -0.019553180329694071 0 -0.28703578881631908 -0.003412880413627258 0 -0.27186991247003262 -0.0058280833914001904 0 -0.28703578881631908 -0.003412880413627258 0 -0.27120438679718573 0.0055210703373145239 0 -0.2666675497691825 -0.0025076994135350612 0 -0.27186991247003262 -0.0058280833914001904 0 -0.27120438679718573 0.0055210703373145239 0 -0.26378572694418828 -0.009283233954968502 0 -0.2666675497691825 -0.0025076994135350612 0 -0.27186991247003262 -0.0058280833914001904 0 -0.26378572694418828 -0.009283233954968502 0 -0.26747911853824852 -0.019553180329694071 0 -0.27186991247003262 -0.0058280833914001904 0 -0.28703578881631908 -0.003412880413627258 0 -0.30645542122178099 -0.01570465197030595 0 -0.28689875094370781 -0.031844951886372569 0 -0.30645542122178099 -0.01570465197030595 0 -0.30631838334916778 -0.044136723443049822 0 -0.28689875094370781 -0.031844951886372569 0 -0.30645542122178099 -0.01570465197030595 0 -0.30631838334916778 -0.044136723443049822 0 -0.30645542122178099 -0.01570465197030595 0 -0.30631838334916778 -0.044136723443049822 0 -0.31804617626715442 -0.030561539136578039 0 -0.28703578881631908 -0.003412880413627258 0 -0.30645542122178099 -0.01570465197030595 0 -0.3065924590943912 0.012727419502438031 0 -0.30645542122178099 -0.01570465197030595 0 -0.3065924590943912 0.012727419502438031 0 -0.30645542122178099 -0.01570465197030595 0 -0.31971975053049612 -0.0021254955264083651 0 -0.3065924590943912 0.012727419502438031 0 -0.30629308041806058 -0.049386474713038149 0 -0.29351482987642907 -0.047643891491361889 0 -0.2921903732703689 -0.065155403057705369 0 -0.30629308041806058 -0.049386474713038149 0 -0.31231731493832149 -0.047933782786837048 0 -0.2921903732703689 -0.065155403057705369 0 -0.31231731493832149 -0.047933782786837048 0 -0.2921903732703689 -0.065155403057705369 0 -0.31231731493832149 -0.047933782786837048 0 -0.2921903732703689 -0.065155403057705369 0 -0.30616662534674732 -0.065800945888034867 0 -0.31231731493832149 -0.047933782786837048 0 -0.30616662534674732 -0.065800945888034867 0 -0.31467316045338201 -0.058405429219157048 0 -0.30629308041806058 -0.049386474713038149 0 -0.30631838334916778 -0.044136723443049822 0 -0.29351482987642907 -0.047643891491361889 0 -0.30629308041806058 -0.049386474713038149 0 -0.31231731493832149 -0.047933782786837048 0 -0.30631838334916778 -0.044136723443049822 0 -0.31231731493832149 -0.047933782786837048 0 -0.30631838334916778 -0.044136723443049822 0 -0.30629308041806058 -0.049386474713038149 0 -0.30631838334916778 -0.044136723443049822 0 -0.30631838334916778 -0.044136723443049822 0 -0.28689875094370781 -0.031844951886372569 0 -0.29351482987642907 -0.047643891491361889 0 -0.28689875094370781 -0.031844951886372569 0 -0.29351482987642907 -0.047643891491361889 0 -0.27587356140084152 -0.047695904356642477 0 -0.30631838334916778 -0.044136723443049822 0 -0.28689875094370781 -0.031844951886372569 0 -0.29351482987642907 -0.047643891491361889 0 -0.27587356140084152 -0.047695904356642477 0 -0.2921903732703689 -0.065155403057705369 0 -0.27587356140084152 -0.047695904356642477 0 -0.27354839896047051 -0.064940134352331425 0 -0.2921903732703689 -0.065155403057705369 0 -0.27587356140084152 -0.047695904356642477 0 -0.26371319383131298 -0.058099817115911917 0 -0.27354839896047051 -0.064940134352331425 0 -0.27587356140084152 -0.047695904356642477 0 -0.26371319383131298 -0.058099817115911917 0 -0.2619930558760265 -0.04813637988971501 0 -0.28689875094370781 -0.031844951886372569 0 -0.27587356140084152 -0.047695904356642477 0 -0.26398143241926258 -0.038128162619657881 0 -0.27587356140084152 -0.047695904356642477 0 -0.26398143241926258 -0.038128162619657881 0 -0.2619930558760265 -0.04813637988971501 0 -0.24508021921585699 -0.038039198026604167 0 -0.26398143241926258 -0.038128162619657881 0 -0.2555881152847575 -0.044098000736396657 0 -0.24508021921585699 -0.038039198026604167 0 -0.26747911853824852 -0.019553180329694071 0 -0.26398143241926258 -0.038128162619657881 0 -0.26398143241926258 -0.038128162619657881 0 -0.2555881152847575 -0.044098000736396657 0 -0.2619930558760265 -0.04813637988971501 0 -0.24508021921585699 -0.038039198026604167 0 -0.2555881152847575 -0.044098000736396657 0 -0.25080897644395789 -0.052660014619966111 0 -0.26371319383131298 -0.058099817115911917 0 -0.2619930558760265 -0.04813637988971501 0 -0.25080897644395789 -0.052660014619966111 0 -0.2555881152847575 -0.044098000736396657 0 -0.2619930558760265 -0.04813637988971501 0 -0.25080897644395789 -0.052660014619966111 0 -0.26371319383131298 -0.058099817115911917 0 -0.25080897644395789 -0.052660014619966111 0 -0.25363952863718459 -0.06394660783385081 0 -0.26371319383131298 -0.058099817115911917 0 -0.25363952863718459 -0.06394660783385081 0 -0.26291017348085038 -0.071633189682447029 0 -0.2484305854943871 -0.079405895553652295 0 -0.25363952863718459 -0.06394660783385081 0 -0.26291017348085038 -0.071633189682447029 0 -0.2484305854943871 -0.079405895553652295 0 -0.26291017348085038 -0.071633189682447029 0 -0.25883517012802831 -0.083253688041027382 0 -0.25883517012802831 -0.083253688041027382 0 -0.27206343160241492 -0.082377023328571844 0 -0.25193648993446072 -0.099598643599438333 0 -0.27206343160241492 -0.082377023328571844 0 -0.25193648993446072 -0.099598643599438333 0 -0.27206343160241492 -0.082377023328571844 0 -0.25193648993446072 -0.099598643599438333 0 -0.27150077371924658 -0.096708781624809642 0 -0.2484305854943871 -0.079405895553652295 0 -0.25883517012802831 -0.083253688041027382 0 -0.25193648993446072 -0.099598643599438333 0 -0.26291017348085038 -0.071633189682447029 0 -0.25883517012802831 -0.083253688041027382 0 -0.27206343160241492 -0.082377023328571844 0 -0.27206343160241492 -0.082377023328571844 0 -0.27150077371924658 -0.096708781624809642 0 -0.28553460083174359 -0.087770747276047417 0 -0.27206343160241492 -0.082377023328571844 0 -0.27354839896047051 -0.064940134352331425 0 -0.2921903732703689 -0.065155403057705369 0 -0.26291017348085038 -0.071633189682447029 0 -0.27206343160241492 -0.082377023328571844 0 -0.27354839896047051 -0.064940134352331425 0 -0.26371319383131298 -0.058099817115911917 0 -0.26291017348085038 -0.071633189682447029 0 -0.27354839896047051 -0.064940134352331425 0 -0.25798412026367251 -0.12241725880595949 0 -0.25193648993446072 -0.099598643599438333 0 -0.27331035368986589 -0.11442787808809959 0 -0.24120545458686549 -0.1198803092441708 0 -0.25798412026367251 -0.12241725880595949 0 -0.25193648993446072 -0.099598643599438333 0 -0.25193648993446072 -0.099598643599438333 0 -0.27150077371924658 -0.096708781624809642 0 -0.27331035368986589 -0.11442787808809959 0 -0.27150077371924658 -0.096708781624809642 0 -0.27331035368986589 -0.11442787808809959 0 -0.28553460083174359 -0.087770747276047417 0 -0.27331035368986589 -0.11442787808809959 0 -0.28553460083174359 -0.087770747276047417 0 -0.27331035368986589 -0.11442787808809959 0 -0.29221965676820377 -0.1172450308521977 0 -0.27611002899866521 -0.1325652314475276 0 -0.29221965676820377 -0.1172450308521977 0 -0.28553460083174359 -0.087770747276047417 0 -0.29839100848084849 -0.088982994978551416 0 -0.27331035368986589 -0.11442787808809959 0 -0.29221965676820377 -0.1172450308521977 0 -0.28553460083174359 -0.087770747276047417 0 -0.29221965676820377 -0.1172450308521977 0 -0.29839100848084849 -0.088982994978551416 0 -0.29221965676820377 -0.1172450308521977 0 -0.3052891971444649 -0.10324157867763641 0 -0.29839100848084849 -0.088982994978551416 0 -0.3052891971444649 -0.10324157867763641 0 -0.29839100848084849 -0.088982994978551416 0 -0.31281814087075688 -0.091491528954712145 0 -0.3052891971444649 -0.10324157867763641 0 -0.31281814087075688 -0.091491528954712145 0 -0.31584104005981672 -0.10524894747937789 0 -0.3052891971444649 -0.10324157867763641 0 -0.30674849238194302 -0.11572464272079371 0 -0.31584104005981672 -0.10524894747937789 0 -0.29221965676820377 -0.1172450308521977 0 -0.3052891971444649 -0.10324157867763641 0 -0.30674849238194302 -0.11572464272079371 0 -0.30674849238194302 -0.11572464272079371 0 -0.3159283016389291 -0.1216907249220384 0 -0.30446426629830042 -0.13119693167271801 0 -0.29221965676820377 -0.1172450308521977 0 -0.30674849238194302 -0.11572464272079371 0 -0.30446426629830042 -0.13119693167271801 0 -0.27206343160241492 -0.082377023328571844 0 -0.29393343203305522 -0.077992859091244066 0 -0.2921903732703689 -0.065155403057705369 0 -0.27206343160241492 -0.082377023328571844 0 -0.2921903732703689 -0.065155403057705369 0 -0.27206343160241492 -0.082377023328571844 0 -0.29393343203305522 -0.077992859091244066 0 -0.28553460083174359 -0.087770747276047417 0 -0.29393343203305522 -0.077992859091244066 0 -0.28553460083174359 -0.087770747276047417 0 -0.29839100848084849 -0.088982994978551416 0 -0.29393343203305522 -0.077992859091244066 0 -0.29839100848084849 -0.088982994978551416 0 -0.30925455266620872 -0.077870040018553605 0 -0.29839100848084849 -0.088982994978551416 0 -0.30925455266620872 -0.077870040018553605 0 -0.31281814087075688 -0.091491528954712145 0 -0.30925455266620872 -0.077870040018553605 0 -0.30616662534674732 -0.065800945888034867 0 -0.31559222210517762 -0.067768463631306924 0 -0.29393343203305522 -0.077992859091244066 0 -0.30925455266620872 -0.077870040018553605 0 -0.30616662534674732 -0.065800945888034867 0 -0.29393343203305522 -0.077992859091244066 0 -0.2921903732703689 -0.065155403057705369 0 -0.30616662534674732 -0.065800945888034867 0 -0.30616662534674732 -0.065800945888034867 0 -0.31559222210517762 -0.067768463631306924 0 -0.31467316045338201 -0.058405429219157048 0 -0.31559222210517762 -0.067768463631306924 0 -0.32184991022948661 -0.074324908462055111 0 -0.32884389640913791 -0.065228794800649678 0 -0.31559222210517762 -0.067768463631306924 0 -0.32884389640913791 -0.065228794800649678 0 -0.32540937328811509 -0.056220478800563328 0 -0.32184991022948661 -0.074324908462055111 0 -0.32884389640913791 -0.065228794800649678 0 -0.32983274346827091 -0.072958835709205416 0 -0.32184991022948661 -0.074324908462055111 0 -0.32907556437074981 -0.081432452259101867 0 -0.32983274346827091 -0.072958835709205416 0 -0.30925455266620872 -0.077870040018553605 0 -0.31559222210517762 -0.067768463631306924 0 -0.32184991022948661 -0.074324908462055111 0 -0.30925455266620872 -0.077870040018553605 0 -0.31914364905788201 -0.082753450336804313 0 -0.31281814087075688 -0.091491528954712145 0 -0.30925455266620872 -0.077870040018553605 0 -0.32184991022948661 -0.074324908462055111 0 -0.31914364905788201 -0.082753450336804313 0 -0.31281814087075688 -0.091491528954712145 0 -0.32367565632453532 -0.088131632682522984 0 -0.32279432574342298 -0.095316196245454871 0 -0.31914364905788201 -0.082753450336804313 0 -0.31281814087075688 -0.091491528954712145 0 -0.32367565632453532 -0.088131632682522984 0 -0.32367565632453532 -0.088131632682522984 0 -0.32907556437074981 -0.081432452259101867 0 -0.33002404568591698 -0.089642673318594379 0 -0.32367565632453532 -0.088131632682522984 0 -0.33002404568591698 -0.089642673318594379 0 -0.32279432574342298 -0.095316196245454871 0 -0.32184991022948661 -0.074324908462055111 0 -0.31914364905788201 -0.082753450336804313 0 -0.32907556437074981 -0.081432452259101867 0 -0.31914364905788201 -0.082753450336804313 0 -0.32367565632453532 -0.088131632682522984 0 -0.32907556437074981 -0.081432452259101867 0 -0.32907556437074981 -0.081432452259101867 0 -0.3341336932287946 -0.085244122692767391 0 -0.33421925369939731 -0.077291453949887193 0 -0.32907556437074981 -0.081432452259101867 0 -0.3341336932287946 -0.085244122692767391 0 -0.33002404568591698 -0.089642673318594379 0 -0.3341336932287946 -0.085244122692767391 0 -0.33844635499434589 -0.08146662172807799 0 -0.33421925369939731 -0.077291453949887193 0 -0.3341336932287946 -0.085244122692767391 0 -0.33002404568591698 -0.089642673318594379 0 -0.33807571040868017 -0.089871535003478054 0 -0.33002404568591698 -0.089642673318594379 0 -0.33807571040868017 -0.089871535003478054 0 -0.33229991101685469 -0.096802590111988995 0 -0.33807571040868017 -0.089871535003478054 0 -0.33844635499434589 -0.08146662172807799 0 -0.34573533060402162 -0.0877556827461137 0 -0.33807571040868017 -0.089871535003478054 0 -0.34041702851705558 -0.097750864942513643 0 -0.34573533060402162 -0.0877556827461137 0 -0.33844635499434589 -0.08146662172807799 0 -0.34406339974472611 -0.078015373287406112 0 -0.34573533060402162 -0.0877556827461137 0 -0.3341336932287946 -0.085244122692767391 0 -0.33807571040868017 -0.089871535003478054 0 -0.33844635499434589 -0.08146662172807799 0 -0.33831397473837049 -0.072986378927684739 0 -0.34653623407200912 -0.068926481142391804 0 -0.34406339974472611 -0.078015373287406112 0 -0.33844635499434589 -0.08146662172807799 0 -0.33831397473837049 -0.072986378927684739 0 -0.34406339974472611 -0.078015373287406112 0 -0.33844635499434589 -0.08146662172807799 0 -0.33831397473837049 -0.072986378927684739 0 -0.33421925369939731 -0.077291453949887193 0 -0.33831397473837049 -0.072986378927684739 0 -0.33850143163790852 -0.064507174814290261 0 -0.33387301156342192 -0.06892029606295752 0 -0.33831397473837049 -0.072986378927684739 0 -0.33850143163790852 -0.064507174814290261 0 -0.34653623407200912 -0.068926481142391804 0 -0.33850143163790852 -0.064507174814290261 0 -0.34653623407200912 -0.068926481142391804 0 -0.33798991550188029 -0.058608601720207029 0 -0.33850143163790852 -0.064507174814290261 0 -0.33387301156342192 -0.06892029606295752 0 -0.32884389640913791 -0.065228794800649678 0 -0.33387301156342192 -0.06892029606295752 0 -0.32884389640913791 -0.065228794800649678 0 -0.32983274346827091 -0.072958835709205416 0 -0.33831397473837049 -0.072986378927684739 0 -0.33387301156342192 -0.06892029606295752 0 -0.32983274346827091 -0.072958835709205416 0 -0.32907556437074981 -0.081432452259101867 0 -0.32983274346827091 -0.072958835709205416 0 -0.33421925369939731 -0.077291453949887193 0 -0.33831397473837049 -0.072986378927684739 0 -0.32983274346827091 -0.072958835709205416 0 -0.33421925369939731 -0.077291453949887193 0 -0.3159283016389291 -0.1216907249220384 0 -0.32407730379827032 -0.11179281701477389 0 -0.31584104005981672 -0.10524894747937789 0 -0.30674849238194302 -0.11572464272079371 0 -0.3159283016389291 -0.1216907249220384 0 -0.31584104005981672 -0.10524894747937789 0 -0.3159283016389291 -0.1216907249220384 0 -0.32407730379827032 -0.11179281701477389 0 -0.32789187853475033 -0.12517599283146261 0 -0.32407730379827032 -0.11179281701477389 0 -0.32565234529092391 -0.10260908589125289 0 -0.33450082633134781 -0.1051227051789312 0 -0.32407730379827032 -0.11179281701477389 0 -0.32565234529092391 -0.10260908589125289 0 -0.31584104005981672 -0.10524894747937789 0 -0.31281814087075688 -0.091491528954712145 0 -0.31584104005981672 -0.10524894747937789 0 -0.32279432574342298 -0.095316196245454871 0 -0.32565234529092391 -0.10260908589125289 0 -0.31584104005981672 -0.10524894747937789 0 -0.32279432574342298 -0.095316196245454871 0 -0.32565234529092391 -0.10260908589125289 0 -0.32279432574342298 -0.095316196245454871 0 -0.33229991101685469 -0.096802590111988995 0 -0.33229991101685469 -0.096802590111988995 0 -0.34041702851705558 -0.097750864942513643 0 -0.33450082633134781 -0.1051227051789312 0 -0.33002404568591698 -0.089642673318594379 0 -0.32279432574342298 -0.095316196245454871 0 -0.33229991101685469 -0.096802590111988995 0 -0.32565234529092391 -0.10260908589125289 0 -0.33229991101685469 -0.096802590111988995 0 -0.33450082633134781 -0.1051227051789312 0 -0.33807571040868017 -0.089871535003478054 0 -0.33229991101685469 -0.096802590111988995 0 -0.34041702851705558 -0.097750864942513643 0 -0.34355922343604778 -0.1055338759529319 0 -0.33450082633134781 -0.1051227051789312 0 -0.33938352776868602 -0.1112412916663591 0 -0.34041702851705558 -0.097750864942513643 0 -0.34355922343604778 -0.1055338759529319 0 -0.33450082633134781 -0.1051227051789312 0 -0.33450082633134781 -0.1051227051789312 0 -0.33325724742595247 -0.11672225342188371 0 -0.33938352776868602 -0.1112412916663591 0 -0.32407730379827032 -0.11179281701477389 0 -0.33450082633134781 -0.1051227051789312 0 -0.33325724742595247 -0.11672225342188371 0 -0.34355922343604778 -0.1055338759529319 0 -0.33938352776868602 -0.1112412916663591 0 -0.3465796325978116 -0.1144286749914139 0 -0.33938352776868602 -0.1112412916663591 0 -0.33994675536383301 -0.1172613009145685 0 -0.3465796325978116 -0.1144286749914139 0 -0.33325724742595247 -0.11672225342188371 0 -0.33938352776868602 -0.1112412916663591 0 -0.33994675536383301 -0.1172613009145685 0 -0.33994675536383301 -0.1172613009145685 0 -0.34479448550022002 -0.1208191069976705 0 -0.33821175220128991 -0.12550938859712391 0 -0.33325724742595247 -0.11672225342188371 0 -0.33994675536383301 -0.1172613009145685 0 -0.33821175220128991 -0.12550938859712391 0 -0.33994675536383301 -0.1172613009145685 0 -0.34479448550022002 -0.1208191069976705 0 -0.3465796325978116 -0.1144286749914139 0 -0.32407730379827032 -0.11179281701477389 0 -0.33325724742595247 -0.11672225342188371 0 -0.32789187853475033 -0.12517599283146261 0 -0.33325724742595247 -0.11672225342188371 0 -0.32789187853475033 -0.12517599283146261 0 -0.33821175220128991 -0.12550938859712391 0 -0.35246234538210403 -0.1209314122971045 0 -0.36297150057078942 -0.119081661751962 0 -0.35532129350639252 -0.12816021333450289 0 -0.35246234538210403 -0.1209314122971045 0 -0.35873181503775342 -0.1167181448663437 0 -0.36297150057078942 -0.119081661751962 0 -0.35246234538210403 -0.1209314122971045 0 -0.35407052706073411 -0.114850448609261 0 -0.35873181503775342 -0.1167181448663437 0 -0.35246234538210403 -0.1209314122971045 0 -0.34479448550022002 -0.1208191069976705 0 -0.34844653193434721 -0.12616497426618681 0 -0.34479448550022002 -0.1208191069976705 0 -0.33821175220128991 -0.12550938859712391 0 -0.34844653193434721 -0.12616497426618681 0 -0.35246234538210403 -0.1209314122971045 0 -0.34479448550022002 -0.1208191069976705 0 -0.3465796325978116 -0.1144286749914139 0 -0.35246234538210403 -0.1209314122971045 0 -0.3465796325978116 -0.1144286749914139 0 -0.35407052706073411 -0.114850448609261 0 -0.34355922343604778 -0.1055338759529319 0 -0.3465796325978116 -0.1144286749914139 0 -0.35177231275116522 -0.1100367508535306 0 -0.3465796325978116 -0.1144286749914139 0 -0.35177231275116522 -0.1100367508535306 0 -0.35407052706073411 -0.114850448609261 0 -0.35177231275116522 -0.1100367508535306 0 -0.35407052706073411 -0.114850448609261 0 -0.35963133240988909 -0.11047826344863319 0 -0.35407052706073411 -0.114850448609261 0 -0.35873181503775342 -0.1167181448663437 0 -0.35963133240988909 -0.11047826344863319 0 -0.35177231275116522 -0.1100367508535306 0 -0.35590272788390942 -0.103568476931198 0 -0.34918503619042263 -0.099116691214769737 0 -0.35177231275116522 -0.1100367508535306 0 -0.35590272788390942 -0.103568476931198 0 -0.35963133240988909 -0.11047826344863319 0 -0.34355922343604778 -0.1055338759529319 0 -0.35177231275116522 -0.1100367508535306 0 -0.34918503619042263 -0.099116691214769737 0 -0.34041702851705558 -0.097750864942513643 0 -0.34355922343604778 -0.1055338759529319 0 -0.34918503619042263 -0.099116691214769737 0 -0.34041702851705558 -0.097750864942513643 0 -0.34918503619042263 -0.099116691214769737 0 -0.34573533060402162 -0.0877556827461137 0 -0.35590272788390942 -0.103568476931198 0 -0.34918503619042263 -0.099116691214769737 0 -0.35835784968114343 -0.090912322987177163 0 -0.35590272788390942 -0.103568476931198 0 -0.36412292434324489 -0.1027532138252909 0 -0.35835784968114343 -0.090912322987177163 0 -0.36749378418407402 -0.095654579989698063 0 -0.36412292434324489 -0.1027532138252909 0 -0.35835784968114343 -0.090912322987177163 0 -0.36749378418407402 -0.095654579989698063 0 -0.3745432890728071 -0.1018370531428367 0 -0.37244036742442982 -0.088743793888634237 0 -0.36749378418407402 -0.095654579989698063 0 -0.3745432890728071 -0.1018370531428367 0 -0.36412292434324489 -0.1027532138252909 0 -0.3745432890728071 -0.1018370531428367 0 -0.36412292434324489 -0.1027532138252909 0 -0.3694761487854803 -0.1133550625183109 0 -0.35590272788390942 -0.103568476931198 0 -0.36412292434324489 -0.1027532138252909 0 -0.35963133240988909 -0.11047826344863319 0 -0.36412292434324489 -0.1027532138252909 0 -0.35963133240988909 -0.11047826344863319 0 -0.3694761487854803 -0.1133550625183109 0 -0.35532129350639252 -0.12816021333450289 0 -0.37886590014221699 -0.11624347574354781 0 -0.36297150057078942 -0.119081661751962 0 -0.35532129350639252 -0.12816021333450289 0 -0.37886590014221699 -0.11624347574354781 0 -0.3694761487854803 -0.1133550625183109 0 -0.36297150057078942 -0.119081661751962 0 -0.37886590014221699 -0.11624347574354781 0 -0.35873181503775342 -0.1167181448663437 0 -0.35963133240988909 -0.11047826344863319 0 -0.3694761487854803 -0.1133550625183109 0 -0.35873181503775342 -0.1167181448663437 0 -0.3694761487854803 -0.1133550625183109 0 -0.36297150057078942 -0.119081661751962 0 -0.3694761487854803 -0.1133550625183109 0 -0.37886590014221699 -0.11624347574354781 0 -0.3745432890728071 -0.1018370531428367 0 -0.3694761487854803 -0.1133550625183109 0 -0.37886590014221699 -0.11624347574354781 0 -0.34653623407200912 -0.068926481142391804 0 -0.36191641936126451 -0.06997337219146349 0 -0.33798991550188029 -0.058608601720207029 0 -0.36191641936126451 -0.06997337219146349 0 -0.33798991550188029 -0.058608601720207029 0 -0.34653623407200912 -0.068926481142391804 0 -0.35128510431488302 -0.078941701892762339 0 -0.36191641936126451 -0.06997337219146349 0 -0.34653623407200912 -0.068926481142391804 0 -0.34406339974472611 -0.078015373287406112 0 -0.35128510431488302 -0.078941701892762339 0 -0.35128510431488302 -0.078941701892762339 0 -0.35835784968114343 -0.090912322987177163 0 -0.36191641936126451 -0.06997337219146349 0 -0.34406339974472611 -0.078015373287406112 0 -0.35128510431488302 -0.078941701892762339 0 -0.34573533060402162 -0.0877556827461137 0 -0.34918503619042263 -0.099116691214769737 0 -0.34573533060402162 -0.0877556827461137 0 -0.35835784968114343 -0.090912322987177163 0 -0.35128510431488302 -0.078941701892762339 0 -0.34573533060402162 -0.0877556827461137 0 -0.35835784968114343 -0.090912322987177163 0 -0.35835784968114343 -0.090912322987177163 0 -0.37244036742442982 -0.088743793888634237 0 -0.36191641936126451 -0.06997337219146349 0 -0.37244036742442982 -0.088743793888634237 0 -0.36191641936126451 -0.06997337219146349 0 -0.38584292322064861 -0.08133814266272027 0 -0.36749378418407402 -0.095654579989698063 0 -0.35835784968114343 -0.090912322987177163 0 -0.37244036742442982 -0.088743793888634237 0 -0.36191641936126451 -0.06997337219146349 0 -0.37499372020549421 -0.057027089463448997 0 -0.38584292322064861 -0.08133814266272027 0 -0.36191641936126451 -0.06997337219146349 0 -0.38584292322064861 -0.08133814266272027 0 -0.37499372020549421 -0.057027089463448997 0 -0.36680572542804618 -0.050438275083267703 0 -0.36033770259571513 -0.058104653081134258 0 -0.37349046831425209 -0.049557141874736768 0 -0.36680572542804618 -0.050438275083267703 0 -0.37588013934093267 -0.044923037718606028 0 -0.37499372020549421 -0.057027089463448997 0 -0.37349046831425209 -0.049557141874736768 0 -0.37588013934093267 -0.044923037718606028 0 -0.37499372020549421 -0.057027089463448997 0 -0.37349046831425209 -0.049557141874736768 0 -0.36680572542804618 -0.050438275083267703 0 -0.36680572542804618 -0.050438275083267703 0 -0.36033770259571513 -0.058104653081134258 0 -0.35447202774383002 -0.049538700430098358 0 -0.36680572542804618 -0.050438275083267703 0 -0.35447202774383002 -0.049538700430098358 0 -0.36000715444720988 -0.040781373737157831 0 -0.36191641936126451 -0.06997337219146349 0 -0.37499372020549421 -0.057027089463448997 0 -0.36033770259571513 -0.058104653081134258 0 -0.35447202774383002 -0.049538700430098358 0 -0.34425826975008428 -0.048388744722497719 0 -0.33798991550188029 -0.058608601720207029 0 -0.36191641936126451 -0.06997337219146349 0 -0.36033770259571513 -0.058104653081134258 0 -0.33798991550188029 -0.058608601720207029 0 -0.36033770259571513 -0.058104653081134258 0 -0.35447202774383002 -0.049538700430098358 0 -0.33798991550188029 -0.058608601720207029 0 -0.34856070052576538 -0.040917085646671472 0 -0.35091677092060669 -0.030017599469271881 0 -0.34173148364995998 -0.033582808321259427 0 -0.34425826975008428 -0.048388744722497719 0 -0.34856070052576538 -0.040917085646671472 0 -0.33908536408275991 -0.041469517419734113 0 -0.35447202774383002 -0.049538700430098358 0 -0.34425826975008428 -0.048388744722497719 0 -0.34856070052576538 -0.040917085646671472 0 -0.35447202774383002 -0.049538700430098358 0 -0.34856070052576538 -0.040917085646671472 0 -0.36000715444720988 -0.040781373737157831 0 -0.34856070052576538 -0.040917085646671472 0 -0.36000715444720988 -0.040781373737157831 0 -0.35091677092060669 -0.030017599469271881 0 -0.36000715444720988 -0.040781373737157831 0 -0.36405909524465041 -0.028435324239961882 0 -0.35091677092060669 -0.030017599469271881 0 -0.36000715444720988 -0.040781373737157831 0 -0.36405909524465041 -0.028435324239961882 0 -0.37588013934093267 -0.044923037718606028 0 -0.36677412365980522 -0.024156160899122189 0 -0.37588013934093267 -0.044923037718606028 0 -0.36677412365980522 -0.024156160899122189 0 -0.36405909524465041 -0.028435324239961882 0 -0.37588013934093267 -0.044923037718606028 0 -0.36680572542804618 -0.050438275083267703 0 -0.36000715444720988 -0.040781373737157831 0 -0.37588013934093267 -0.044923037718606028 0 -0.36405909524465041 -0.028435324239961882 0 -0.37588013934093267 -0.044923037718606028 0 -0.36677412365980522 -0.024156160899122189 0 -0.36405909524465041 -0.028435324239961882 0 -0.35231320041842379 -0.011893731681220709 0 -0.36677412365980522 -0.024156160899122189 0 -0.36913187509128559 -0.0082216486727445179 0 -0.37676100499808618 -0.01460101658744465 0 -0.36677412365980522 -0.024156160899122189 0 -0.35231320041842379 -0.011893731681220709 0 -0.36677412365980522 -0.024156160899122189 0 -0.36913187509128559 -0.0082216486727445179 0 -0.35702485944307649 -0.0019223128409648241 0 -0.36677412365980522 -0.024156160899122189 0 -0.35702485944307649 -0.0019223128409648241 0 -0.36913187509128559 -0.0082216486727445179 0 -0.37744823449314668 -0.002724083045299296 0 -0.3676511528623137 0.0022953300091082081 0 -0.36913187509128559 -0.0082216486727445179 0 -0.37676100499808618 -0.01460101658744465 0 -0.37744823449314668 -0.002724083045299296 0 -0.36913187509128559 -0.0082216486727445179 0 -0.35702485944307649 -0.0019223128409648241 0 -0.3676511528623137 0.0022953300091082081 0 -0.36677412365980522 -0.024156160899122189 0 -0.35702485944307649 -0.0019223128409648241 0 -0.35231320041842379 -0.011893731681220709 0 -0.35231320041842379 -0.011893731681220709 0 -0.34258181855612108 -0.022086326939360749 0 -0.34077754107553021 -0.010614958068357921 0 -0.35231320041842379 -0.011893731681220709 0 -0.34077754107553021 -0.010614958068357921 0 -0.34334607665684941 0.00045470552153091878 0 -0.35702485944307649 -0.0019223128409648241 0 -0.35231320041842379 -0.011893731681220709 0 -0.34334607665684941 0.00045470552153091878 0 -0.35231320041842379 -0.011893731681220709 0 -0.34334607665684941 0.00045470552153091878 0 -0.35231320041842379 -0.011893731681220709 0 -0.35091677092060669 -0.030017599469271881 0 -0.34258181855612108 -0.022086326939360749 0 -0.36405909524465041 -0.028435324239961882 0 -0.35231320041842379 -0.011893731681220709 0 -0.36405909524465041 -0.028435324239961882 0 -0.35231320041842379 -0.011893731681220709 0 -0.35091677092060669 -0.030017599469271881 0 -0.35091677092060669 -0.030017599469271881 0 -0.34258181855612108 -0.022086326939360749 0 -0.34173148364995998 -0.033582808321259427 0 -0.32932555448355438 -0.017521328176477169 0 -0.33585775110059812 -0.026936316206345939 0 -0.32891239657280191 -0.033416744594474947 0 -0.34258181855612108 -0.022086326939360749 0 -0.33585775110059812 -0.026936316206345939 0 -0.34173148364995998 -0.033582808321259427 0 -0.34258181855612108 -0.022086326939360749 0 -0.32932555448355438 -0.017521328176477169 0 -0.34077754107553021 -0.010614958068357921 0 -0.34258181855612108 -0.022086326939360749 0 -0.32932555448355438 -0.017521328176477169 0 -0.33585775110059812 -0.026936316206345939 0 -0.34077754107553021 -0.010614958068357921 0 -0.33215967342583369 -0.0030826770591157859 0 -0.34334607665684941 0.00045470552153091878 0 -0.32932555448355438 -0.017521328176477169 0 -0.34077754107553021 -0.010614958068357921 0 -0.33215967342583369 -0.0030826770591157859 0 -0.30645542122178099 -0.01570465197030595 0 -0.32932555448355438 -0.017521328176477169 0 -0.31971975053049612 -0.0021254955264083651 0 -0.32932555448355438 -0.017521328176477169 0 -0.33215967342583369 -0.0030826770591157859 0 -0.31971975053049612 -0.0021254955264083651 0 -0.30645542122178099 -0.01570465197030595 0 -0.32932555448355438 -0.017521328176477169 0 -0.31804617626715442 -0.030561539136578039 0 -0.32932555448355438 -0.017521328176477169 0 -0.31804617626715442 -0.030561539136578039 0 -0.32891239657280191 -0.033416744594474947 0 -0.30631838334916778 -0.044136723443049822 0 -0.31804617626715442 -0.030561539136578039 0 -0.31921912570846761 -0.042028247498581292 0 -0.31921912570846761 -0.042028247498581292 0 -0.31406341164249613 -0.047243831248950527 0 -0.3306342513273805 -0.045388909476345843 0 -0.31804617626715442 -0.030561539136578039 0 -0.31921912570846761 -0.042028247498581292 0 -0.32891239657280191 -0.033416744594474947 0 -0.31921912570846761 -0.042028247498581292 0 -0.32891239657280191 -0.033416744594474947 0 -0.3306342513273805 -0.045388909476345843 0 -0.31231731493832149 -0.047933782786837048 0 -0.30631838334916778 -0.044136723443049822 0 -0.31921912570846761 -0.042028247498581292 0 -0.31231731493832149 -0.047933782786837048 0 -0.31921912570846761 -0.042028247498581292 0 -0.31231731493832149 -0.047933782786837048 0 -0.31921912570846761 -0.042028247498581292 0 -0.31406341164249613 -0.047243831248950527 0 -0.31231731493832149 -0.047933782786837048 0 -0.31406341164249613 -0.047243831248950527 0 -0.32540937328811509 -0.056220478800563328 0 -0.31406341164249613 -0.047243831248950527 0 -0.32540937328811509 -0.056220478800563328 0 -0.33798991550188029 -0.058608601720207029 0 -0.31406341164249613 -0.047243831248950527 0 -0.33798991550188029 -0.058608601720207029 0 -0.31406341164249613 -0.047243831248950527 0 -0.33798991550188029 -0.058608601720207029 0 -0.3306342513273805 -0.045388909476345843 0 -0.31231731493832149 -0.047933782786837048 0 -0.31467316045338201 -0.058405429219157048 0 -0.32540937328811509 -0.056220478800563328 0 -0.31231731493832149 -0.047933782786837048 0 -0.32540937328811509 -0.056220478800563328 0 -0.31559222210517762 -0.067768463631306924 0 -0.31467316045338201 -0.058405429219157048 0 -0.32540937328811509 -0.056220478800563328 0 -0.33850143163790852 -0.064507174814290261 0 -0.32884389640913791 -0.065228794800649678 0 -0.32540937328811509 -0.056220478800563328 0 -0.33850143163790852 -0.064507174814290261 0 -0.32540937328811509 -0.056220478800563328 0 -0.33798991550188029 -0.058608601720207029 0 -0.33850143163790852 -0.064507174814290261 0 -0.32540937328811509 -0.056220478800563328 0 -0.34425826975008428 -0.048388744722497719 0 -0.33798991550188029 -0.058608601720207029 0 -0.3306342513273805 -0.045388909476345843 0 -0.34425826975008428 -0.048388744722497719 0 -0.33908536408275991 -0.041469517419734113 0 -0.3306342513273805 -0.045388909476345843 0 -0.33908536408275991 -0.041469517419734113 0 -0.34173148364995998 -0.033582808321259427 0 -0.32891239657280191 -0.033416744594474947 0 -0.34856070052576538 -0.040917085646671472 0 -0.33908536408275991 -0.041469517419734113 0 -0.34173148364995998 -0.033582808321259427 0 -0.33585775110059812 -0.026936316206345939 0 -0.34173148364995998 -0.033582808321259427 0 -0.32891239657280191 -0.033416744594474947 0 -0.33908536408275991 -0.041469517419734113 0 -0.32891239657280191 -0.033416744594474947 0 -0.3306342513273805 -0.045388909476345843 0 -0.30627292041572213 -0.25636185243388721 0 -0.31390441240863842 -0.24006575288640869 0 -0.30407998288955201 -0.23234112169411791 0 -0.2903399019555718 -0.2392070477807737 0 -0.31390441240863842 -0.24006575288640869 0 -0.30627292041572213 -0.25636185243388721 0 -0.2903399019555718 -0.2392070477807737 0 -0.31390441240863842 -0.24006575288640869 0 -0.30627292041572213 -0.25636185243388721 0 -0.31390441240863842 -0.24006575288640869 0 -0.3158589578121852 -0.24952041115528059 0 -0.2903399019555718 -0.2392070477807737 0 -0.31390441240863842 -0.24006575288640869 0 -0.30407998288955201 -0.23234112169411791 0 -0.31785831674354481 -0.23162268320847151 0 -0.31390441240863842 -0.24006575288640869 0 -0.30492722156486829 -0.2234328760066871 0 -0.31785831674354481 -0.23162268320847151 0 -0.30492722156486829 -0.2234328760066871 0 -0.30407998288955201 -0.23234112169411791 0 -0.31785831674354481 -0.23162268320847151 0 -0.30492722156486829 -0.2234328760066871 0 -0.2919961263861921 -0.21524306880490249 0 -0.30492722156486829 -0.2234328760066871 0 -0.30407998288955201 -0.23234112169411791 0 -0.29376584574093761 -0.22739087890307111 0 -0.30407998288955201 -0.23234112169411791 0 -0.29376584574093761 -0.22739087890307111 0 -0.2903399019555718 -0.2392070477807737 0 -0.30492722156486829 -0.2234328760066871 0 -0.29376584574093761 -0.22739087890307111 0 -0.2919961263861921 -0.21524306880490249 0 -0.27938575894434797 -0.22679570574001989 0 -0.2919961263861921 -0.21524306880490249 0 -0.29376584574093761 -0.22739087890307111 0 -0.27938575894434797 -0.22679570574001989 0 -0.2919961263861921 -0.21524306880490249 0 -0.29376584574093761 -0.22739087890307111 0 -0.2903399019555718 -0.2392070477807737 0 -0.27938575894434797 -0.22679570574001989 0 -0.2903399019555718 -0.2392070477807737 0 -0.26677539150250512 -0.23834834267513871 0 -0.27768781240853779 -0.25792173907992338 0 -0.2903399019555718 -0.2392070477807737 0 -0.26677539150250512 -0.23834834267513871 0 -0.2903399019555718 -0.2392070477807737 0 -0.26677539150250512 -0.23834834267513871 0 -0.27938575894434797 -0.22679570574001989 0 -0.2465658025307402 -0.25686279477778151 0 -0.26677539150250512 -0.23834834267513871 0 -0.2465658025307402 -0.25686279477778151 0 -0.24972092479861499 -0.23772686752666619 0 -0.26677539150250512 -0.23834834267513871 0 -0.24972092479861499 -0.23772686752666619 0 -0.26677539150250512 -0.23834834267513871 0 -0.24972092479861499 -0.23772686752666619 0 -0.26677539150250512 -0.23834834267513871 0 -0.25976906760045032 -0.2200800725267324 0 -0.24146418111165299 -0.22013200428108479 0 -0.24972092479861499 -0.23772686752666619 0 -0.25976906760045032 -0.2200800725267324 0 -0.26677539150250512 -0.23834834267513871 0 -0.25976906760045032 -0.2200800725267324 0 -0.27938575894434797 -0.22679570574001989 0 -0.25976906760045032 -0.2200800725267324 0 -0.27938575894434797 -0.22679570574001989 0 -0.27314381998495357 -0.21429424560813631 0 -0.26677539150250512 -0.23834834267513871 0 -0.27938575894434797 -0.22679570574001989 0 -0.27938575894434797 -0.22679570574001989 0 -0.27314381998495357 -0.21429424560813631 0 -0.28489586619087442 -0.2107461749781491 0 -0.27314381998495357 -0.21429424560813631 0 -0.27370560163026969 -0.20203113847313681 0 -0.28489586619087442 -0.2107461749781491 0 -0.27314381998495357 -0.21429424560813631 0 -0.25912236943178718 -0.20295119362820149 0 -0.27370560163026969 -0.20203113847313681 0 -0.25976906760045032 -0.2200800725267324 0 -0.27314381998495357 -0.21429424560813631 0 -0.25912236943178718 -0.20295119362820149 0 -0.24488486066899559 -0.20652901969351281 0 -0.25976906760045032 -0.2200800725267324 0 -0.25912236943178718 -0.20295119362820149 0 -0.25912236943178718 -0.20295119362820149 0 -0.27370560163026969 -0.20203113847313681 0 -0.26359761460273801 -0.18440007413656281 0 -0.24690285340742571 -0.19114610178065169 0 -0.25912236943178718 -0.20295119362820149 0 -0.26359761460273801 -0.18440007413656281 0 -0.24690285340742571 -0.19114610178065169 0 -0.24488486066899559 -0.20652901969351281 0 -0.25912236943178718 -0.20295119362820149 0 -0.27370560163026969 -0.20203113847313681 0 -0.28431613452941912 -0.1957801844944165 0 -0.27987695334291451 -0.17376910259949041 0 -0.27370560163026969 -0.20203113847313681 0 -0.27987695334291451 -0.17376910259949041 0 -0.27370560163026969 -0.20203113847313681 0 -0.28431613452941912 -0.1957801844944165 0 -0.28489586619087442 -0.2107461749781491 0 -0.29213480702749911 -0.1896792554665685 0 -0.29096744445553779 -0.20267525095473771 0 -0.30094635467465342 -0.19701693584038979 0 -0.29213480702749911 -0.1896792554665685 0 -0.29096744445553779 -0.20267525095473771 0 -0.28431613452941912 -0.1957801844944165 0 -0.29096744445553779 -0.20267525095473771 0 -0.28431613452941912 -0.1957801844944165 0 -0.28489586619087442 -0.2107461749781491 0 -0.29096744445553779 -0.20267525095473771 0 -0.28489586619087442 -0.2107461749781491 0 -0.29073702084139053 -0.20937726487447189 0 -0.27938575894434797 -0.22679570574001989 0 -0.28489586619087442 -0.2107461749781491 0 -0.2919961263861921 -0.21524306880490249 0 -0.28489586619087442 -0.2107461749781491 0 -0.2919961263861921 -0.21524306880490249 0 -0.28489586619087442 -0.2107461749781491 0 -0.2919961263861921 -0.21524306880490249 0 -0.29073702084139053 -0.20937726487447189 0 -0.2919961263861921 -0.21524306880490249 0 -0.29647036394129539 -0.21114412067559671 0 -0.29073702084139053 -0.20937726487447189 0 -0.2919961263861921 -0.21524306880490249 0 -0.29647036394129539 -0.21114412067559671 0 -0.29096744445553779 -0.20267525095473771 0 -0.29647036394129539 -0.21114412067559671 0 -0.30208341156127788 -0.20543158252145549 0 -0.29096744445553779 -0.20267525095473771 0 -0.29647036394129539 -0.21114412067559671 0 -0.29073702084139053 -0.20937726487447189 0 -0.29647036394129539 -0.21114412067559671 0 -0.30208341156127788 -0.20543158252145549 0 -0.30838896143207462 -0.21227032089182149 0 -0.30492722156486829 -0.2234328760066871 0 -0.29647036394129539 -0.21114412067559671 0 -0.30838896143207462 -0.21227032089182149 0 -0.30492722156486829 -0.2234328760066871 0 -0.2919961263861921 -0.21524306880490249 0 -0.29647036394129539 -0.21114412067559671 0 -0.30492722156486829 -0.2234328760066871 0 -0.30838896143207462 -0.21227032089182149 0 -0.31501785557782458 -0.21852760539770871 0 -0.30208341156127788 -0.20543158252145549 0 -0.30838896143207462 -0.21227032089182149 0 -0.3117664323466825 -0.20122739919718671 0 -0.30838896143207462 -0.21227032089182149 0 -0.3117664323466825 -0.20122739919718671 0 -0.31661064243268461 -0.21010814811148579 0 -0.3117664323466825 -0.20122739919718671 0 -0.30094635467465342 -0.19701693584038979 0 -0.3068409275041965 -0.18465924853822779 0 -0.30208341156127788 -0.20543158252145549 0 -0.3117664323466825 -0.20122739919718671 0 -0.30094635467465342 -0.19701693584038979 0 -0.29213480702749911 -0.1896792554665685 0 -0.30094635467465342 -0.19701693584038979 0 -0.3068409275041965 -0.18465924853822779 0 -0.29096744445553779 -0.20267525095473771 0 -0.30208341156127788 -0.20543158252145549 0 -0.30094635467465342 -0.19701693584038979 0 -0.3068409275041965 -0.18465924853822779 0 -0.29864758861848129 -0.16810190818691281 0 -0.29454988289451722 -0.1790829959714712 0 -0.3068409275041965 -0.18465924853822779 0 -0.29864758861848129 -0.16810190818691281 0 -0.31406315044598943 -0.16818541260206871 0 -0.29213480702749911 -0.1896792554665685 0 -0.3068409275041965 -0.18465924853822779 0 -0.29454988289451722 -0.1790829959714712 0 -0.29864758861848129 -0.16810190818691281 0 -0.29255370251104917 -0.15946129794443911 0 -0.30564196302724211 -0.15046711426550921 0 -0.29864758861848129 -0.16810190818691281 0 -0.30564196302724211 -0.15046711426550921 0 -0.31406315044598943 -0.16818541260206871 0 -0.29864758861848129 -0.16810190818691281 0 -0.29255370251104917 -0.15946129794443911 0 -0.27987695334291451 -0.17376910259949041 0 -0.29255370251104917 -0.15946129794443911 0 -0.27987695334291451 -0.17376910259949041 0 -0.28604830505555923 -0.1455070667258439 0 -0.27987695334291451 -0.17376910259949041 0 -0.28604830505555923 -0.1455070667258439 0 -0.29213480702749911 -0.1896792554665685 0 -0.29454988289451722 -0.1790829959714712 0 -0.27987695334291451 -0.17376910259949041 0 -0.29864758861848129 -0.16810190818691281 0 -0.29454988289451722 -0.1790829959714712 0 -0.27987695334291451 -0.17376910259949041 0 -0.29213480702749911 -0.1896792554665685 0 -0.28431613452941912 -0.1957801844944165 0 -0.27987695334291451 -0.17376910259949041 0 -0.27370560163026969 -0.20203113847313681 0 -0.27987695334291451 -0.17376910259949041 0 -0.26359761460273801 -0.18440007413656281 0 -0.27987695334291451 -0.17376910259949041 0 -0.26359761460273801 -0.18440007413656281 0 -0.26626184748952758 -0.1683476843643229 0 -0.26359761460273801 -0.18440007413656281 0 -0.25034570606257017 -0.1645063498948689 0 -0.26626184748952758 -0.1683476843643229 0 -0.24690285340742571 -0.19114610178065169 0 -0.26359761460273801 -0.18440007413656281 0 -0.25034570606257017 -0.1645063498948689 0 -0.25034570606257017 -0.1645063498948689 0 -0.26626184748952758 -0.1683476843643229 0 -0.27203059353082881 -0.15275839666498661 0 -0.27987695334291451 -0.17376910259949041 0 -0.27203059353082881 -0.15275839666498661 0 -0.28604830505555923 -0.1455070667258439 0 -0.27987695334291451 -0.17376910259949041 0 -0.26626184748952758 -0.1683476843643229 0 -0.27203059353082881 -0.15275839666498661 0 -0.27203059353082881 -0.15275839666498661 0 -0.26108610654798831 -0.14108500890015169 0 -0.27611002899866521 -0.1325652314475276 0 -0.27203059353082881 -0.15275839666498661 0 -0.27611002899866521 -0.1325652314475276 0 -0.28604830505555923 -0.1455070667258439 0 -0.27203059353082881 -0.15275839666498661 0 -0.26108610654798831 -0.14108500890015169 0 -0.25034570606257017 -0.1645063498948689 0 -0.27203059353082881 -0.15275839666498661 0 -0.26108610654798831 -0.14108500890015169 0 -0.24230833289442899 -0.14031226057926799 0 -0.25034570606257017 -0.1645063498948689 0 -0.26108610654798831 -0.14108500890015169 0 -0.25034570606257017 -0.1645063498948689 0 -0.26108610654798831 -0.14108500890015169 0 -0.24120545458686549 -0.1198803092441708 0 -0.25798412026367251 -0.12241725880595949 0 -0.26108610654798831 -0.14108500890015169 0 -0.25798412026367251 -0.12241725880595949 0 -0.27331035368986589 -0.11442787808809959 0 -0.26108610654798831 -0.14108500890015169 0 -0.24120545458686549 -0.1198803092441708 0 -0.26108610654798831 -0.14108500890015169 0 -0.27331035368986589 -0.11442787808809959 0 -0.26108610654798831 -0.14108500890015169 0 -0.27611002899866521 -0.1325652314475276 0 -0.27331035368986589 -0.11442787808809959 0 -0.26108610654798831 -0.14108500890015169 0 -0.29221965676820377 -0.1172450308521977 0 -0.27611002899866521 -0.1325652314475276 0 -0.28604830505555923 -0.1455070667258439 0 -0.29221965676820377 -0.1172450308521977 0 -0.28604830505555923 -0.1455070667258439 0 -0.29221965676820377 -0.1172450308521977 0 -0.28604830505555923 -0.1455070667258439 0 -0.30446426629830042 -0.13119693167271801 0 -0.29255370251104917 -0.15946129794443911 0 -0.28604830505555923 -0.1455070667258439 0 -0.30564196302724211 -0.15046711426550921 0 -0.28604830505555923 -0.1455070667258439 0 -0.30564196302724211 -0.15046711426550921 0 -0.30446426629830042 -0.13119693167271801 0 -0.30564196302724211 -0.15046711426550921 0 -0.30446426629830042 -0.13119693167271801 0 -0.31977123175716943 -0.13903226214737571 0 -0.32789187853475033 -0.12517599283146261 0 -0.31977123175716943 -0.13903226214737571 0 -0.336105434386891 -0.1363085108855798 0 -0.3159283016389291 -0.1216907249220384 0 -0.32789187853475033 -0.12517599283146261 0 -0.31977123175716943 -0.13903226214737571 0 -0.3159283016389291 -0.1216907249220384 0 -0.30446426629830042 -0.13119693167271801 0 -0.31977123175716943 -0.13903226214737571 0 -0.30564196302724211 -0.15046711426550921 0 -0.31977123175716943 -0.13903226214737571 0 -0.31967329226340002 -0.1546005192555433 0 -0.31977123175716943 -0.13903226214737571 0 -0.31967329226340002 -0.1546005192555433 0 -0.3329375236726107 -0.15128559590750121 0 -0.3329375236726107 -0.15128559590750121 0 -0.34418614954519261 -0.1429427420407299 0 -0.34879759697927848 -0.15991680089622209 0 -0.31977123175716943 -0.13903226214737571 0 -0.3329375236726107 -0.15128559590750121 0 -0.336105434386891 -0.1363085108855798 0 -0.3329375236726107 -0.15128559590750121 0 -0.336105434386891 -0.1363085108855798 0 -0.34418614954519261 -0.1429427420407299 0 -0.336105434386891 -0.1363085108855798 0 -0.34664502750087728 -0.13287615176632769 0 -0.34418614954519261 -0.1429427420407299 0 -0.32789187853475033 -0.12517599283146261 0 -0.336105434386891 -0.1363085108855798 0 -0.33821175220128991 -0.12550938859712391 0 -0.336105434386891 -0.1363085108855798 0 -0.33821175220128991 -0.12550938859712391 0 -0.34664502750087728 -0.13287615176632769 0 -0.33821175220128991 -0.12550938859712391 0 -0.34844653193434721 -0.12616497426618681 0 -0.34664502750087728 -0.13287615176632769 0 -0.34844653193434721 -0.12616497426618681 0 -0.34664502750087728 -0.13287615176632769 0 -0.35532129350639252 -0.12816021333450289 0 -0.34664502750087728 -0.13287615176632769 0 -0.35644516518630548 -0.13432665074801881 0 -0.34418614954519261 -0.1429427420407299 0 -0.34664502750087728 -0.13287615176632769 0 -0.35644516518630548 -0.13432665074801881 0 -0.35532129350639252 -0.12816021333450289 0 -0.35246234538210403 -0.1209314122971045 0 -0.34844653193434721 -0.12616497426618681 0 -0.35532129350639252 -0.12816021333450289 0 -0.35532129350639252 -0.12816021333450289 0 -0.36649418718204801 -0.13069836442780899 0 -0.37886590014221699 -0.11624347574354781 0 -0.35644516518630548 -0.13432665074801881 0 -0.35532129350639252 -0.12816021333450289 0 -0.36649418718204801 -0.13069836442780899 0 -0.35644516518630548 -0.13432665074801881 0 -0.36649418718204801 -0.13069836442780899 0 -0.3673862295040744 -0.1435114286710106 0 -0.36649418718204801 -0.13069836442780899 0 -0.37445234757125051 -0.13125005364196499 0 -0.3673862295040744 -0.1435114286710106 0 -0.36649418718204801 -0.13069836442780899 0 -0.37445234757125051 -0.13125005364196499 0 -0.37886590014221699 -0.11624347574354781 0 -0.3673862295040744 -0.1435114286710106 0 -0.34879759697927848 -0.15991680089622209 0 -0.37200230697398651 -0.16071948697172689 0 -0.35644516518630548 -0.13432665074801881 0 -0.3673862295040744 -0.1435114286710106 0 -0.34879759697927848 -0.15991680089622209 0 -0.35644516518630548 -0.13432665074801881 0 -0.34418614954519261 -0.1429427420407299 0 -0.34879759697927848 -0.15991680089622209 0 -0.35644516518630548 -0.13432665074801881 0 -0.34879759697927848 -0.15991680089622209 0 -0.34879759697927848 -0.15991680089622209 0 -0.37200230697398651 -0.16071948697172689 0 -0.36155189704168161 -0.1787527137617804 0 -0.36155189704168161 -0.1787527137617804 0 -0.37428560390694832 -0.1996895348543129 0 -0.378907440432249 -0.17797872190532399 0 -0.37200230697398651 -0.16071948697172689 0 -0.36155189704168161 -0.1787527137617804 0 -0.378907440432249 -0.17797872190532399 0 -0.36155189704168161 -0.1787527137617804 0 -0.34115002877225142 -0.1855069510444253 0 -0.3553770874073926 -0.19555229446690309 0 -0.34879759697927848 -0.15991680089622209 0 -0.34115002877225142 -0.1855069510444253 0 -0.34879759697927848 -0.15991680089622209 0 -0.36155189704168161 -0.1787527137617804 0 -0.34115002877225142 -0.1855069510444253 0 -0.34115002877225142 -0.1855069510444253 0 -0.33018046868917938 -0.16704874142318049 0 -0.3249460681982429 -0.18314310118056079 0 -0.3329375236726107 -0.15128559590750121 0 -0.34879759697927848 -0.15991680089622209 0 -0.33018046868917938 -0.16704874142318049 0 -0.34879759697927848 -0.15991680089622209 0 -0.34115002877225142 -0.1855069510444253 0 -0.33018046868917938 -0.16704874142318049 0 -0.31967329226340002 -0.1546005192555433 0 -0.3329375236726107 -0.15128559590750121 0 -0.33018046868917938 -0.16704874142318049 0 -0.30564196302724211 -0.15046711426550921 0 -0.31967329226340002 -0.1546005192555433 0 -0.31406315044598943 -0.16818541260206871 0 -0.31967329226340002 -0.1546005192555433 0 -0.33018046868917938 -0.16704874142318049 0 -0.31406315044598943 -0.16818541260206871 0 -0.3068409275041965 -0.18465924853822779 0 -0.31406315044598943 -0.16818541260206871 0 -0.3249460681982429 -0.18314310118056079 0 -0.3068409275041965 -0.18465924853822779 0 -0.3249460681982429 -0.18314310118056079 0 -0.3206777610588103 -0.19399324396561579 0 -0.33018046868917938 -0.16704874142318049 0 -0.31406315044598943 -0.16818541260206871 0 -0.3249460681982429 -0.18314310118056079 0 -0.3117664323466825 -0.20122739919718671 0 -0.3068409275041965 -0.18465924853822779 0 -0.3206777610588103 -0.19399324396561579 0 -0.3206777610588103 -0.19399324396561579 0 -0.32215903541138857 -0.2036823564868184 0 -0.33358353804736052 -0.19804343395931531 0 -0.3249460681982429 -0.18314310118056079 0 -0.3206777610588103 -0.19399324396561579 0 -0.33358353804736052 -0.19804343395931531 0 -0.3117664323466825 -0.20122739919718671 0 -0.3206777610588103 -0.19399324396561579 0 -0.32215903541138857 -0.2036823564868184 0 -0.3117664323466825 -0.20122739919718671 0 -0.31661064243268461 -0.21010814811148579 0 -0.32215903541138857 -0.2036823564868184 0 -0.32572092739545261 -0.2148330585838934 0 -0.32215903541138857 -0.2036823564868184 0 -0.33358353804736052 -0.19804343395931531 0 -0.31661064243268461 -0.21010814811148579 0 -0.31501785557782458 -0.21852760539770871 0 -0.32572092739545261 -0.2148330585838934 0 -0.30838896143207462 -0.21227032089182149 0 -0.31661064243268461 -0.21010814811148579 0 -0.31501785557782458 -0.21852760539770871 0 -0.31661064243268461 -0.21010814811148579 0 -0.32572092739545261 -0.2148330585838934 0 -0.32215903541138857 -0.2036823564868184 0 -0.32572092739545261 -0.2148330585838934 0 -0.33358353804736052 -0.19804343395931531 0 -0.32572092739545261 -0.2148330585838934 0 -0.33350246056522448 -0.21109710119262851 0 -0.33358353804736052 -0.19804343395931531 0 -0.33350246056522448 -0.21109710119262851 0 -0.34510690988334158 -0.21574830059720879 0 -0.34125060408172297 -0.22476859845816091 0 -0.33350246056522448 -0.21109710119262851 0 -0.34520920262455318 -0.20065783326663181 0 -0.34510690988334158 -0.21574830059720879 0 -0.34115002877225142 -0.1855069510444253 0 -0.33350246056522448 -0.21109710119262851 0 -0.33358353804736052 -0.19804343395931531 0 -0.34115002877225142 -0.1855069510444253 0 -0.33350246056522448 -0.21109710119262851 0 -0.34115002877225142 -0.1855069510444253 0 -0.3249460681982429 -0.18314310118056079 0 -0.33358353804736052 -0.19804343395931531 0 -0.34115002877225142 -0.1855069510444253 0 -0.33350246056522448 -0.21109710119262851 0 -0.34520920262455318 -0.20065783326663181 0 -0.34115002877225142 -0.1855069510444253 0 -0.34520920262455318 -0.20065783326663181 0 -0.3553770874073926 -0.19555229446690309 0 -0.36155189704168161 -0.1787527137617804 0 -0.3553770874073926 -0.19555229446690309 0 -0.37428560390694832 -0.1996895348543129 0 -0.3553770874073926 -0.19555229446690309 0 -0.37428560390694832 -0.1996895348543129 0 -0.35468870469152841 -0.21315443940736489 0 -0.37428560390694832 -0.1996895348543129 0 -0.35468870469152841 -0.21315443940736489 0 -0.37428560390694832 -0.1996895348543129 0 -0.35468870469152841 -0.21315443940736489 0 -0.37315942728371082 -0.22312060565814251 0 -0.34520920262455318 -0.20065783326663181 0 -0.3553770874073926 -0.19555229446690309 0 -0.35468870469152841 -0.21315443940736489 0 -0.34520920262455318 -0.20065783326663181 0 -0.35468870469152841 -0.21315443940736489 0 -0.34510690988334158 -0.21574830059720879 0 -0.35468870469152841 -0.21315443940736489 0 -0.34510690988334158 -0.21574830059720879 0 -0.35377816735088369 -0.227329495915473 0 -0.34510690988334158 -0.21574830059720879 0 -0.35377816735088369 -0.227329495915473 0 -0.34125060408172297 -0.22476859845816091 0 -0.35377816735088369 -0.227329495915473 0 -0.3524301033479561 -0.24146965251647221 0 -0.34249855401991242 -0.23342157082773121 0 -0.35377816735088369 -0.227329495915473 0 -0.34249855401991242 -0.23342157082773121 0 -0.34125060408172297 -0.22476859845816091 0 -0.35377816735088369 -0.227329495915473 0 -0.37315942728371082 -0.22312060565814251 0 -0.37261567676119389 -0.24220522709947209 0 -0.35468870469152841 -0.21315443940736489 0 -0.35377816735088369 -0.227329495915473 0 -0.37315942728371082 -0.22312060565814251 0 -0.36482927333241238 -0.25212951776171361 0 -0.37261567676119389 -0.24220522709947209 0 -0.3524301033479561 -0.24146965251647221 0 -0.35377816735088369 -0.227329495915473 0 -0.37261567676119389 -0.24220522709947209 0 -0.3524301033479561 -0.24146965251647221 0 -0.37261567676119389 -0.24220522709947209 0 -0.3524301033479561 -0.24146965251647221 0 -0.35228165108508203 -0.25342443067102521 0 -0.35822344834074732 -0.25421052090076218 0 -0.3524301033479561 -0.24146965251647221 0 -0.35228165108508203 -0.25342443067102521 0 -0.3524301033479561 -0.24146965251647221 0 -0.3322445299347182 -0.24073407793347229 0 -0.35822344834074732 -0.25421052090076218 0 -0.36482927333241238 -0.25212951776171361 0 -0.3524301033479561 -0.24146965251647221 0 -0.3524301033479561 -0.24146965251647221 0 -0.3322445299347182 -0.24073407793347229 0 -0.34574933721119638 -0.25328958626596532 0 -0.35228165108508203 -0.25342443067102521 0 -0.3322445299347182 -0.24073407793347229 0 -0.35228165108508203 -0.25342443067102521 0 -0.3322445299347182 -0.24073407793347229 0 -0.33668400879166471 -0.25003653060852321 0 -0.34574933721119638 -0.25328958626596532 0 -0.3322445299347182 -0.24073407793347229 0 -0.3524301033479561 -0.24146965251647221 0 -0.3322445299347182 -0.24073407793347229 0 -0.34249855401991242 -0.23342157082773121 0 -0.33668400879166471 -0.25003653060852321 0 -0.3315076224095731 -0.24714144879994501 0 -0.3322445299347182 -0.24073407793347229 0 -0.3315076224095731 -0.24714144879994501 0 -0.3322445299347182 -0.24073407793347229 0 -0.32472736928580792 -0.2404601480234084 0 -0.3322445299347182 -0.24073407793347229 0 -0.33507020819195449 -0.2293417199505654 0 -0.32585489235819659 -0.23668725134083141 0 -0.3322445299347182 -0.24073407793347229 0 -0.32472736928580792 -0.2404601480234084 0 -0.3322445299347182 -0.24073407793347229 0 -0.32585489235819659 -0.23668725134083141 0 -0.3322445299347182 -0.24073407793347229 0 -0.34249855401991242 -0.23342157082773121 0 -0.33507020819195449 -0.2293417199505654 0 -0.34249855401991242 -0.23342157082773121 0 -0.34125060408172297 -0.22476859845816091 0 -0.33507020819195449 -0.2293417199505654 0 -0.33350246056522448 -0.21109710119262851 0 -0.34125060408172297 -0.22476859845816091 0 -0.33507020819195449 -0.2293417199505654 0 -0.33350246056522448 -0.21109710119262851 0 -0.33507020819195449 -0.2293417199505654 0 -0.32585489235819659 -0.23668725134083141 0 -0.33350246056522448 -0.21109710119262851 0 -0.32585489235819659 -0.23668725134083141 0 -0.32572092739545261 -0.2148330585838934 0 -0.33350246056522448 -0.21109710119262851 0 -0.32585489235819659 -0.23668725134083141 0 -0.32572092739545261 -0.2148330585838934 0 -0.31785831674354481 -0.23162268320847151 0 -0.32585489235819659 -0.23668725134083141 0 -0.31785831674354481 -0.23162268320847151 0 -0.32585489235819659 -0.23668725134083141 0 -0.31501785557782458 -0.21852760539770871 0 -0.32572092739545261 -0.2148330585838934 0 -0.31785831674354481 -0.23162268320847151 0 -0.32572092739545261 -0.2148330585838934 0 -0.31785831674354481 -0.23162268320847151 0 -0.30492722156486829 -0.2234328760066871 0 -0.31501785557782458 -0.21852760539770871 0 -0.31785831674354481 -0.23162268320847151 0 -0.31390441240863842 -0.24006575288640869 0 -0.32005003387637732 -0.2370074077245084 0 -0.32472736928580792 -0.2404601480234084 0 -0.31390441240863842 -0.24006575288640869 0 -0.32472736928580792 -0.2404601480234084 0 -0.31785831674354481 -0.23162268320847151 0 -0.31390441240863842 -0.24006575288640869 0 -0.32005003387637732 -0.2370074077245084 0 -0.31785831674354481 -0.23162268320847151 0 -0.31390441240863842 -0.24006575288640869 0 -0.31390441240863842 -0.24006575288640869 0 -0.3158589578121852 -0.24952041115528059 0 -0.32472736928580792 -0.2404601480234084 0 -0.32723301537407917 -0.2523527637654861 0 -0.3315076224095731 -0.24714144879994501 0 -0.32472736928580792 -0.2404601480234084 0 -0.31785831674354481 -0.23162268320847151 0 -0.32005003387637732 -0.2370074077245084 0 -0.32585489235819659 -0.23668725134083141 0 -0.3322445299347182 -0.24073407793347229 0 -0.32472736928580792 -0.2404601480234084 0 -0.32585489235819659 -0.23668725134083141 0 -0.32472736928580792 -0.2404601480234084 0 -0.32585489235819659 -0.23668725134083141 0 -0.32005003387637732 -0.2370074077245084 0 -0.32472736928580792 -0.2404601480234084 0 -0.32585489235819659 -0.23668725134083141 0 -0.41853086337149498 -0.25309053714782143 0 -0.42022519851326989 -0.23259437627896859 0 -0.43822346061495648 -0.23801048684192611 0 -0.42022519851326989 -0.23259437627896859 0 -0.43072078076369619 -0.21518350204903969 0 -0.43822346061495648 -0.23801048684192611 0 -0.42022519851326989 -0.23259437627896859 0 -0.40506762508401267 -0.236436316235481 0 -0.41027384656800642 -0.21795949309806931 0 -0.42022519851326989 -0.23259437627896859 0 -0.41027384656800642 -0.21795949309806931 0 -0.43072078076369619 -0.21518350204903969 0 -0.39860507647727672 -0.25526751824771909 0 -0.41853086337149498 -0.25309053714782143 0 -0.40506762508401267 -0.236436316235481 0 -0.41853086337149498 -0.25309053714782143 0 -0.42022519851326989 -0.23259437627896859 0 -0.40506762508401267 -0.236436316235481 0 -0.39860507647727672 -0.25526751824771909 0 -0.40506762508401267 -0.236436316235481 0 -0.38876654489906132 -0.23795129017210251 0 -0.3830880296455455 -0.25549359971904922 0 -0.37261567676119389 -0.24220522709947209 0 -0.38876654489906132 -0.23795129017210251 0 -0.3830880296455455 -0.25549359971904922 0 -0.39860507647727672 -0.25526751824771909 0 -0.38876654489906132 -0.23795129017210251 0 -0.37315942728371082 -0.22312060565814251 0 -0.37261567676119389 -0.24220522709947209 0 -0.38876654489906132 -0.23795129017210251 0 -0.37315942728371082 -0.22312060565814251 0 -0.38876654489906132 -0.23795129017210251 0 -0.39400422067496699 -0.22175468246820529 0 -0.40506762508401267 -0.236436316235481 0 -0.39400422067496699 -0.22175468246820529 0 -0.41027384656800642 -0.21795949309806931 0 -0.40506762508401267 -0.236436316235481 0 -0.38876654489906132 -0.23795129017210251 0 -0.39400422067496699 -0.22175468246820529 0 -0.39400422067496699 -0.22175468246820529 0 -0.39993562462386351 -0.20446128860126231 0 -0.41027384656800642 -0.21795949309806931 0 -0.37428560390694832 -0.1996895348543129 0 -0.39400422067496699 -0.22175468246820529 0 -0.39993562462386351 -0.20446128860126231 0 -0.37428560390694832 -0.1996895348543129 0 -0.37315942728371082 -0.22312060565814251 0 -0.39400422067496699 -0.22175468246820529 0 -0.37428560390694832 -0.1996895348543129 0 -0.39388250312236828 -0.18622463030126091 0 -0.378907440432249 -0.17797872190532399 0 -0.37428560390694832 -0.1996895348543129 0 -0.39388250312236828 -0.18622463030126091 0 -0.37428560390694832 -0.1996895348543129 0 -0.39993562462386351 -0.20446128860126231 0 -0.39388250312236828 -0.18622463030126091 0 -0.39993562462386351 -0.20446128860126231 0 -0.41664878483655088 -0.2010059954371613 0 -0.39388250312236828 -0.18622463030126091 0 -0.41664878483655088 -0.2010059954371613 0 -0.42403915889381238 -0.18499454850901911 0 -0.39388250312236828 -0.18622463030126091 0 -0.41664878483655088 -0.2010059954371613 0 -0.41027384656800642 -0.21795949309806931 0 -0.43072078076369619 -0.21518350204903969 0 -0.39993562462386351 -0.20446128860126231 0 -0.41664878483655088 -0.2010059954371613 0 -0.41027384656800642 -0.21795949309806931 0 -0.41664878483655088 -0.2010059954371613 0 -0.43072078076369619 -0.21518350204903969 0 -0.43899318417766831 -0.19765666492820419 0 -0.41664878483655088 -0.2010059954371613 0 -0.42403915889381238 -0.18499454850901911 0 -0.43899318417766831 -0.19765666492820419 0 -0.42403915889381238 -0.18499454850901911 0 -0.43917839088219462 -0.1793374289846591 0 -0.43899318417766831 -0.19765666492820419 0 -0.4274433134167509 -0.17409663110926091 0 -0.42403915889381238 -0.18499454850901911 0 -0.43917839088219462 -0.1793374289846591 0 -0.4274433134167509 -0.17409663110926091 0 -0.43307630155320842 -0.1592948211951567 0 -0.43917839088219462 -0.1793374289846591 0 -0.43307630155320842 -0.1592948211951567 0 -0.41347940233778829 -0.1727597257482088 0 -0.4274433134167509 -0.17409663110926091 0 -0.43307630155320842 -0.1592948211951567 0 -0.41347940233778829 -0.1727597257482088 0 -0.43307630155320842 -0.1592948211951567 0 -0.41347940233778829 -0.1727597257482088 0 -0.41168474400614441 -0.14915459776975931 0 -0.42403915889381238 -0.18499454850901911 0 -0.41347940233778829 -0.1727597257482088 0 -0.39388250312236828 -0.18622463030126091 0 -0.4274433134167509 -0.17409663110926091 0 -0.42403915889381238 -0.18499454850901911 0 -0.41347940233778829 -0.1727597257482088 0 -0.41347940233778829 -0.1727597257482088 0 -0.39388250312236828 -0.18622463030126091 0 -0.39281489111626028 -0.16450724363753899 0 -0.41347940233778829 -0.1727597257482088 0 -0.39388250312236828 -0.18622463030126091 0 -0.39388250312236828 -0.18622463030126091 0 -0.378907440432249 -0.17797872190532399 0 -0.39281489111626028 -0.16450724363753899 0 -0.37200230697398651 -0.16071948697172689 0 -0.378907440432249 -0.17797872190532399 0 -0.39281489111626028 -0.16450724363753899 0 -0.41347940233778829 -0.1727597257482088 0 -0.39281489111626028 -0.16450724363753899 0 -0.41168474400614441 -0.14915459776975931 0 -0.39281489111626028 -0.16450724363753899 0 -0.38627467686773709 -0.1418161868388684 0 -0.41168474400614441 -0.14915459776975931 0 -0.37200230697398651 -0.16071948697172689 0 -0.39281489111626028 -0.16450724363753899 0 -0.38627467686773709 -0.1418161868388684 0 -0.3673862295040744 -0.1435114286710106 0 -0.37200230697398651 -0.16071948697172689 0 -0.38627467686773709 -0.1418161868388684 0 -0.37200230697398651 -0.16071948697172689 0 -0.38627467686773709 -0.1418161868388684 0 -0.38627467686773709 -0.1418161868388684 0 -0.38503499283567311 -0.1280556507325977 0 -0.40054704676148772 -0.12291288670600981 0 -0.37445234757125051 -0.13125005364196499 0 -0.3673862295040744 -0.1435114286710106 0 -0.38627467686773709 -0.1418161868388684 0 -0.37445234757125051 -0.13125005364196499 0 -0.38503499283567311 -0.1280556507325977 0 -0.37886590014221699 -0.11624347574354781 0 -0.37445234757125051 -0.13125005364196499 0 -0.38627467686773709 -0.1418161868388684 0 -0.38503499283567311 -0.1280556507325977 0 -0.38627467686773709 -0.1418161868388684 0 -0.40054704676148772 -0.12291288670600981 0 -0.38627467686773709 -0.1418161868388684 0 -0.41168474400614441 -0.14915459776975931 0 -0.40054704676148772 -0.12291288670600981 0 -0.42690175043357981 -0.13101994638646219 0 -0.40054704676148772 -0.12291288670600981 0 -0.41168474400614441 -0.14915459776975931 0 -0.42690175043357981 -0.13101994638646219 0 -0.40054704676148772 -0.12291288670600981 0 -0.41168474400614441 -0.14915459776975931 0 -0.42686094794668378 -0.14678830717554969 0 -0.42690175043357981 -0.13101994638646219 0 -0.42686094794668378 -0.14678830717554969 0 -0.42690175043357981 -0.13101994638646219 0 -0.43774947791394919 -0.14675582546809909 0 -0.43307630155320842 -0.1592948211951567 0 -0.41168474400614441 -0.14915459776975931 0 -0.42686094794668378 -0.14678830717554969 0 -0.43307630155320842 -0.1592948211951567 0 -0.42686094794668378 -0.14678830717554969 0 -0.43774947791394919 -0.14675582546809909 0 -0.49999999999999489 -0.1355612327928718 0 -0.47761068641084248 -0.1815081296663498 0 -0.5 -0.21854333319641181 0 -0.42690175043357981 -0.13101994638646219 0 -0.45325645410567189 -0.13912700606691489 0 -0.44387412092493062 -0.12299702039557731 0 -0.42690175043357981 -0.13101994638646219 0 -0.45325645410567189 -0.13912700606691489 0 -0.42690175043357981 -0.13101994638646219 0 -0.43774947791394919 -0.14675582546809909 0 -0.45325645410567189 -0.13912700606691489 0 -0.45325645410567189 -0.13912700606691489 0 -0.44387412092493062 -0.12299702039557731 0 -0.4609918274756486 -0.11703287069502 0 -0.45794226788862419 -0.15345777958820889 0 -0.45325645410567189 -0.13912700606691489 0 -0.44621742249393281 -0.1592322175257869 0 -0.45325645410567189 -0.13912700606691489 0 -0.44621742249393281 -0.1592322175257869 0 -0.43774947791394919 -0.14675582546809909 0 -0.45325645410567189 -0.13912700606691489 0 -0.44621742249393281 -0.1592322175257869 0 -0.43307630155320842 -0.1592948211951567 0 -0.43774947791394919 -0.14675582546809909 0 -0.44621742249393281 -0.1592322175257869 0 -0.45794226788862419 -0.15345777958820889 0 -0.47270054646866899 -0.14053914855267299 0 -0.47353595388003128 -0.1576260050925781 0 -0.45794226788862419 -0.15345777958820889 0 -0.45739356892437671 -0.14039963797192251 0 -0.45325645410567189 -0.13912700606691489 0 -0.45794226788862419 -0.15345777958820889 0 -0.45739356892437671 -0.14039963797192251 0 -0.47270054646866899 -0.14053914855267299 0 -0.45739356892437671 -0.14039963797192251 0 -0.46496766214243751 -0.13267914300609551 0 -0.47270054646866899 -0.14053914855267299 0 -0.45325645410567189 -0.13912700606691489 0 -0.46496766214243751 -0.13267914300609551 0 -0.4609918274756486 -0.11703287069502 0 -0.45325645410567189 -0.13912700606691489 0 -0.4609918274756486 -0.11703287069502 0 -0.45739356892437671 -0.14039963797192251 0 -0.45325645410567189 -0.13912700606691489 0 -0.46496766214243751 -0.13267914300609551 0 -0.45739356892437671 -0.14039963797192251 0 -0.45325645410567189 -0.13912700606691489 0 -0.47270054646866899 -0.14053914855267299 0 -0.4804959137378213 -0.12629705174394701 0 -0.49999999999999489 -0.1355612327928718 0 -0.46496766214243751 -0.13267914300609551 0 -0.4804959137378213 -0.12629705174394701 0 -0.4609918274756486 -0.11703287069502 0 -0.46496766214243751 -0.13267914300609551 0 -0.47270054646866899 -0.14053914855267299 0 -0.4804959137378213 -0.12629705174394701 0 -0.4804959137378213 -0.12629705174394701 0 -0.49999999999999489 -0.1355612327928718 0 -0.48952413375192211 -0.1209705482846456 0 -0.4804959137378213 -0.12629705174394701 0 -0.49999999999999489 -0.1355612327928718 0 -0.47270054646866899 -0.14053914855267299 0 -0.49999999999999489 -0.1355612327928718 0 -0.47353595388003128 -0.1576260050925781 0 -0.47353595388003128 -0.1576260050925781 0 -0.47761068641084248 -0.1815081296663498 0 -0.45671383511067148 -0.17538946650182519 0 -0.49999999999999489 -0.1355612327928718 0 -0.47353595388003128 -0.1576260050925781 0 -0.47761068641084248 -0.1815081296663498 0 -0.45794226788862419 -0.15345777958820889 0 -0.45671383511067148 -0.17538946650182519 0 -0.44621742249393281 -0.1592322175257869 0 -0.45794226788862419 -0.15345777958820889 0 -0.47353595388003128 -0.1576260050925781 0 -0.45671383511067148 -0.17538946650182519 0 -0.44621742249393281 -0.1592322175257869 0 -0.43917839088219462 -0.1793374289846591 0 -0.43307630155320842 -0.1592948211951567 0 -0.44621742249393281 -0.1592322175257869 0 -0.43917839088219462 -0.1793374289846591 0 -0.45671383511067148 -0.17538946650182519 0 -0.44621742249393281 -0.1592322175257869 0 -0.43917839088219462 -0.1793374289846591 0 -0.45671383511067148 -0.17538946650182519 0 -0.43917839088219462 -0.1793374289846591 0 -0.43899318417766831 -0.19765666492820419 0 -0.5 -0.28594455838845612 0 -0.5 -0.21854333319641181 0 -0.46449094791441381 -0.2433377566233508 0 -0.45671383511067148 -0.17538946650182519 0 -0.43899318417766831 -0.19765666492820419 0 -0.45797401964432582 -0.21054676286003629 0 -0.47761068641084248 -0.1815081296663498 0 -0.45671383511067148 -0.17538946650182519 0 -0.45797401964432582 -0.21054676286003629 0 -0.43072078076369619 -0.21518350204903969 0 -0.43899318417766831 -0.19765666492820419 0 -0.45797401964432582 -0.21054676286003629 0 -0.47761068641084248 -0.1815081296663498 0 -0.45797401964432582 -0.21054676286003629 0 -0.5 -0.21854333319641181 0 -0.45797401964432582 -0.21054676286003629 0 -0.5 -0.21854333319641181 0 -0.46449094791441381 -0.2433377566233508 0 -0.45797401964432582 -0.21054676286003629 0 -0.46449094791441381 -0.2433377566233508 0 -0.43822346061495648 -0.23801048684192611 0 -0.43072078076369619 -0.21518350204903969 0 -0.45797401964432582 -0.21054676286003629 0 -0.43822346061495648 -0.23801048684192611 0 -0.4422929472126545 -0.26199235859238229 0 -0.46449094791441381 -0.2433377566233508 0 -0.43822346061495648 -0.23801048684192611 0 -0.41150961335892028 -0.040596976697111792 0 -0.42227272625315238 -0.05236099152402808 0 -0.42249701146599128 -0.03870670332085166 0 -0.41150961335892028 -0.040596976697111792 0 -0.42249701146599128 -0.03870670332085166 0 -0.41492352546316191 -0.030416581426507529 0 -0.42249701146599128 -0.03870670332085166 0 -0.42439518464367898 -0.025358625704145179 0 -0.41492352546316191 -0.030416581426507529 0 -0.40648035025199669 -0.032519391005830497 0 -0.41150961335892028 -0.040596976697111792 0 -0.41492352546316191 -0.030416581426507529 0 -0.40648035025199669 -0.032519391005830497 0 -0.41150961335892028 -0.040596976697111792 0 -0.40429150670743441 -0.038020105512483332 0 -0.41150961335892028 -0.040596976697111792 0 -0.41187110096897661 -0.049658852643635003 0 -0.40411501859126597 -0.045217207569789947 0 -0.41150961335892028 -0.040596976697111792 0 -0.40411501859126597 -0.045217207569789947 0 -0.40429150670743441 -0.038020105512483332 0 -0.40958704567256721 -0.060460234783610622 0 -0.42227272625315238 -0.05236099152402808 0 -0.42444343576095578 -0.073058008027511737 0 -0.41187110096897661 -0.049658852643635003 0 -0.40958704567256721 -0.060460234783610622 0 -0.40411501859126597 -0.045217207569789947 0 -0.41150961335892028 -0.040596976697111792 0 -0.41187110096897661 -0.049658852643635003 0 -0.42227272625315238 -0.05236099152402808 0 -0.41187110096897661 -0.049658852643635003 0 -0.40958704567256721 -0.060460234783610622 0 -0.42227272625315238 -0.05236099152402808 0 -0.42227272625315238 -0.05236099152402808 0 -0.43724709455810118 -0.061835463204294727 0 -0.43938400761104301 -0.044800341252465722 0 -0.42227272625315238 -0.05236099152402808 0 -0.43724709455810118 -0.061835463204294727 0 -0.42444343576095578 -0.073058008027511737 0 -0.42249701146599128 -0.03870670332085166 0 -0.42439518464367898 -0.025358625704145179 0 -0.43938400761104301 -0.044800341252465722 0 -0.42439518464367898 -0.025358625704145179 0 -0.43938400761104301 -0.044800341252465722 0 -0.43434562343555277 -0.023880679378539701 0 -0.42439518464367898 -0.025358625704145179 0 -0.43938400761104301 -0.044800341252465722 0 -0.42227272625315238 -0.05236099152402808 0 -0.42249701146599128 -0.03870670332085166 0 -0.43938400761104301 -0.044800341252465722 0 -0.43434562343555277 -0.023880679378539701 0 -0.42439518464367898 -0.025358625704145179 0 -0.41435891477952641 -0.0051954118423035728 0 -0.43434562343555277 -0.023880679378539701 0 -0.43682051540353412 -0.01426850615975481 0 -0.44134404119706899 -0.01769739530444427 0 -0.43434562343555277 -0.023880679378539701 0 -0.43682051540353412 -0.01426850615975481 0 -0.42968363616061023 -0.01087514546644147 0 -0.43434562343555277 -0.023880679378539701 0 -0.41435891477952641 -0.0051954118423035728 0 -0.43434562343555277 -0.023880679378539701 0 -0.42451107420172818 -0.0085759914778901387 0 -0.41435891477952641 -0.0051954118423035728 0 -0.43622475355665491 -0.0049987015173346893 0 -0.42968363616061023 -0.01087514546644147 0 -0.42583838960145631 -0.0024653086991814348 0 -0.43622475355665491 -0.0049987015173346893 0 -0.42583838960145631 -0.0024653086991814348 0 -0.43148594715889682 0.0028075617597996621 0 -0.43622475355665491 -0.0049987015173346893 0 -0.43682051540353412 -0.01426850615975481 0 -0.42968363616061023 -0.01087514546644147 0 -0.43434562343555277 -0.023880679378539701 0 -0.42968363616061023 -0.01087514546644147 0 -0.42451107420172818 -0.0085759914778901387 0 -0.42451107420172818 -0.0085759914778901387 0 -0.42583838960145631 -0.0024653086991814348 0 -0.41832880703149561 -0.0004634120029845144 0 -0.42968363616061023 -0.01087514546644147 0 -0.42451107420172818 -0.0085759914778901387 0 -0.42583838960145631 -0.0024653086991814348 0 -0.42439518464367898 -0.025358625704145179 0 -0.41435891477952641 -0.0051954118423035728 0 -0.40940636167631478 -0.0059169101558246371 0 -0.42451107420172818 -0.0085759914778901387 0 -0.41832880703149561 -0.0004634120029845144 0 -0.41435891477952641 -0.0051954118423035728 0 -0.41832880703149561 -0.0004634120029845144 0 -0.41435891477952641 -0.0051954118423035728 0 -0.41246238514309019 0.0014755993293775881 0 -0.40704100428570361 -0.01454374672074845 0 -0.40940636167631478 -0.0059169101558246371 0 -0.41249809214276939 -0.019943848058001239 0 -0.40704100428570361 -0.01454374672074845 0 -0.40940636167631478 -0.0059169101558246371 0 -0.40473861881515599 -0.0095496550718263025 0 -0.42439518464367898 -0.025358625704145179 0 -0.40940636167631478 -0.0059169101558246371 0 -0.42439518464367898 -0.025358625704145179 0 -0.40940636167631478 -0.0059169101558246371 0 -0.41249809214276939 -0.019943848058001239 0 -0.42439518464367898 -0.025358625704145179 0 -0.41492352546316191 -0.030416581426507529 0 -0.41249809214276939 -0.019943848058001239 0 -0.40704100428570361 -0.01454374672074845 0 -0.41249809214276939 -0.019943848058001239 0 -0.40672438464498789 -0.023483376282780421 0 -0.40648035025199669 -0.032519391005830497 0 -0.41492352546316191 -0.030416581426507529 0 -0.40672438464498789 -0.023483376282780421 0 -0.41492352546316191 -0.030416581426507529 0 -0.41249809214276939 -0.019943848058001239 0 -0.40672438464498789 -0.023483376282780421 0 -0.40672438464498789 -0.023483376282780421 0 -0.40095062939734638 -0.02727291915521048 0 -0.39663808486902219 -0.02187858467050666 0 -0.40648035025199669 -0.032519391005830497 0 -0.40672438464498789 -0.023483376282780421 0 -0.40095062939734638 -0.02727291915521048 0 -0.40648035025199669 -0.032519391005830497 0 -0.40095062939734638 -0.02727291915521048 0 -0.40071153129108072 -0.03369004951414608 0 -0.40704100428570361 -0.01454374672074845 0 -0.40672438464498789 -0.023483376282780421 0 -0.39663808486902219 -0.02187858467050666 0 -0.40704100428570361 -0.01454374672074845 0 -0.39663808486902219 -0.02187858467050666 0 -0.39851440323879972 -0.011839250595743931 0 -0.40095062939734638 -0.02727291915521048 0 -0.39663808486902219 -0.02187858467050666 0 -0.39276233290041079 -0.031327782835815443 0 -0.40095062939734638 -0.02727291915521048 0 -0.39276233290041079 -0.031327782835815443 0 -0.40071153129108072 -0.03369004951414608 0 -0.39663808486902219 -0.02187858467050666 0 -0.38639314715524542 -0.024627350132744131 0 -0.39276233290041079 -0.031327782835815443 0 -0.40940636167631478 -0.0059169101558246371 0 -0.40122161262503647 -0.0061944658318964681 0 -0.40473861881515599 -0.0095496550718263025 0 -0.40940636167631478 -0.0059169101558246371 0 -0.40122161262503647 -0.0061944658318964681 0 -0.39747222446939401 0.0021009111280557119 0 -0.40704100428570361 -0.01454374672074845 0 -0.40473861881515599 -0.0095496550718263025 0 -0.39851440323879972 -0.011839250595743931 0 -0.40122161262503647 -0.0061944658318964681 0 -0.40473861881515599 -0.0095496550718263025 0 -0.39851440323879972 -0.011839250595743931 0 -0.39851440323879972 -0.011839250595743931 0 -0.39398168693272601 -0.0039263993304375234 0 -0.38654870617167569 -0.0085941052078327071 0 -0.39663808486902219 -0.02187858467050666 0 -0.39851440323879972 -0.011839250595743931 0 -0.38654870617167569 -0.0085941052078327071 0 -0.40122161262503647 -0.0061944658318964681 0 -0.39398168693272601 -0.0039263993304375234 0 -0.39747222446939401 0.0021009111280557119 0 -0.40122161262503647 -0.0061944658318964681 0 -0.39851440323879972 -0.011839250595743931 0 -0.39398168693272601 -0.0039263993304375234 0 -0.39398168693272601 -0.0039263993304375234 0 -0.38711484779157168 -0.00085187064853555969 0 -0.39224677636555128 0.0018365780215424429 0 -0.39398168693272601 -0.0039263993304375234 0 -0.39224677636555128 0.0018365780215424429 0 -0.39747222446939401 0.0021009111280557119 0 -0.38711484779157168 -0.00085187064853555969 0 -0.38654870617167569 -0.0085941052078327071 0 -0.37744823449314668 -0.002724083045299296 0 -0.39398168693272601 -0.0039263993304375234 0 -0.38711484779157168 -0.00085187064853555969 0 -0.38654870617167569 -0.0085941052078327071 0 -0.38654870617167569 -0.0085941052078327071 0 -0.37676100499808618 -0.01460101658744465 0 -0.37744823449314668 -0.002724083045299296 0 -0.39663808486902219 -0.02187858467050666 0 -0.38654870617167569 -0.0085941052078327071 0 -0.38639314715524542 -0.024627350132744131 0 -0.36677412365980522 -0.024156160899122189 0 -0.38639314715524542 -0.024627350132744131 0 -0.38623758813881492 -0.040660595057655548 0 -0.38654870617167569 -0.0085941052078327071 0 -0.37676100499808618 -0.01460101658744465 0 -0.38639314715524542 -0.024627350132744131 0 -0.36677412365980522 -0.024156160899122189 0 -0.37676100499808618 -0.01460101658744465 0 -0.38639314715524542 -0.024627350132744131 0 -0.38654870617167569 -0.0085941052078327071 0 -0.38639314715524542 -0.024627350132744131 0 -0.36677412365980522 -0.024156160899122189 0 -0.37588013934093267 -0.044923037718606028 0 -0.38623758813881492 -0.040660595057655548 0 -0.36677412365980522 -0.024156160899122189 0 -0.38623758813881492 -0.040660595057655548 0 -0.38639314715524542 -0.024627350132744131 0 -0.38623758813881492 -0.040660595057655548 0 -0.39276233290041079 -0.031327782835815443 0 -0.38639314715524542 -0.024627350132744131 0 -0.38623758813881492 -0.040660595057655548 0 -0.38623758813881492 -0.040660595057655548 0 -0.39276233290041079 -0.031327782835815443 0 -0.3915538000802985 -0.04049303099871325 0 -0.39276233290041079 -0.031327782835815443 0 -0.40071153129108072 -0.03369004951414608 0 -0.39864102004390789 -0.038076902775538303 0 -0.39276233290041079 -0.031327782835815443 0 -0.3915538000802985 -0.04049303099871325 0 -0.39864102004390789 -0.038076902775538303 0 -0.38623758813881492 -0.040660595057655548 0 -0.3915538000802985 -0.04049303099871325 0 -0.39791231690569118 -0.050560414920632943 0 -0.38623758813881492 -0.040660595057655548 0 -0.39791231690569118 -0.050560414920632943 0 -0.3915538000802985 -0.04049303099871325 0 -0.40411501859126597 -0.045217207569789947 0 -0.39864102004390789 -0.038076902775538303 0 -0.40411501859126597 -0.045217207569789947 0 -0.40429150670743441 -0.038020105512483332 0 -0.39864102004390789 -0.038076902775538303 0 -0.40648035025199669 -0.032519391005830497 0 -0.40429150670743441 -0.038020105512483332 0 -0.40071153129108072 -0.03369004951414608 0 -0.40429150670743441 -0.038020105512483332 0 -0.40071153129108072 -0.03369004951414608 0 -0.39864102004390789 -0.038076902775538303 0 -0.40958704567256721 -0.060460234783610622 0 -0.3915538000802985 -0.04049303099871325 0 -0.40411501859126597 -0.045217207569789947 0 -0.40958704567256721 -0.060460234783610622 0 -0.3915538000802985 -0.04049303099871325 0 -0.39791231690569118 -0.050560414920632943 0 -0.40958704567256721 -0.060460234783610622 0 -0.3915538000802985 -0.04049303099871325 0 -0.38623758813881492 -0.040660595057655548 0 -0.39791231690569118 -0.050560414920632943 0 -0.3934903081432608 -0.056821262746563739 0 -0.40958704567256721 -0.060460234783610622 0 -0.39791231690569118 -0.050560414920632943 0 -0.39945125483638089 -0.063011679803123333 0 -0.40958704567256721 -0.060460234783610622 0 -0.39791231690569118 -0.050560414920632943 0 -0.39791231690569118 -0.050560414920632943 0 -0.3934903081432608 -0.056821262746563739 0 -0.39945125483638089 -0.063011679803123333 0 -0.3934903081432608 -0.056821262746563739 0 -0.38900142609889321 -0.063224298992510364 0 -0.39945125483638089 -0.063011679803123333 0 -0.38605849404409931 -0.059119566778389573 0 -0.38900142609889321 -0.063224298992510364 0 -0.38623758813881492 -0.040660595057655548 0 -0.38605849404409931 -0.059119566778389573 0 -0.38623758813881492 -0.040660595057655548 0 -0.3934903081432608 -0.056821262746563739 0 -0.38605849404409931 -0.059119566778389573 0 -0.37588013934093267 -0.044923037718606028 0 -0.38623758813881492 -0.040660595057655548 0 -0.38605849404409931 -0.059119566778389573 0 -0.3934903081432608 -0.056821262746563739 0 -0.38605849404409931 -0.059119566778389573 0 -0.38900142609889321 -0.063224298992510364 0 -0.37499372020549421 -0.057027089463448997 0 -0.37588013934093267 -0.044923037718606028 0 -0.38605849404409931 -0.059119566778389573 0 -0.37588013934093267 -0.044923037718606028 0 -0.38605849404409931 -0.059119566778389573 0 -0.38605849404409931 -0.059119566778389573 0 -0.38584292322064861 -0.08133814266272027 0 -0.38605849404409931 -0.059119566778389573 0 -0.38900142609889321 -0.063224298992510364 0 -0.38584292322064861 -0.08133814266272027 0 -0.38900142609889321 -0.063224298992510364 0 -0.38584292322064861 -0.08133814266272027 0 -0.39378444557865772 -0.070236207300516829 0 -0.37499372020549421 -0.057027089463448997 0 -0.38605849404409931 -0.059119566778389573 0 -0.38584292322064861 -0.08133814266272027 0 -0.37244036742442982 -0.088743793888634237 0 -0.38584292322064861 -0.08133814266272027 0 -0.38570049173017518 -0.096018352297512599 0 -0.38584292322064861 -0.08133814266272027 0 -0.38570049173017518 -0.096018352297512599 0 -0.38584292322064861 -0.08133814266272027 0 -0.4018317847602223 -0.088932638814847365 0 -0.38584292322064861 -0.08133814266272027 0 -0.4018317847602223 -0.088932638814847365 0 -0.40084217815870832 -0.07337070774371332 0 -0.38584292322064861 -0.08133814266272027 0 -0.4018317847602223 -0.088932638814847365 0 -0.38570049173017518 -0.096018352297512599 0 -0.4018317847602223 -0.088932638814847365 0 -0.40084217815870832 -0.07337070774371332 0 -0.41085964688561072 -0.077888367943821563 0 -0.40958704567256721 -0.060460234783610622 0 -0.40084217815870832 -0.07337070774371332 0 -0.39945125483638089 -0.063011679803123333 0 -0.38900142609889321 -0.063224298992510364 0 -0.39945125483638089 -0.063011679803123333 0 -0.39378444557865772 -0.070236207300516829 0 -0.40084217815870832 -0.07337070774371332 0 -0.39945125483638089 -0.063011679803123333 0 -0.39378444557865772 -0.070236207300516829 0 -0.38584292322064861 -0.08133814266272027 0 -0.40084217815870832 -0.07337070774371332 0 -0.39378444557865772 -0.070236207300516829 0 -0.37886590014221699 -0.11624347574354781 0 -0.40054704676148772 -0.12291288670600981 0 -0.38503499283567311 -0.1280556507325977 0 -0.37886590014221699 -0.11624347574354781 0 -0.40054704676148772 -0.12291288670600981 0 -0.37886590014221699 -0.11624347574354781 0 -0.39834327322100671 -0.1063853053552636 0 -0.37886590014221699 -0.11624347574354781 0 -0.38436323854155152 -0.1051210466347902 0 -0.39834327322100671 -0.1063853053552636 0 -0.38436323854155152 -0.1051210466347902 0 -0.38570049173017518 -0.096018352297512599 0 -0.39834327322100671 -0.1063853053552636 0 -0.3745432890728071 -0.1018370531428367 0 -0.37886590014221699 -0.11624347574354781 0 -0.38436323854155152 -0.1051210466347902 0 -0.3745432890728071 -0.1018370531428367 0 -0.38436323854155152 -0.1051210466347902 0 -0.38570049173017518 -0.096018352297512599 0 -0.3745432890728071 -0.1018370531428367 0 -0.37244036742442982 -0.088743793888634237 0 -0.38570049173017518 -0.096018352297512599 0 -0.4018317847602223 -0.088932638814847365 0 -0.39834327322100671 -0.1063853053552636 0 -0.41782064629979498 -0.096527134966976624 0 -0.4018317847602223 -0.088932638814847365 0 -0.38570049173017518 -0.096018352297512599 0 -0.39834327322100671 -0.1063853053552636 0 -0.37886590014221699 -0.11624347574354781 0 -0.39834327322100671 -0.1063853053552636 0 -0.40054704676148772 -0.12291288670600981 0 -0.39834327322100671 -0.1063853053552636 0 -0.40054704676148772 -0.12291288670600981 0 -0.41015842455671392 -0.1101829224109418 0 -0.40054704676148772 -0.12291288670600981 0 -0.41015842455671392 -0.1101829224109418 0 -0.42690175043357981 -0.13101994638646219 0 -0.40054704676148772 -0.12291288670600981 0 -0.41015842455671392 -0.1101829224109418 0 -0.42690175043357981 -0.13101994638646219 0 -0.41015842455671392 -0.1101829224109418 0 -0.42704806340084261 -0.1129127888561683 0 -0.39834327322100671 -0.1063853053552636 0 -0.41782064629979498 -0.096527134966976624 0 -0.39834327322100671 -0.1063853053552636 0 -0.41015842455671392 -0.1101829224109418 0 -0.41782064629979498 -0.096527134966976624 0 -0.41015842455671392 -0.1101829224109418 0 -0.41976980235194022 -0.097452958115873872 0 -0.42704806340084261 -0.1129127888561683 0 -0.41015842455671392 -0.1101829224109418 0 -0.41976980235194022 -0.097452958115873872 0 -0.41015842455671392 -0.1101829224109418 0 -0.41782064629979498 -0.096527134966976624 0 -0.41976980235194022 -0.097452958115873872 0 -0.41976980235194022 -0.097452958115873872 0 -0.42210669528465378 -0.094357817728236398 0 -0.41782064629979498 -0.096527134966976624 0 -0.41976980235194022 -0.097452958115873872 0 -0.42210669528465378 -0.094357817728236398 0 -0.41782064629979498 -0.096527134966976624 0 -0.42210669528465378 -0.094357817728236398 0 -0.41782064629979498 -0.096527134966976624 0 -0.41976980235194022 -0.097452958115873872 0 -0.42210669528465378 -0.094357817728236398 0 -0.44038081491379399 -0.1072429144054477 0 -0.44353558182417863 -0.098049549256699522 0 -0.41976980235194022 -0.097452958115873872 0 -0.44038081491379399 -0.1072429144054477 0 -0.41976980235194022 -0.097452958115873872 0 -0.42210669528465378 -0.094357817728236398 0 -0.44038081491379399 -0.1072429144054477 0 -0.41976980235194022 -0.097452958115873872 0 -0.42704806340084261 -0.1129127888561683 0 -0.44038081491379399 -0.1072429144054477 0 -0.42690175043357981 -0.13101994638646219 0 -0.42704806340084261 -0.1129127888561683 0 -0.44387412092493062 -0.12299702039557731 0 -0.42704806340084261 -0.1129127888561683 0 -0.44387412092493062 -0.12299702039557731 0 -0.44038081491379399 -0.1072429144054477 0 -0.40958704567256721 -0.060460234783610622 0 -0.40084217815870832 -0.07337070774371332 0 -0.41085964688561072 -0.077888367943821563 0 -0.40958704567256721 -0.060460234783610622 0 -0.41085964688561072 -0.077888367943821563 0 -0.4220559760856899 -0.074266383724724938 0 -0.40958704567256721 -0.060460234783610622 0 -0.4220559760856899 -0.074266383724724938 0 -0.42444343576095578 -0.073058008027511737 0 -0.40958704567256721 -0.060460234783610622 0 -0.42444343576095578 -0.073058008027511737 0 -0.40958704567256721 -0.060460234783610622 0 -0.4220559760856899 -0.074266383724724938 0 -0.4018317847602223 -0.088932638814847365 0 -0.41782064629979498 -0.096527134966976624 0 -0.4018317847602223 -0.088932638814847365 0 -0.41085964688561072 -0.077888367943821563 0 -0.41650072673444782 -0.088600531979853958 0 -0.41650072673444782 -0.088600531979853958 0 -0.42357308234445512 -0.09241563469145142 0 -0.4220559760856899 -0.074266383724724938 0 -0.4018317847602223 -0.088932638814847365 0 -0.41782064629979498 -0.096527134966976624 0 -0.41650072673444782 -0.088600531979853958 0 -0.41782064629979498 -0.096527134966976624 0 -0.42210669528465378 -0.094357817728236398 0 -0.41650072673444782 -0.088600531979853958 0 -0.42210669528465378 -0.094357817728236398 0 -0.41650072673444782 -0.088600531979853958 0 -0.42357308234445512 -0.09241563469145142 0 -0.41085964688561072 -0.077888367943821563 0 -0.41650072673444782 -0.088600531979853958 0 -0.4220559760856899 -0.074266383724724938 0 -0.42210669528465378 -0.094357817728236398 0 -0.43452490649881431 -0.088072532665837686 0 -0.44353558182417863 -0.098049549256699522 0 -0.42357308234445512 -0.09241563469145142 0 -0.43452490649881431 -0.088072532665837686 0 -0.4220559760856899 -0.074266383724724938 0 -0.43452490649881431 -0.088072532665837686 0 -0.4220559760856899 -0.074266383724724938 0 -0.43452490649881431 -0.088072532665837686 0 -0.4220559760856899 -0.074266383724724938 0 -0.42444343576095578 -0.073058008027511737 0 -0.42210669528465378 -0.094357817728236398 0 -0.42357308234445512 -0.09241563469145142 0 -0.43452490649881431 -0.088072532665837686 0 -0.42210669528465378 -0.094357817728236398 0 -0.43452490649881431 -0.088072532665837686 0 -0.42210669528465378 -0.094357817728236398 0 -0.42357308234445512 -0.09241563469145142 0 -0.43452490649881431 -0.088072532665837686 0 -0.43929982584934357 -0.08565578127141385 0 -0.43452490649881431 -0.088072532665837686 0 -0.42444343576095578 -0.073058008027511737 0 -0.43929982584934357 -0.08565578127141385 0 -0.42444343576095578 -0.073058008027511737 0 -0.43929982584934357 -0.08565578127141385 0 -0.42444343576095578 -0.073058008027511737 0 -0.43765582149171611 -0.072535673825628283 0 -0.43929982584934357 -0.08565578127141385 0 -0.43724709455810118 -0.061835463204294727 0 -0.42444343576095578 -0.073058008027511737 0 -0.43765582149171611 -0.072535673825628283 0 -0.43724709455810118 -0.061835463204294727 0 -0.44639411468113299 -0.071638670810972388 0 -0.43765582149171611 -0.072535673825628283 0 -0.43724709455810118 -0.061835463204294727 0 -0.44639411468113299 -0.071638670810972388 0 -0.45437283057840722 -0.064242056800786249 0 -0.44639411468113299 -0.071638670810972388 0 -0.44725500092735038 -0.081629392750213095 0 -0.45543982585009052 -0.077950767473939572 0 -0.44639411468113299 -0.071638670810972388 0 -0.45437283057840722 -0.064242056800786249 0 -0.45543982585009052 -0.077950767473939572 0 -0.44639411468113299 -0.071638670810972388 0 -0.43765582149171611 -0.072535673825628283 0 -0.44725500092735038 -0.081629392750213095 0 -0.43929982584934357 -0.08565578127141385 0 -0.44725500092735038 -0.081629392750213095 0 -0.43765582149171611 -0.072535673825628283 0 -0.43929982584934357 -0.08565578127141385 0 -0.44725500092735038 -0.081629392750213095 0 -0.43929982584934357 -0.08565578127141385 0 -0.44933186478509829 -0.087972816784106914 0 -0.44725500092735038 -0.081629392750213095 0 -0.43929982584934357 -0.08565578127141385 0 -0.44353558182417863 -0.098049549256699522 0 -0.45189827843509772 -0.096338891229829235 0 -0.43452490649881431 -0.088072532665837686 0 -0.44353558182417863 -0.098049549256699522 0 -0.43452490649881431 -0.088072532665837686 0 -0.43929982584934357 -0.08565578127141385 0 -0.44353558182417863 -0.098049549256699522 0 -0.43929982584934357 -0.08565578127141385 0 -0.44933186478509829 -0.087972816784106914 0 -0.45189827843509772 -0.096338891229829235 0 -0.43929982584934357 -0.08565578127141385 0 -0.45189827843509772 -0.096338891229829235 0 -0.44933186478509829 -0.087972816784106914 0 -0.44725500092735038 -0.081629392750213095 0 -0.45887435392860099 -0.088267201884971933 0 -0.44725500092735038 -0.081629392750213095 0 -0.45887435392860099 -0.088267201884971933 0 -0.45543982585009052 -0.077950767473939572 0 -0.45887435392860099 -0.088267201884971933 0 -0.46449673102085121 -0.1070220011882452 0 -0.47211037024972963 -0.085275568566332977 0 -0.44933186478509829 -0.087972816784106914 0 -0.45887435392860099 -0.088267201884971933 0 -0.45189827843509772 -0.096338891229829235 0 -0.45887435392860099 -0.088267201884971933 0 -0.4693616535457712 -0.083683772349106733 0 -0.47211037024972963 -0.085275568566332977 0 -0.45887435392860099 -0.088267201884971933 0 -0.45543982585009052 -0.077950767473939572 0 -0.4693616535457712 -0.083683772349106733 0 -0.45437283057840722 -0.064242056800786249 0 -0.4693616535457712 -0.083683772349106733 0 -0.46721585007003152 -0.069839341305210245 0 -0.45437283057840722 -0.064242056800786249 0 -0.4693616535457712 -0.083683772349106733 0 -0.46721585007003152 -0.069839341305210245 0 -0.45437283057840722 -0.064242056800786249 0 -0.45832754774235679 -0.054195773229472402 0 -0.45437283057840722 -0.064242056800786249 0 -0.45543982585009052 -0.077950767473939572 0 -0.4693616535457712 -0.083683772349106733 0 -0.44387412092493062 -0.12299702039557731 0 -0.44038081491379399 -0.1072429144054477 0 -0.4609918274756486 -0.11703287069502 0 -0.44038081491379399 -0.1072429144054477 0 -0.45411165947935628 -0.1071663829878632 0 -0.4609918274756486 -0.11703287069502 0 -0.44038081491379399 -0.1072429144054477 0 -0.4609918274756486 -0.11703287069502 0 -0.44807147942847148 -0.10286563479782811 0 -0.44038081491379399 -0.1072429144054477 0 -0.45411165947935628 -0.1071663829878632 0 -0.44807147942847148 -0.10286563479782811 0 -0.45189827843509772 -0.096338891229829235 0 -0.45411165947935628 -0.1071663829878632 0 -0.44807147942847148 -0.10286563479782811 0 -0.44038081491379399 -0.1072429144054477 0 -0.44353558182417863 -0.098049549256699522 0 -0.44807147942847148 -0.10286563479782811 0 -0.44353558182417863 -0.098049549256699522 0 -0.45189827843509772 -0.096338891229829235 0 -0.46449673102085121 -0.1070220011882452 0 -0.47211037024972963 -0.085275568566332977 0 -0.45887435392860099 -0.088267201884971933 0 -0.45189827843509772 -0.096338891229829235 0 -0.46449673102085121 -0.1070220011882452 0 -0.45189827843509772 -0.096338891229829235 0 -0.46449673102085121 -0.1070220011882452 0 -0.45189827843509772 -0.096338891229829235 0 -0.46449673102085121 -0.1070220011882452 0 -0.45411165947935628 -0.1071663829878632 0 -0.46449673102085121 -0.1070220011882452 0 -0.4609918274756486 -0.11703287069502 0 -0.47975790652389982 -0.1199630203240484 0 -0.46449673102085121 -0.1070220011882452 0 -0.45411165947935628 -0.1071663829878632 0 -0.4609918274756486 -0.11703287069502 0 -0.46449673102085121 -0.1070220011882452 0 -0.4609918274756486 -0.11703287069502 0 -0.4804959137378213 -0.12629705174394701 0 -0.4609918274756486 -0.11703287069502 0 -0.4804959137378213 -0.12629705174394701 0 -0.4609918274756486 -0.11703287069502 0 -0.47975790652389982 -0.1199630203240484 0 -0.4804959137378213 -0.12629705174394701 0 -0.47975790652389982 -0.1199630203240484 0 -0.48952413375192211 -0.1209705482846456 0 -0.46449673102085121 -0.1070220011882452 0 -0.47975790652389982 -0.1199630203240484 0 -0.47911024436285859 -0.1092356213141671 0 -0.46449673102085121 -0.1070220011882452 0 -0.47975790652389982 -0.1199630203240484 0 -0.47975790652389982 -0.1199630203240484 0 -0.47911024436285859 -0.1092356213141671 0 -0.48736684849789491 -0.11193022211946781 0 -0.46449673102085121 -0.1070220011882452 0 -0.47911024436285859 -0.1092356213141671 0 -0.4848194914087891 -0.098027241624907197 0 -0.46449673102085121 -0.1070220011882452 0 -0.4848194914087891 -0.098027241624907197 0 -0.47211037024972963 -0.085275568566332977 0 -0.47911024436285859 -0.1092356213141671 0 -0.4848194914087891 -0.098027241624907197 0 -0.48736684849789491 -0.11193022211946781 0 -0.4848194914087891 -0.098027241624907197 0 -0.5 -0.1111012144428908 0 -0.5 -0.086641196092909656 0 -0.4848194914087891 -0.098027241624907197 0 -0.48736684849789491 -0.11193022211946781 0 -0.5 -0.1111012144428908 0 -0.49999999999999489 -0.1355612327928718 0 -0.5 -0.1111012144428908 0 -0.48952413375192211 -0.1209705482846456 0 -0.48736684849789491 -0.11193022211946781 0 -0.5 -0.1111012144428908 0 -0.48952413375192211 -0.1209705482846456 0 -0.47975790652389982 -0.1199630203240484 0 -0.48736684849789491 -0.11193022211946781 0 -0.48952413375192211 -0.1209705482846456 0 -0.46721585007003152 -0.069839341305210245 0 -0.47972400947860838 -0.063529135944420875 0 -0.47211037024972963 -0.085275568566332977 0 -0.47972400947860838 -0.063529135944420875 0 -0.47211037024972963 -0.085275568566332977 0 -0.47972400947860838 -0.063529135944420875 0 -0.47211037024972963 -0.085275568566332977 0 -0.49063025551841127 -0.074411186917920938 0 -0.46721585007003152 -0.069839341305210245 0 -0.47972400947860838 -0.063529135944420875 0 -0.46830525632696351 -0.055895838338678283 0 -0.46721585007003152 -0.069839341305210245 0 -0.4693616535457712 -0.083683772349106733 0 -0.47211037024972963 -0.085275568566332977 0 -0.4848194914087891 -0.098027241624907197 0 -0.47211037024972963 -0.085275568566332977 0 -0.49063025551841127 -0.074411186917920938 0 -0.4848194914087891 -0.098027241624907197 0 -0.5 -0.086641196092909656 0 -0.49063025551841127 -0.074411186917920938 0 -0.5 -0.086641196092909656 0 -0.49063025551841127 -0.074411186917920938 0 -0.499999999999998 -0.062181177742928667 0 -0.47972400947860838 -0.063529135944420875 0 -0.49063025551841127 -0.074411186917920938 0 -0.499999999999998 -0.062181177742928667 0 -0.499999999999998 -0.062181177742928667 0 -0.48733764870748741 -0.041782703322508823 0 -0.47972400947860838 -0.063529135944420875 0 -0.499999999999998 -0.062181177742928667 0 -0.48733764870748741 -0.041782703322508823 0 -0.499999999999998 -0.062181177742928667 0 -0.5 -0.04017586859957667 0 -0.48733764870748741 -0.041782703322508823 0 -0.5 -0.04017586859957667 0 -0.48733764870748741 -0.041782703322508823 0 -0.49085267797721699 -0.031742912247527538 0 -0.48733764870748741 -0.041782703322508823 0 -0.49085267797721699 -0.031742912247527538 0 -0.48733764870748741 -0.041782703322508823 0 -0.47367277336520802 -0.035378383697717578 0 -0.47264466790280357 -0.01811297673062669 0 -0.48733764870748741 -0.041782703322508823 0 -0.47264858485916511 -0.04496052496223351 0 -0.47367277336520802 -0.035378383697717578 0 -0.47264858485916511 -0.04496052496223351 0 -0.47367277336520802 -0.035378383697717578 0 -0.46707511071837482 -0.039774502026946483 0 -0.47367277336520802 -0.035378383697717578 0 -0.46707511071837482 -0.039774502026946483 0 -0.46681096674437739 -0.030851870459641419 0 -0.47972400947860838 -0.063529135944420875 0 -0.48733764870748741 -0.041782703322508823 0 -0.47264858485916511 -0.04496052496223351 0 -0.47972400947860838 -0.063529135944420875 0 -0.47264858485916511 -0.04496052496223351 0 -0.46830525632696351 -0.055895838338678283 0 -0.47972400947860838 -0.063529135944420875 0 -0.48733764870748741 -0.041782703322508823 0 -0.46721585007003152 -0.069839341305210245 0 -0.46830525632696351 -0.055895838338678283 0 -0.45832754774235679 -0.054195773229472402 0 -0.45832754774235679 -0.054195773229472402 0 -0.45739408262294229 -0.047627376754442667 0 -0.46361028948465588 -0.046954416252054307 0 -0.46830525632696351 -0.055895838338678283 0 -0.45832754774235679 -0.054195773229472402 0 -0.46361028948465588 -0.046954416252054307 0 -0.47264858485916511 -0.04496052496223351 0 -0.46830525632696351 -0.055895838338678283 0 -0.46361028948465588 -0.046954416252054307 0 -0.46361028948465588 -0.046954416252054307 0 -0.46707511071837482 -0.039774502026946483 0 -0.45796884003479371 -0.041739928898562657 0 -0.47264858485916511 -0.04496052496223351 0 -0.46361028948465588 -0.046954416252054307 0 -0.46707511071837482 -0.039774502026946483 0 -0.46707511071837482 -0.039774502026946483 0 -0.45796884003479371 -0.041739928898562657 0 -0.46681096674437739 -0.030851870459641419 0 -0.45505302902757611 -0.033061506121560343 0 -0.45796884003479371 -0.041739928898562657 0 -0.45433233209157908 -0.042565946914775832 0 -0.45739408262294229 -0.047627376754442667 0 -0.46361028948465588 -0.046954416252054307 0 -0.45796884003479371 -0.041739928898562657 0 -0.45739408262294229 -0.047627376754442667 0 -0.45796884003479371 -0.041739928898562657 0 -0.45433233209157908 -0.042565946914775832 0 -0.45739408262294229 -0.047627376754442667 0 -0.45433233209157908 -0.042565946914775832 0 -0.43938400761104301 -0.044800341252465722 0 -0.43434562343555277 -0.023880679378539701 0 -0.45433233209157908 -0.042565946914775832 0 -0.44895143550799321 -0.028777259638466949 0 -0.43434562343555277 -0.023880679378539701 0 -0.45433233209157908 -0.042565946914775832 0 -0.43434562343555277 -0.023880679378539701 0 -0.45433233209157908 -0.042565946914775832 0 -0.43938400761104301 -0.044800341252465722 0 -0.45505302902757611 -0.033061506121560343 0 -0.45433233209157908 -0.042565946914775832 0 -0.44895143550799321 -0.028777259638466949 0 -0.45437283057840722 -0.064242056800786249 0 -0.45832754774235679 -0.054195773229472402 0 -0.43938400761104301 -0.044800341252465722 0 -0.45832754774235679 -0.054195773229472402 0 -0.45739408262294229 -0.047627376754442667 0 -0.43938400761104301 -0.044800341252465722 0 -0.45437283057840722 -0.064242056800786249 0 -0.43938400761104301 -0.044800341252465722 0 -0.43724709455810118 -0.061835463204294727 0 -0.45437283057840722 -0.064242056800786249 0 -0.43938400761104301 -0.044800341252465722 0 -0.44741350942271257 -0.017021061362213909 0 -0.45430515552566142 -0.018074419516373709 0 -0.45434569391027901 -0.0061761300106339626 0 -0.44362023996696348 -0.01092279103134575 0 -0.44741350942271257 -0.017021061362213909 0 -0.45434569391027901 -0.0061761300106339626 0 -0.44539864997285922 -0.0021628660365445411 0 -0.44362023996696348 -0.01092279103134575 0 -0.45434569391027901 -0.0061761300106339626 0 -0.43622475355665491 -0.0049987015173346893 0 -0.44539864997285922 -0.0021628660365445411 0 -0.44362023996696348 -0.01092279103134575 0 -0.43622475355665491 -0.0049987015173346893 0 -0.44539864997285922 -0.0021628660365445411 0 -0.43939345035808453 0.0032490758603283998 0 -0.43622475355665491 -0.0049987015173346893 0 -0.43682051540353412 -0.01426850615975481 0 -0.44362023996696348 -0.01092279103134575 0 -0.44362023996696348 -0.01092279103134575 0 -0.44134404119706899 -0.01769739530444427 0 -0.44741350942271257 -0.017021061362213909 0 -0.43682051540353412 -0.01426850615975481 0 -0.44362023996696348 -0.01092279103134575 0 -0.44134404119706899 -0.01769739530444427 0 -0.43434562343555277 -0.023880679378539701 0 -0.44134404119706899 -0.01769739530444427 0 -0.44452031775658229 -0.022393938590367181 0 -0.44134404119706899 -0.01769739530444427 0 -0.44452031775658229 -0.022393938590367181 0 -0.44741350942271257 -0.017021061362213909 0 -0.43434562343555277 -0.023880679378539701 0 -0.44452031775658229 -0.022393938590367181 0 -0.44895143550799321 -0.028777259638466949 0 -0.44452031775658229 -0.022393938590367181 0 -0.44895143550799321 -0.028777259638466949 0 -0.45161058191799142 -0.022988221058139292 0 -0.44895143550799321 -0.028777259638466949 0 -0.45161058191799142 -0.022988221058139292 0 -0.45384672881867738 -0.027773265767419359 0 -0.45505302902757611 -0.033061506121560343 0 -0.44895143550799321 -0.028777259638466949 0 -0.45384672881867738 -0.027773265767419359 0 -0.44452031775658229 -0.022393938590367181 0 -0.44741350942271257 -0.017021061362213909 0 -0.45161058191799142 -0.022988221058139292 0 -0.44741350942271257 -0.017021061362213909 0 -0.45161058191799142 -0.022988221058139292 0 -0.45430515552566142 -0.018074419516373709 0 -0.45161058191799142 -0.022988221058139292 0 -0.45384672881867738 -0.027773265767419359 0 -0.46151765593888899 -0.01808958316511225 0 -0.45796884003479371 -0.041739928898562657 0 -0.46151765593888899 -0.01808958316511225 0 -0.45161058191799142 -0.022988221058139292 0 -0.45430515552566142 -0.018074419516373709 0 -0.46151765593888899 -0.01808958316511225 0 -0.45505302902757611 -0.033061506121560343 0 -0.45796884003479371 -0.041739928898562657 0 -0.46151765593888899 -0.01808958316511225 0 -0.45796884003479371 -0.041739928898562657 0 -0.46681096674437739 -0.030851870459641419 0 -0.46151765593888899 -0.01808958316511225 0 -0.45430515552566142 -0.018074419516373709 0 -0.46151765593888899 -0.01808958316511225 0 -0.45505302902757611 -0.033061506121560343 0 -0.45384672881867738 -0.027773265767419359 0 -0.46151765593888899 -0.01808958316511225 0 -0.46151765593888899 -0.01808958316511225 0 -0.47264466790280357 -0.01811297673062669 0 -0.46681096674437739 -0.030851870459641419 0 -0.46151765593888899 -0.01808958316511225 0 -0.47264466790280357 -0.01811297673062669 0 -0.46151765593888899 -0.01808958316511225 0 -0.45434569391027901 -0.0061761300106339626 0 -0.4647411693553587 0.0033928517754987582 0 -0.46151765593888899 -0.01808958316511225 0 -0.4651582146850381 -0.0060526396783260189 0 -0.4647411693553587 0.0033928517754987582 0 -0.46151765593888899 -0.01808958316511225 0 -0.4651582146850381 -0.0060526396783260189 0 -0.47264466790280357 -0.01811297673062669 0 -0.46151765593888899 -0.01808958316511225 0 -0.4647411693553587 0.0033928517754987582 0 -0.45430515552566142 -0.018074419516373709 0 -0.46151765593888899 -0.01808958316511225 0 -0.45434569391027901 -0.0061761300106339626 0 -0.47759254546356711 -0.00077167599016167421 0 -0.47264466790280357 -0.01811297673062669 0 -0.50003355294535201 -0.018170559456224721 0 -0.4651582146850381 -0.0060526396783260189 0 -0.47759254546356711 -0.00077167599016167421 0 -0.4647411693553587 0.0033928517754987582 0 -0.4651582146850381 -0.0060526396783260189 0 -0.47759254546356711 -0.00077167599016167421 0 -0.47264466790280357 -0.01811297673062669 0 -0.4651582146850381 -0.0060526396783260189 0 -0.47264466790280357 -0.01811297673062669 0 -0.48733764870748741 -0.041782703322508823 0 -0.47264466790280357 -0.01811297673062669 0 -0.48733764870748741 -0.041782703322508823 0 -0.49085267797721699 -0.031742912247527538 0 -0.47264466790280357 -0.01811297673062669 0 -0.47367277336520802 -0.035378383697717578 0 -0.46681096674437739 -0.030851870459641419 0 -0.47264466790280357 -0.01811297673062669 0 -0.47264466790280357 -0.01811297673062669 0 -0.50003355294535201 -0.018170559456224721 0 -0.49085267797721699 -0.031742912247527538 0 -0.47264466790280357 -0.01811297673062669 0 -0.50003355294535201 -0.018170559456224721 0 -0.5 -0.04017586859957667 0 -0.49085267797721699 -0.031742912247527538 0 -0.50003355294535201 -0.018170559456224721 0 -0.50003355294535201 -0.018170559456224721 0 -0.4905547308183672 0.0030339659022659352 0 -0.50003355294535201 -0.018170559456224721 0 -0.4905547308183672 0.0030339659022659352 0 -0.5 0.011090670742144589 0 -0.47759254546356711 -0.00077167599016167421 0 -0.50003355294535201 -0.018170559456224721 0 -0.4905547308183672 0.0030339659022659352 0 -0.4905547308183672 0.0030339659022659352 0 -0.5 0.011090670742144589 0 -0.48107590869138162 0.024238491260756379 0 -0.4905547308183672 0.0030339659022659352 0 -0.48107590869138162 0.024238491260756379 0 -0.5 0.011090670742144589 0 -0.48107590869138162 0.024238491260756379 0 -0.500000000000001 0.040351900940513892 0 -0.48107590869138162 0.024238491260756379 0 -0.46757383539515118 0.01274179982125192 0 -0.46796468277182862 0.024875286716109699 0 -0.48107590869138162 0.024238491260756379 0 -0.46757383539515118 0.01274179982125192 0 -0.47759254546356711 -0.00077167599016167421 0 -0.4905547308183672 0.0030339659022659352 0 -0.48107590869138162 0.024238491260756379 0 -0.47759254546356711 -0.00077167599016167421 0 -0.48107590869138162 0.024238491260756379 0 -0.46757383539515118 0.01274179982125192 0 -0.47759254546356711 -0.00077167599016167421 0 -0.4647411693553587 0.0033928517754987582 0 -0.46757383539515118 0.01274179982125192 0 -0.49048990023457278 0.050675031769034172 0 -0.500000000000001 0.040351900940513892 0 -0.5 0.064174306300444961 0 -0.48827700876319202 0.060217435392076038 0 -0.49048990023457278 0.050675031769034172 0 -0.5 0.064174306300444961 0 -0.49048990023457278 0.050675031769034172 0 -0.48413550493057173 0.041230774043059928 0 -0.47928065604104658 0.052404277229944153 0 -0.48827700876319202 0.060217435392076038 0 -0.49048990023457278 0.050675031769034172 0 -0.47928065604104658 0.052404277229944153 0 -0.48107590869138162 0.024238491260756379 0 -0.500000000000001 0.040351900940513892 0 -0.48413550493057173 0.041230774043059928 0 -0.48107590869138162 0.024238491260756379 0 -0.500000000000001 0.040351900940513892 0 -0.49048990023457278 0.050675031769034172 0 -0.500000000000001 0.040351900940513892 0 -0.48413550493057173 0.041230774043059928 0 -0.48107590869138162 0.024238491260756379 0 -0.47118819618829738 0.046357721656720807 0 -0.48107590869138162 0.024238491260756379 0 -0.47118819618829738 0.046357721656720807 0 -0.46796468277182862 0.024875286716109699 0 -0.48107590869138162 0.024238491260756379 0 -0.47118819618829738 0.046357721656720807 0 -0.48413550493057173 0.041230774043059928 0 -0.47118819618829738 0.046357721656720807 0 -0.46796468277182862 0.024875286716109699 0 -0.47118819618829738 0.046357721656720807 0 -0.48413550493057173 0.041230774043059928 0 -0.47928065604104658 0.052404277229944153 0 -0.48827700876319202 0.060217435392076038 0 -0.47928065604104658 0.052404277229944153 0 -0.4797354273027547 0.074594636356359406 0 -0.47928065604104658 0.052404277229944153 0 -0.47144979076947302 0.048101064352980193 0 -0.47334817443016519 0.053035542134479197 0 -0.47118819618829738 0.046357721656720807 0 -0.47928065604104658 0.052404277229944153 0 -0.47144979076947302 0.048101064352980193 0 -0.47118819618829738 0.046357721656720807 0 -0.46923309885404918 0.05073135695095507 0 -0.47144979076947302 0.048101064352980193 0 -0.46923309885404918 0.05073135695095507 0 -0.47144979076947302 0.048101064352980193 0 -0.47334817443016519 0.053035542134479197 0 -0.47118819618829738 0.046357721656720807 0 -0.46923309885404918 0.05073135695095507 0 -0.47118819618829738 0.046357721656720807 0 -0.47144979076947302 0.048101064352980193 0 -0.46923309885404918 0.05073135695095507 0 -0.47334817443016519 0.053035542134479197 0 -0.46563774281660331 0.05659017135462794 0 -0.47334817443016519 0.053035542134479197 0 -0.47194333378557402 0.061798583466398098 0 -0.46563774281660331 0.05659017135462794 0 -0.47928065604104658 0.052404277229944153 0 -0.47334817443016519 0.053035542134479197 0 -0.47194333378557402 0.061798583466398098 0 -0.45496164182301579 0.058357230723331072 0 -0.462033864792393 0.044889363451192293 0 -0.45044691508745782 0.040478022596933998 0 -0.45496164182301579 0.058357230723331072 0 -0.46563774281660331 0.05659017135462794 0 -0.46441113346591922 0.069467038344404347 0 -0.46923309885404918 0.05073135695095507 0 -0.46563774281660331 0.05659017135462794 0 -0.462033864792393 0.044889363451192293 0 -0.47118819618829738 0.046357721656720807 0 -0.46923309885404918 0.05073135695095507 0 -0.462033864792393 0.044889363451192293 0 -0.45496164182301579 0.058357230723331072 0 -0.46563774281660331 0.05659017135462794 0 -0.462033864792393 0.044889363451192293 0 -0.462033864792393 0.044889363451192293 0 -0.45044691508745782 0.040478022596933998 0 -0.46796468277182862 0.024875286716109699 0 -0.47118819618829738 0.046357721656720807 0 -0.462033864792393 0.044889363451192293 0 -0.46796468277182862 0.024875286716109699 0 -0.45044691508745782 0.040478022596933998 0 -0.44756782554266561 0.024860898762258669 0 -0.42895755797442192 0.034065464600647341 0 -0.45044691508745782 0.040478022596933998 0 -0.43856649164110573 0.051731076461151083 0 -0.42895755797442192 0.034065464600647341 0 -0.45496164182301579 0.058357230723331072 0 -0.45044691508745782 0.040478022596933998 0 -0.43856649164110573 0.051731076461151083 0 -0.4647411693553587 0.0033928517754987582 0 -0.46796468277182862 0.024875286716109699 0 -0.45074421952395433 0.0087400782126690578 0 -0.4647411693553587 0.0033928517754987582 0 -0.46796468277182862 0.024875286716109699 0 -0.4647411693553587 0.0033928517754987582 0 -0.46757383539515118 0.01274179982125192 0 -0.46796468277182862 0.024875286716109699 0 -0.45434569391027901 -0.0061761300106339626 0 -0.4647411693553587 0.0033928517754987582 0 -0.45074421952395433 0.0087400782126690578 0 -0.46796468277182862 0.024875286716109699 0 -0.44756782554266561 0.024860898762258669 0 -0.45074421952395433 0.0087400782126690578 0 -0.45044691508745782 0.040478022596933998 0 -0.46796468277182862 0.024875286716109699 0 -0.44756782554266561 0.024860898762258669 0 -0.44756782554266561 0.024860898762258669 0 -0.45074421952395433 0.0087400782126690578 0 -0.43446561848242488 0.013494361269869269 0 -0.45074421952395433 0.0087400782126690578 0 -0.43939345035808453 0.0032490758603283998 0 -0.43446561848242488 0.013494361269869269 0 -0.44539864997285922 -0.0021628660365445411 0 -0.45434569391027901 -0.0061761300106339626 0 -0.45074421952395433 0.0087400782126690578 0 -0.44539864997285922 -0.0021628660365445411 0 -0.45074421952395433 0.0087400782126690578 0 -0.43939345035808453 0.0032490758603283998 0 -0.43939345035808453 0.0032490758603283998 0 -0.43148594715889682 0.0028075617597996621 0 -0.43446561848242488 0.013494361269869269 0 -0.43622475355665491 -0.0049987015173346893 0 -0.43939345035808453 0.0032490758603283998 0 -0.43148594715889682 0.0028075617597996621 0 -0.43446561848242488 0.013494361269869269 0 -0.42247704106848522 0.0069057903313201018 0 -0.42154522902345981 0.01932866050324859 0 -0.42583838960145631 -0.0024653086991814348 0 -0.43148594715889682 0.0028075617597996621 0 -0.42247704106848522 0.0069057903313201018 0 -0.42583838960145631 -0.0024653086991814348 0 -0.41832880703149561 -0.0004634120029845144 0 -0.42247704106848522 0.0069057903313201018 0 -0.43148594715889682 0.0028075617597996621 0 -0.43446561848242488 0.013494361269869269 0 -0.42247704106848522 0.0069057903313201018 0 -0.41832880703149561 -0.0004634120029845144 0 -0.42247704106848522 0.0069057903313201018 0 -0.41517733284298303 0.0046490722233908594 0 -0.41832880703149561 -0.0004634120029845144 0 -0.41517733284298303 0.0046490722233908594 0 -0.41246238514309019 0.0014755993293775881 0 -0.42247704106848522 0.0069057903313201018 0 -0.41517733284298303 0.0046490722233908594 0 -0.41566533227754132 0.011384728077646339 0 -0.42247704106848522 0.0069057903313201018 0 -0.41566533227754132 0.011384728077646339 0 -0.42154522902345981 0.01932866050324859 0 -0.41517733284298303 0.0046490722233908594 0 -0.41566533227754132 0.011384728077646339 0 -0.41183396506920411 0.0080009495788197008 0 -0.41566533227754132 0.011384728077646339 0 -0.41183396506920411 0.0080009495788197008 0 -0.41015945042515628 0.01222141704464246 0 -0.41566533227754132 0.011384728077646339 0 -0.41015945042515628 0.01222141704464246 0 -0.41216153142211748 0.01806004823452937 0 -0.41015945042515628 0.01222141704464246 0 -0.4075698620567737 0.016067732186752011 0 -0.41216153142211748 0.01806004823452937 0 -0.41015945042515628 0.01222141704464246 0 -0.4075698620567737 0.016067732186752011 0 -0.40506814753737008 0.011905188299553541 0 -0.41015945042515628 0.01222141704464246 0 -0.40811976614889189 0.0082149657040945078 0 -0.40506814753737008 0.011905188299553541 0 -0.41183396506920411 0.0080009495788197008 0 -0.41015945042515628 0.01222141704464246 0 -0.40811976614889189 0.0082149657040945078 0 -0.41246238514309019 0.0014755993293775881 0 -0.41033005724831589 0.0054794774991625741 0 -0.40399686026169068 0.0072053305506378316 0 -0.40811976614889189 0.0082149657040945078 0 -0.41033005724831589 0.0054794774991625741 0 -0.40399686026169068 0.0072053305506378316 0 -0.41435891477952641 -0.0051954118423035728 0 -0.41246238514309019 0.0014755993293775881 0 -0.40399686026169068 0.0072053305506378316 0 -0.41183396506920411 0.0080009495788197008 0 -0.40811976614889189 0.0082149657040945078 0 -0.41033005724831589 0.0054794774991625741 0 -0.41517733284298303 0.0046490722233908594 0 -0.41246238514309019 0.0014755993293775881 0 -0.41033005724831589 0.0054794774991625741 0 -0.41517733284298303 0.0046490722233908594 0 -0.41183396506920411 0.0080009495788197008 0 -0.41033005724831589 0.0054794774991625741 0 -0.41377011961126459 0.027226639461305931 0 -0.40600416179791488 0.021671931934105201 0 -0.40596884472725492 0.029475256285201021 0 -0.41377011961126459 0.027226639461305931 0 -0.41216153142211748 0.01806004823452937 0 -0.40600416179791488 0.021671931934105201 0 -0.4075698620567737 0.016067732186752011 0 -0.41216153142211748 0.01806004823452937 0 -0.40600416179791488 0.021671931934105201 0 -0.41377011961126459 0.027226639461305931 0 -0.41216153142211748 0.01806004823452937 0 -0.42154522902345981 0.01932866050324859 0 -0.41566533227754132 0.011384728077646339 0 -0.41216153142211748 0.01806004823452937 0 -0.42154522902345981 0.01932866050324859 0 -0.41377011961126459 0.027226639461305931 0 -0.42154522902345981 0.01932866050324859 0 -0.42895755797442192 0.034065464600647341 0 -0.43446561848242488 0.013494361269869269 0 -0.42154522902345981 0.01932866050324859 0 -0.42895755797442192 0.034065464600647341 0 -0.44756782554266561 0.024860898762258669 0 -0.43446561848242488 0.013494361269869269 0 -0.42895755797442192 0.034065464600647341 0 -0.43856649164110573 0.051731076461151083 0 -0.41531371928430427 0.055814069477497771 0 -0.4224950586460825 0.076294538832927972 0 -0.43856649164110573 0.051731076461151083 0 -0.42895755797442192 0.034065464600647341 0 -0.41531371928430427 0.055814069477497771 0 -0.41531371928430427 0.055814069477497771 0 -0.41101534006579787 0.038328752056662613 0 -0.4003822947338338 0.047071023733474403 0 -0.41531371928430427 0.055814069477497771 0 -0.40366562884187529 0.057337969165165738 0 -0.4003822947338338 0.047071023733474403 0 -0.41531371928430427 0.055814069477497771 0 -0.40366562884187529 0.057337969165165738 0 -0.40433041119621921 0.066831561092022818 0 -0.42895755797442192 0.034065464600647341 0 -0.41531371928430427 0.055814069477497771 0 -0.41101534006579787 0.038328752056662613 0 -0.41377011961126459 0.027226639461305931 0 -0.42895755797442192 0.034065464600647341 0 -0.41101534006579787 0.038328752056662613 0 -0.41377011961126459 0.027226639461305931 0 -0.41101534006579787 0.038328752056662613 0 -0.40596884472725492 0.029475256285201021 0 -0.41101534006579787 0.038328752056662613 0 -0.39951905442062352 0.034801461338769192 0 -0.40596884472725492 0.029475256285201021 0 -0.41101534006579787 0.038328752056662613 0 -0.39951905442062352 0.034801461338769192 0 -0.4003822947338338 0.047071023733474403 0 -0.39951905442062352 0.034801461338769192 0 -0.4003822947338338 0.047071023733474403 0 -0.38691698238994471 0.038367409550551908 0 -0.4003822947338338 0.047071023733474403 0 -0.389930246751442 0.049482182042022267 0 -0.38691698238994471 0.038367409550551908 0 -0.39951905442062352 0.034801461338769192 0 -0.38691698238994471 0.038367409550551908 0 -0.39295301096682889 0.030427289110890769 0 -0.40366562884187529 0.057337969165165738 0 -0.39225248420060299 0.059095662362433632 0 -0.40433041119621921 0.066831561092022818 0 -0.40366562884187529 0.057337969165165738 0 -0.4003822947338338 0.047071023733474403 0 -0.39225248420060299 0.059095662362433632 0 -0.4003822947338338 0.047071023733474403 0 -0.39225248420060299 0.059095662362433632 0 -0.389930246751442 0.049482182042022267 0 -0.39225248420060299 0.059095662362433632 0 -0.3801692256813865 0.053394632521629168 0 -0.37328373606952348 0.063834557850238144 0 -0.39225248420060299 0.059095662362433632 0 -0.389930246751442 0.049482182042022267 0 -0.3801692256813865 0.053394632521629168 0 -0.389930246751442 0.049482182042022267 0 -0.3801692256813865 0.053394632521629168 0 -0.38691698238994471 0.038367409550551908 0 -0.38691698238994471 0.038367409550551908 0 -0.38659707847370128 0.029778620400168321 0 -0.39295301096682889 0.030427289110890769 0 -0.3801692256813865 0.053394632521629168 0 -0.38691698238994471 0.038367409550551908 0 -0.37152120592399912 0.045948612193038189 0 -0.38691698238994471 0.038367409550551908 0 -0.38659707847370128 0.029778620400168321 0 -0.37438570565490198 0.03254764286630446 0 -0.38691698238994471 0.038367409550551908 0 -0.37438570565490198 0.03254764286630446 0 -0.37152120592399912 0.045948612193038189 0 -0.38092492143679979 0.024707801467058251 0 -0.38659707847370128 0.029778620400168321 0 -0.37438570565490198 0.03254764286630446 0 -0.38092492143679979 0.024707801467058251 0 -0.37426291356731711 0.019604593194228501 0 -0.37438570565490198 0.03254764286630446 0 -0.38092492143679979 0.024707801467058251 0 -0.38659707847370128 0.029778620400168321 0 -0.38634475718064071 0.023217042336222331 0 -0.38659707847370128 0.029778620400168321 0 -0.38634475718064071 0.023217042336222331 0 -0.39219639180920102 0.023841457629802231 0 -0.38659707847370128 0.029778620400168321 0 -0.39295301096682889 0.030427289110890769 0 -0.39219639180920102 0.023841457629802231 0 -0.38909971479218908 0.01864028022672725 0 -0.38599812631789793 0.01423771347478494 0 -0.39024273528447478 0.015529033290339601 0 -0.38909971479218908 0.01864028022672725 0 -0.39024273528447478 0.015529033290339601 0 -0.39170840985619199 0.01691381309766116 0 -0.38909971479218908 0.01864028022672725 0 -0.38634475718064071 0.023217042336222331 0 -0.39219639180920102 0.023841457629802231 0 -0.38909971479218908 0.01864028022672725 0 -0.38634475718064071 0.023217042336222331 0 -0.38290567939131198 0.019117051957355601 0 -0.38092492143679979 0.024707801467058251 0 -0.38634475718064071 0.023217042336222331 0 -0.38290567939131198 0.019117051957355601 0 -0.38290567939131198 0.019117051957355601 0 -0.37992433702620132 0.014089776600908399 0 -0.38599812631789793 0.01423771347478494 0 -0.38909971479218908 0.01864028022672725 0 -0.38290567939131198 0.019117051957355601 0 -0.38599812631789793 0.01423771347478494 0 -0.38290567939131198 0.019117051957355601 0 -0.37992433702620132 0.014089776600908399 0 -0.37426291356731711 0.019604593194228501 0 -0.38092492143679979 0.024707801467058251 0 -0.38290567939131198 0.019117051957355601 0 -0.37426291356731711 0.019604593194228501 0 -0.37524021904663002 0.0087143672939522434 0 -0.37992433702620132 0.014089776600908399 0 -0.37426291356731711 0.019604593194228501 0 -0.37524021904663002 0.0087143672939522434 0 -0.37992433702620132 0.014089776600908399 0 -0.38329139506234139 0.0099385950700734867 0 -0.37524021904663002 0.0087143672939522434 0 -0.38206243482780089 0.0051219617173589166 0 -0.38329139506234139 0.0099385950700734867 0 -0.37744823449314668 -0.002724083045299296 0 -0.37524021904663002 0.0087143672939522434 0 -0.38206243482780089 0.0051219617173589166 0 -0.38711484779157168 -0.00085187064853555969 0 -0.37744823449314668 -0.002724083045299296 0 -0.38206243482780089 0.0051219617173589166 0 -0.38711484779157168 -0.00085187064853555969 0 -0.38206243482780089 0.0051219617173589166 0 -0.38823931558032571 0.0060780733932094561 0 -0.38206243482780089 0.0051219617173589166 0 -0.38823931558032571 0.0060780733932094561 0 -0.38329139506234139 0.0099385950700734867 0 -0.38711484779157168 -0.00085187064853555969 0 -0.38823931558032571 0.0060780733932094561 0 -0.39224677636555128 0.0018365780215424429 0 -0.37992433702620132 0.014089776600908399 0 -0.38599812631789793 0.01423771347478494 0 -0.38329139506234139 0.0099385950700734867 0 -0.38823931558032571 0.0060780733932094561 0 -0.38329139506234139 0.0099385950700734867 0 -0.38796276748140318 0.010337035393383631 0 -0.38599812631789793 0.01423771347478494 0 -0.38329139506234139 0.0099385950700734867 0 -0.38796276748140318 0.010337035393383631 0 -0.38823931558032571 0.0060780733932094561 0 -0.38796276748140318 0.010337035393383631 0 -0.39104221136743039 0.0091907606471716696 0 -0.38796276748140318 0.010337035393383631 0 -0.39061894051657459 0.011583026571342791 0 -0.38864168875846777 0.01314629152148084 0 -0.38796276748140318 0.010337035393383631 0 -0.39061894051657459 0.011583026571342791 0 -0.39104221136743039 0.0091907606471716696 0 -0.38599812631789793 0.01423771347478494 0 -0.38864168875846777 0.01314629152148084 0 -0.39024273528447478 0.015529033290339601 0 -0.39061894051657459 0.011583026571342791 0 -0.38864168875846777 0.01314629152148084 0 -0.39226711960045157 0.01268405271165049 0 -0.38599812631789793 0.01423771347478494 0 -0.38796276748140318 0.010337035393383631 0 -0.38864168875846777 0.01314629152148084 0 -0.38864168875846777 0.01314629152148084 0 -0.39024273528447478 0.015529033290339601 0 -0.39226711960045157 0.01268405271165049 0 -0.41435891477952641 -0.0051954118423035728 0 -0.39437220612350021 0.01348985569393241 0 -0.40399686026169068 0.0072053305506378316 0 -0.41435891477952641 -0.0051954118423035728 0 -0.40940636167631478 -0.0059169101558246371 0 -0.39437220612350021 0.01348985569393241 0 -0.40940636167631478 -0.0059169101558246371 0 -0.39437220612350021 0.01348985569393241 0 -0.39747222446939401 0.0021009111280557119 0 -0.39024273528447478 0.015529033290339601 0 -0.39239584068841782 0.01466474099830436 0 -0.39226711960045157 0.01268405271165049 0 -0.39437220612350021 0.01348985569393241 0 -0.39404027906460848 0.010016835989986079 0 -0.39747222446939401 0.0021009111280557119 0 -0.40940636167631478 -0.0059169101558246371 0 -0.39437220612350021 0.01348985569393241 0 -0.41435891477952641 -0.0051954118423035728 0 -0.39437220612350021 0.01348985569393241 0 -0.39239584068841782 0.01466474099830436 0 -0.39437220612350021 0.01348985569393241 0 -0.39397537852881492 0.016677582237327421 0 -0.39239584068841782 0.01466474099830436 0 -0.39437220612350021 0.01348985569393241 0 -0.39226711960045157 0.01268405271165049 0 -0.39437220612350021 0.01348985569393241 0 -0.39226711960045157 0.01268405271165049 0 -0.39225742388089452 0.011131310333266481 0 -0.39061894051657459 0.011583026571342791 0 -0.39226711960045157 0.01268405271165049 0 -0.39225742388089452 0.011131310333266481 0 -0.39225742388089452 0.011131310333266481 0 -0.39104221136743039 0.0091907606471716696 0 -0.39404027906460848 0.010016835989986079 0 -0.39104221136743039 0.0091907606471716696 0 -0.39404027906460848 0.010016835989986079 0 -0.39278705288484328 0.0057111625921828797 0 -0.39061894051657459 0.011583026571342791 0 -0.39225742388089452 0.011131310333266481 0 -0.39104221136743039 0.0091907606471716696 0 -0.39437220612350021 0.01348985569393241 0 -0.39225742388089452 0.011131310333266481 0 -0.39404027906460848 0.010016835989986079 0 -0.39782332370594009 0.012354348310747861 0 -0.39618216868694861 0.013567975973024371 0 -0.40067611895035732 0.01444187369730103 0 -0.39618216868694861 0.013567975973024371 0 -0.40067611895035732 0.01444187369730103 0 -0.39761957638996981 0.016410997146622641 0 -0.39437220612350021 0.01348985569393241 0 -0.39397537852881492 0.016677582237327421 0 -0.39761957638996981 0.016410997146622641 0 -0.39437220612350021 0.01348985569393241 0 -0.39618216868694861 0.013567975973024371 0 -0.39761957638996981 0.016410997146622641 0 -0.39437220612350021 0.01348985569393241 0 -0.39782332370594009 0.012354348310747861 0 -0.39618216868694861 0.013567975973024371 0 -0.39404027906460848 0.010016835989986079 0 -0.39278705288484328 0.0057111625921828797 0 -0.39747222446939401 0.0021009111280557119 0 -0.39224677636555128 0.0018365780215424429 0 -0.39278705288484328 0.0057111625921828797 0 -0.39747222446939401 0.0021009111280557119 0 -0.38823931558032571 0.0060780733932094561 0 -0.39104221136743039 0.0091907606471716696 0 -0.39278705288484328 0.0057111625921828797 0 -0.38823931558032571 0.0060780733932094561 0 -0.39224677636555128 0.0018365780215424429 0 -0.39278705288484328 0.0057111625921828797 0 -0.39437220612350021 0.01348985569393241 0 -0.39782332370594009 0.012354348310747861 0 -0.40399686026169068 0.0072053305506378316 0 -0.39782332370594009 0.012354348310747861 0 -0.40067611895035732 0.01444187369730103 0 -0.40184457454747402 0.01129570896552975 0 -0.39782332370594009 0.012354348310747861 0 -0.40399686026169068 0.0072053305506378316 0 -0.40184457454747402 0.01129570896552975 0 -0.40811976614889189 0.0082149657040945078 0 -0.40399686026169068 0.0072053305506378316 0 -0.40506814753737008 0.011905188299553541 0 -0.40399686026169068 0.0072053305506378316 0 -0.40184457454747402 0.01129570896552975 0 -0.40506814753737008 0.011905188299553541 0 -0.4075698620567737 0.016067732186752011 0 -0.40506814753737008 0.011905188299553541 0 -0.40386675969404612 0.01674445759568376 0 -0.40067611895035732 0.01444187369730103 0 -0.40184457454747402 0.01129570896552975 0 -0.40506814753737008 0.011905188299553541 0 -0.40067611895035732 0.01444187369730103 0 -0.40506814753737008 0.011905188299553541 0 -0.40386675969404612 0.01674445759568376 0 -0.40386675969404612 0.01674445759568376 0 -0.40070177709392119 0.01892707856658744 0 -0.40600416179791488 0.021671931934105201 0 -0.4075698620567737 0.016067732186752011 0 -0.40386675969404612 0.01674445759568376 0 -0.40600416179791488 0.021671931934105201 0 -0.40067611895035732 0.01444187369730103 0 -0.40070177709392119 0.01892707856658744 0 -0.39761957638996981 0.016410997146622641 0 -0.40067611895035732 0.01444187369730103 0 -0.40386675969404612 0.01674445759568376 0 -0.40070177709392119 0.01892707856658744 0 -0.40070177709392119 0.01892707856658744 0 -0.40600416179791488 0.021671931934105201 0 -0.39953554774067401 0.02534749663516217 0 -0.40070177709392119 0.01892707856658744 0 -0.39953554774067401 0.02534749663516217 0 -0.39637466669817162 0.019859112376559591 0 -0.40600416179791488 0.021671931934105201 0 -0.40596884472725492 0.029475256285201021 0 -0.39953554774067401 0.02534749663516217 0 -0.39951905442062352 0.034801461338769192 0 -0.40596884472725492 0.029475256285201021 0 -0.39953554774067401 0.02534749663516217 0 -0.39951905442062352 0.034801461338769192 0 -0.39953554774067401 0.02534749663516217 0 -0.39295301096682889 0.030427289110890769 0 -0.39953554774067401 0.02534749663516217 0 -0.39295301096682889 0.030427289110890769 0 -0.39219639180920102 0.023841457629802231 0 -0.39219639180920102 0.023841457629802231 0 -0.39282837998706333 0.019057428735607191 0 -0.39637466669817162 0.019859112376559591 0 -0.38909971479218908 0.01864028022672725 0 -0.39219639180920102 0.023841457629802231 0 -0.39282837998706333 0.019057428735607191 0 -0.38909971479218908 0.01864028022672725 0 -0.39170840985619199 0.01691381309766116 0 -0.39282837998706333 0.019057428735607191 0 -0.39024273528447478 0.015529033290339601 0 -0.39239584068841782 0.01466474099830436 0 -0.39170840985619199 0.01691381309766116 0 -0.39170840985619199 0.01691381309766116 0 -0.39397537852881492 0.016677582237327421 0 -0.39282837998706333 0.019057428735607191 0 -0.39239584068841782 0.01466474099830436 0 -0.39170840985619199 0.01691381309766116 0 -0.39397537852881492 0.016677582237327421 0 -0.39397537852881492 0.016677582237327421 0 -0.39282837998706333 0.019057428735607191 0 -0.39637466669817162 0.019859112376559591 0 -0.39397537852881492 0.016677582237327421 0 -0.39761957638996981 0.016410997146622641 0 -0.39637466669817162 0.019859112376559591 0 -0.40070177709392119 0.01892707856658744 0 -0.39761957638996981 0.016410997146622641 0 -0.39637466669817162 0.019859112376559591 0 -0.39953554774067401 0.02534749663516217 0 -0.39219639180920102 0.023841457629802231 0 -0.39637466669817162 0.019859112376559591 0 -0.40143664215802122 0.1011437627423938 0 -0.39551532249067373 0.1106706111835169 0 -0.38749203317179881 0.10389274227770159 0 -0.40143664215802122 0.1011437627423938 0 -0.38749203317179881 0.10389274227770159 0 -0.39453429053258771 0.0906764288500925 0 -0.40143664215802122 0.1011437627423938 0 -0.39453429053258771 0.0906764288500925 0 -0.40990245977365453 0.090432974886601153 0 -0.40143664215802122 0.1011437627423938 0 -0.40435753411376218 0.1099363331484475 0 -0.41225388613665032 0.1054350322128981 0 -0.40143664215802122 0.1011437627423938 0 -0.40435753411376218 0.1099363331484475 0 -0.39551532249067373 0.1106706111835169 0 -0.40081603658112608 0.1183840137719871 0 -0.40857265521585923 0.1219370921557841 0 -0.38431350924755392 0.12919282426732301 0 -0.40435753411376218 0.1099363331484475 0 -0.40081603658112608 0.1183840137719871 0 -0.40871534617318672 0.1149990397654016 0 -0.40435753411376218 0.1099363331484475 0 -0.40081603658112608 0.1183840137719871 0 -0.39551532249067373 0.1106706111835169 0 -0.40081603658112608 0.1183840137719871 0 -0.39283419694717348 0.1187541387845016 0 -0.38431350924755392 0.12919282426732301 0 -0.40081603658112608 0.1183840137719871 0 -0.40857265521585923 0.1219370921557841 0 -0.40871534617318672 0.1149990397654016 0 -0.39283419694717348 0.1187541387845016 0 -0.39551532249067373 0.1106706111835169 0 -0.38831232127376858 0.114168374465778 0 -0.40081603658112608 0.1183840137719871 0 -0.39283419694717348 0.1187541387845016 0 -0.39551532249067373 0.1106706111835169 0 -0.38831232127376858 0.114168374465778 0 -0.38008246533815893 0.11443262986413499 0 -0.38749203317179881 0.10389274227770159 0 -0.38831232127376858 0.114168374465778 0 -0.38399166508612997 0.1201739008904652 0 -0.38008246533815893 0.11443262986413499 0 -0.39551532249067373 0.1106706111835169 0 -0.38831232127376858 0.114168374465778 0 -0.38749203317179881 0.10389274227770159 0 -0.39283419694717348 0.1187541387845016 0 -0.38399166508612997 0.1201739008904652 0 -0.38431350924755392 0.12919282426732301 0 -0.39283419694717348 0.1187541387845016 0 -0.38831232127376858 0.114168374465778 0 -0.38399166508612997 0.1201739008904652 0 -0.38399166508612997 0.1201739008904652 0 -0.38431350924755392 0.12919282426732301 0 -0.37441583262399492 0.12432153707058841 0 -0.38399166508612997 0.1201739008904652 0 -0.38008246533815893 0.11443262986413499 0 -0.37441583262399492 0.12432153707058841 0 -0.38749203317179881 0.10389274227770159 0 -0.37760997688384201 0.092753610136079218 0 -0.39453429053258771 0.0906764288500925 0 -0.38749203317179881 0.10389274227770159 0 -0.37760997688384201 0.092753610136079218 0 -0.37168120420087369 0.1058309127098148 0 -0.38008246533815893 0.11443262986413499 0 -0.38749203317179881 0.10389274227770159 0 -0.37168120420087369 0.1058309127098148 0 -0.37760997688384201 0.092753610136079218 0 -0.38616964996657549 0.076000950290615474 0 -0.36203172391842547 0.077595673755978728 0 -0.37760997688384201 0.092753610136079218 0 -0.38616964996657549 0.076000950290615474 0 -0.39453429053258771 0.0906764288500925 0 -0.39225248420060299 0.059095662362433632 0 -0.38616964996657549 0.076000950290615474 0 -0.37328373606952348 0.063834557850238144 0 -0.39225248420060299 0.059095662362433632 0 -0.38616964996657549 0.076000950290615474 0 -0.40433041119621921 0.066831561092022818 0 -0.38616964996657549 0.076000950290615474 0 -0.40433041119621921 0.066831561092022818 0 -0.4034863740230239 0.080047290790451989 0 -0.38616964996657549 0.076000950290615474 0 -0.39453429053258771 0.0906764288500925 0 -0.4034863740230239 0.080047290790451989 0 -0.39453429053258771 0.0906764288500925 0 -0.4034863740230239 0.080047290790451989 0 -0.40990245977365453 0.090432974886601153 0 -0.40990245977365453 0.090432974886601153 0 -0.4224950586460825 0.076294538832927972 0 -0.42316144589124621 0.096186553927679413 0 -0.4034863740230239 0.080047290790451989 0 -0.40990245977365453 0.090432974886601153 0 -0.4224950586460825 0.076294538832927972 0 -0.41531371928430427 0.055814069477497771 0 -0.40433041119621921 0.066831561092022818 0 -0.4224950586460825 0.076294538832927972 0 -0.40433041119621921 0.066831561092022818 0 -0.4034863740230239 0.080047290790451989 0 -0.4224950586460825 0.076294538832927972 0 -0.4224950586460825 0.076294538832927972 0 -0.43607938594303558 0.090142133610398384 0 -0.42316144589124621 0.096186553927679413 0 -0.4224950586460825 0.076294538832927972 0 -0.43607938594303558 0.090142133610398384 0 -0.45156691011440758 0.077723447170632745 0 -0.43607938594303558 0.090142133610398384 0 -0.43480469007897538 0.10474513479700551 0 -0.42316144589124621 0.096186553927679413 0 -0.43480469007897538 0.10474513479700551 0 -0.42316144589124621 0.096186553927679413 0 -0.42343319476907892 0.11006950922624539 0 -0.40990245977365453 0.090432974886601153 0 -0.42316144589124621 0.096186553927679413 0 -0.41225388613665032 0.1054350322128981 0 -0.42316144589124621 0.096186553927679413 0 -0.41225388613665032 0.1054350322128981 0 -0.42343319476907892 0.11006950922624539 0 -0.40143664215802122 0.1011437627423938 0 -0.40990245977365453 0.090432974886601153 0 -0.41225388613665032 0.1054350322128981 0 -0.42432354274108502 0.11882617899940261 0 -0.43117917244489068 0.1185279094320864 0 -0.40354630873734559 0.13078676270114989 0 -0.40857265521585923 0.1219370921557841 0 -0.42432354274108502 0.11882617899940261 0 -0.40641824222319761 0.12666613269842841 0 -0.43117917244489068 0.1185279094320864 0 -0.40354630873734559 0.13078676270114989 0 -0.40857265521585923 0.1219370921557841 0 -0.41542732368137519 0.11409574480026451 0 -0.42432354274108502 0.11882617899940261 0 -0.40435753411376218 0.1099363331484475 0 -0.41225388613665032 0.1054350322128981 0 -0.40871534617318672 0.1149990397654016 0 -0.40857265521585923 0.1219370921557841 0 -0.40871534617318672 0.1149990397654016 0 -0.41542732368137519 0.11409574480026451 0 -0.41225388613665032 0.1054350322128981 0 -0.40871534617318672 0.1149990397654016 0 -0.41542732368137519 0.11409574480026451 0 -0.41542732368137519 0.11409574480026451 0 -0.42432354274108502 0.11882617899940261 0 -0.42343319476907892 0.11006950922624539 0 -0.41225388613665032 0.1054350322128981 0 -0.41542732368137519 0.11409574480026451 0 -0.42343319476907892 0.11006950922624539 0 -0.42432354274108502 0.11882617899940261 0 -0.43117917244489068 0.1185279094320864 0 -0.42432354274108502 0.11882617899940261 0 -0.42343319476907892 0.11006950922624539 0 -0.43117917244489068 0.1185279094320864 0 -0.43480469007897538 0.10474513479700551 0 -0.42343319476907892 0.11006950922624539 0 -0.43117917244489068 0.1185279094320864 0 -0.43117917244489068 0.1185279094320864 0 -0.45114305140187511 0.1176593360412083 0 -0.43480469007897538 0.10474513479700551 0 -0.43117917244489068 0.1185279094320864 0 -0.44787325051629939 0.1111218636560988 0 -0.43117917244489068 0.1185279094320864 0 -0.45114305140187511 0.1176593360412083 0 -0.44787325051629939 0.1111218636560988 0 -0.43117917244489068 0.1185279094320864 0 -0.44787325051629939 0.1111218636560988 0 -0.43117917244489068 0.1185279094320864 0 -0.45114305140187511 0.1176593360412083 0 -0.43796763951241641 0.1355271585979492 0 -0.43480469007897538 0.10474513479700551 0 -0.44787325051629939 0.1111218636560988 0 -0.44697831304808527 0.097489679422849404 0 -0.44787325051629939 0.1111218636560988 0 -0.44697831304808527 0.097489679422849404 0 -0.46456732858770972 0.1037158178801145 0 -0.43607938594303558 0.090142133610398384 0 -0.43480469007897538 0.10474513479700551 0 -0.44697831304808527 0.097489679422849404 0 -0.44787325051629939 0.1111218636560988 0 -0.46456732858770972 0.1037158178801145 0 -0.45114305140187511 0.1176593360412083 0 -0.47110693035885948 0.1167907626503298 0 -0.45114305140187511 0.1176593360412083 0 -0.47110693035885948 0.1167907626503298 0 -0.46837162858316311 0.13023378452210521 0 -0.45114305140187511 0.1176593360412083 0 -0.46456732858770972 0.1037158178801145 0 -0.47110693035885948 0.1167907626503298 0 -0.46456732858770972 0.1037158178801145 0 -0.47110693035885948 0.1167907626503298 0 -0.45114305140187511 0.1176593360412083 0 -0.44787325051629939 0.1111218636560988 0 -0.46456732858770972 0.1037158178801145 0 -0.43856649164110573 0.051731076461151083 0 -0.4224950586460825 0.076294538832927972 0 -0.45156691011440758 0.077723447170632745 0 -0.45496164182301579 0.058357230723331072 0 -0.43856649164110573 0.051731076461151083 0 -0.45156691011440758 0.077723447170632745 0 -0.43856649164110573 0.051731076461151083 0 -0.45156691011440758 0.077723447170632745 0 -0.43607938594303558 0.090142133610398384 0 -0.44697831304808527 0.097489679422849404 0 -0.45156691011440758 0.077723447170632745 0 -0.46456732858770972 0.1037158178801145 0 -0.45156691011440758 0.077723447170632745 0 -0.46456732858770972 0.1037158178801145 0 -0.45156691011440758 0.077723447170632745 0 -0.46767324155675177 0.08470956965825871 0 -0.44697831304808527 0.097489679422849404 0 -0.46456732858770972 0.1037158178801145 0 -0.45156691011440758 0.077723447170632745 0 -0.45156691011440758 0.077723447170632745 0 -0.46767324155675177 0.08470956965825871 0 -0.46441113346591922 0.069467038344404347 0 -0.45496164182301579 0.058357230723331072 0 -0.45156691011440758 0.077723447170632745 0 -0.46441113346591922 0.069467038344404347 0 -0.47194333378557402 0.061798583466398098 0 -0.46563774281660331 0.05659017135462794 0 -0.46441113346591922 0.069467038344404347 0 -0.47928065604104658 0.052404277229944153 0 -0.47194333378557402 0.061798583466398098 0 -0.4797354273027547 0.074594636356359406 0 -0.47928065604104658 0.052404277229944153 0 -0.4797354273027547 0.074594636356359406 0 -0.47194333378557402 0.061798583466398098 0 -0.46441113346591922 0.069467038344404347 0 -0.4797354273027547 0.074594636356359406 0 -0.46767324155675177 0.08470956965825871 0 -0.46441113346591922 0.069467038344404347 0 -0.4797354273027547 0.074594636356359406 0 -0.46767324155675177 0.08470956965825871 0 -0.4797354273027547 0.074594636356359406 0 -0.48019019856446421 0.096784995482774611 0 -0.4797354273027547 0.074594636356359406 0 -0.48019019856446421 0.096784995482774611 0 -0.50000000000000633 0.087996711660375981 0 -0.48019019856446421 0.096784995482774611 0 -0.4797354273027547 0.074594636356359406 0 -0.50000000000000633 0.087996711660375981 0 -0.48019019856446421 0.096784995482774611 0 -0.4797354273027547 0.074594636356359406 0 -0.50000000000000633 0.087996711660375981 0 -0.5 0.064174306300444961 0 -0.48827700876319202 0.060217435392076038 0 -0.4797354273027547 0.074594636356359406 0 -0.5 0.064174306300444961 0 -0.48059174154627521 0.1163781046376937 0 -0.47110693035885948 0.1167907626503298 0 -0.48019019856446421 0.096784995482774611 0 -0.48059174154627521 0.1163781046376937 0 -0.47110693035885948 0.1167907626503298 0 -0.48100580331010728 0.13658206212913551 0 -0.48059174154627521 0.1163781046376937 0 -0.47110693035885948 0.1167907626503298 0 -0.46456732858770972 0.1037158178801145 0 -0.47110693035885948 0.1167907626503298 0 -0.48019019856446421 0.096784995482774611 0 -0.48059174154627521 0.1163781046376937 0 -0.48019019856446421 0.096784995482774611 0 -0.46456732858770972 0.1037158178801145 0 -0.46767324155675177 0.08470956965825871 0 -0.48019019856446421 0.096784995482774611 0 -0.46456732858770972 0.1037158178801145 0 -0.48019019856446421 0.096784995482774611 0 -0.50000000000000633 0.087996711660375981 0 -0.48019019856446421 0.096784995482774611 0 -0.50000000000000466 0.1155337047646765 0 -0.48059174154627521 0.1163781046376937 0 -0.48019019856446421 0.096784995482774611 0 -0.50000000000000466 0.1155337047646765 0 -0.48059174154627521 0.1163781046376937 0 -0.50000000000000466 0.1155337047646765 0 -0.49074488044027859 0.12627624693065539 0 -0.48059174154627521 0.1163781046376937 0 -0.50000000000000466 0.1155337047646765 0 -0.48994262120999238 0.13822064821416491 0 -0.49074488044027859 0.12627624693065539 0 -0.5 0.1451969672211382 0 -0.50000000000000466 0.1155337047646765 0 -0.49074488044027859 0.12627624693065539 0 -0.5 0.1451969672211382 0 -0.48994262120999238 0.13822064821416491 0 -0.48100580331010728 0.13658206212913551 0 -0.48436076714625931 0.14328980495489391 0 -0.48994262120999238 0.13822064821416491 0 -0.49074488044027859 0.12627624693065539 0 -0.48100580331010728 0.13658206212913551 0 -0.48059174154627521 0.1163781046376937 0 -0.48100580331010728 0.13658206212913551 0 -0.47110693035885948 0.1167907626503298 0 -0.48100580331010728 0.13658206212913551 0 -0.46837162858316311 0.13023378452210521 0 -0.47110693035885948 0.1167907626503298 0 -0.48100580331010728 0.13658206212913551 0 -0.48059174154627521 0.1163781046376937 0 -0.49074488044027859 0.12627624693065539 0 -0.48100580331010728 0.13658206212913551 0 -0.48100580331010728 0.13658206212913551 0 -0.48436076714625931 0.14328980495489391 0 -0.48100580331010728 0.13658206212913551 0 -0.47407700872325098 0.14119888399505021 0 -0.46837162858316311 0.13023378452210521 0 -0.47407700872325098 0.14119888399505021 0 -0.46837162858316311 0.13023378452210521 0 -0.46490742129359292 0.14410852673753879 0 -0.47011187493795792 0.15384730703055871 0 -0.474289305225288 0.14787193377304311 0 -0.47980121519169228 0.15494130893585789 0 -0.47011187493795792 0.15384730703055871 0 -0.474289305225288 0.14787193377304311 0 -0.46490742129359292 0.14410852673753879 0 -0.47407700872325098 0.14119888399505021 0 -0.474289305225288 0.14787193377304311 0 -0.46490742129359292 0.14410852673753879 0 -0.47407700872325098 0.14119888399505021 0 -0.474289305225288 0.14787193377304311 0 -0.48118914115537881 0.14552794981070949 0 -0.48100580331010728 0.13658206212913551 0 -0.48436076714625931 0.14328980495489391 0 -0.48118914115537881 0.14552794981070949 0 -0.48100580331010728 0.13658206212913551 0 -0.48118914115537881 0.14552794981070949 0 -0.48100580331010728 0.13658206212913551 0 -0.47407700872325098 0.14119888399505021 0 -0.48118914115537881 0.14552794981070949 0 -0.48436076714625931 0.14328980495489391 0 -0.48118914115537881 0.14552794981070949 0 -0.48596778782213013 0.14915203736261601 0 -0.474289305225288 0.14787193377304311 0 -0.48118914115537881 0.14552794981070949 0 -0.47980121519169228 0.15494130893585789 0 -0.48118914115537881 0.14552794981070949 0 -0.47980121519169228 0.15494130893585789 0 -0.48596778782213013 0.14915203736261601 0 -0.47980121519169228 0.15494130893585789 0 -0.49085459801392523 0.15606538242932411 0 -0.48596778782213013 0.14915203736261601 0 -0.49085459801392523 0.15606538242932411 0 -0.48596778782213013 0.14915203736261601 0 -0.4911792067539571 0.14536564222367471 0 -0.48436076714625931 0.14328980495489391 0 -0.48596778782213013 0.14915203736261601 0 -0.4911792067539571 0.14536564222367471 0 -0.48994262120999238 0.13822064821416491 0 -0.48436076714625931 0.14328980495489391 0 -0.4911792067539571 0.14536564222367471 0 -0.48994262120999238 0.13822064821416491 0 -0.4911792067539571 0.14536564222367471 0 -0.5 0.1451969672211382 0 -0.49085459801392523 0.15606538242932411 0 -0.4911792067539571 0.14536564222367471 0 -0.5 0.1451969672211382 0 -0.49085459801392523 0.15606538242932411 0 -0.5 0.1451969672211382 0 -0.5 0.17486022967760009 0 -0.49085459801392523 0.15606538242932411 0 -0.5 0.17486022967760009 0 -0.4842734495563672 0.16569292292817969 0 -0.47980121519169228 0.15494130893585789 0 -0.49085459801392523 0.15606538242932411 0 -0.4842734495563672 0.16569292292817969 0 -0.5 0.17486022967760009 0 -0.48151819312927829 0.1775920096660985 0 -0.4842734495563672 0.16569292292817969 0 -0.5 0.17486022967760009 0 -0.48151819312927829 0.1775920096660985 0 -0.48621660883262491 0.19099142116193071 0 -0.48151819312927829 0.1775920096660985 0 -0.46919324144694041 0.16500568393201809 0 -0.46337387458532708 0.1799285641149628 0 -0.48151819312927829 0.1775920096660985 0 -0.46337387458532708 0.1799285641149628 0 -0.47135895658993282 0.1947570774023932 0 -0.47980121519169228 0.15494130893585789 0 -0.4842734495563672 0.16569292292817969 0 -0.46919324144694041 0.16500568393201809 0 -0.48151819312927829 0.1775920096660985 0 -0.4842734495563672 0.16569292292817969 0 -0.46919324144694041 0.16500568393201809 0 -0.47011187493795792 0.15384730703055871 0 -0.47980121519169228 0.15494130893585789 0 -0.46919324144694041 0.16500568393201809 0 -0.47011187493795792 0.15384730703055871 0 -0.46919324144694041 0.16500568393201809 0 -0.46117960538399372 0.15584284247989899 0 -0.46919324144694041 0.16500568393201809 0 -0.45270483645980991 0.1638461577518269 0 -0.46117960538399372 0.15584284247989899 0 -0.46919324144694041 0.16500568393201809 0 -0.46337387458532708 0.1799285641149628 0 -0.45270483645980991 0.1638461577518269 0 -0.46337387458532708 0.1799285641149628 0 -0.44903378096282542 0.17754281754928339 0 -0.45270483645980991 0.1638461577518269 0 -0.46337387458532708 0.1799285641149628 0 -0.44903378096282542 0.17754281754928339 0 -0.45813144213996632 0.19087796814596891 0 -0.44903378096282542 0.17754281754928339 0 -0.44507907578333061 0.19118744781893379 0 -0.4347531249838551 0.17487394384241539 0 -0.44903378096282542 0.17754281754928339 0 -0.45813144213996632 0.19087796814596891 0 -0.44507907578333061 0.19118744781893379 0 -0.44903378096282542 0.17754281754928339 0 -0.45270483645980991 0.1638461577518269 0 -0.43826729052774138 0.16119813190619811 0 -0.45270483645980991 0.1638461577518269 0 -0.43826729052774138 0.16119813190619811 0 -0.450681269612974 0.14803129722756639 0 -0.44903378096282542 0.17754281754928339 0 -0.43826729052774138 0.16119813190619811 0 -0.4347531249838551 0.17487394384241539 0 -0.43826729052774138 0.16119813190619811 0 -0.43843243957873079 0.14859461884926639 0 -0.450681269612974 0.14803129722756639 0 -0.43843243957873079 0.14859461884926639 0 -0.450681269612974 0.14803129722756639 0 -0.43796763951241641 0.1355271585979492 0 -0.45114305140187511 0.1176593360412083 0 -0.43796763951241641 0.1355271585979492 0 -0.45440046132929868 0.1343074344074352 0 -0.450681269612974 0.14803129722756639 0 -0.43796763951241641 0.1355271585979492 0 -0.45440046132929868 0.1343074344074352 0 -0.45114305140187511 0.1176593360412083 0 -0.45440046132929868 0.1343074344074352 0 -0.46837162858316311 0.13023378452210521 0 -0.45440046132929868 0.1343074344074352 0 -0.46837162858316311 0.13023378452210521 0 -0.46490742129359292 0.14410852673753879 0 -0.45270483645980991 0.1638461577518269 0 -0.450681269612974 0.14803129722756639 0 -0.46117960538399372 0.15584284247989899 0 -0.47011187493795792 0.15384730703055871 0 -0.46490742129359292 0.14410852673753879 0 -0.46117960538399372 0.15584284247989899 0 -0.450681269612974 0.14803129722756639 0 -0.46490742129359292 0.14410852673753879 0 -0.46117960538399372 0.15584284247989899 0 -0.450681269612974 0.14803129722756639 0 -0.45440046132929868 0.1343074344074352 0 -0.46490742129359292 0.14410852673753879 0 -0.48044119393958962 0.2441947675913769 0 -0.4678194004752429 0.2447353426660652 0 -0.47311162244758109 0.25201232219662062 0 -0.47827053313739271 0.2316759407062835 0 -0.4678194004752429 0.2447353426660652 0 -0.47827053313739271 0.2316759407062835 0 -0.47123716620259509 0.23393190699126279 0 -0.4678194004752429 0.2447353426660652 0 -0.48044119393958962 0.2441947675913769 0 -0.47827053313739271 0.2316759407062835 0 -0.4678194004752429 0.2447353426660652 0 -0.48044119393958962 0.2441947675913769 0 -0.4875647887031635 0.2362839868638916 0 -0.47827053313739271 0.2316759407062835 0 -0.48044119393958962 0.2441947675913769 0 -0.4875647887031635 0.2362839868638916 0 -0.49039055063929299 0.25019063880308362 0 -0.5 0.23674204847221289 0 -0.4875647887031635 0.2362839868638916 0 -0.49039055063929299 0.25019063880308362 0 -0.4875647887031635 0.2362839868638916 0 -0.47827053313739271 0.2316759407062835 0 -0.48872166579954218 0.2186165387465015 0 -0.5 0.23674204847221289 0 -0.4875647887031635 0.2362839868638916 0 -0.48872166579954218 0.2186165387465015 0 -0.5 0.23674204847221289 0 -0.48872166579954218 0.2186165387465015 0 -0.49999999999999789 0.20873739748142309 0 -0.47123716620259509 0.23393190699126279 0 -0.48872166579954218 0.2186165387465015 0 -0.47123716620259509 0.23393190699126279 0 -0.48872166579954218 0.2186165387465015 0 -0.46845982041356898 0.21312064432195499 0 -0.47827053313739271 0.2316759407062835 0 -0.48872166579954218 0.2186165387465015 0 -0.47827053313739271 0.2316759407062835 0 -0.47123716620259509 0.23393190699126279 0 -0.48872166579954218 0.2186165387465015 0 -0.48251999979229521 0.2042947858602894 0 -0.47135895658993282 0.1947570774023932 0 -0.46845982041356898 0.21312064432195499 0 -0.48251999979229521 0.2042947858602894 0 -0.48872166579954218 0.2186165387465015 0 -0.46845982041356898 0.21312064432195499 0 -0.48251999979229521 0.2042947858602894 0 -0.48872166579954218 0.2186165387465015 0 -0.49999999999999772 0.2045234921340619 0 -0.48872166579954218 0.2186165387465015 0 -0.49999999999999772 0.2045234921340619 0 -0.48872166579954218 0.2186165387465015 0 -0.49999999999999789 0.20873739748142309 0 -0.48872166579954218 0.2186165387465015 0 -0.49999999999999772 0.2045234921340619 0 -0.49999999999999789 0.20873739748142309 0 -0.48251999979229521 0.2042947858602894 0 -0.49999999999999772 0.2045234921340619 0 -0.48621660883262491 0.19099142116193071 0 -0.5 0.17486022967760009 0 -0.49999999999999772 0.2045234921340619 0 -0.48621660883262491 0.19099142116193071 0 -0.48151819312927829 0.1775920096660985 0 -0.48621660883262491 0.19099142116193071 0 -0.47135895658993282 0.1947570774023932 0 -0.48251999979229521 0.2042947858602894 0 -0.48621660883262491 0.19099142116193071 0 -0.47135895658993282 0.1947570774023932 0 -0.46337387458532708 0.1799285641149628 0 -0.47135895658993282 0.1947570774023932 0 -0.45813144213996632 0.19087796814596891 0 -0.47135895658993282 0.1947570774023932 0 -0.45616119448152159 0.20293189235742129 0 -0.45813144213996632 0.19087796814596891 0 -0.45616119448152159 0.20293189235742129 0 -0.44507907578333061 0.19118744781893379 0 -0.43790629617759508 0.20463875895342601 0 -0.45616119448152159 0.20293189235742129 0 -0.45813144213996632 0.19087796814596891 0 -0.44507907578333061 0.19118744781893379 0 -0.45616119448152159 0.20293189235742129 0 -0.43790629617759508 0.20463875895342601 0 -0.4518485505733974 0.21350748177269219 0 -0.43790629617759508 0.20463875895342601 0 -0.4518485505733974 0.21350748177269219 0 -0.44062710195737231 0.21950515016584879 0 -0.4518485505733974 0.21350748177269219 0 -0.46845982041356898 0.21312064432195499 0 -0.45538621831447401 0.22379539761696191 0 -0.45616119448152159 0.20293189235742129 0 -0.4518485505733974 0.21350748177269219 0 -0.46845982041356898 0.21312064432195499 0 -0.47135895658993282 0.1947570774023932 0 -0.45616119448152159 0.20293189235742129 0 -0.46845982041356898 0.21312064432195499 0 -0.47123716620259509 0.23393190699126279 0 -0.46845982041356898 0.21312064432195499 0 -0.45538621831447401 0.22379539761696191 0 -0.47123716620259509 0.23393190699126279 0 -0.45353672479075913 0.23178561294096409 0 -0.45538621831447401 0.22379539761696191 0 -0.4518485505733974 0.21350748177269219 0 -0.45538621831447401 0.22379539761696191 0 -0.44062710195737231 0.21950515016584879 0 -0.45538621831447401 0.22379539761696191 0 -0.44062710195737231 0.21950515016584879 0 -0.44360297333573639 0.23173852134216039 0 -0.44533901209460858 0.23203395498241411 0 -0.44360297333573639 0.23173852134216039 0 -0.45538621831447401 0.22379539761696191 0 -0.44533901209460858 0.23203395498241411 0 -0.44360297333573639 0.23173852134216039 0 -0.45538621831447401 0.22379539761696191 0 -0.44360297333573639 0.23173852134216039 0 -0.45353672479075913 0.23178561294096409 0 -0.45538621831447401 0.22379539761696191 0 -0.44533901209460858 0.23203395498241411 0 -0.44533901209460858 0.23203395498241411 0 -0.45144030725949058 0.23971462301491159 0 -0.44356314662437668 0.24292459822599469 0 -0.45353672479075913 0.23178561294096409 0 -0.44533901209460858 0.23203395498241411 0 -0.45144030725949058 0.23971462301491159 0 -0.44533901209460858 0.23203395498241411 0 -0.44360297333573639 0.23173852134216039 0 -0.44356314662437668 0.24292459822599469 0 -0.44360297333573639 0.23173852134216039 0 -0.44356314662437668 0.24292459822599469 0 -0.43097575344207523 0.24025057129967251 0 -0.45144030725949058 0.23971462301491159 0 -0.44356314662437668 0.24292459822599469 0 -0.45375266660564839 0.24924727523602441 0 -0.47123716620259509 0.23393190699126279 0 -0.45144030725949058 0.23971462301491159 0 -0.45375266660564839 0.24924727523602441 0 -0.47123716620259509 0.23393190699126279 0 -0.45353672479075913 0.23178561294096409 0 -0.45144030725949058 0.23971462301491159 0 -0.47123716620259509 0.23393190699126279 0 -0.45375266660564839 0.24924727523602441 0 -0.47123716620259509 0.23393190699126279 0 -0.45375266660564839 0.24924727523602441 0 -0.4678194004752429 0.2447353426660652 0 -0.45375266660564839 0.24924727523602441 0 -0.4678194004752429 0.2447353426660652 0 -0.4636578102139311 0.25412052971262689 0 -0.41834853354841411 0.24876262125718501 0 -0.41441873540301022 0.2331000751797985 0 -0.40336563987824853 0.23555196862374411 0 -0.41834853354841411 0.24876262125718501 0 -0.42213062001030438 0.2376621155293927 0 -0.41441873540301022 0.2331000751797985 0 -0.41834853354841411 0.24876262125718501 0 -0.40336563987824853 0.23555196862374411 0 -0.39767435714472738 0.26269915074353378 0 -0.41834853354841411 0.24876262125718501 0 -0.40336563987824853 0.23555196862374411 0 -0.41834853354841411 0.24876262125718501 0 -0.43097575344207523 0.24025057129967251 0 -0.42213062001030438 0.2376621155293927 0 -0.41834853354841411 0.24876262125718501 0 -0.43097575344207523 0.24025057129967251 0 -0.44356314662437668 0.24292459822599469 0 -0.43097575344207523 0.24025057129967251 0 -0.43626816700870152 0.26456264348078568 0 -0.44360297333573639 0.23173852134216039 0 -0.43097575344207523 0.24025057129967251 0 -0.43097575344207523 0.24025057129967251 0 -0.42213062001030438 0.2376621155293927 0 -0.42477945764771791 0.2285351943809146 0 -0.44360297333573639 0.23173852134216039 0 -0.42477945764771791 0.2285351943809146 0 -0.44062710195737231 0.21950515016584879 0 -0.42477945764771791 0.2285351943809146 0 -0.43042397163317592 0.21484521951945831 0 -0.44360297333573639 0.23173852134216039 0 -0.43097575344207523 0.24025057129967251 0 -0.42477945764771791 0.2285351943809146 0 -0.44062710195737231 0.21950515016584879 0 -0.44360297333573639 0.23173852134216039 0 -0.42477945764771791 0.2285351943809146 0 -0.42477945764771791 0.2285351943809146 0 -0.41965457476937229 0.20965216968351769 0 -0.4059559419596997 0.2253318674196674 0 -0.42477945764771791 0.2285351943809146 0 -0.41441873540301022 0.2331000751797985 0 -0.4059559419596997 0.2253318674196674 0 -0.42477945764771791 0.2285351943809146 0 -0.4059559419596997 0.2253318674196674 0 -0.42213062001030438 0.2376621155293927 0 -0.42477945764771791 0.2285351943809146 0 -0.41441873540301022 0.2331000751797985 0 -0.41441873540301022 0.2331000751797985 0 -0.4059559419596997 0.2253318674196674 0 -0.40336563987824853 0.23555196862374411 0 -0.41965457476937229 0.20965216968351769 0 -0.40393982723709371 0.1955624774694861 0 -0.4059559419596997 0.2253318674196674 0 -0.42477945764771791 0.2285351943809146 0 -0.41965457476937229 0.20965216968351769 0 -0.43042397163317592 0.21484521951945831 0 -0.43790629617759508 0.20463875895342601 0 -0.41965457476937229 0.20965216968351769 0 -0.43042397163317592 0.21484521951945831 0 -0.43790629617759508 0.20463875895342601 0 -0.44062710195737231 0.21950515016584879 0 -0.43042397163317592 0.21484521951945831 0 -0.44507907578333061 0.19118744781893379 0 -0.43790629617759508 0.20463875895342601 0 -0.42347734600812958 0.186997916982204 0 -0.43790629617759508 0.20463875895342601 0 -0.41965457476937229 0.20965216968351769 0 -0.42347734600812958 0.186997916982204 0 -0.41965457476937229 0.20965216968351769 0 -0.40393982723709371 0.1955624774694861 0 -0.42347734600812958 0.186997916982204 0 -0.40393982723709371 0.1955624774694861 0 -0.38118159614094987 0.19310371505301599 0 -0.38891764408699142 0.20654979126919421 0 -0.40393982723709371 0.1955624774694861 0 -0.38118159614094987 0.19310371505301599 0 -0.38857831702320311 0.17793580485120669 0 -0.38118159614094987 0.19310371505301599 0 -0.38891764408699142 0.20654979126919421 0 -0.37331740655604068 0.2090579694399505 0 -0.38891764408699142 0.20654979126919421 0 -0.38838274620808172 0.22234131599030471 0 -0.37331740655604068 0.2090579694399505 0 -0.38838274620808172 0.22234131599030471 0 -0.37331740655604068 0.2090579694399505 0 -0.38891764408699142 0.20654979126919421 0 -0.4059559419596997 0.2253318674196674 0 -0.38838274620808172 0.22234131599030471 0 -0.40393982723709371 0.1955624774694861 0 -0.4059559419596997 0.2253318674196674 0 -0.40393982723709371 0.1955624774694861 0 -0.38891764408699142 0.20654979126919421 0 -0.4059559419596997 0.2253318674196674 0 -0.38838274620808172 0.22234131599030471 0 -0.38614743888886771 0.24125964036117761 0 -0.40336563987824853 0.23555196862374411 0 -0.4059559419596997 0.2253318674196674 0 -0.38838274620808172 0.22234131599030471 0 -0.4059559419596997 0.2253318674196674 0 -0.38838274620808172 0.22234131599030471 0 -0.40336563987824853 0.23555196862374411 0 -0.38838274620808172 0.22234131599030471 0 -0.40336563987824853 0.23555196862374411 0 -0.38838274620808172 0.22234131599030471 0 -0.38614743888886771 0.24125964036117761 0 -0.371852193865291 0.23347254170787821 0 -0.38614743888886771 0.24125964036117761 0 -0.371852193865291 0.23347254170787821 0 -0.3694622573479896 0.25223322474042797 0 -0.38614743888886771 0.24125964036117761 0 -0.40336563987824853 0.23555196862374411 0 -0.39767435714472738 0.26269915074353378 0 -0.41179436236041311 0.1426539285414517 0 -0.42672189277009109 0.14808269335674251 0 -0.42273077888135008 0.1631574044952884 0 -0.41179436236041311 0.1426539285414517 0 -0.42224187516503148 0.1351156905258761 0 -0.42672189277009109 0.14808269335674251 0 -0.41179436236041311 0.1426539285414517 0 -0.42224187516503148 0.1351156905258761 0 -0.40354630873734559 0.13078676270114989 0 -0.42432354274108502 0.11882617899940261 0 -0.40641824222319761 0.12666613269842841 0 -0.40354630873734559 0.13078676270114989 0 -0.43117917244489068 0.1185279094320864 0 -0.42224187516503148 0.1351156905258761 0 -0.40354630873734559 0.13078676270114989 0 -0.43117917244489068 0.1185279094320864 0 -0.43796763951241641 0.1355271585979492 0 -0.42224187516503148 0.1351156905258761 0 -0.43796763951241641 0.1355271585979492 0 -0.42224187516503148 0.1351156905258761 0 -0.42672189277009109 0.14808269335674251 0 -0.43843243957873079 0.14859461884926639 0 -0.43796763951241641 0.1355271585979492 0 -0.42672189277009109 0.14808269335674251 0 -0.43826729052774138 0.16119813190619811 0 -0.43843243957873079 0.14859461884926639 0 -0.42672189277009109 0.14808269335674251 0 -0.43826729052774138 0.16119813190619811 0 -0.42273077888135008 0.1631574044952884 0 -0.4347531249838551 0.17487394384241539 0 -0.43826729052774138 0.16119813190619811 0 -0.42672189277009109 0.14808269335674251 0 -0.42273077888135008 0.1631574044952884 0 -0.44507907578333061 0.19118744781893379 0 -0.42347734600812958 0.186997916982204 0 -0.4347531249838551 0.17487394384241539 0 -0.42273077888135008 0.1631574044952884 0 -0.42347734600812958 0.186997916982204 0 -0.4347531249838551 0.17487394384241539 0 -0.42273077888135008 0.1631574044952884 0 -0.42347734600812958 0.186997916982204 0 -0.40192371251448761 0.1657930875193048 0 -0.40393982723709371 0.1955624774694861 0 -0.42347734600812958 0.186997916982204 0 -0.40192371251448761 0.1657930875193048 0 -0.41179436236041311 0.1426539285414517 0 -0.42273077888135008 0.1631574044952884 0 -0.40192371251448761 0.1657930875193048 0 -0.40192371251448761 0.1657930875193048 0 -0.38857831702320311 0.17793580485120669 0 -0.38424540366296478 0.15870588808426239 0 -0.40393982723709371 0.1955624774694861 0 -0.40192371251448761 0.1657930875193048 0 -0.40393982723709371 0.1955624774694861 0 -0.40192371251448761 0.1657930875193048 0 -0.38857831702320311 0.17793580485120669 0 -0.38118159614094987 0.19310371505301599 0 -0.38857831702320311 0.17793580485120669 0 -0.37119564986423909 0.17720326093032479 0 -0.38424540366296478 0.15870588808426239 0 -0.37119564986423909 0.17720326093032479 0 -0.38857831702320311 0.17793580485120669 0 -0.38424540366296478 0.15870588808426239 0 -0.37119564986423909 0.17720326093032479 0 -0.38424540366296478 0.15870588808426239 0 -0.38679875624839682 0.13821653149930341 0 -0.37005120375944739 0.14564630029745571 0 -0.38424540366296478 0.15870588808426239 0 -0.39990759779188162 0.1360236975691235 0 -0.38679875624839682 0.13821653149930341 0 -0.38679875624839682 0.13821653149930341 0 -0.37005120375944739 0.14564630029745571 0 -0.38424540366296478 0.15870588808426239 0 -0.37005120375944739 0.14564630029745571 0 -0.40192371251448761 0.1657930875193048 0 -0.39990759779188162 0.1360236975691235 0 -0.38424540366296478 0.15870588808426239 0 -0.39990759779188162 0.1360236975691235 0 -0.41179436236041311 0.1426539285414517 0 -0.40192371251448761 0.1657930875193048 0 -0.39990759779188162 0.1360236975691235 0 -0.40192371251448761 0.1657930875193048 0 -0.38424540366296478 0.15870588808426239 0 -0.39990759779188162 0.1360236975691235 0 -0.40641824222319761 0.12666613269842841 0 -0.40354630873734559 0.13078676270114989 0 -0.38431350924755392 0.12919282426732301 0 -0.40857265521585923 0.1219370921557841 0 -0.38431350924755392 0.12919282426732301 0 -0.40354630873734559 0.13078676270114989 0 -0.39990759779188162 0.1360236975691235 0 -0.38679875624839682 0.13821653149930341 0 -0.40857265521585923 0.1219370921557841 0 -0.40641824222319761 0.12666613269842841 0 -0.38431350924755392 0.12919282426732301 0 -0.40354630873734559 0.13078676270114989 0 -0.38679875624839682 0.13821653149930341 0 -0.38431350924755392 0.12919282426732301 0 -0.40354630873734559 0.13078676270114989 0 -0.38679875624839682 0.13821653149930341 0 -0.40641824222319761 0.12666613269842841 0 -0.40354630873734559 0.13078676270114989 0 -0.41179436236041311 0.1426539285414517 0 -0.40354630873734559 0.13078676270114989 0 -0.39990759779188162 0.1360236975691235 0 -0.40354630873734559 0.13078676270114989 0 -0.39990759779188162 0.1360236975691235 0 -0.38679875624839682 0.13821653149930341 0 -0.38431350924755392 0.12919282426732301 0 -0.37005120375944739 0.14564630029745571 0 -0.38431350924755392 0.12919282426732301 0 -0.3600543632792485 0.1364485563788618 0 -0.37005120375944739 0.14564630029745571 0 -0.38431350924755392 0.12919282426732301 0 -0.3600543632792485 0.1364485563788618 0 -0.38431350924755392 0.12919282426732301 0 -0.3600543632792485 0.1364485563788618 0 -0.37441583262399492 0.12432153707058841 0 -0.3600543632792485 0.1364485563788618 0 -0.37441583262399492 0.12432153707058841 0 -0.36231237886107021 0.1234446037932188 0 -0.3600543632792485 0.1364485563788618 0 -0.36231237886107021 0.1234446037932188 0 -0.34375662299808379 0.12145357452886529 0 -0.3600543632792485 0.1364485563788618 0 -0.33330286883992483 0.14444973158464389 0 -0.3600543632792485 0.1364485563788618 0 -0.34375662299808379 0.12145357452886529 0 -0.3600543632792485 0.1364485563788618 0 -0.33330286883992483 0.14444973158464389 0 -0.34375662299808379 0.12145357452886529 0 -0.3600543632792485 0.1364485563788618 0 -0.34721502424942668 0.15577718563754281 0 -0.33330286883992483 0.14444973158464389 0 -0.34721502424942668 0.15577718563754281 0 -0.37005120375944739 0.14564630029745571 0 -0.3600543632792485 0.1364485563788618 0 -0.34721502424942668 0.15577718563754281 0 -0.37005120375944739 0.14564630029745571 0 -0.34721502424942668 0.15577718563754281 0 -0.37005120375944739 0.14564630029745571 0 -0.36559879512798932 0.16181969478784269 0 -0.38424540366296478 0.15870588808426239 0 -0.37005120375944739 0.14564630029745571 0 -0.36559879512798932 0.16181969478784269 0 -0.3600543632792485 0.1364485563788618 0 -0.37005120375944739 0.14564630029745571 0 -0.38424540366296478 0.15870588808426239 0 -0.36559879512798932 0.16181969478784269 0 -0.37119564986423909 0.17720326093032479 0 -0.36559879512798932 0.16181969478784269 0 -0.37119564986423909 0.17720326093032479 0 -0.3560626985002262 0.17309352900623859 0 -0.37119564986423909 0.17720326093032479 0 -0.3560626985002262 0.17309352900623859 0 -0.35825206690399858 0.19577462288959721 0 -0.37119564986423909 0.17720326093032479 0 -0.35825206690399858 0.19577462288959721 0 -0.3560626985002262 0.17309352900623859 0 -0.34131545582170092 0.1808413469336026 0 -0.35825206690399858 0.19577462288959721 0 -0.34721502424942668 0.15577718563754281 0 -0.3560626985002262 0.17309352900623859 0 -0.34131545582170092 0.1808413469336026 0 -0.34721502424942668 0.15577718563754281 0 -0.36559879512798932 0.16181969478784269 0 -0.3560626985002262 0.17309352900623859 0 -0.34721502424942668 0.15577718563754281 0 -0.32437884473939849 0.16590807097761351 0 -0.34721502424942668 0.15577718563754281 0 -0.32437884473939849 0.16590807097761351 0 -0.32204307671133492 0.15449318556728081 0 -0.34721502424942668 0.15577718563754281 0 -0.34131545582170092 0.1808413469336026 0 -0.32437884473939849 0.16590807097761351 0 -0.34131545582170092 0.1808413469336026 0 -0.32437884473939849 0.16590807097761351 0 -0.32618799533412418 0.18777374796830279 0 -0.34131545582170092 0.1808413469336026 0 -0.34473550080636739 0.19378830307878861 0 -0.32618799533412418 0.18777374796830279 0 -0.34131545582170092 0.1808413469336026 0 -0.32437884473939849 0.16590807097761351 0 -0.32618799533412418 0.18777374796830279 0 -0.30700979422474978 0.1984651638369081 0 -0.30511296886924621 0.17445505140976439 0 -0.32437884473939849 0.16590807097761351 0 -0.32618799533412418 0.18777374796830279 0 -0.30511296886924621 0.17445505140976439 0 -0.32437884473939849 0.16590807097761351 0 -0.30511296886924621 0.17445505140976439 0 -0.32437884473939849 0.16590807097761351 0 -0.31146803266686612 0.154524405227812 0 -0.30511296886924621 0.17445505140976439 0 -0.32437884473939849 0.16590807097761351 0 -0.31640983694713298 0.1565668099900793 0 -0.32204307671133492 0.15449318556728081 0 -0.32437884473939849 0.16590807097761351 0 -0.31640983694713298 0.1565668099900793 0 -0.31146803266686612 0.154524405227812 0 -0.32437884473939849 0.16590807097761351 0 -0.31146803266686612 0.154524405227812 0 -0.32204307671133492 0.15449318556728081 0 -0.31841576528614229 0.1334833273211441 0 -0.31640983694713298 0.1565668099900793 0 -0.32204307671133492 0.15449318556728081 0 -0.31545927869534268 0.14357558374384891 0 -0.32204307671133492 0.15449318556728081 0 -0.31545927869534268 0.14357558374384891 0 -0.31841576528614229 0.1334833273211441 0 -0.32204307671133492 0.15449318556728081 0 -0.31841576528614229 0.1334833273211441 0 -0.33330286883992483 0.14444973158464389 0 -0.31545927869534268 0.14357558374384891 0 -0.31841576528614229 0.1334833273211441 0 -0.30496843583676098 0.12975901209689131 0 -0.31841576528614229 0.1334833273211441 0 -0.33054626674503379 0.13015498917795831 0 -0.3267098098559843 0.12123332327717989 0 -0.31841576528614229 0.1334833273211441 0 -0.33054626674503379 0.13015498917795831 0 -0.33330286883992483 0.14444973158464389 0 -0.33054626674503379 0.13015498917795831 0 -0.33330286883992483 0.14444973158464389 0 -0.34375662299808379 0.12145357452886529 0 -0.34721502424942668 0.15577718563754281 0 -0.32204307671133492 0.15449318556728081 0 -0.33330286883992483 0.14444973158464389 0 -0.35286962419283269 0.23609019261808381 0 -0.3694622573479896 0.25223322474042797 0 -0.34165023871863548 0.25294654102260028 0 -0.35286962419283269 0.23609019261808381 0 -0.371852193865291 0.23347254170787821 0 -0.3694622573479896 0.25223322474042797 0 -0.35286962419283269 0.23609019261808381 0 -0.371852193865291 0.23347254170787821 0 -0.36147907687567948 0.2177629337817252 0 -0.38838274620808172 0.22234131599030471 0 -0.371852193865291 0.23347254170787821 0 -0.36147907687567948 0.2177629337817252 0 -0.38838274620808172 0.22234131599030471 0 -0.36147907687567948 0.2177629337817252 0 -0.35286962419283269 0.23609019261808381 0 -0.36147907687567948 0.2177629337817252 0 -0.33457540754327758 0.21318455157314509 0 -0.34775121624369448 0.20683536564181729 0 -0.36147907687567948 0.2177629337817252 0 -0.33457540754327758 0.21318455157314509 0 -0.36147907687567948 0.2177629337817252 0 -0.33457540754327758 0.21318455157314509 0 -0.34775121624369448 0.20683536564181729 0 -0.3546090945865446 0.2038385299743298 0 -0.36147907687567948 0.2177629337817252 0 -0.3546090945865446 0.2038385299743298 0 -0.36147907687567948 0.2177629337817252 0 -0.36118965578292439 0.20451196674952199 0 -0.38838274620808172 0.22234131599030471 0 -0.36147907687567948 0.2177629337817252 0 -0.37331740655604068 0.2090579694399505 0 -0.36147907687567948 0.2177629337817252 0 -0.37331740655604068 0.2090579694399505 0 -0.36118965578292439 0.20451196674952199 0 -0.37331740655604068 0.2090579694399505 0 -0.36118965578292439 0.20451196674952199 0 -0.35825206690399858 0.19577462288959721 0 -0.37331740655604068 0.2090579694399505 0 -0.35825206690399858 0.19577462288959721 0 -0.38118159614094987 0.19310371505301599 0 -0.37331740655604068 0.2090579694399505 0 -0.35825206690399858 0.19577462288959721 0 -0.38118159614094987 0.19310371505301599 0 -0.37119564986423909 0.17720326093032479 0 -0.35825206690399858 0.19577462288959721 0 -0.34131545582170092 0.1808413469336026 0 -0.35825206690399858 0.19577462288959721 0 -0.34131545582170092 0.1808413469336026 0 -0.35825206690399858 0.19577462288959721 0 -0.34473550080636739 0.19378830307878861 0 -0.3546090945865446 0.2038385299743298 0 -0.35825206690399858 0.19577462288959721 0 -0.34473550080636739 0.19378830307878861 0 -0.3546090945865446 0.2038385299743298 0 -0.36118965578292439 0.20451196674952199 0 -0.35825206690399858 0.19577462288959721 0 -0.34775121624369448 0.20683536564181729 0 -0.3546090945865446 0.2038385299743298 0 -0.34473550080636739 0.19378830307878861 0 -0.34473550080636739 0.19378830307878861 0 -0.32618799533412418 0.18777374796830279 0 -0.33457540754327758 0.21318455157314509 0 -0.32618799533412418 0.18777374796830279 0 -0.33457540754327758 0.21318455157314509 0 -0.30700979422474978 0.1984651638369081 0 -0.33457540754327758 0.21318455157314509 0 -0.30695526774093912 0.226403260204841 0 -0.30700979422474978 0.1984651638369081 0 -0.34775121624369448 0.20683536564181729 0 -0.34473550080636739 0.19378830307878861 0 -0.33457540754327758 0.21318455157314509 0 -0.35286962419283269 0.23609019261808381 0 -0.33457540754327758 0.21318455157314509 0 -0.33175301095040161 0.23419714454301599 0 -0.33457540754327758 0.21318455157314509 0 -0.33175301095040161 0.23419714454301599 0 -0.30695526774093912 0.226403260204841 0 -0.33175301095040161 0.23419714454301599 0 -0.30695526774093912 0.226403260204841 0 -0.32278850827095751 0.25006775010447602 0 -0.35286962419283269 0.23609019261808381 0 -0.33175301095040161 0.23419714454301599 0 -0.34165023871863548 0.25294654102260028 0 -0.33175301095040161 0.23419714454301599 0 -0.34165023871863548 0.25294654102260028 0 -0.32278850827095751 0.25006775010447602 0 -0.28430592912881081 0.23923246017082489 0 -0.30695526774093912 0.226403260204841 0 -0.30520292760209988 0.25634773778978182 0 -0.30695526774093912 0.226403260204841 0 -0.32278850827095751 0.25006775010447602 0 -0.30520292760209988 0.25634773778978182 0 -0.28430592912881081 0.23923246017082489 0 -0.30695526774093912 0.226403260204841 0 -0.2867682424349336 0.208976136239438 0 -0.30695526774093912 0.226403260204841 0 -0.2867682424349336 0.208976136239438 0 -0.30695526774093912 0.226403260204841 0 -0.2867682424349336 0.208976136239438 0 -0.30700979422474978 0.1984651638369081 0 -0.2867682424349336 0.208976136239438 0 -0.30700979422474978 0.1984651638369081 0 -0.28584709299908723 0.18300203184190039 0 -0.2867682424349336 0.208976136239438 0 -0.26658121712892757 0.19154901227403531 0 -0.28584709299908723 0.18300203184190039 0 -0.2867682424349336 0.208976136239438 0 -0.26658121712892757 0.19154901227403531 0 -0.26658121712892757 0.19154901227403531 0 -0.25906363908136698 0.2090991990882847 0 -0.24241655283030181 0.20226925745268409 0 -0.26658121712892757 0.19154901227403531 0 -0.24241655283030181 0.20226925745268409 0 -0.26658121712892757 0.19154901227403531 0 -0.24241655283030181 0.20226925745268409 0 -0.24533270921762371 0.1881589659560638 0 -0.25906363908136698 0.2090991990882847 0 -0.25658993574280559 0.22669099971176829 0 -0.2409488536013992 0.21868250792619581 0 -0.2867682424349336 0.208976136239438 0 -0.26658121712892757 0.19154901227403531 0 -0.25906363908136698 0.2090991990882847 0 -0.2867682424349336 0.208976136239438 0 -0.25906363908136698 0.2090991990882847 0 -0.26903076664820103 0.22522480631344241 0 -0.28430592912881081 0.23923246017082489 0 -0.2867682424349336 0.208976136239438 0 -0.26903076664820103 0.22522480631344241 0 -0.25906363908136698 0.2090991990882847 0 -0.26903076664820103 0.22522480631344241 0 -0.25658993574280559 0.22669099971176829 0 -0.26903076664820103 0.22522480631344241 0 -0.25658993574280559 0.22669099971176829 0 -0.2645900996779269 0.241021892497989 0 -0.25768378580886803 0.26017067753966372 0 -0.24931631970513429 0.23942659273292949 0 -0.2645900996779269 0.241021892497989 0 -0.25768378580886803 0.26017067753966372 0 -0.24931631970513429 0.23942659273292949 0 -0.25658993574280559 0.22669099971176829 0 -0.2645900996779269 0.241021892497989 0 -0.24931631970513429 0.23942659273292949 0 -0.28430592912881081 0.23923246017082489 0 -0.26903076664820103 0.22522480631344241 0 -0.2645900996779269 0.241021892497989 0 -0.28430592912881081 0.23923246017082489 0 -0.2645900996779269 0.241021892497989 0 -0.27525601128370047 0.25577128989075221 0 -0.2985572205943291 0.14314073947801559 0 -0.27755826782580911 0.14624930764255931 0 -0.28080216710380779 0.1534825875571349 0 -0.2985572205943291 0.14314073947801559 0 -0.28080216710380779 0.1534825875571349 0 -0.2985572205943291 0.14314073947801559 0 -0.2939076317433138 0.16165864117521031 0 -0.28080216710380779 0.1534825875571349 0 -0.28288978460460978 0.1293265151316885 0 -0.2985572205943291 0.14314073947801559 0 -0.28288978460460978 0.1293265151316885 0 -0.2985572205943291 0.14314073947801559 0 -0.27755826782580911 0.14624930764255931 0 -0.28288978460460978 0.1293265151316885 0 -0.29688154734977013 0.1323253882224644 0 -0.2985572205943291 0.14314073947801559 0 -0.28288978460460978 0.1293265151316885 0 -0.29688154734977013 0.1323253882224644 0 -0.29167832247551118 0.1207780377578291 0 -0.29688154734977013 0.1323253882224644 0 -0.3063139732376397 0.1386226366478974 0 -0.2985572205943291 0.14314073947801559 0 -0.29688154734977013 0.1323253882224644 0 -0.30496843583676098 0.12975901209689131 0 -0.3063139732376397 0.1386226366478974 0 -0.29688154734977013 0.1323253882224644 0 -0.30496843583676098 0.12975901209689131 0 -0.29167832247551118 0.1207780377578291 0 -0.31841576528614229 0.1334833273211441 0 -0.30496843583676098 0.12975901209689131 0 -0.30571829013591728 0.1187528323775557 0 -0.2985572205943291 0.14314073947801559 0 -0.31146803266686612 0.154524405227812 0 -0.2939076317433138 0.16165864117521031 0 -0.31640983694713298 0.1565668099900793 0 -0.3063139732376397 0.1386226366478974 0 -0.31146803266686612 0.154524405227812 0 -0.3063139732376397 0.1386226366478974 0 -0.2985572205943291 0.14314073947801559 0 -0.31146803266686612 0.154524405227812 0 -0.31640983694713298 0.1565668099900793 0 -0.30496843583676098 0.12975901209689131 0 -0.3063139732376397 0.1386226366478974 0 -0.31640983694713298 0.1565668099900793 0 -0.30496843583676098 0.12975901209689131 0 -0.31640983694713298 0.1565668099900793 0 -0.31545927869534268 0.14357558374384891 0 -0.30496843583676098 0.12975901209689131 0 -0.3063139732376397 0.1386226366478974 0 -0.2985572205943291 0.14314073947801559 0 -0.2985572205943291 0.14314073947801559 0 -0.31146803266686612 0.154524405227812 0 -0.31146803266686612 0.154524405227812 0 -0.30511296886924621 0.17445505140976439 0 -0.2939076317433138 0.16165864117521031 0 -0.30700979422474978 0.1984651638369081 0 -0.30511296886924621 0.17445505140976439 0 -0.28584709299908723 0.18300203184190039 0 -0.30511296886924621 0.17445505140976439 0 -0.28584709299908723 0.18300203184190039 0 -0.30511296886924621 0.17445505140976439 0 -0.28584709299908723 0.18300203184190039 0 -0.2939076317433138 0.16165864117521031 0 -0.28584709299908723 0.18300203184190039 0 -0.2939076317433138 0.16165864117521031 0 -0.27672771223153481 0.1674942276821402 0 -0.2939076317433138 0.16165864117521031 0 -0.27672771223153481 0.1674942276821402 0 -0.28080216710380779 0.1534825875571349 0 -0.27672771223153481 0.1674942276821402 0 -0.26304711361328531 0.16382443563625221 0 -0.28080216710380779 0.1534825875571349 0 -0.26304711361328531 0.16382443563625221 0 -0.28080216710380779 0.1534825875571349 0 -0.26304711361328531 0.16382443563625221 0 -0.26745848973918501 0.1526885166770828 0 -0.28080216710380779 0.1534825875571349 0 -0.27672771223153481 0.1674942276821402 0 -0.2695176984249914 0.17792114496269659 0 -0.26424955241131992 0.16684024985283971 0 -0.27672771223153481 0.1674942276821402 0 -0.26304711361328531 0.16382443563625221 0 -0.26424955241131992 0.16684024985283971 0 -0.28584709299908723 0.18300203184190039 0 -0.27672771223153481 0.1674942276821402 0 -0.2695176984249914 0.17792114496269659 0 -0.26658121712892757 0.19154901227403531 0 -0.28584709299908723 0.18300203184190039 0 -0.26658121712892757 0.19154901227403531 0 -0.28584709299908723 0.18300203184190039 0 -0.2695176984249914 0.17792114496269659 0 -0.26658121712892757 0.19154901227403531 0 -0.2695176984249914 0.17792114496269659 0 -0.24598086708149211 0.17376507191802079 0 -0.26658121712892757 0.19154901227403531 0 -0.24598086708149211 0.17376507191802079 0 -0.24533270921762371 0.1881589659560638 0 -0.26658121712892757 0.19154901227403531 0 -0.24598086708149211 0.17376507191802079 0 -0.2695176984249914 0.17792114496269659 0 -0.26424955241131992 0.16684024985283971 0 -0.24598086708149211 0.17376507191802079 0 -0.26304711361328531 0.16382443563625221 0 -0.26424955241131992 0.16684024985283971 0 -0.24598086708149211 0.17376507191802079 0 -0.26304711361328531 0.16382443563625221 0 -0.24598086708149211 0.17376507191802079 0 -0.26304711361328531 0.16382443563625221 0 -0.24230168277068409 0.1592505047815353 0 -0.24598086708149211 0.17376507191802079 0 -0.26304711361328531 0.16382443563625221 0 -0.25659529134633818 0.147642741110633 0 -0.24230168277068409 0.1592505047815353 0 -0.26304711361328531 0.16382443563625221 0 -0.26424955241131992 0.16684024985283971 0 -0.26304711361328531 0.16382443563625221 0 -0.25659529134633818 0.147642741110633 0 -0.26745848973918501 0.1526885166770828 0 -0.26304711361328531 0.16382443563625221 0 -0.25659529134633818 0.147642741110633 0 -0.25659529134633818 0.147642741110633 0 -0.26745848973918501 0.1526885166770828 0 -0.27755826782580911 0.14624930764255931 0 -0.25659529134633818 0.147642741110633 0 -0.27755826782580911 0.14624930764255931 0 -0.26531695536165723 0.13197607751873891 0 -0.25659529134633818 0.147642741110633 0 -0.27755826782580911 0.14624930764255931 0 -0.26745848973918501 0.1526885166770828 0 -0.27755826782580911 0.14624930764255931 0 -0.28080216710380779 0.1534825875571349 0 -0.28288978460460978 0.1293265151316885 0 -0.26531695536165723 0.13197607751873891 0 -0.26722234861489053 0.1155122907853614 0 -0.28288978460460978 0.1293265151316885 0 -0.27755826782580911 0.14624930764255931 0 -0.26531695536165723 0.13197607751873891 0 -0.25659529134633818 0.147642741110633 0 -0.26531695536165723 0.13197607751873891 0 -0.25097174827458302 0.1335384381131707 0 -0.25659529134633818 0.147642741110633 0 -0.25097174827458302 0.1335384381131707 0 -0.25097174827458302 0.1335384381131707 0 -0.25569822683886212 0.1222362376235528 0 -0.24534820520282771 0.1194341351157084 0 -0.26531695536165723 0.13197607751873891 0 -0.25097174827458302 0.1335384381131707 0 -0.25569822683886212 0.1222362376235528 0 -0.26531695536165723 0.13197607751873891 0 -0.25569822683886212 0.1222362376235528 0 -0.26722234861489053 0.1155122907853614 0 -0.25569822683886212 0.1222362376235528 0 -0.2496318767403515 0.1107202465847851 0 -0.24534820520282771 0.1194341351157084 0 -0.25569822683886212 0.1222362376235528 0 -0.26722234861489053 0.1155122907853614 0 -0.2496318767403515 0.1107202465847851 0 -0.25155491262517238 0.10169806643903311 0 -0.26722234861489053 0.1155122907853614 0 -0.2496318767403515 0.1107202465847851 0 -0.25155491262517238 0.10169806643903311 0 -0.26722234861489053 0.1155122907853614 0 -0.25155491262517238 0.10169806643903311 0 -0.26634360107005789 0.099805930881343166 0 -0.26722234861489053 0.1155122907853614 0 -0.25329619782595358 0.099198295200388212 0 -0.25155491262517238 0.10169806643903311 0 -0.26634360107005789 0.099805930881343166 0 -0.25329619782595358 0.099198295200388212 0 -0.25155491262517238 0.10169806643903311 0 -0.24893571653906521 0.091804982588433129 0 -0.25329619782595358 0.099198295200388212 0 -0.25782585192372243 0.091252560513962161 0 -0.24893571653906521 0.091804982588433129 0 -0.25329619782595358 0.099198295200388212 0 -0.25155491262517238 0.10169806643903311 0 -0.25329619782595358 0.099198295200388212 0 -0.26634360107005789 0.099805930881343166 0 -0.25782585192372243 0.091252560513962161 0 -0.26634360107005789 0.099805930881343166 0 -0.27855557498345651 0.108287160038682 0 -0.2884764710049933 0.1009885759638675 0 -0.26634360107005789 0.099805930881343166 0 -0.2884764710049933 0.1009885759638675 0 -0.26701466968858462 0.084500123265948177 0 -0.26634360107005789 0.099805930881343166 0 -0.27855557498345651 0.108287160038682 0 -0.26722234861489053 0.1155122907853614 0 -0.28288978460460978 0.1293265151316885 0 -0.26722234861489053 0.1155122907853614 0 -0.28220924442588791 0.1167886578784981 0 -0.28288978460460978 0.1293265151316885 0 -0.26722234861489053 0.1155122907853614 0 -0.27855557498345651 0.108287160038682 0 -0.26722234861489053 0.1155122907853614 0 -0.28220924442588791 0.1167886578784981 0 -0.28288978460460978 0.1293265151316885 0 -0.29167832247551118 0.1207780377578291 0 -0.28220924442588791 0.1167886578784981 0 -0.30496843583676098 0.12975901209689131 0 -0.29167832247551118 0.1207780377578291 0 -0.29352703472638891 0.102951214203703 0 -0.29167832247551118 0.1207780377578291 0 -0.28736006173728751 0.1106613528591593 0 -0.29352703472638891 0.102951214203703 0 -0.27855557498345651 0.108287160038682 0 -0.28736006173728751 0.1106613528591593 0 -0.28220924442588791 0.1167886578784981 0 -0.29167832247551118 0.1207780377578291 0 -0.28736006173728751 0.1106613528591593 0 -0.28220924442588791 0.1167886578784981 0 -0.29659445078205432 0.094887107255408276 0 -0.29352703472638891 0.102951214203703 0 -0.2918407801023542 0.086392299990288676 0 -0.27855557498345651 0.108287160038682 0 -0.28736006173728751 0.1106613528591593 0 -0.2884764710049933 0.1009885759638675 0 -0.29659445078205432 0.094887107255408276 0 -0.29352703472638891 0.102951214203703 0 -0.29850146116329213 0.10015142166244929 0 -0.28736006173728751 0.1106613528591593 0 -0.2884764710049933 0.1009885759638675 0 -0.29352703472638891 0.102951214203703 0 -0.29352703472638891 0.102951214203703 0 -0.30121730475368003 0.10613246526023749 0 -0.30571829013591728 0.1187528323775557 0 -0.30682315092912621 0.1002075777678515 0 -0.31116114243575549 0.091463610828870973 0 -0.31478845386094972 0.1124734690750074 0 -0.29352703472638891 0.102951214203703 0 -0.30121730475368003 0.10613246526023749 0 -0.29850146116329213 0.10015142166244929 0 -0.30121730475368003 0.10613246526023749 0 -0.29850146116329213 0.10015142166244929 0 -0.30268296053282201 0.1015654060225432 0 -0.30121730475368003 0.10613246526023749 0 -0.30268296053282201 0.1015654060225432 0 -0.30595965897422361 0.1072755232798811 0 -0.3011422398375258 0.096099316896088138 0 -0.30682315092912621 0.1002075777678515 0 -0.30520444993348061 0.092368140504718269 0 -0.29659445078205432 0.094887107255408276 0 -0.29850146116329213 0.10015142166244929 0 -0.3011422398375258 0.096099316896088138 0 -0.29850146116329213 0.10015142166244929 0 -0.30268296053282201 0.1015654060225432 0 -0.3011422398375258 0.096099316896088138 0 -0.30268296053282201 0.1015654060225432 0 -0.3011422398375258 0.096099316896088138 0 -0.30682315092912621 0.1002075777678515 0 -0.30682315092912621 0.1002075777678515 0 -0.31116114243575549 0.091463610828870973 0 -0.30520444993348061 0.092368140504718269 0 -0.30682315092912621 0.1002075777678515 0 -0.30595965897422361 0.1072755232798811 0 -0.31478845386094972 0.1124734690750074 0 -0.30268296053282201 0.1015654060225432 0 -0.30682315092912621 0.1002075777678515 0 -0.30595965897422361 0.1072755232798811 0 -0.30496843583676098 0.12975901209689131 0 -0.29352703472638891 0.102951214203703 0 -0.30571829013591728 0.1187528323775557 0 -0.30595965897422361 0.1072755232798811 0 -0.30571829013591728 0.1187528323775557 0 -0.31478845386094972 0.1124734690750074 0 -0.30496843583676098 0.12975901209689131 0 -0.29352703472638891 0.102951214203703 0 -0.30121730475368003 0.10613246526023749 0 -0.30595965897422361 0.1072755232798811 0 -0.30571829013591728 0.1187528323775557 0 -0.30678740908947549 0.066130380002985156 0 -0.29691699730577809 0.078010845233770512 0 -0.29060962576468452 0.067805208448598275 0 -0.30678740908947549 0.066130380002985156 0 -0.29691699730577809 0.078010845233770512 0 -0.30598666700710342 0.086702756636985387 0 -0.30678740908947549 0.066130380002985156 0 -0.31116114243575549 0.091463610828870973 0 -0.30678740908947549 0.066130380002985156 0 -0.31116114243575549 0.091463610828870973 0 -0.30598666700710342 0.086702756636985387 0 -0.30678740908947549 0.066130380002985156 0 -0.31116114243575549 0.091463610828870973 0 -0.31766870603388891 0.08119370201835098 0 -0.31116114243575549 0.091463610828870973 0 -0.30598666700710342 0.086702756636985387 0 -0.31116114243575549 0.091463610828870973 0 -0.30598666700710342 0.086702756636985387 0 -0.30520444993348061 0.092368140504718269 0 -0.3011422398375258 0.096099316896088138 0 -0.30520444993348061 0.092368140504718269 0 -0.2988512515636037 0.089394050462785452 0 -0.30598666700710342 0.086702756636985387 0 -0.30520444993348061 0.092368140504718269 0 -0.2988512515636037 0.089394050462785452 0 -0.29659445078205432 0.094887107255408276 0 -0.3011422398375258 0.096099316896088138 0 -0.2988512515636037 0.089394050462785452 0 -0.29691699730577809 0.078010845233770512 0 -0.30598666700710342 0.086702756636985387 0 -0.2988512515636037 0.089394050462785452 0 -0.29691699730577809 0.078010845233770512 0 -0.2988512515636037 0.089394050462785452 0 -0.2918407801023542 0.086392299990288676 0 -0.29352703472638891 0.102951214203703 0 -0.2820856336160168 0.076143416310514744 0 -0.29352703472638891 0.102951214203703 0 -0.2918407801023542 0.086392299990288676 0 -0.2820856336160168 0.076143416310514744 0 -0.2884764710049933 0.1009885759638675 0 -0.29352703472638891 0.102951214203703 0 -0.2820856336160168 0.076143416310514744 0 -0.29691699730577809 0.078010845233770512 0 -0.2918407801023542 0.086392299990288676 0 -0.2820856336160168 0.076143416310514744 0 -0.29659445078205432 0.094887107255408276 0 -0.2988512515636037 0.089394050462785452 0 -0.2918407801023542 0.086392299990288676 0 -0.30678740908947549 0.066130380002985156 0 -0.29060962576468452 0.067805208448598275 0 -0.29058437031710849 0.054861654399669009 0 -0.29691699730577809 0.078010845233770512 0 -0.2820856336160168 0.076143416310514744 0 -0.29060962576468452 0.067805208448598275 0 -0.2820856336160168 0.076143416310514744 0 -0.29060962576468452 0.067805208448598275 0 -0.28052878263367997 0.062689744189194749 0 -0.2820856336160168 0.076143416310514744 0 -0.26689750246979099 0.065389471785450987 0 -0.26701466968858462 0.084500123265948177 0 -0.2820856336160168 0.076143416310514744 0 -0.28052878263367997 0.062689744189194749 0 -0.26689750246979099 0.065389471785450987 0 -0.2884764710049933 0.1009885759638675 0 -0.26701466968858462 0.084500123265948177 0 -0.2884764710049933 0.1009885759638675 0 -0.2820856336160168 0.076143416310514744 0 -0.26701466968858462 0.084500123265948177 0 -0.26701466968858462 0.084500123265948177 0 -0.25092365096646307 0.083232766792401561 0 -0.25782585192372243 0.091252560513962161 0 -0.26701466968858462 0.084500123265948177 0 -0.25092365096646307 0.083232766792401561 0 -0.24555286837217591 0.06801167056802887 0 -0.26634360107005789 0.099805930881343166 0 -0.26701466968858462 0.084500123265948177 0 -0.25782585192372243 0.091252560513962161 0 -0.25092365096646307 0.083232766792401561 0 -0.25782585192372243 0.091252560513962161 0 -0.24893571653906521 0.091804982588433129 0 -0.26701466968858462 0.084500123265948177 0 -0.24555286837217591 0.06801167056802887 0 -0.26689750246979099 0.065389471785450987 0 -0.26701466968858462 0.084500123265948177 0 -0.24555286837217591 0.06801167056802887 0 -0.26689750246979099 0.065389471785450987 0 -0.25699905901234332 0.05157453444368805 0 -0.24555286837217591 0.06801167056802887 0 -0.25699905901234332 0.05157453444368805 0 -0.26099636426958261 0.033291675825602239 0 -0.24758745507599511 0.041584625118578369 0 -0.25699905901234332 0.05157453444368805 0 -0.26099636426958261 0.033291675825602239 0 -0.27474044167366612 0.048444366999564087 0 -0.26099636426958261 0.033291675825602239 0 -0.2460635779772137 0.02840502717849459 0 -0.24758745507599511 0.041584625118578369 0 -0.26099636426958261 0.033291675825602239 0 -0.27474044167366612 0.048444366999564087 0 -0.28260073025341542 0.030932635998780839 0 -0.26689750246979099 0.065389471785450987 0 -0.25699905901234332 0.05157453444368805 0 -0.27474044167366612 0.048444366999564087 0 -0.28052878263367997 0.062689744189194749 0 -0.26689750246979099 0.065389471785450987 0 -0.27474044167366612 0.048444366999564087 0 -0.25981017286532337 -0.00044055064508607619 0 -0.25217160470833527 0.013394340926445741 0 -0.26717514969005812 0.018358773045672409 0 -0.25441168121153462 -0.0055030345160287097 0 -0.25981017286532337 -0.00044055064508607619 0 -0.25217160470833527 0.013394340926445741 0 -0.25981017286532337 -0.00044055064508607619 0 -0.26717514969005812 0.018358773045672409 0 -0.26099636426958261 0.033291675825602239 0 -0.25217160470833527 0.013394340926445741 0 -0.2460635779772137 0.02840502717849459 0 -0.26099636426958261 0.033291675825602239 0 -0.25217160470833527 0.013394340926445741 0 -0.26717514969005812 0.018358773045672409 0 -0.26099636426958261 0.033291675825602239 0 -0.26717514969005812 0.018358773045672409 0 -0.28260073025341542 0.030932635998780839 0 -0.26717514969005812 0.018358773045672409 0 -0.28297267003449922 0.01523314735014461 0 -0.28260073025341542 0.030932635998780839 0 -0.25981017286532337 -0.00044055064508607619 0 -0.26717514969005812 0.018358773045672409 0 -0.27120438679718573 0.0055210703373145239 0 -0.26717514969005812 0.018358773045672409 0 -0.27120438679718573 0.0055210703373145239 0 -0.28297267003449922 0.01523314735014461 0 -0.28703578881631908 -0.003412880413627258 0 -0.27120438679718573 0.0055210703373145239 0 -0.28297267003449922 0.01523314735014461 0 -0.25981017286532337 -0.00044055064508607619 0 -0.2666675497691825 -0.0025076994135350612 0 -0.27120438679718573 0.0055210703373145239 0 -0.28703578881631908 -0.003412880413627258 0 -0.3065924590943912 0.012727419502438031 0 -0.28703578881631908 -0.003412880413627258 0 -0.28297267003449922 0.01523314735014461 0 -0.29803994239691239 0.015463918351214009 0 -0.28297267003449922 0.01523314735014461 0 -0.28260073025341542 0.030932635998780839 0 -0.28945910474197117 0.023664956952584519 0 -0.28945910474197117 0.023664956952584519 0 -0.29803994239691239 0.015463918351214009 0 -0.29422307628305783 0.033030126110198607 0 -0.28297267003449922 0.01523314735014461 0 -0.28945910474197117 0.023664956952584519 0 -0.29803994239691239 0.015463918351214009 0 -0.28260073025341542 0.030932635998780839 0 -0.28945910474197117 0.023664956952584519 0 -0.29422307628305783 0.033030126110198607 0 -0.29803994239691239 0.015463918351214009 0 -0.3065924590943912 0.012727419502438031 0 -0.30668521908556612 0.031972892659774051 0 -0.3065924590943912 0.012727419502438031 0 -0.30668521908556612 0.031972892659774051 0 -0.31868926993794772 0.022711028791074849 0 -0.29803994239691239 0.015463918351214009 0 -0.29422307628305783 0.033030126110198607 0 -0.302413675743194 0.040797149177099583 0 -0.29803994239691239 0.015463918351214009 0 -0.302413675743194 0.040797149177099583 0 -0.30668521908556612 0.031972892659774051 0 -0.3065924590943912 0.012727419502438031 0 -0.30668521908556612 0.031972892659774051 0 -0.29803994239691239 0.015463918351214009 0 -0.302413675743194 0.040797149177099583 0 -0.28703578881631908 -0.003412880413627258 0 -0.29803994239691239 0.015463918351214009 0 -0.3065924590943912 0.012727419502438031 0 -0.28052878263367997 0.062689744189194749 0 -0.27474044167366612 0.048444366999564087 0 -0.29058437031710849 0.054861654399669009 0 -0.27474044167366612 0.048444366999564087 0 -0.29058437031710849 0.054861654399669009 0 -0.28927774351080032 0.042327960112255127 0 -0.29060962576468452 0.067805208448598275 0 -0.28052878263367997 0.062689744189194749 0 -0.29058437031710849 0.054861654399669009 0 -0.27474044167366612 0.048444366999564087 0 -0.28260073025341542 0.030932635998780839 0 -0.28927774351080032 0.042327960112255127 0 -0.28260073025341542 0.030932635998780839 0 -0.29422307628305783 0.033030126110198607 0 -0.28927774351080032 0.042327960112255127 0 -0.29422307628305783 0.033030126110198607 0 -0.28927774351080032 0.042327960112255127 0 -0.302413675743194 0.040797149177099583 0 -0.29058437031710849 0.054861654399669009 0 -0.28927774351080032 0.042327960112255127 0 -0.302413675743194 0.040797149177099583 0 -0.30668521908556612 0.031972892659774051 0 -0.3067779790767402 0.051218365817110152 0 -0.32064218766345548 0.041528582506798958 0 -0.30668521908556612 0.031972892659774051 0 -0.3067779790767402 0.051218365817110152 0 -0.302413675743194 0.040797149177099583 0 -0.30668521908556612 0.031972892659774051 0 -0.3067779790767402 0.051218365817110152 0 -0.30678740908947549 0.066130380002985156 0 -0.3067779790767402 0.051218365817110152 0 -0.32304115605013478 0.058664091434889938 0 -0.30678740908947549 0.066130380002985156 0 -0.302413675743194 0.040797149177099583 0 -0.30678740908947549 0.066130380002985156 0 -0.29058437031710849 0.054861654399669009 0 -0.302413675743194 0.040797149177099583 0 -0.30678740908947549 0.066130380002985156 0 -0.302413675743194 0.040797149177099583 0 -0.3067779790767402 0.051218365817110152 0 -0.32304115605013478 0.058664091434889938 0 -0.32064218766345548 0.041528582506798958 0 -0.33752633100961932 0.042545383275350158 0 -0.3067779790767402 0.051218365817110152 0 -0.32304115605013478 0.058664091434889938 0 -0.32064218766345548 0.041528582506798958 0 -0.30668521908556612 0.031972892659774051 0 -0.31817962201827882 0.031578916524882497 0 -0.32064218766345548 0.041528582506798958 0 -0.31817962201827882 0.031578916524882497 0 -0.32064218766345548 0.041528582506798958 0 -0.32920086643582203 0.02873161425786485 0 -0.33752633100961932 0.042545383275350158 0 -0.34727559522634788 0.020311535217192651 0 -0.32064218766345548 0.041528582506798958 0 -0.33752633100961932 0.042545383275350158 0 -0.32920086643582203 0.02873161425786485 0 -0.32304115605013478 0.058664091434889938 0 -0.33752633100961932 0.042545383275350158 0 -0.3440132674468197 0.05705162254814778 0 -0.32304115605013478 0.058664091434889938 0 -0.3440132674468197 0.05705162254814778 0 -0.33271265012492329 0.067073783949063881 0 -0.31971975053049612 -0.0021254955264083651 0 -0.3065924590943912 0.012727419502438031 0 -0.32232890616714932 0.010996257322019559 0 -0.32232890616714932 0.010996257322019559 0 -0.31868926993794772 0.022711028791074849 0 -0.33445410216533022 0.0128570218043792 0 -0.3065924590943912 0.012727419502438031 0 -0.32232890616714932 0.010996257322019559 0 -0.31868926993794772 0.022711028791074849 0 -0.33215967342583369 -0.0030826770591157859 0 -0.31971975053049612 -0.0021254955264083651 0 -0.32232890616714932 0.010996257322019559 0 -0.31868926993794772 0.022711028791074849 0 -0.32920086643582203 0.02873161425786485 0 -0.33445410216533022 0.0128570218043792 0 -0.3065924590943912 0.012727419502438031 0 -0.31868926993794772 0.022711028791074849 0 -0.30668521908556612 0.031972892659774051 0 -0.31817962201827882 0.031578916524882497 0 -0.31868926993794772 0.022711028791074849 0 -0.31817962201827882 0.031578916524882497 0 -0.31868926993794772 0.022711028791074849 0 -0.32920086643582203 0.02873161425786485 0 -0.32920086643582203 0.02873161425786485 0 -0.33445410216533022 0.0128570218043792 0 -0.34727559522634788 0.020311535217192651 0 -0.33752633100961932 0.042545383275350158 0 -0.32920086643582203 0.02873161425786485 0 -0.34727559522634788 0.020311535217192651 0 -0.33215967342583369 -0.0030826770591157859 0 -0.33445410216533022 0.0128570218043792 0 -0.34334607665684941 0.00045470552153091878 0 -0.33215967342583369 -0.0030826770591157859 0 -0.32232890616714932 0.010996257322019559 0 -0.33445410216533022 0.0128570218043792 0 -0.33445410216533022 0.0128570218043792 0 -0.34334607665684941 0.00045470552153091878 0 -0.34727559522634788 0.020311535217192651 0 -0.33445410216533022 0.0128570218043792 0 -0.34334607665684941 0.00045470552153091878 0 -0.35702485944307649 -0.0019223128409648241 0 -0.35704615774442577 0.01394668523223124 0 -0.36145207676649999 0.0071966288251382269 0 -0.35702485944307649 -0.0019223128409648241 0 -0.34727559522634788 0.020311535217192651 0 -0.35702485944307649 -0.0019223128409648241 0 -0.34334607665684941 0.00045470552153091878 0 -0.34727559522634788 0.020311535217192651 0 -0.35702485944307649 -0.0019223128409648241 0 -0.35704615774442577 0.01394668523223124 0 -0.34727559522634788 0.020311535217192651 0 -0.34727559522634788 0.020311535217192651 0 -0.36083088820134213 0.025793978515194559 0 -0.35001947115336968 0.037775679000700557 0 -0.35704615774442577 0.01394668523223124 0 -0.34727559522634788 0.020311535217192651 0 -0.36083088820134213 0.025793978515194559 0 -0.36083088820134213 0.025793978515194559 0 -0.37426291356731711 0.019604593194228501 0 -0.37438570565490198 0.03254764286630446 0 -0.36083088820134213 0.025793978515194559 0 -0.37426291356731711 0.019604593194228501 0 -0.36551739173495251 0.01344397512533162 0 -0.35704615774442577 0.01394668523223124 0 -0.36083088820134213 0.025793978515194559 0 -0.36551739173495251 0.01344397512533162 0 -0.35704615774442577 0.01394668523223124 0 -0.36551739173495251 0.01344397512533162 0 -0.36145207676649999 0.0071966288251382269 0 -0.37524021904663002 0.0087143672939522434 0 -0.36551739173495251 0.01344397512533162 0 -0.3676511528623137 0.0022953300091082081 0 -0.37524021904663002 0.0087143672939522434 0 -0.37426291356731711 0.019604593194228501 0 -0.36551739173495251 0.01344397512533162 0 -0.37744823449314668 -0.002724083045299296 0 -0.37524021904663002 0.0087143672939522434 0 -0.3676511528623137 0.0022953300091082081 0 -0.35702485944307649 -0.0019223128409648241 0 -0.3676511528623137 0.0022953300091082081 0 -0.36145207676649999 0.0071966288251382269 0 -0.36551739173495251 0.01344397512533162 0 -0.3676511528623137 0.0022953300091082081 0 -0.36145207676649999 0.0071966288251382269 0 -0.3440132674468197 0.05705162254814778 0 -0.3604512738827198 0.043175875447617633 0 -0.36051899435244461 0.058615410843748467 0 -0.3440132674468197 0.05705162254814778 0 -0.36051899435244461 0.058615410843748467 0 -0.35214699280586592 0.069227602263104787 0 -0.33752633100961932 0.042545383275350158 0 -0.34727559522634788 0.020311535217192651 0 -0.35001947115336968 0.037775679000700557 0 -0.33752633100961932 0.042545383275350158 0 -0.3440132674468197 0.05705162254814778 0 -0.35001947115336968 0.037775679000700557 0 -0.3440132674468197 0.05705162254814778 0 -0.35001947115336968 0.037775679000700557 0 -0.3604512738827198 0.043175875447617633 0 -0.36083088820134213 0.025793978515194559 0 -0.35001947115336968 0.037775679000700557 0 -0.3604512738827198 0.043175875447617633 0 -0.36083088820134213 0.025793978515194559 0 -0.3604512738827198 0.043175875447617633 0 -0.37438570565490198 0.03254764286630446 0 -0.3604512738827198 0.043175875447617633 0 -0.37438570565490198 0.03254764286630446 0 -0.37152120592399912 0.045948612193038189 0 -0.37152120592399912 0.045948612193038189 0 -0.36051899435244461 0.058615410843748467 0 -0.37328373606952348 0.063834557850238144 0 -0.3801692256813865 0.053394632521629168 0 -0.37152120592399912 0.045948612193038189 0 -0.37328373606952348 0.063834557850238144 0 -0.3604512738827198 0.043175875447617633 0 -0.37152120592399912 0.045948612193038189 0 -0.36051899435244461 0.058615410843748467 0 -0.36051899435244461 0.058615410843748467 0 -0.37328373606952348 0.063834557850238144 0 -0.36203172391842547 0.077595673755978728 0 -0.38616964996657549 0.076000950290615474 0 -0.37328373606952348 0.063834557850238144 0 -0.36203172391842547 0.077595673755978728 0 -0.36051899435244461 0.058615410843748467 0 -0.36203172391842547 0.077595673755978728 0 -0.35214699280586592 0.069227602263104787 0 -0.35214699280586592 0.069227602263104787 0 -0.35198057262240778 0.087016830513505755 0 -0.34018091151152569 0.075062638661005793 0 -0.36203172391842547 0.077595673755978728 0 -0.35214699280586592 0.069227602263104787 0 -0.35198057262240778 0.087016830513505755 0 -0.3440132674468197 0.05705162254814778 0 -0.35214699280586592 0.069227602263104787 0 -0.34018091151152569 0.075062638661005793 0 -0.36203172391842547 0.077595673755978728 0 -0.35198057262240778 0.087016830513505755 0 -0.36144384944271157 0.097028335337838847 0 -0.35198057262240778 0.087016830513505755 0 -0.34331567386656769 0.098358108493374563 0 -0.33766107753678137 0.086392570075319058 0 -0.37760997688384201 0.092753610136079218 0 -0.36203172391842547 0.077595673755978728 0 -0.36144384944271157 0.097028335337838847 0 -0.37760997688384201 0.092753610136079218 0 -0.37168120420087369 0.1058309127098148 0 -0.36144384944271157 0.097028335337838847 0 -0.37168120420087369 0.1058309127098148 0 -0.36144384944271157 0.097028335337838847 0 -0.35907091489773252 0.1110717340460855 0 -0.37441583262399492 0.12432153707058841 0 -0.36956735952788539 0.1167021218851079 0 -0.36231237886107021 0.1234446037932188 0 -0.38008246533815893 0.11443262986413499 0 -0.37441583262399492 0.12432153707058841 0 -0.36956735952788539 0.1167021218851079 0 -0.38008246533815893 0.11443262986413499 0 -0.37168120420087369 0.1058309127098148 0 -0.36956735952788539 0.1167021218851079 0 -0.37168120420087369 0.1058309127098148 0 -0.36956735952788539 0.1167021218851079 0 -0.35907091489773252 0.1110717340460855 0 -0.36956735952788539 0.1167021218851079 0 -0.36231237886107021 0.1234446037932188 0 -0.35907091489773252 0.1110717340460855 0 -0.36231237886107021 0.1234446037932188 0 -0.35907091489773252 0.1110717340460855 0 -0.34375662299808379 0.12145357452886529 0 -0.35907091489773252 0.1110717340460855 0 -0.34331567386656769 0.098358108493374563 0 -0.34375662299808379 0.12145357452886529 0 -0.35198057262240778 0.087016830513505755 0 -0.36144384944271157 0.097028335337838847 0 -0.34331567386656769 0.098358108493374563 0 -0.36144384944271157 0.097028335337838847 0 -0.35907091489773252 0.1110717340460855 0 -0.34331567386656769 0.098358108493374563 0 -0.34331567386656769 0.098358108493374563 0 -0.32745888271691892 0.1064585926788689 0 -0.32645425125660571 0.091196174281305553 0 -0.34331567386656769 0.098358108493374563 0 -0.34375662299808379 0.12145357452886529 0 -0.32745888271691892 0.1064585926788689 0 -0.34375662299808379 0.12145357452886529 0 -0.32745888271691892 0.1064585926788689 0 -0.34375662299808379 0.12145357452886529 0 -0.3267098098559843 0.12123332327717989 0 -0.32745888271691892 0.1064585926788689 0 -0.33054626674503379 0.13015498917795831 0 -0.34375662299808379 0.12145357452886529 0 -0.3267098098559843 0.12123332327717989 0 -0.31841576528614229 0.1334833273211441 0 -0.31478845386094972 0.1124734690750074 0 -0.31841576528614229 0.1334833273211441 0 -0.3267098098559843 0.12123332327717989 0 -0.31478845386094972 0.1124734690750074 0 -0.31841576528614229 0.1334833273211441 0 -0.30571829013591728 0.1187528323775557 0 -0.31478845386094972 0.1124734690750074 0 -0.3267098098559843 0.12123332327717989 0 -0.31478845386094972 0.1124734690750074 0 -0.32745888271691892 0.1064585926788689 0 -0.31116114243575549 0.091463610828870973 0 -0.31478845386094972 0.1124734690750074 0 -0.31116114243575549 0.091463610828870973 0 -0.32745888271691892 0.1064585926788689 0 -0.32645425125660571 0.091196174281305553 0 -0.31116114243575549 0.091463610828870973 0 -0.31478845386094972 0.1124734690750074 0 -0.32745888271691892 0.1064585926788689 0 -0.31116114243575549 0.091463610828870973 0 -0.32745888271691892 0.1064585926788689 0 -0.31116114243575549 0.091463610828870973 0 -0.32645425125660571 0.091196174281305553 0 -0.31766870603388891 0.08119370201835098 0 -0.32645425125660571 0.091196174281305553 0 -0.31766870603388891 0.08119370201835098 0 -0.32627202135371858 0.075984642960242238 0 -0.30678740908947549 0.066130380002985156 0 -0.31766870603388891 0.08119370201835098 0 -0.32627202135371858 0.075984642960242238 0 -0.30678740908947549 0.066130380002985156 0 -0.32304115605013478 0.058664091434889938 0 -0.32627202135371858 0.075984642960242238 0 -0.32304115605013478 0.058664091434889938 0 -0.32627202135371858 0.075984642960242238 0 -0.33271265012492329 0.067073783949063881 0 -0.3440132674468197 0.05705162254814778 0 -0.33271265012492329 0.067073783949063881 0 -0.34018091151152569 0.075062638661005793 0 -0.32627202135371858 0.075984642960242238 0 -0.33271265012492329 0.067073783949063881 0 -0.34018091151152569 0.075062638661005793 0 -0.35198057262240778 0.087016830513505755 0 -0.34018091151152569 0.075062638661005793 0 -0.33766107753678137 0.086392570075319058 0 -0.34331567386656769 0.098358108493374563 0 -0.32645425125660571 0.091196174281305553 0 -0.33766107753678137 0.086392570075319058 0 -0.32627202135371858 0.075984642960242238 0 -0.34018091151152569 0.075062638661005793 0 -0.33766107753678137 0.086392570075319058 0 -0.32645425125660571 0.091196174281305553 0 -0.32627202135371858 0.075984642960242238 0 -0.33766107753678137 0.086392570075319058 0 -0.38694203342537192 0.50000000000000067 0 -0.41490328251851522 0.47997949768417802 0 -0.45158040771768448 0.5 0 -0.38694203342537192 0.50000000000000067 0 -0.37642299515177619 0.480367818535617 0 -0.39231640167563642 0.46756759636803152 0 -0.38694203342537192 0.50000000000000067 0 -0.39231640167563642 0.46756759636803152 0 -0.41490328251851522 0.47997949768417802 0 -0.39231640167563642 0.46756759636803152 0 -0.4112180001127006 0.45987502625159898 0 -0.41490328251851522 0.47997949768417802 0 -0.38694203342537192 0.50000000000000067 0 -0.37642299515177619 0.480367818535617 0 -0.36761453130835647 0.5 0 -0.38694203342537192 0.50000000000000067 0 -0.37642299515177619 0.480367818535617 0 -0.37642299515177619 0.480367818535617 0 -0.39231640167563642 0.46756759636803152 0 -0.36590395687818073 0.46073563707123322 0 -0.38997643056421999 0.44729518670193769 0 -0.39231640167563642 0.46756759636803152 0 -0.36590395687818073 0.46073563707123322 0 -0.38997643056421999 0.44729518670193769 0 -0.36590395687818073 0.46073563707123322 0 -0.38997643056421999 0.44729518670193769 0 -0.37272917041155668 0.44869810712959818 0 -0.36590395687818073 0.46073563707123322 0 -0.37613699520865612 0.43909909385515172 0 -0.38997643056421999 0.44729518670193769 0 -0.37272917041155668 0.44869810712959818 0 -0.37613699520865612 0.43909909385515172 0 -0.38997643056421999 0.44729518670193769 0 -0.38767060130375408 0.43331472249054093 0 -0.37613699520865612 0.43909909385515172 0 -0.38997643056421999 0.44729518670193769 0 -0.38997643056421999 0.44729518670193769 0 -0.40392784920557567 0.43950565280209791 0 -0.4112180001127006 0.45987502625159898 0 -0.38997643056421999 0.44729518670193769 0 -0.40392784920557567 0.43950565280209791 0 -0.38767060130375408 0.43331472249054093 0 -0.38997643056421999 0.44729518670193769 0 -0.40392784920557567 0.43950565280209791 0 -0.38997643056421999 0.44729518670193769 0 -0.4112180001127006 0.45987502625159898 0 -0.38997643056421999 0.44729518670193769 0 -0.39231640167563642 0.46756759636803152 0 -0.4112180001127006 0.45987502625159898 0 -0.4112180001127006 0.45987502625159898 0 -0.41964580244939031 0.44623711382694098 0 -0.43004583868844098 0.45567507458213952 0 -0.4112180001127006 0.45987502625159898 0 -0.43245956966118237 0.47245486580125828 0 -0.40392784920557567 0.43950565280209791 0 -0.41964580244939031 0.44623711382694098 0 -0.4178792678469328 0.43171611890226058 0 -0.40392784920557567 0.43950565280209791 0 -0.4112180001127006 0.45987502625159898 0 -0.41964580244939031 0.44623711382694098 0 -0.41964580244939031 0.44623711382694098 0 -0.43446897627926029 0.44269709273994567 0 -0.4178792678469328 0.43171611890226058 0 -0.41964580244939031 0.44623711382694098 0 -0.43446897627926029 0.44269709273994567 0 -0.43004583868844098 0.45567507458213952 0 -0.4112180001127006 0.45987502625159898 0 -0.43004583868844098 0.45567507458213952 0 -0.43245956966118237 0.47245486580125828 0 -0.43245956966118237 0.47245486580125828 0 -0.41490328251851522 0.47997949768417802 0 -0.45158040771768448 0.5 0 -0.4112180001127006 0.45987502625159898 0 -0.43245956966118237 0.47245486580125828 0 -0.41490328251851522 0.47997949768417802 0 -0.5 0.5 0 -0.47579020385884219 0.476563420763084 0 -0.5 0.43517189157324332 0 -0.43245956966118237 0.47245486580125828 0 -0.45158040771768448 0.5 0 -0.45405501874838411 0.47524600217346558 0 -0.45158040771768448 0.5 0 -0.45405501874838411 0.47524600217346558 0 -0.47579020385884219 0.476563420763084 0 -0.45158040771768448 0.5 0 -0.5 0.5 0 -0.47579020385884219 0.476563420763084 0 -0.47579020385884219 0.476563420763084 0 -0.46976996679377869 0.45170019406215639 0 -0.5 0.43517189157324332 0 -0.46976996679377869 0.45170019406215639 0 -0.4717882411380922 0.43142938503707751 0 -0.5 0.43517189157324332 0 -0.46976996679377869 0.45170019406215639 0 -0.46093653402891221 0.43905819393100459 0 -0.45105868471158822 0.4536780665776301 0 -0.46093653402891221 0.43905819393100459 0 -0.45105868471158822 0.4536780665776301 0 -0.44827375197287389 0.43636437754024532 0 -0.46976996679377869 0.45170019406215639 0 -0.46093653402891221 0.43905819393100459 0 -0.4717882411380922 0.43142938503707751 0 -0.45405501874838411 0.47524600217346558 0 -0.47579020385884219 0.476563420763084 0 -0.46976996679377869 0.45170019406215639 0 -0.45405501874838411 0.47524600217346558 0 -0.46976996679377869 0.45170019406215639 0 -0.45105868471158822 0.4536780665776301 0 -0.43004583868844098 0.45567507458213952 0 -0.43245956966118237 0.47245486580125828 0 -0.45105868471158822 0.4536780665776301 0 -0.43245956966118237 0.47245486580125828 0 -0.45405501874838411 0.47524600217346558 0 -0.45105868471158822 0.4536780665776301 0 -0.45105868471158822 0.4536780665776301 0 -0.44056341986043368 0.44234980119076828 0 -0.44827375197287389 0.43636437754024532 0 -0.43446897627926029 0.44269709273994567 0 -0.43004583868844098 0.45567507458213952 0 -0.45105868471158822 0.4536780665776301 0 -0.43446897627926029 0.44269709273994567 0 -0.45105868471158822 0.4536780665776301 0 -0.44056341986043368 0.44234980119076828 0 -0.43446897627926029 0.44269709273994567 0 -0.45105868471158822 0.4536780665776301 0 -0.44056341986043368 0.44234980119076828 0 -0.43880429384193648 0.43366118712703322 0 -0.44827375197287389 0.43636437754024532 0 -0.43880429384193648 0.43366118712703322 0 -0.44338731614044041 0.42802848202562321 0 -0.44827375197287389 0.43636437754024532 0 -0.43880429384193648 0.43366118712703322 0 -0.43820771051840351 0.42637610141191118 0 -0.44338731614044041 0.42802848202562321 0 -0.43820771051840351 0.42637610141191118 0 -0.44338731614044041 0.42802848202562321 0 -0.44047921589703992 0.42041192518209403 0 -0.43820771051840351 0.42637610141191118 0 -0.44047921589703992 0.42041192518209403 0 -0.43473556639216182 0.42235448173931539 0 -0.44338731614044041 0.42802848202562321 0 -0.44827375197287389 0.43636437754024532 0 -0.45489226325393289 0.42141053438941228 0 -0.44338731614044041 0.42802848202562321 0 -0.44047921589703992 0.42041192518209403 0 -0.45489226325393289 0.42141053438941228 0 -0.44300872572774358 0.4100813099101176 0 -0.45489226325393289 0.42141053438941228 0 -0.45784817071044132 0.3949722016563072 0 -0.44300872572774358 0.4100813099101176 0 -0.44047921589703992 0.42041192518209403 0 -0.43102170292628411 0.41418362161912198 0 -0.44300872572774358 0.4100813099101176 0 -0.44047921589703992 0.42041192518209403 0 -0.45489226325393289 0.42141053438941228 0 -0.45489226325393289 0.42141053438941228 0 -0.47588765119002008 0.41266818001788919 0 -0.45784817071044132 0.3949722016563072 0 -0.45489226325393289 0.42141053438941228 0 -0.4717882411380922 0.43142938503707751 0 -0.47588765119002008 0.41266818001788919 0 -0.46093653402891221 0.43905819393100459 0 -0.44827375197287389 0.43636437754024532 0 -0.45489226325393289 0.42141053438941228 0 -0.46093653402891221 0.43905819393100459 0 -0.45489226325393289 0.42141053438941228 0 -0.4717882411380922 0.43142938503707751 0 -0.4717882411380922 0.43142938503707751 0 -0.47588765119002008 0.41266818001788919 0 -0.5 0.43517189157324332 0 -0.47588765119002008 0.41266818001788919 0 -0.5 0.43517189157324332 0 -0.5 0.38608102501004221 0 -0.5 0.38608102501004221 0 -0.45784817071044132 0.3949722016563072 0 -0.47060312679558841 0.35945762485012711 0 -0.47588765119002008 0.41266818001788919 0 -0.5 0.38608102501004221 0 -0.45784817071044132 0.3949722016563072 0 -0.45784817071044132 0.3949722016563072 0 -0.44758426624009062 0.37493585886952402 0 -0.47060312679558841 0.35945762485012711 0 -0.44300872572774358 0.4100813099101176 0 -0.45784817071044132 0.3949722016563072 0 -0.43284553667012488 0.40049174347194899 0 -0.45784817071044132 0.3949722016563072 0 -0.43233694994374661 0.38532775677709991 0 -0.43284553667012488 0.40049174347194899 0 -0.45784817071044132 0.3949722016563072 0 -0.43233694994374661 0.38532775677709991 0 -0.44758426624009062 0.37493585886952402 0 -0.43233694994374661 0.38532775677709991 0 -0.41535721727372998 0.37475686502222932 0 -0.43149883622256519 0.37057103645485451 0 -0.43233694994374661 0.38532775677709991 0 -0.43149883622256519 0.37057103645485451 0 -0.44758426624009062 0.37493585886952402 0 -0.43233694994374661 0.38532775677709991 0 -0.40930688514592373 0.39042202744488191 0 -0.41535721727372998 0.37475686502222932 0 -0.40930688514592373 0.39042202744488191 0 -0.39892690788125312 0.37317734194757868 0 -0.41535721727372998 0.37475686502222932 0 -0.40930688514592373 0.39042202744488191 0 -0.41968686241059427 0.40766671294218498 0 -0.40930688514592373 0.39042202744488191 0 -0.43284553667012488 0.40049174347194899 0 -0.41968686241059427 0.40766671294218498 0 -0.40930688514592373 0.39042202744488191 0 -0.41968686241059427 0.40766671294218498 0 -0.40585279635587679 0.40503868233516083 0 -0.43233694994374661 0.38532775677709991 0 -0.40930688514592373 0.39042202744488191 0 -0.43284553667012488 0.40049174347194899 0 -0.44300872572774358 0.4100813099101176 0 -0.43284553667012488 0.40049174347194899 0 -0.43102170292628411 0.41418362161912198 0 -0.43006683967526399 0.42491139843948877 0 -0.41968686241059427 0.40766671294218498 0 -0.41991621012872232 0.42027375395783118 0 -0.43102170292628411 0.41418362161912198 0 -0.43006683967526399 0.42491139843948877 0 -0.41968686241059427 0.40766671294218498 0 -0.43006683967526399 0.42491139843948877 0 -0.41968686241059427 0.40766671294218498 0 -0.43102170292628411 0.41418362161912198 0 -0.43473556639216182 0.42235448173931539 0 -0.43006683967526399 0.42491139843948877 0 -0.44047921589703992 0.42041192518209403 0 -0.43102170292628411 0.41418362161912198 0 -0.43473556639216182 0.42235448173931539 0 -0.43284553667012488 0.40049174347194899 0 -0.43102170292628411 0.41418362161912198 0 -0.41968686241059427 0.40766671294218498 0 -0.43446897627926029 0.44269709273994567 0 -0.44056341986043368 0.44234980119076828 0 -0.43006683967526399 0.42491139843948877 0 -0.43446897627926029 0.44269709273994567 0 -0.43006683967526399 0.42491139843948877 0 -0.4178792678469328 0.43171611890226058 0 -0.44056341986043368 0.44234980119076828 0 -0.43880429384193648 0.43366118712703322 0 -0.43006683967526399 0.42491139843948877 0 -0.44056341986043368 0.44234980119076828 0 -0.43006683967526399 0.42491139843948877 0 -0.43446897627926029 0.44269709273994567 0 -0.4178792678469328 0.43171611890226058 0 -0.43880429384193648 0.43366118712703322 0 -0.43362484722303851 0.42604430815878391 0 -0.43006683967526399 0.42491139843948877 0 -0.43880429384193648 0.43366118712703322 0 -0.43820771051840351 0.42637610141191118 0 -0.43362484722303851 0.42604430815878391 0 -0.43820771051840351 0.42637610141191118 0 -0.43362484722303851 0.42604430815878391 0 -0.43473556639216182 0.42235448173931539 0 -0.43362484722303851 0.42604430815878391 0 -0.43473556639216182 0.42235448173931539 0 -0.43006683967526399 0.42491139843948877 0 -0.43006683967526399 0.42491139843948877 0 -0.4178792678469328 0.43171611890226058 0 -0.41991621012872232 0.42027375395783118 0 -0.43006683967526399 0.42491139843948877 0 -0.4178792678469328 0.43171611890226058 0 -0.4178792678469328 0.43171611890226058 0 -0.41991621012872232 0.42027375395783118 0 -0.41203187058209861 0.41680078554738981 0 -0.40392784920557567 0.43950565280209791 0 -0.4178792678469328 0.43171611890226058 0 -0.4178792678469328 0.43171611890226058 0 -0.41203187058209861 0.41680078554738981 0 -0.39651553956593732 0.41673160299207118 0 -0.41968686241059427 0.40766671294218498 0 -0.41991621012872232 0.42027375395783118 0 -0.41203187058209861 0.41680078554738981 0 -0.41968686241059427 0.40766671294218498 0 -0.41203187058209861 0.41680078554738981 0 -0.40585279635587679 0.40503868233516083 0 -0.41203187058209861 0.41680078554738981 0 -0.39651553956593732 0.41673160299207118 0 -0.40585279635587679 0.40503868233516083 0 -0.4178792678469328 0.43171611890226058 0 -0.39330428218601582 0.41544957174112318 0 -0.39651553956593732 0.41673160299207118 0 -0.39330428218601582 0.41544957174112318 0 -0.39651553956593732 0.41673160299207118 0 -0.39172282407482972 0.39357228274927603 0 -0.4178792678469328 0.43171611890226058 0 -0.39330428218601582 0.41544957174112318 0 -0.40392784920557567 0.43950565280209791 0 -0.39330428218601582 0.41544957174112318 0 -0.38767060130375408 0.43331472249054093 0 -0.40392784920557567 0.43950565280209791 0 -0.4178792678469328 0.43171611890226058 0 -0.39330428218601582 0.41544957174112318 0 -0.39330428218601582 0.41544957174112318 0 -0.38767060130375408 0.43331472249054093 0 -0.37698457334812357 0.42676188037787077 0 -0.37613699520865612 0.43909909385515172 0 -0.38767060130375408 0.43331472249054093 0 -0.37698457334812357 0.42676188037787077 0 -0.39330428218601582 0.41544957174112318 0 -0.36872929652509939 0.39918302457998478 0 -0.39330428218601582 0.41544957174112318 0 -0.37698457334812357 0.42676188037787077 0 -0.36551342818909832 0.41504301279417422 0 -0.39330428218601582 0.41544957174112318 0 -0.36872929652509939 0.39918302457998478 0 -0.36551342818909832 0.41504301279417422 0 -0.39330428218601582 0.41544957174112318 0 -0.37945777538082481 0.39621967772420341 0 -0.39172282407482972 0.39357228274927603 0 -0.39330428218601582 0.41544957174112318 0 -0.37945777538082481 0.39621967772420341 0 -0.36872929652509939 0.39918302457998478 0 -0.37945777538082481 0.39621967772420341 0 -0.37996396608646549 0.38407047701772362 0 -0.39172282407482972 0.39357228274927603 0 -0.37996396608646549 0.38407047701772362 0 -0.39172282407482972 0.39357228274927603 0 -0.38693010858372201 0.37041296250648081 0 -0.37945777538082481 0.39621967772420341 0 -0.37996396608646549 0.38407047701772362 0 -0.37357970332773172 0.38939717776777782 0 -0.39172282407482972 0.39357228274927603 0 -0.38693010858372201 0.37041296250648081 0 -0.37996396608646549 0.38407047701772362 0 -0.37731004727439782 0.37364831020116879 0 -0.36916915971251979 0.37754789802733651 0 -0.37996396608646549 0.38407047701772362 0 -0.38693010858372201 0.37041296250648081 0 -0.37731004727439782 0.37364831020116879 0 -0.39172282407482972 0.39357228274927603 0 -0.39892690788125312 0.37317734194757868 0 -0.38693010858372201 0.37041296250648081 0 -0.40930688514592373 0.39042202744488191 0 -0.39892690788125312 0.37317734194757868 0 -0.40930688514592373 0.39042202744488191 0 -0.39172282407482972 0.39357228274927603 0 -0.39892690788125312 0.37317734194757868 0 -0.39651553956593732 0.41673160299207118 0 -0.40585279635587679 0.40503868233516083 0 -0.39172282407482972 0.39357228274927603 0 -0.40930688514592373 0.39042202744488191 0 -0.40585279635587679 0.40503868233516083 0 -0.39172282407482972 0.39357228274927603 0 -0.39651553956593732 0.41673160299207118 0 -0.39172282407482972 0.39357228274927603 0 -0.39842600883010881 0.35292345301073857 0 -0.39455236362803298 0.36145645884020799 0 -0.38213739309261457 0.34725364226368549 0 -0.39842600883010881 0.35292345301073857 0 -0.38213739309261457 0.34725364226368549 0 -0.40307861456742827 0.33311310804195199 0 -0.39842600883010881 0.35292345301073857 0 -0.40307861456742827 0.33311310804195199 0 -0.41001604171911021 0.34861937651890501 0 -0.39842600883010881 0.35292345301073857 0 -0.41001604171911021 0.34861937651890501 0 -0.40634139975246669 0.36351489447255619 0 -0.39842600883010881 0.35292345301073857 0 -0.39455236362803298 0.36145645884020799 0 -0.40634139975246669 0.36351489447255619 0 -0.39892690788125312 0.37317734194757868 0 -0.39455236362803298 0.36145645884020799 0 -0.40634139975246669 0.36351489447255619 0 -0.39892690788125312 0.37317734194757868 0 -0.39455236362803298 0.36145645884020799 0 -0.38693010858372201 0.37041296250648081 0 -0.38693010858372201 0.37041296250648081 0 -0.37779519863227512 0.35018570376915809 0 -0.37395864550162161 0.36493313604503141 0 -0.39455236362803298 0.36145645884020799 0 -0.38693010858372201 0.37041296250648081 0 -0.38213739309261457 0.34725364226368549 0 -0.38693010858372201 0.37041296250648081 0 -0.37731004727439782 0.37364831020116879 0 -0.37395864550162161 0.36493313604503141 0 -0.38693010858372201 0.37041296250648081 0 -0.38213739309261457 0.34725364226368549 0 -0.38693010858372201 0.37041296250648081 0 -0.38213739309261457 0.34725364226368549 0 -0.37779519863227512 0.35018570376915809 0 -0.38213739309261457 0.34725364226368549 0 -0.37779519863227512 0.35018570376915809 0 -0.3808488077887221 0.34102695099265801 0 -0.38213739309261457 0.34725364226368549 0 -0.3808488077887221 0.34102695099265801 0 -0.38213739309261457 0.34725364226368549 0 -0.37779519863227512 0.35018570376915809 0 -0.37779519863227512 0.35018570376915809 0 -0.3808488077887221 0.34102695099265801 0 -0.37246027470202242 0.33826876793548089 0 -0.3808488077887221 0.34102695099265801 0 -0.38834779810592979 0.31544512708283079 0 -0.37246027470202242 0.33826876793548089 0 -0.38213739309261457 0.34725364226368549 0 -0.3808488077887221 0.34102695099265801 0 -0.40307861456742827 0.33311310804195199 0 -0.38834779810592979 0.31544512708283079 0 -0.37416310414446308 0.3110037097063521 0 -0.37060379793355758 0.32242193000412978 0 -0.38834779810592979 0.31544512708283079 0 -0.37246027470202242 0.33826876793548089 0 -0.38834779810592979 0.31544512708283079 0 -0.37060379793355758 0.32242193000412978 0 -0.37246027470202242 0.33826876793548089 0 -0.38834779810592979 0.31544512708283079 0 -0.40307861456742827 0.33311310804195199 0 -0.40664007886171211 0.31162179335216073 0 -0.3808488077887221 0.34102695099265801 0 -0.38834779810592979 0.31544512708283079 0 -0.40307861456742827 0.33311310804195199 0 -0.38213739309261457 0.34725364226368549 0 -0.40307861456742827 0.33311310804195199 0 -0.40307861456742827 0.33311310804195199 0 -0.42401983604224153 0.31897257382021782 0 -0.42341912171556612 0.34065952255213128 0 -0.40307861456742827 0.33311310804195199 0 -0.42341912171556612 0.34065952255213128 0 -0.41001604171911021 0.34861937651890501 0 -0.40307861456742827 0.33311310804195199 0 -0.42401983604224153 0.31897257382021782 0 -0.40664007886171211 0.31162179335216073 0 -0.40307861456742827 0.33311310804195199 0 -0.42401983604224153 0.31897257382021782 0 -0.42401983604224153 0.31897257382021782 0 -0.44216357013671731 0.33032693747715081 0 -0.44496105751705473 0.3048320395984836 0 -0.42341912171556612 0.34065952255213128 0 -0.44160042579359238 0.35787381645126942 0 -0.44216357013671731 0.33032693747715081 0 -0.42401983604224153 0.31897257382021782 0 -0.42341912171556612 0.34065952255213128 0 -0.44216357013671731 0.33032693747715081 0 -0.42341912171556612 0.34065952255213128 0 -0.420615321861666 0.35996088515414992 0 -0.44160042579359238 0.35787381645126942 0 -0.42341912171556612 0.34065952255213128 0 -0.41001604171911021 0.34861937651890501 0 -0.420615321861666 0.35996088515414992 0 -0.41001604171911021 0.34861937651890501 0 -0.40634139975246669 0.36351489447255619 0 -0.420615321861666 0.35996088515414992 0 -0.39892690788125312 0.37317734194757868 0 -0.40634139975246669 0.36351489447255619 0 -0.41535721727372998 0.37475686502222932 0 -0.40634139975246669 0.36351489447255619 0 -0.420615321861666 0.35996088515414992 0 -0.41535721727372998 0.37475686502222932 0 -0.420615321861666 0.35996088515414992 0 -0.41535721727372998 0.37475686502222932 0 -0.43149883622256519 0.37057103645485451 0 -0.420615321861666 0.35996088515414992 0 -0.43149883622256519 0.37057103645485451 0 -0.44160042579359238 0.35787381645126942 0 -0.5 0.38608102501004221 0 -0.47060312679558841 0.35945762485012711 0 -0.50000000000002842 0.32075600144458272 0 -0.43149883622256519 0.37057103645485451 0 -0.44758426624009062 0.37493585886952402 0 -0.44160042579359238 0.35787381645126942 0 -0.44160042579359238 0.35787381645126942 0 -0.47060312679558841 0.35945762485012711 0 -0.45952631243511732 0.33745224105689731 0 -0.44758426624009062 0.37493585886952402 0 -0.44160042579359238 0.35787381645126942 0 -0.47060312679558841 0.35945762485012711 0 -0.47060312679558841 0.35945762485012711 0 -0.50000000000002842 0.32075600144458272 0 -0.4750250786956291 0.32772234540987161 0 -0.50000000000002842 0.32075600144458272 0 -0.4750250786956291 0.32772234540987161 0 -0.48295113949596091 0.30572375341067592 0 -0.50000000000002842 0.32075600144458272 0 -0.48295113949596091 0.30572375341067592 0 -0.4750250786956291 0.32772234540987161 0 -0.46204481475143833 0.31522210628708869 0 -0.48295113949596091 0.30572375341067592 0 -0.4750250786956291 0.32772234540987161 0 -0.46204481475143833 0.31522210628708869 0 -0.45952631243511732 0.33745224105689731 0 -0.47060312679558841 0.35945762485012711 0 -0.4750250786956291 0.32772234540987161 0 -0.45952631243511732 0.33745224105689731 0 -0.46204481475143833 0.31522210628708869 0 -0.45952631243511732 0.33745224105689731 0 -0.44216357013671731 0.33032693747715081 0 -0.44160042579359238 0.35787381645126942 0 -0.45952631243511732 0.33745224105689731 0 -0.44216357013671731 0.33032693747715081 0 -0.46204481475143833 0.31522210628708869 0 -0.44216357013671731 0.33032693747715081 0 -0.44496105751705473 0.3048320395984836 0 -0.44496105751705473 0.3048320395984836 0 -0.4510852230002923 0.27762707442878343 0 -0.43347652618479948 0.28598915071723868 0 -0.44496105751705473 0.3048320395984836 0 -0.46590227899188652 0.29069150537677713 0 -0.4510852230002923 0.27762707442878343 0 -0.46590227899188652 0.29069150537677713 0 -0.4510852230002923 0.27762707442878343 0 -0.46590227899188652 0.29069150537677713 0 -0.466325518285162 0.27611413328605589 0 -0.4510852230002923 0.27762707442878343 0 -0.44496105751705473 0.3048320395984836 0 -0.46590227899188652 0.29069150537677713 0 -0.46204481475143833 0.31522210628708869 0 -0.44496105751705473 0.3048320395984836 0 -0.46590227899188652 0.29069150537677713 0 -0.46204481475143833 0.31522210628708869 0 -0.46590227899188652 0.29069150537677713 0 -0.48295113949596091 0.30572375341067592 0 -0.46590227899188652 0.29069150537677713 0 -0.48295113949596091 0.30572375341067592 0 -0.46590227899188652 0.29069150537677713 0 -0.48295113949596091 0.30572375341067592 0 -0.47937881477239569 0.28159149105217052 0 -0.46590227899188652 0.29069150537677713 0 -0.47937881477239569 0.28159149105217052 0 -0.466325518285162 0.27611413328605589 0 -0.46590227899188652 0.29069150537677713 0 -0.47937881477239569 0.28159149105217052 0 -0.48295113949596091 0.30572375341067592 0 -0.47937881477239569 0.28159149105217052 0 -0.5 0.29275135045379269 0 -0.47937881477239569 0.28159149105217052 0 -0.5 0.29275135045379269 0 -0.49285535055292368 0.27249147672759161 0 -0.50000000000002842 0.32075600144458272 0 -0.48295113949596091 0.30572375341067592 0 -0.5 0.29275135045379269 0 -0.5 0.23674204847221289 0 -0.49039055063929299 0.25019063880308362 0 -0.5 0.26474669946300272 0 -0.48044119393958962 0.2441947675913769 0 -0.49039055063929299 0.25019063880308362 0 -0.48298894658265129 0.25622170050732329 0 -0.48935986828017958 0.26249379444882898 0 -0.49039055063929299 0.25019063880308362 0 -0.48298894658265129 0.25622170050732329 0 -0.48935986828017958 0.26249379444882898 0 -0.49039055063929299 0.25019063880308362 0 -0.5 0.26474669946300272 0 -0.48935986828017958 0.26249379444882898 0 -0.5 0.26474669946300272 0 -0.49285535055292368 0.27249147672759161 0 -0.5 0.29275135045379269 0 -0.5 0.26474669946300272 0 -0.49285535055292368 0.27249147672759161 0 -0.47937881477239569 0.28159149105217052 0 -0.49285535055292368 0.27249147672759161 0 -0.48935986828017958 0.26249379444882898 0 -0.49285535055292368 0.27249147672759161 0 -0.48056449362602982 0.26881845674314347 0 -0.47937881477239569 0.28159149105217052 0 -0.49285535055292368 0.27249147672759161 0 -0.48056449362602982 0.26881845674314347 0 -0.47937881477239569 0.28159149105217052 0 -0.48056449362602982 0.26881845674314347 0 -0.466325518285162 0.27611413328605589 0 -0.48056449362602982 0.26881845674314347 0 -0.46870532161686551 0.26209551506668011 0 -0.466325518285162 0.27611413328605589 0 -0.48935986828017958 0.26249379444882898 0 -0.48056449362602982 0.26881845674314347 0 -0.48298894658265129 0.25622170050732329 0 -0.48056449362602982 0.26881845674314347 0 -0.48298894658265129 0.25622170050732329 0 -0.46870532161686551 0.26209551506668011 0 -0.48044119393958962 0.2441947675913769 0 -0.48298894658265129 0.25622170050732329 0 -0.47311162244758109 0.25201232219662062 0 -0.48298894658265129 0.25622170050732329 0 -0.47311162244758109 0.25201232219662062 0 -0.46870532161686551 0.26209551506668011 0 -0.47311162244758109 0.25201232219662062 0 -0.4636578102139311 0.25412052971262689 0 -0.46870532161686551 0.26209551506668011 0 -0.4678194004752429 0.2447353426660652 0 -0.47311162244758109 0.25201232219662062 0 -0.4636578102139311 0.25412052971262689 0 -0.4636578102139311 0.25412052971262689 0 -0.46870532161686551 0.26209551506668011 0 -0.45649918872196299 0.26384973352458901 0 -0.45375266660564839 0.24924727523602441 0 -0.4636578102139311 0.25412052971262689 0 -0.45649918872196299 0.26384973352458901 0 -0.46870532161686551 0.26209551506668011 0 -0.45649918872196299 0.26384973352458901 0 -0.466325518285162 0.27611413328605589 0 -0.45649918872196299 0.26384973352458901 0 -0.466325518285162 0.27611413328605589 0 -0.4510852230002923 0.27762707442878343 0 -0.45649918872196299 0.26384973352458901 0 -0.4510852230002923 0.27762707442878343 0 -0.43626816700870152 0.26456264348078568 0 -0.4510852230002923 0.27762707442878343 0 -0.43626816700870152 0.26456264348078568 0 -0.43347652618479948 0.28598915071723868 0 -0.4510852230002923 0.27762707442878343 0 -0.43626816700870152 0.26456264348078568 0 -0.45375266660564839 0.24924727523602441 0 -0.45649918872196299 0.26384973352458901 0 -0.43626816700870152 0.26456264348078568 0 -0.44356314662437668 0.24292459822599469 0 -0.45375266660564839 0.24924727523602441 0 -0.43626816700870152 0.26456264348078568 0 -0.45375266660564839 0.24924727523602441 0 -0.43626816700870152 0.26456264348078568 0 -0.41834853354841411 0.24876262125718501 0 -0.43626816700870152 0.26456264348078568 0 -0.41834853354841411 0.24876262125718501 0 -0.43626816700870152 0.26456264348078568 0 -0.41552021568478531 0.26473647771697228 0 -0.41834853354841411 0.24876262125718501 0 -0.43097575344207523 0.24025057129967251 0 -0.43626816700870152 0.26456264348078568 0 -0.41834853354841411 0.24876262125718501 0 -0.41552021568478531 0.26473647771697228 0 -0.39767435714472738 0.26269915074353378 0 -0.41834853354841411 0.24876262125718501 0 -0.39767435714472738 0.26269915074353378 0 -0.41552021568478531 0.26473647771697228 0 -0.39767435714472738 0.26269915074353378 0 -0.40596689670900149 0.27614058045480028 0 -0.41552021568478531 0.26473647771697228 0 -0.42025174425927059 0.2785920648554846 0 -0.40596689670900149 0.27614058045480028 0 -0.43626816700870152 0.26456264348078568 0 -0.42025174425927059 0.2785920648554846 0 -0.43347652618479948 0.28598915071723868 0 -0.43626816700870152 0.26456264348078568 0 -0.41552021568478531 0.26473647771697228 0 -0.42025174425927059 0.2785920648554846 0 -0.43626816700870152 0.26456264348078568 0 -0.42025174425927059 0.2785920648554846 0 -0.43347652618479948 0.28598915071723868 0 -0.42662477819489769 0.3000519472401682 0 -0.4194023412534203 0.29156099591423101 0 -0.42025174425927059 0.2785920648554846 0 -0.43347652618479948 0.28598915071723868 0 -0.4194023412534203 0.29156099591423101 0 -0.42401983604224153 0.31897257382021782 0 -0.44496105751705473 0.3048320395984836 0 -0.42401983604224153 0.31897257382021782 0 -0.44496105751705473 0.3048320395984836 0 -0.42662477819489769 0.3000519472401682 0 -0.44496105751705473 0.3048320395984836 0 -0.43347652618479948 0.28598915071723868 0 -0.42662477819489769 0.3000519472401682 0 -0.42401983604224153 0.31897257382021782 0 -0.42662477819489769 0.3000519472401682 0 -0.41434228257448241 0.30178269215221948 0 -0.40664007886171211 0.31162179335216073 0 -0.41434228257448241 0.30178269215221948 0 -0.40423532150983849 0.29262148623018192 0 -0.42401983604224153 0.31897257382021782 0 -0.40664007886171211 0.31162179335216073 0 -0.41434228257448241 0.30178269215221948 0 -0.42662477819489769 0.3000519472401682 0 -0.41434228257448241 0.30178269215221948 0 -0.4194023412534203 0.29156099591423101 0 -0.42025174425927059 0.2785920648554846 0 -0.40562149629384209 0.29063014027745993 0 -0.40423532150983849 0.29262148623018192 0 -0.42025174425927059 0.2785920648554846 0 -0.40423532150983849 0.29262148623018192 0 -0.42025174425927059 0.2785920648554846 0 -0.4194023412534203 0.29156099591423101 0 -0.40423532150983849 0.29262148623018192 0 -0.41434228257448241 0.30178269215221948 0 -0.4194023412534203 0.29156099591423101 0 -0.40423532150983849 0.29262148623018192 0 -0.42025174425927059 0.2785920648554846 0 -0.40562149629384209 0.29063014027745993 0 -0.40596689670900149 0.27614058045480028 0 -0.40187146676622038 0.28329185079815972 0 -0.40562149629384209 0.29063014027745993 0 -0.40596689670900149 0.27614058045480028 0 -0.40102311128961782 0.29543518885458508 0 -0.39266468600230592 0.29255677030217447 0 -0.38349965892108351 0.2983545056762798 0 -0.40187146676622038 0.28329185079815972 0 -0.40056363868569261 0.28858749919124682 0 -0.39417726928143881 0.28260943391372528 0 -0.40187146676622038 0.28329185079815972 0 -0.40056363868569261 0.28858749919124682 0 -0.40562149629384209 0.29063014027745993 0 -0.40056363868569261 0.28858749919124682 0 -0.40562149629384209 0.29063014027745993 0 -0.40423532150983849 0.29262148623018192 0 -0.40562149629384209 0.29063014027745993 0 -0.40423532150983849 0.29262148623018192 0 -0.40423532150983849 0.29262148623018192 0 -0.40102311128961782 0.29543518885458508 0 -0.40056363868569261 0.28858749919124682 0 -0.40423532150983849 0.29262148623018192 0 -0.40102311128961782 0.29543518885458508 0 -0.40056363868569261 0.28858749919124682 0 -0.40102311128961782 0.29543518885458508 0 -0.39266468600230592 0.29255677030217447 0 -0.40056363868569261 0.28858749919124682 0 -0.39266468600230592 0.29255677030217447 0 -0.39417726928143881 0.28260943391372528 0 -0.38834779810592979 0.31544512708283079 0 -0.40423532150983849 0.29262148623018192 0 -0.38834779810592979 0.31544512708283079 0 -0.40423532150983849 0.29262148623018192 0 -0.40102311128961782 0.29543518885458508 0 -0.38834779810592979 0.31544512708283079 0 -0.40102311128961782 0.29543518885458508 0 -0.38349965892108351 0.2983545056762798 0 -0.38834779810592979 0.31544512708283079 0 -0.40664007886171211 0.31162179335216073 0 -0.40423532150983849 0.29262148623018192 0 -0.38834779810592979 0.31544512708283079 0 -0.38349965892108351 0.2983545056762798 0 -0.37416310414446308 0.3110037097063521 0 -0.39266468600230592 0.29255677030217447 0 -0.39417726928143881 0.28260943391372528 0 -0.38349965892108351 0.2983545056762798 0 -0.39417726928143881 0.28260943391372528 0 -0.38349965892108351 0.2983545056762798 0 -0.37700018074104058 0.27663568022988239 0 -0.37700018074104058 0.27663568022988239 0 -0.39767435714472738 0.26269915074353378 0 -0.39417726928143881 0.28260943391372528 0 -0.37700018074104058 0.27663568022988239 0 -0.39767435714472738 0.26269915074353378 0 -0.37700018074104058 0.27663568022988239 0 -0.39767435714472738 0.26269915074353378 0 -0.3694622573479896 0.25223322474042797 0 -0.38614743888886771 0.24125964036117761 0 -0.39767435714472738 0.26269915074353378 0 -0.3694622573479896 0.25223322474042797 0 -0.39417726928143881 0.28260943391372528 0 -0.39767435714472738 0.26269915074353378 0 -0.40596689670900149 0.27614058045480028 0 -0.40187146676622038 0.28329185079815972 0 -0.39417726928143881 0.28260943391372528 0 -0.40596689670900149 0.27614058045480028 0 -0.35220645614290769 0.27204247347125782 0 -0.3694622573479896 0.25223322474042797 0 -0.34165023871863548 0.25294654102260028 0 -0.37700018074104058 0.27663568022988239 0 -0.35220645614290769 0.27204247347125782 0 -0.3694622573479896 0.25223322474042797 0 -0.37700018074104058 0.27663568022988239 0 -0.35220645614290769 0.27204247347125782 0 -0.35632600433735367 0.29057220971623099 0 -0.38349965892108351 0.2983545056762798 0 -0.37700018074104058 0.27663568022988239 0 -0.35632600433735367 0.29057220971623099 0 -0.37700018074104058 0.27663568022988239 0 -0.35632600433735367 0.29057220971623099 0 -0.38349965892108351 0.2983545056762798 0 -0.3651970312151292 0.30441914191810299 0 -0.35632600433735367 0.29057220971623099 0 -0.38349965892108351 0.2983545056762798 0 -0.37416310414446308 0.3110037097063521 0 -0.3651970312151292 0.30441914191810299 0 -0.37416310414446308 0.3110037097063521 0 -0.3651970312151292 0.30441914191810299 0 -0.36005115917324487 0.31575546716430952 0 -0.3651970312151292 0.30441914191810299 0 -0.35194522949950069 0.30640981732734268 0 -0.35632600433735367 0.29057220971623099 0 -0.35194522949950069 0.30640981732734268 0 -0.33565182793366682 0.30450873920257959 0 -0.34416531770233028 0.3181992317437492 0 -0.35632600433735367 0.29057220971623099 0 -0.33565182793366682 0.30450873920257959 0 -0.35194522949950069 0.30640981732734268 0 -0.35632600433735367 0.29057220971623099 0 -0.33565182793366682 0.30450873920257959 0 -0.3651970312151292 0.30441914191810299 0 -0.35194522949950069 0.30640981732734268 0 -0.36005115917324487 0.31575546716430952 0 -0.35632600433735367 0.29057220971623099 0 -0.34037408279471998 0.28921113715355029 0 -0.33565182793366682 0.30450873920257959 0 -0.35220645614290769 0.27204247347125782 0 -0.35632600433735367 0.29057220971623099 0 -0.34037408279471998 0.28921113715355029 0 -0.34037408279471998 0.28921113715355029 0 -0.32793773360984169 0.28626986188494108 0 -0.32842597291770731 0.27065604796485482 0 -0.34037408279471998 0.28921113715355029 0 -0.32774252197837189 0.29904780278607612 0 -0.32793773360984169 0.28626986188494108 0 -0.33565182793366682 0.30450873920257959 0 -0.33422882443643409 0.31429959891504372 0 -0.34416531770233028 0.3181992317437492 0 -0.34037408279471998 0.28921113715355029 0 -0.33565182793366682 0.30450873920257959 0 -0.32774252197837189 0.29904780278607612 0 -0.33565182793366682 0.30450873920257959 0 -0.32588625186858627 0.31119677749676339 0 -0.33422882443643409 0.31429959891504372 0 -0.33565182793366682 0.30450873920257959 0 -0.32588625186858627 0.31119677749676339 0 -0.32774252197837189 0.29904780278607612 0 -0.32588625186858627 0.31119677749676339 0 -0.32774252197837189 0.29904780278607612 0 -0.31579585485578437 0.30535774937247062 0 -0.32774252197837189 0.29904780278607612 0 -0.31579585485578437 0.30535774937247062 0 -0.30438960992187042 0.28608876103727232 0 -0.32774252197837189 0.29904780278607612 0 -0.32793773360984169 0.28626986188494108 0 -0.30438960992187042 0.28608876103727232 0 -0.32774252197837189 0.29904780278607612 0 -0.30438960992187042 0.28608876103727232 0 -0.32842597291770731 0.27065604796485482 0 -0.30520292760209988 0.25634773778978182 0 -0.30438960992187042 0.28608876103727232 0 -0.32793773360984169 0.28626986188494108 0 -0.32842597291770731 0.27065604796485482 0 -0.30438960992187042 0.28608876103727232 0 -0.35220645614290769 0.27204247347125782 0 -0.34037408279471998 0.28921113715355029 0 -0.32842597291770731 0.27065604796485482 0 -0.35220645614290769 0.27204247347125782 0 -0.32842597291770731 0.27065604796485482 0 -0.34165023871863548 0.25294654102260028 0 -0.32842597291770731 0.27065604796485482 0 -0.34165023871863548 0.25294654102260028 0 -0.32278850827095751 0.25006775010447602 0 -0.32842597291770731 0.27065604796485482 0 -0.32278850827095751 0.25006775010447602 0 -0.30520292760209988 0.25634773778978182 0 -0.30520292760209988 0.25634773778978182 0 -0.28961047879567098 0.2606163475708338 0 -0.30438960992187042 0.28608876103727232 0 -0.28961047879567098 0.2606163475708338 0 -0.28103669786536889 0.27312971928846852 0 -0.30438960992187042 0.28608876103727232 0 -0.28103669786536889 0.27312971928846852 0 -0.30438960992187042 0.28608876103727232 0 -0.28430592912881081 0.23923246017082489 0 -0.28961047879567098 0.2606163475708338 0 -0.27525601128370047 0.25577128989075221 0 -0.28961047879567098 0.2606163475708338 0 -0.27525601128370047 0.25577128989075221 0 -0.28103669786536889 0.27312971928846852 0 -0.28430592912881081 0.23923246017082489 0 -0.30520292760209988 0.25634773778978182 0 -0.28961047879567098 0.2606163475708338 0 -0.27525601128370047 0.25577128989075221 0 -0.28103669786536889 0.27312971928846852 0 -0.25768378580886803 0.26017067753966372 0 -0.2645900996779269 0.241021892497989 0 -0.27525601128370047 0.25577128989075221 0 -0.25768378580886803 0.26017067753966372 0 -0.28103669786536889 0.27312971928846852 0 -0.26679114169699458 0.27912508464604602 0 -0.25768378580886803 0.26017067753966372 0 -0.28103669786536889 0.27312971928846852 0 -0.25768378580886803 0.26017067753966372 0 -0.28103669786536889 0.27312971928846852 0 -0.26679114169699458 0.27912508464604602 0 -0.27543418462427349 0.28389043823113058 0 -0.26679114169699458 0.27912508464604602 0 -0.26625542253489543 0.2814209290462486 0 -0.25664485815251131 0.27330490659200379 0 -0.25768378580886803 0.26017067753966372 0 -0.26625542253489543 0.2814209290462486 0 -0.25768378580886803 0.26017067753966372 0 -0.26625542253489543 0.2814209290462486 0 -0.26679114169699458 0.27912508464604602 0 -0.25768378580886803 0.26017067753966372 0 -0.26625542253489543 0.2814209290462486 0 -0.25664485815251131 0.27330490659200379 0 -0.26001132579271619 0.28130395657095703 0 -0.26625542253489543 0.2814209290462486 0 -0.25015917674991622 0.28055509263042699 0 -0.25664485815251131 0.27330490659200379 0 -0.25598524100857439 0.28229162778331229 0 -0.25015917674991622 0.28055509263042699 0 -0.25664485815251131 0.27330490659200379 0 -0.2462921380449441 0.2736975972161475 0 -0.25664485815251131 0.27330490659200379 0 -0.25598524100857439 0.28229162778331229 0 -0.26001132579271619 0.28130395657095703 0 -0.25664485815251131 0.27330490659200379 0 -0.25768378580886803 0.26017067753966372 0 -0.2453852920754056 0.26435655690198262 0 -0.26058883560842611 0.30570529814071901 0 -0.25221460354684649 0.31745922199860271 0 -0.24984746391295079 0.30843565107058613 0 -0.26058883560842611 0.30570529814071901 0 -0.25227733084084702 0.30037690198906042 0 -0.24984746391295079 0.30843565107058613 0 -0.26058883560842611 0.30570529814071901 0 -0.25227733084084702 0.30037690198906042 0 -0.25605505674363532 0.29322103950639672 0 -0.26058883560842611 0.30570529814071901 0 -0.26625542253489543 0.2814209290462486 0 -0.25227733084084702 0.30037690198906042 0 -0.25002584089292512 0.29324001154297308 0 -0.25605505674363532 0.29322103950639672 0 -0.26058883560842611 0.30570529814071901 0 -0.25947991232173723 0.28842978356660098 0 -0.26625542253489543 0.2814209290462486 0 -0.26058883560842611 0.30570529814071901 0 -0.25605505674363532 0.29322103950639672 0 -0.25947991232173723 0.28842978356660098 0 -0.25002584089292512 0.29324001154297308 0 -0.25605505674363532 0.29322103950639672 0 -0.2523922020655654 0.28743196839307972 0 -0.25605505674363532 0.29322103950639672 0 -0.25597810303487811 0.28784360481234739 0 -0.25947991232173723 0.28842978356660098 0 -0.25605505674363532 0.29322103950639672 0 -0.2523922020655654 0.28743196839307972 0 -0.25597810303487811 0.28784360481234739 0 -0.25015917674991622 0.28055509263042699 0 -0.2523922020655654 0.28743196839307972 0 -0.25598524100857439 0.28229162778331229 0 -0.25597810303487811 0.28784360481234739 0 -0.25598524100857439 0.28229162778331229 0 -0.25947991232173723 0.28842978356660098 0 -0.2523922020655654 0.28743196839307972 0 -0.25597810303487811 0.28784360481234739 0 -0.25598524100857439 0.28229162778331229 0 -0.25598524100857439 0.28229162778331229 0 -0.26001132579271619 0.28130395657095703 0 -0.25947991232173723 0.28842978356660098 0 -0.26001132579271619 0.28130395657095703 0 -0.25947991232173723 0.28842978356660098 0 -0.26625542253489543 0.2814209290462486 0 -0.26625542253489543 0.2814209290462486 0 -0.27297963362545169 0.29809116151466752 0 -0.26625542253489543 0.2814209290462486 0 -0.27543418462427349 0.28389043823113058 0 -0.27297963362545169 0.29809116151466752 0 -0.26058883560842611 0.30570529814071901 0 -0.26625542253489543 0.2814209290462486 0 -0.27297963362545169 0.29809116151466752 0 -0.26679114169699458 0.27912508464604602 0 -0.26625542253489543 0.2814209290462486 0 -0.27543418462427349 0.28389043823113058 0 -0.28103669786536889 0.27312971928846852 0 -0.27543418462427349 0.28389043823113058 0 -0.28430526705300008 0.28861007603192318 0 -0.27543418462427349 0.28389043823113058 0 -0.27297963362545169 0.29809116151466752 0 -0.28430526705300008 0.28861007603192318 0 -0.27297963362545169 0.29809116151466752 0 -0.26978281014006589 0.31203230961086731 0 -0.2797038447160079 0.31476139398308622 0 -0.27297963362545169 0.29809116151466752 0 -0.2797038447160079 0.31476139398308622 0 -0.27297963362545169 0.29809116151466752 0 -0.28768620922803612 0.30185030008807728 0 -0.2797038447160079 0.31476139398308622 0 -0.26058883560842611 0.30570529814071901 0 -0.27297963362545169 0.29809116151466752 0 -0.26978281014006589 0.31203230961086731 0 -0.28768620922803612 0.30185030008807728 0 -0.28888027322738408 0.31698267266920549 0 -0.2797038447160079 0.31476139398308622 0 -0.28768620922803612 0.30185030008807728 0 -0.3029991877061079 0.30878346734414308 0 -0.28888027322738408 0.31698267266920549 0 -0.28103669786536889 0.27312971928846852 0 -0.28430526705300008 0.28861007603192318 0 -0.30438960992187042 0.28608876103727232 0 -0.28768620922803612 0.30185030008807728 0 -0.28430526705300008 0.28861007603192318 0 -0.30438960992187042 0.28608876103727232 0 -0.27297963362545169 0.29809116151466752 0 -0.28768620922803612 0.30185030008807728 0 -0.28430526705300008 0.28861007603192318 0 -0.31579585485578437 0.30535774937247062 0 -0.3029991877061079 0.30878346734414308 0 -0.31796170280398539 0.32167193819809842 0 -0.28768620922803612 0.30185030008807728 0 -0.30438960992187042 0.28608876103727232 0 -0.3029991877061079 0.30878346734414308 0 -0.31579585485578437 0.30535774937247062 0 -0.30438960992187042 0.28608876103727232 0 -0.3029991877061079 0.30878346734414308 0 -0.30281243013828318 0.32310140032034418 0 -0.30094870699886472 0.33950656464774681 0 -0.28888027322738408 0.31698267266920549 0 -0.3029991877061079 0.30878346734414308 0 -0.30281243013828318 0.32310140032034418 0 -0.31796170280398539 0.32167193819809842 0 -0.30281243013828318 0.32310140032034418 0 -0.30094870699886472 0.33950656464774681 0 -0.31796170280398539 0.32167193819809842 0 -0.3029991877061079 0.30878346734414308 0 -0.30281243013828318 0.32310140032034418 0 -0.28888027322738408 0.31698267266920549 0 -0.30094870699886472 0.33950656464774681 0 -0.28249071762595251 0.32673852054874619 0 -0.28107784858778162 0.34031538748422252 0 -0.30094870699886472 0.33950656464774681 0 -0.28888027322738408 0.31698267266920549 0 -0.30094870699886472 0.33950656464774681 0 -0.28249071762595251 0.32673852054874619 0 -0.28888027322738408 0.31698267266920549 0 -0.28249071762595251 0.32673852054874619 0 -0.28888027322738408 0.31698267266920549 0 -0.2797038447160079 0.31476139398308622 0 -0.26978281014006589 0.31203230961086731 0 -0.2797038447160079 0.31476139398308622 0 -0.27220594975903911 0.32090413188619982 0 -0.26978281014006589 0.31203230961086731 0 -0.27220594975903911 0.32090413188619982 0 -0.26343578699140491 0.32069956252966347 0 -0.27220594975903911 0.32090413188619982 0 -0.27171177694700099 0.3295337654440762 0 -0.26541995075195751 0.3275055951381371 0 -0.27220594975903911 0.32090413188619982 0 -0.26343578699140491 0.32069956252966347 0 -0.26541995075195751 0.3275055951381371 0 -0.28249071762595251 0.32673852054874619 0 -0.2797038447160079 0.31476139398308622 0 -0.27220594975903911 0.32090413188619982 0 -0.28249071762595251 0.32673852054874619 0 -0.27220594975903911 0.32090413188619982 0 -0.27171177694700099 0.3295337654440762 0 -0.28107784858778162 0.34031538748422252 0 -0.27194291571599671 0.33804592962256119 0 -0.27171177694700099 0.3295337654440762 0 -0.28249071762595251 0.32673852054874619 0 -0.28107784858778162 0.34031538748422252 0 -0.27171177694700099 0.3295337654440762 0 -0.28107784858778162 0.34031538748422252 0 -0.27194291571599671 0.33804592962256119 0 -0.268377885762352 0.34539474437191919 0 -0.27194291571599671 0.33804592962256119 0 -0.26473481078573191 0.33530656961468303 0 -0.268377885762352 0.34539474437191919 0 -0.27194291571599671 0.33804592962256119 0 -0.27171177694700099 0.3295337654440762 0 -0.26473481078573191 0.33530656961468303 0 -0.27171177694700099 0.3295337654440762 0 -0.26473481078573191 0.33530656961468303 0 -0.26541995075195751 0.3275055951381371 0 -0.25184762069606181 0.32948502420814602 0 -0.25492224868195668 0.32998966723518941 0 -0.24925566175548719 0.35427403632965981 0 -0.25492224868195668 0.32998966723518941 0 -0.24925566175548719 0.35427403632965981 0 -0.2551634651755556 0.34047763712670548 0 -0.25492224868195668 0.32998966723518941 0 -0.24925566175548719 0.35427403632965981 0 -0.26473481078573191 0.33530656961468303 0 -0.26145013729080402 0.32972596110828889 0 -0.26541995075195751 0.3275055951381371 0 -0.26473481078573191 0.33530656961468303 0 -0.25873788924296892 0.33512841102377128 0 -0.26145013729080402 0.32972596110828889 0 -0.25873788924296892 0.33512841102377128 0 -0.26145013729080402 0.32972596110828889 0 -0.25492224868195668 0.32998966723518941 0 -0.26473481078573191 0.33530656961468303 0 -0.26005194587495439 0.34148579485380942 0 -0.268377885762352 0.34539474437191919 0 -0.25873788924296892 0.33512841102377128 0 -0.26005194587495439 0.34148579485380942 0 -0.2551634651755556 0.34047763712670548 0 -0.26473481078573191 0.33530656961468303 0 -0.25873788924296892 0.33512841102377128 0 -0.26005194587495439 0.34148579485380942 0 -0.26005194587495439 0.34148579485380942 0 -0.2551634651755556 0.34047763712670548 0 -0.25693389744910128 0.34504122402240622 0 -0.25873788924296892 0.33512841102377128 0 -0.2551634651755556 0.34047763712670548 0 -0.25492224868195668 0.32998966723518941 0 -0.26058883560842611 0.30570529814071901 0 -0.25492224868195668 0.32998966723518941 0 -0.26343578699140491 0.32069956252966347 0 -0.26058883560842611 0.30570529814071901 0 -0.25492224868195668 0.32998966723518941 0 -0.25184762069606181 0.32948502420814602 0 -0.25492224868195668 0.32998966723518941 0 -0.25221460354684649 0.31745922199860271 0 -0.26058883560842611 0.30570529814071901 0 -0.25492224868195668 0.32998966723518941 0 -0.25221460354684649 0.31745922199860271 0 -0.26058883560842611 0.30570529814071901 0 -0.26978281014006589 0.31203230961086731 0 -0.26343578699140491 0.32069956252966347 0 -0.26145013729080402 0.32972596110828889 0 -0.26343578699140491 0.32069956252966347 0 -0.26541995075195751 0.3275055951381371 0 -0.26145013729080402 0.32972596110828889 0 -0.25492224868195668 0.32998966723518941 0 -0.26343578699140491 0.32069956252966347 0 -0.26852615490398701 0.36784849110772933 0 -0.24634500562581699 0.35522147955953631 0 -0.25182284239910208 0.37496965679306948 0 -0.26852615490398701 0.36784849110772933 0 -0.24634500562581699 0.35522147955953631 0 -0.25709877674215292 0.35498941278262741 0 -0.25323654475706769 0.35012910138940367 0 -0.24925566175548719 0.35427403632965981 0 -0.25709877674215292 0.35498941278262741 0 -0.24925566175548719 0.35427403632965981 0 -0.24634500562581699 0.35522147955953631 0 -0.25709877674215292 0.35498941278262741 0 -0.26852615490398701 0.36784849110772933 0 -0.24634500562581699 0.35522147955953631 0 -0.2551634651755556 0.34047763712670548 0 -0.25323654475706769 0.35012910138940367 0 -0.25693389744910128 0.34504122402240622 0 -0.2551634651755556 0.34047763712670548 0 -0.25323654475706769 0.35012910138940367 0 -0.24925566175548719 0.35427403632965981 0 -0.25709877674215292 0.35498941278262741 0 -0.25323654475706769 0.35012910138940367 0 -0.2592836339888277 0.34807236271970621 0 -0.25323654475706769 0.35012910138940367 0 -0.25693389744910128 0.34504122402240622 0 -0.2592836339888277 0.34807236271970621 0 -0.26005194587495439 0.34148579485380942 0 -0.2592836339888277 0.34807236271970621 0 -0.268377885762352 0.34539474437191919 0 -0.2592836339888277 0.34807236271970621 0 -0.26594565942173087 0.35439100558972919 0 -0.268377885762352 0.34539474437191919 0 -0.26005194587495439 0.34148579485380942 0 -0.25693389744910128 0.34504122402240622 0 -0.2592836339888277 0.34807236271970621 0 -0.25709877674215292 0.35498941278262741 0 -0.2592836339888277 0.34807236271970621 0 -0.26594565942173087 0.35439100558972919 0 -0.25709877674215292 0.35498941278262741 0 -0.26594565942173087 0.35439100558972919 0 -0.26852615490398701 0.36784849110772933 0 -0.26594565942173087 0.35439100558972919 0 -0.268377885762352 0.34539474437191919 0 -0.27639411724100388 0.35595632672220467 0 -0.26594565942173087 0.35439100558972919 0 -0.27639411724100388 0.35595632672220467 0 -0.26852615490398701 0.36784849110772933 0 -0.28107784858778162 0.34031538748422252 0 -0.268377885762352 0.34539474437191919 0 -0.27639411724100388 0.35595632672220467 0 -0.27639411724100388 0.35595632672220467 0 -0.26852615490398701 0.36784849110772933 0 -0.28262613633430911 0.36850083185144339 0 -0.26852615490398701 0.36784849110772933 0 -0.28262613633430911 0.36850083185144339 0 -0.29070730418215679 0.38047550265592278 0 -0.26852615490398701 0.36784849110772933 0 -0.29070730418215679 0.38047550265592278 0 -0.28262613633430911 0.36850083185144339 0 -0.29117160180321439 0.37154296074711968 0 -0.29070730418215679 0.38047550265592278 0 -0.28262613633430911 0.36850083185144339 0 -0.29117160180321439 0.37154296074711968 0 -0.29072821145058392 0.35827895785655212 0 -0.27639411724100388 0.35595632672220467 0 -0.28262613633430911 0.36850083185144339 0 -0.29072821145058392 0.35827895785655212 0 -0.29117160180321439 0.37154296074711968 0 -0.29072821145058392 0.35827895785655212 0 -0.29998531728695782 0.36936104823074828 0 -0.29117160180321439 0.37154296074711968 0 -0.29998531728695782 0.36936104823074828 0 -0.29853899472330409 0.37708207830952312 0 -0.30094870699886472 0.33950656464774681 0 -0.28107784858778162 0.34031538748422252 0 -0.29072821145058392 0.35827895785655212 0 -0.28107784858778162 0.34031538748422252 0 -0.27639411724100388 0.35595632672220467 0 -0.29072821145058392 0.35827895785655212 0 -0.30094870699886472 0.33950656464774681 0 -0.31301714077034531 0.36203045662628808 0 -0.30094870699886472 0.33950656464774681 0 -0.29072821145058392 0.35827895785655212 0 -0.31301714077034531 0.36203045662628808 0 -0.29072821145058392 0.35827895785655212 0 -0.29998531728695782 0.36936104823074828 0 -0.31301714077034531 0.36203045662628808 0 -0.29998531728695782 0.36936104823074828 0 -0.30787229497093271 0.37703404077438157 0 -0.29853899472330409 0.37708207830952312 0 -0.29998531728695782 0.36936104823074828 0 -0.31301714077034531 0.36203045662628808 0 -0.30787229497093271 0.37703404077438157 0 -0.31301714077034531 0.36203045662628808 0 -0.33578928298030081 0.369789517109535 0 -0.32508557454182591 0.38455434860482929 0 -0.31301714077034531 0.36203045662628808 0 -0.32508557454182591 0.38455434860482929 0 -0.30787229497093271 0.37703404077438157 0 -0.31301714077034531 0.36203045662628808 0 -0.32508557454182591 0.38455434860482929 0 -0.33578928298030081 0.369789517109535 0 -0.33809135942034929 0.35169198418434372 0 -0.35657275129811511 0.36109240878813081 0 -0.31301714077034531 0.36203045662628808 0 -0.33578928298030081 0.369789517109535 0 -0.33809135942034929 0.35169198418434372 0 -0.33809135942034929 0.35169198418434372 0 -0.34109319176295921 0.33558263261181909 0 -0.35118791264680682 0.34431844081700241 0 -0.30094870699886472 0.33950656464774681 0 -0.31301714077034531 0.36203045662628808 0 -0.32377246871765619 0.33898068297464651 0 -0.31301714077034531 0.36203045662628808 0 -0.33809135942034929 0.35169198418434372 0 -0.32377246871765619 0.33898068297464651 0 -0.30094870699886472 0.33950656464774681 0 -0.32377246871765619 0.33898068297464651 0 -0.31796170280398539 0.32167193819809842 0 -0.32377246871765619 0.33898068297464651 0 -0.31796170280398539 0.32167193819809842 0 -0.33121190024115282 0.32329364721708248 0 -0.32588625186858627 0.31119677749676339 0 -0.31579585485578437 0.30535774937247062 0 -0.31796170280398539 0.32167193819809842 0 -0.32588625186858627 0.31119677749676339 0 -0.31796170280398539 0.32167193819809842 0 -0.33121190024115282 0.32329364721708248 0 -0.33121190024115282 0.32329364721708248 0 -0.34109319176295921 0.33558263261181909 0 -0.34416531770233028 0.3181992317437492 0 -0.32588625186858627 0.31119677749676339 0 -0.33422882443643409 0.31429959891504372 0 -0.33121190024115282 0.32329364721708248 0 -0.33422882443643409 0.31429959891504372 0 -0.33121190024115282 0.32329364721708248 0 -0.34416531770233028 0.3181992317437492 0 -0.32377246871765619 0.33898068297464651 0 -0.33121190024115282 0.32329364721708248 0 -0.34109319176295921 0.33558263261181909 0 -0.33809135942034929 0.35169198418434372 0 -0.32377246871765619 0.33898068297464651 0 -0.34109319176295921 0.33558263261181909 0 -0.34109319176295921 0.33558263261181909 0 -0.35799665354212801 0.33163657813167591 0 -0.34416531770233028 0.3181992317437492 0 -0.34109319176295921 0.33558263261181909 0 -0.35799665354212801 0.33163657813167591 0 -0.35118791264680682 0.34431844081700241 0 -0.35799665354212801 0.33163657813167591 0 -0.35955439804726802 0.34382904891807248 0 -0.35118791264680682 0.34431844081700241 0 -0.35194522949950069 0.30640981732734268 0 -0.34416531770233028 0.3181992317437492 0 -0.36005115917324487 0.31575546716430952 0 -0.35799665354212801 0.33163657813167591 0 -0.34416531770233028 0.3181992317437492 0 -0.36005115917324487 0.31575546716430952 0 -0.35799665354212801 0.33163657813167591 0 -0.36005115917324487 0.31575546716430952 0 -0.37060379793355758 0.32242193000412978 0 -0.37416310414446308 0.3110037097063521 0 -0.36005115917324487 0.31575546716430952 0 -0.37060379793355758 0.32242193000412978 0 -0.35799665354212801 0.33163657813167591 0 -0.37060379793355758 0.32242193000412978 0 -0.37246027470202242 0.33826876793548089 0 -0.35799665354212801 0.33163657813167591 0 -0.37246027470202242 0.33826876793548089 0 -0.35955439804726802 0.34382904891807248 0 -0.37246027470202242 0.33826876793548089 0 -0.35657275129811511 0.36109240878813081 0 -0.37779519863227512 0.35018570376915809 0 -0.37395864550162161 0.36493313604503141 0 -0.35657275129811511 0.36109240878813081 0 -0.37779519863227512 0.35018570376915809 0 -0.37246027470202242 0.33826876793548089 0 -0.35657275129811511 0.36109240878813081 0 -0.37246027470202242 0.33826876793548089 0 -0.35955439804726802 0.34382904891807248 0 -0.35657275129811511 0.36109240878813081 0 -0.37395864550162161 0.36493313604503141 0 -0.35657275129811511 0.36109240878813081 0 -0.36916915971251979 0.37754789802733651 0 -0.35657275129811511 0.36109240878813081 0 -0.35677962782212291 0.38184263683550779 0 -0.36916915971251979 0.37754789802733651 0 -0.37731004727439782 0.37364831020116879 0 -0.37395864550162161 0.36493313604503141 0 -0.36916915971251979 0.37754789802733651 0 -0.33578928298030081 0.369789517109535 0 -0.35657275129811511 0.36109240878813081 0 -0.34604436952760581 0.37701710373929659 0 -0.35657275129811511 0.36109240878813081 0 -0.34604436952760581 0.37701710373929659 0 -0.35677962782212291 0.38184263683550779 0 -0.33809135942034929 0.35169198418434372 0 -0.35657275129811511 0.36109240878813081 0 -0.35118791264680682 0.34431844081700241 0 -0.35955439804726802 0.34382904891807248 0 -0.35657275129811511 0.36109240878813081 0 -0.35118791264680682 0.34431844081700241 0 -0.35401975522820872 0.39229981705650208 0 -0.35748988291600958 0.40021037578178531 0 -0.34952424942416049 0.39983061789614149 0 -0.35401975522820872 0.39229981705650208 0 -0.3601725182499656 0.38867045878908563 0 -0.36243539627977628 0.39501699874458168 0 -0.35401975522820872 0.39229981705650208 0 -0.35748988291600958 0.40021037578178531 0 -0.36243539627977628 0.39501699874458168 0 -0.35748988291600958 0.40021037578178531 0 -0.34952424942416049 0.39983061789614149 0 -0.35165377110078738 0.4070531366350793 0 -0.35748988291600958 0.40021037578178531 0 -0.35165377110078738 0.4070531366350793 0 -0.35874599358033571 0.40730942929341418 0 -0.34952424942416049 0.39983061789614149 0 -0.3462015082832704 0.40537046151802641 0 -0.35165377110078738 0.4070531366350793 0 -0.34952424942416049 0.39983061789614149 0 -0.3462015082832704 0.40537046151802641 0 -0.34215553373812141 0.3984921127833938 0 -0.35401975522820872 0.39229981705650208 0 -0.34952424942416049 0.39983061789614149 0 -0.34497988133526097 0.38916842705583582 0 -0.34952424942416049 0.39983061789614149 0 -0.34497988133526097 0.38916842705583582 0 -0.34215553373812141 0.3984921127833938 0 -0.34497988133526097 0.38916842705583582 0 -0.34604436952760581 0.37701710373929659 0 -0.35677962782212291 0.38184263683550779 0 -0.35401975522820872 0.39229981705650208 0 -0.34497988133526097 0.38916842705583582 0 -0.35677962782212291 0.38184263683550779 0 -0.35401975522820872 0.39229981705650208 0 -0.35677962782212291 0.38184263683550779 0 -0.3601725182499656 0.38867045878908563 0 -0.35677962782212291 0.38184263683550779 0 -0.3601725182499656 0.38867045878908563 0 -0.36618320961134981 0.38612872194282277 0 -0.3601725182499656 0.38867045878908563 0 -0.36618320961134981 0.38612872194282277 0 -0.36628372204648252 0.39150812940809321 0 -0.35677962782212291 0.38184263683550779 0 -0.36618320961134981 0.38612872194282277 0 -0.36916915971251979 0.37754789802733651 0 -0.36618320961134981 0.38612872194282277 0 -0.36916915971251979 0.37754789802733651 0 -0.37357970332773172 0.38939717776777782 0 -0.37996396608646549 0.38407047701772362 0 -0.36916915971251979 0.37754789802733651 0 -0.37357970332773172 0.38939717776777782 0 -0.36618320961134981 0.38612872194282277 0 -0.37357970332773172 0.38939717776777782 0 -0.36628372204648252 0.39150812940809321 0 -0.37945777538082481 0.39621967772420341 0 -0.36944658008480691 0.39564553248933487 0 -0.36872929652509939 0.39918302457998478 0 -0.37945777538082481 0.39621967772420341 0 -0.37357970332773172 0.38939717776777782 0 -0.36944658008480691 0.39564553248933487 0 -0.36944658008480691 0.39564553248933487 0 -0.36872929652509939 0.39918302457998478 0 -0.37357970332773172 0.38939717776777782 0 -0.36944658008480691 0.39564553248933487 0 -0.36628372204648252 0.39150812940809321 0 -0.35748988291600958 0.40021037578178531 0 -0.36243539627977628 0.39501699874458168 0 -0.36872929652509939 0.39918302457998478 0 -0.36944658008480691 0.39564553248933487 0 -0.36628372204648252 0.39150812940809321 0 -0.36243539627977628 0.39501699874458168 0 -0.36944658008480691 0.39564553248933487 0 -0.36243539627977628 0.39501699874458168 0 -0.36872929652509939 0.39918302457998478 0 -0.36243539627977628 0.39501699874458168 0 -0.36872929652509939 0.39918302457998478 0 -0.3601725182499656 0.38867045878908563 0 -0.36628372204648252 0.39150812940809321 0 -0.36243539627977628 0.39501699874458168 0 -0.35748988291600958 0.40021037578178531 0 -0.36872929652509939 0.39918302457998478 0 -0.35874599358033571 0.40730942929341418 0 -0.36872929652509939 0.39918302457998478 0 -0.36551342818909832 0.41504301279417422 0 -0.35874599358033571 0.40730942929341418 0 -0.36872929652509939 0.39918302457998478 0 -0.36551342818909832 0.41504301279417422 0 -0.37698457334812357 0.42676188037787077 0 -0.36551342818909832 0.41504301279417422 0 -0.36414911489252633 0.42177151985456468 0 -0.36551342818909832 0.41504301279417422 0 -0.36414911489252633 0.42177151985456468 0 -0.35051997883997538 0.41439819969214747 0 -0.36551342818909832 0.41504301279417422 0 -0.36414911489252633 0.42177151985456468 0 -0.37613699520865612 0.43909909385515172 0 -0.37698457334812357 0.42676188037787077 0 -0.36229755985309381 0.43090300100836298 0 -0.37613699520865612 0.43909909385515172 0 -0.36229755985309381 0.43090300100836298 0 -0.37698457334812357 0.42676188037787077 0 -0.36414911489252633 0.42177151985456468 0 -0.36229755985309381 0.43090300100836298 0 -0.36414911489252633 0.42177151985456468 0 -0.36229755985309381 0.43090300100836298 0 -0.36229755985309381 0.43090300100836298 0 -0.35153262604212798 0.43391373876458822 0 -0.34416595308908787 0.4201649666391038 0 -0.36229755985309381 0.43090300100836298 0 -0.35153262604212798 0.43391373876458822 0 -0.35889929899516909 0.44766251089007192 0 -0.36229755985309381 0.43090300100836298 0 -0.34416595308908787 0.4201649666391038 0 -0.36414911489252633 0.42177151985456468 0 -0.36229755985309381 0.43090300100836298 0 -0.34416595308908787 0.4201649666391038 0 -0.35153262604212798 0.43391373876458822 0 -0.34416595308908787 0.4201649666391038 0 -0.35153262604212798 0.43391373876458822 0 -0.34416595308908787 0.4201649666391038 0 -0.33916289668576682 0.42935694682356729 0 -0.36414911489252633 0.42177151985456468 0 -0.35051997883997538 0.41439819969214747 0 -0.34416595308908787 0.4201649666391038 0 -0.35165377110078738 0.4070531366350793 0 -0.35874599358033571 0.40730942929341418 0 -0.35051997883997538 0.41439819969214747 0 -0.36551342818909832 0.41504301279417422 0 -0.35874599358033571 0.40730942929341418 0 -0.35051997883997538 0.41439819969214747 0 -0.36414911489252633 0.42177151985456468 0 -0.35051997883997538 0.41439819969214747 0 -0.35051997883997538 0.41439819969214747 0 -0.33715400831330722 0.40707824058337011 0 -0.3462015082832704 0.40537046151802641 0 -0.35165377110078738 0.4070531366350793 0 -0.35051997883997538 0.41439819969214747 0 -0.35051997883997538 0.41439819969214747 0 -0.34416595308908787 0.4201649666391038 0 -0.33715400831330722 0.40707824058337011 0 -0.3462015082832704 0.40537046151802641 0 -0.35051997883997538 0.41439819969214747 0 -0.33715400831330722 0.40707824058337011 0 -0.34416595308908787 0.4201649666391038 0 -0.33715400831330722 0.40707824058337011 0 -0.34416595308908787 0.4201649666391038 0 -0.32781852823113528 0.41048357368488431 0 -0.34416595308908787 0.4201649666391038 0 -0.33715400831330722 0.40707824058337011 0 -0.32781852823113528 0.41048357368488431 0 -0.34416595308908787 0.4201649666391038 0 -0.33222228257625841 0.42182980366284889 0 -0.32781852823113528 0.41048357368488431 0 -0.32818704197018073 0.42911882843884191 0 -0.32031807113964089 0.44179074142891428 0 -0.33698041715268262 0.44036666775777961 0 -0.35153262604212798 0.43391373876458822 0 -0.33916289668576682 0.42935694682356729 0 -0.33698041715268262 0.44036666775777961 0 -0.34416595308908787 0.4201649666391038 0 -0.33222228257625841 0.42182980366284889 0 -0.33916289668576682 0.42935694682356729 0 -0.33222228257625841 0.42182980366284889 0 -0.33916289668576682 0.42935694682356729 0 -0.32818704197018073 0.42911882843884191 0 -0.33916289668576682 0.42935694682356729 0 -0.32818704197018073 0.42911882843884191 0 -0.33698041715268262 0.44036666775777961 0 -0.31732261438068338 0.43022704651363441 0 -0.30434933919719159 0.43650268894173683 0 -0.32031807113964089 0.44179074142891428 0 -0.32818704197018073 0.42911882843884191 0 -0.31732261438068338 0.43022704651363441 0 -0.32031807113964089 0.44179074142891428 0 -0.33222228257625841 0.42182980366284889 0 -0.32818704197018073 0.42911882843884191 0 -0.3217769929051234 0.42002470272784642 0 -0.32818704197018073 0.42911882843884191 0 -0.31732261438068338 0.43022704651363441 0 -0.3217769929051234 0.42002470272784642 0 -0.31732261438068338 0.43022704651363441 0 -0.3217769929051234 0.42002470272784642 0 -0.30994020654255161 0.42106051095549568 0 -0.32781852823113528 0.41048357368488431 0 -0.31563451384446489 0.41229361688898508 0 -0.31147110337318112 0.40080218073066748 0 -0.32781852823113528 0.41048357368488431 0 -0.3217769929051234 0.42002470272784642 0 -0.31563451384446489 0.41229361688898508 0 -0.33222228257625841 0.42182980366284889 0 -0.32781852823113528 0.41048357368488431 0 -0.3217769929051234 0.42002470272784642 0 -0.3217769929051234 0.42002470272784642 0 -0.31563451384446489 0.41229361688898508 0 -0.30994020654255161 0.42106051095549568 0 -0.33715400831330722 0.40707824058337011 0 -0.3152189140504148 0.39506534614138289 0 -0.33715400831330722 0.40707824058337011 0 -0.32781852823113528 0.41048357368488431 0 -0.3152189140504148 0.39506534614138289 0 -0.33715400831330722 0.40707824058337011 0 -0.32508557454182591 0.38455434860482929 0 -0.31875679912441179 0.38849994470252203 0 -0.33715400831330722 0.40707824058337011 0 -0.3152189140504148 0.39506534614138289 0 -0.31875679912441179 0.38849994470252203 0 -0.32781852823113528 0.41048357368488431 0 -0.3152189140504148 0.39506534614138289 0 -0.31147110337318112 0.40080218073066748 0 -0.32781852823113528 0.41048357368488431 0 -0.31147110337318112 0.40080218073066748 0 -0.31288845346032662 0.39310251420411629 0 -0.3152189140504148 0.39506534614138289 0 -0.31875679912441179 0.38849994470252203 0 -0.33715400831330722 0.40707824058337011 0 -0.32508557454182591 0.38455434860482929 0 -0.33715400831330722 0.40707824058337011 0 -0.33734005542656192 0.39231795544989417 0 -0.32508557454182591 0.38455434860482929 0 -0.34497988133526097 0.38916842705583582 0 -0.33734005542656192 0.39231795544989417 0 -0.34215553373812141 0.3984921127833938 0 -0.3462015082832704 0.40537046151802641 0 -0.33715400831330722 0.40707824058337011 0 -0.34215553373812141 0.3984921127833938 0 -0.33715400831330722 0.40707824058337011 0 -0.33734005542656192 0.39231795544989417 0 -0.34215553373812141 0.3984921127833938 0 -0.34497988133526097 0.38916842705583582 0 -0.34604436952760581 0.37701710373929659 0 -0.33732527920429389 0.38229664822204212 0 -0.33578928298030081 0.369789517109535 0 -0.34604436952760581 0.37701710373929659 0 -0.33732527920429389 0.38229664822204212 0 -0.34497988133526097 0.38916842705583582 0 -0.33734005542656192 0.39231795544989417 0 -0.33732527920429389 0.38229664822204212 0 -0.33734005542656192 0.39231795544989417 0 -0.33732527920429389 0.38229664822204212 0 -0.32508557454182591 0.38455434860482929 0 -0.33578928298030081 0.369789517109535 0 -0.33732527920429389 0.38229664822204212 0 -0.32508557454182591 0.38455434860482929 0 -0.32508557454182591 0.38455434860482929 0 -0.31276237029134663 0.38541727017212563 0 -0.30787229497093271 0.37703404077438157 0 -0.32508557454182591 0.38455434860482929 0 -0.31875679912441179 0.38849994470252203 0 -0.31276237029134663 0.38541727017212563 0 -0.31288845346032662 0.39310251420411629 0 -0.31875679912441179 0.38849994470252203 0 -0.31276237029134663 0.38541727017212563 0 -0.31276237029134663 0.38541727017212563 0 -0.30787229497093271 0.37703404077438157 0 -0.30455388352561341 0.38262228122321379 0 -0.31288845346032662 0.39310251420411629 0 -0.30455388352561341 0.38262228122321379 0 -0.29070730418215679 0.38047550265592278 0 -0.31288845346032662 0.39310251420411629 0 -0.29070730418215679 0.38047550265592278 0 -0.3152189140504148 0.39506534614138289 0 -0.30306790938408451 0.39121984794971609 0 -0.29328381978752222 0.38305245169939628 0 -0.31288845346032662 0.39310251420411629 0 -0.29070730418215679 0.38047550265592278 0 -0.29328381978752222 0.38305245169939628 0 -0.31288845346032662 0.39310251420411629 0 -0.3152189140504148 0.39506534614138289 0 -0.29328381978752222 0.38305245169939628 0 -0.3152189140504148 0.39506534614138289 0 -0.29328381978752222 0.38305245169939628 0 -0.31288845346032662 0.39310251420411629 0 -0.31276237029134663 0.38541727017212563 0 -0.30455388352561341 0.38262228122321379 0 -0.30306790938408451 0.39121984794971609 0 -0.29328381978752222 0.38305245169939628 0 -0.29622575158852121 0.39007920483142711 0 -0.30455388352561341 0.38262228122321379 0 -0.29853899472330409 0.37708207830952312 0 -0.29070730418215679 0.38047550265592278 0 -0.30787229497093271 0.37703404077438157 0 -0.30455388352561341 0.38262228122321379 0 -0.29853899472330409 0.37708207830952312 0 -0.31147110337318112 0.40080218073066748 0 -0.2987823194991584 0.40246363219560372 0 -0.3057293667585686 0.4115848784792398 0 -0.3152189140504148 0.39506534614138289 0 -0.30814377843727547 0.39618486108993362 0 -0.30306790938408451 0.39121984794971609 0 -0.31147110337318112 0.40080218073066748 0 -0.30814377843727547 0.39618486108993362 0 -0.30342960116314338 0.39731306347936912 0 -0.30814377843727547 0.39618486108993362 0 -0.30306790938408451 0.39121984794971609 0 -0.30342960116314338 0.39731306347936912 0 -0.3152189140504148 0.39506534614138289 0 -0.31147110337318112 0.40080218073066748 0 -0.30814377843727547 0.39618486108993362 0 -0.29916564467533141 0.39452503404425621 0 -0.30342960116314338 0.39731306347936912 0 -0.2987823194991584 0.40246363219560372 0 -0.29916564467533141 0.39452503404425621 0 -0.2987823194991584 0.40246363219560372 0 -0.29297091266694142 0.39365123526653212 0 -0.30306790938408451 0.39121984794971609 0 -0.29916564467533141 0.39452503404425621 0 -0.30342960116314338 0.39731306347936912 0 -0.30306790938408451 0.39121984794971609 0 -0.29916564467533141 0.39452503404425621 0 -0.29622575158852121 0.39007920483142711 0 -0.31147110337318112 0.40080218073066748 0 -0.30342960116314338 0.39731306347936912 0 -0.2987823194991584 0.40246363219560372 0 -0.2987823194991584 0.40246363219560372 0 -0.29297091266694142 0.39365123526653212 0 -0.28550264426595118 0.40056769330482161 0 -0.29916564467533141 0.39452503404425621 0 -0.29297091266694142 0.39365123526653212 0 -0.29622575158852121 0.39007920483142711 0 -0.29297091266694142 0.39365123526653212 0 -0.28550264426595118 0.40056769330482161 0 -0.28470007675820191 0.38868367322182362 0 -0.29117160180321439 0.37154296074711968 0 -0.29853899472330409 0.37708207830952312 0 -0.29070730418215679 0.38047550265592278 0 -0.29070730418215679 0.38047550265592278 0 -0.29328381978752222 0.38305245169939628 0 -0.2892953255923098 0.38420981877388471 0 -0.29297091266694142 0.39365123526653212 0 -0.2912951772786993 0.38793527675861278 0 -0.28470007675820191 0.38868367322182362 0 -0.29297091266694142 0.39365123526653212 0 -0.29622575158852121 0.39007920483142711 0 -0.2912951772786993 0.38793527675861278 0 -0.29328381978752222 0.38305245169939628 0 -0.29622575158852121 0.39007920483142711 0 -0.2912951772786993 0.38793527675861278 0 -0.29328381978752222 0.38305245169939628 0 -0.2912951772786993 0.38793527675861278 0 -0.2892953255923098 0.38420981877388471 0 -0.28611199853173508 0.3832151874287329 0 -0.28470007675820191 0.38868367322182362 0 -0.2797452875942722 0.37949175506330052 0 -0.2892953255923098 0.38420981877388471 0 -0.28611199853173508 0.3832151874287329 0 -0.28470007675820191 0.38868367322182362 0 -0.2912951772786993 0.38793527675861278 0 -0.2892953255923098 0.38420981877388471 0 -0.28470007675820191 0.38868367322182362 0 -0.29070730418215679 0.38047550265592278 0 -0.28611199853173508 0.3832151874287329 0 -0.2797452875942722 0.37949175506330052 0 -0.29070730418215679 0.38047550265592278 0 -0.2892953255923098 0.38420981877388471 0 -0.28611199853173508 0.3832151874287329 0 -0.26852615490398701 0.36784849110772933 0 -0.29070730418215679 0.38047550265592278 0 -0.2797452875942722 0.37949175506330052 0 -0.26852615490398701 0.36784849110772933 0 -0.2797452875942722 0.37949175506330052 0 -0.27156414370034998 0.38766508021038348 0 -0.28470007675820191 0.38868367322182362 0 -0.2797452875942722 0.37949175506330052 0 -0.27156414370034998 0.38766508021038348 0 -0.28550264426595118 0.40056769330482161 0 -0.27156414370034998 0.38766508021038348 0 -0.27120686330064148 0.40930798386978567 0 -0.28550264426595118 0.40056769330482161 0 -0.28470007675820191 0.38868367322182362 0 -0.27156414370034998 0.38766508021038348 0 -0.27120686330064148 0.40930798386978567 0 -0.24959503606779609 0.39731151611412452 0 -0.27156414370034998 0.38766508021038348 0 -0.27120686330064148 0.40930798386978567 0 -0.24959503606779609 0.39731151611412452 0 -0.25182284239910208 0.37496965679306948 0 -0.26852615490398701 0.36784849110772933 0 -0.27156414370034998 0.38766508021038348 0 -0.25182284239910208 0.37496965679306948 0 -0.27156414370034998 0.38766508021038348 0 -0.24959503606779609 0.39731151611412452 0 -0.2709888351129518 0.43466726602488859 0 -0.25518496522775569 0.45020258095047289 0 -0.24807017279911869 0.4246869967332732 0 -0.27120686330064148 0.40930798386978567 0 -0.2709888351129518 0.43466726602488859 0 -0.24807017279911869 0.4246869967332732 0 -0.27120686330064148 0.40930798386978567 0 -0.24807017279911869 0.4246869967332732 0 -0.24959503606779609 0.39731151611412452 0 -0.27120686330064148 0.40930798386978567 0 -0.2709888351129518 0.43466726602488859 0 -0.2928186905334868 0.42130445162544677 0 -0.2709888351129518 0.43466726602488859 0 -0.2928186905334868 0.42130445162544677 0 -0.28835624284392719 0.44162524055372682 0 -0.2928186905334868 0.42130445162544677 0 -0.30434933919719159 0.43650268894173683 0 -0.28835624284392719 0.44162524055372682 0 -0.2987823194991584 0.40246363219560372 0 -0.28550264426595118 0.40056769330482161 0 -0.2928186905334868 0.42130445162544677 0 -0.27120686330064148 0.40930798386978567 0 -0.2928186905334868 0.42130445162544677 0 -0.28550264426595118 0.40056769330482161 0 -0.27120686330064148 0.40930798386978567 0 -0.2928186905334868 0.42130445162544677 0 -0.2987823194991584 0.40246363219560372 0 -0.2928186905334868 0.42130445162544677 0 -0.3057293667585686 0.4115848784792398 0 -0.2928186905334868 0.42130445162544677 0 -0.30994020654255161 0.42106051095549568 0 -0.3057293667585686 0.4115848784792398 0 -0.31563451384446489 0.41229361688898508 0 -0.30994020654255161 0.42106051095549568 0 -0.3057293667585686 0.4115848784792398 0 -0.31563451384446489 0.41229361688898508 0 -0.31147110337318112 0.40080218073066748 0 -0.3057293667585686 0.4115848784792398 0 -0.2928186905334868 0.42130445162544677 0 -0.30994020654255161 0.42106051095549568 0 -0.30434933919719159 0.43650268894173683 0 -0.31732261438068338 0.43022704651363441 0 -0.30994020654255161 0.42106051095549568 0 -0.30434933919719159 0.43650268894173683 0 -0.30434933919719159 0.43650268894173683 0 -0.29828968505444658 0.45650117841074678 0 -0.28835624284392719 0.44162524055372682 0 -0.30434933919719159 0.43650268894173683 0 -0.29828968505444658 0.45650117841074678 0 -0.31389932035037482 0.4551170486588702 0 -0.29828968505444658 0.45650117841074678 0 -0.29367776304669152 0.47658939996438732 0 -0.31611100788996133 0.47140013373736378 0 -0.29828968505444658 0.45650117841074678 0 -0.31611100788996133 0.47140013373736378 0 -0.31389932035037482 0.4551170486588702 0 -0.29828968505444658 0.45650117841074678 0 -0.27533466432155951 0.45915061776581501 0 -0.29367776304669152 0.47658939996438732 0 -0.29828968505444658 0.45650117841074678 0 -0.28835624284392719 0.44162524055372682 0 -0.27533466432155951 0.45915061776581501 0 -0.2709888351129518 0.43466726602488859 0 -0.28835624284392719 0.44162524055372682 0 -0.27533466432155951 0.45915061776581501 0 -0.2709888351129518 0.43466726602488859 0 -0.27533466432155951 0.45915061776581501 0 -0.25518496522775569 0.45020258095047289 0 -0.27533466432155951 0.45915061776581501 0 -0.25518496522775569 0.45020258095047289 0 -0.25133563139181658 0.47492646442916309 0 -0.26400966914620139 0.5 0 -0.25133563139181658 0.47492646442916309 0 -0.27529197008017009 0.48213329643187308 0 -0.26400966914620139 0.5 0 -0.25133563139181658 0.47492646442916309 0 -0.23591721579782141 0.5 0 -0.27533466432155951 0.45915061776581501 0 -0.25133563139181658 0.47492646442916309 0 -0.27529197008017009 0.48213329643187308 0 -0.26400966914620139 0.5 0 -0.27529197008017009 0.48213329643187308 0 -0.29210212249458128 0.5 0 -0.27529197008017009 0.48213329643187308 0 -0.29210212249458128 0.5 0 -0.29367776304669152 0.47658939996438732 0 -0.27533466432155951 0.45915061776581501 0 -0.27529197008017009 0.48213329643187308 0 -0.29367776304669152 0.47658939996438732 0 -0.29367776304669152 0.47658939996438732 0 -0.32019457584296118 0.5 0 -0.31611100788996133 0.47140013373736378 0 -0.29210212249458128 0.5 0 -0.29367776304669152 0.47658939996438732 0 -0.32019457584296118 0.5 0 -0.32019457584296118 0.5 0 -0.33555493154232002 0.48209813181120809 0 -0.31611100788996133 0.47140013373736378 0 -0.32019457584296118 0.5 0 -0.33555493154232002 0.48209813181120809 0 -0.34828702919134119 0.50000000000000144 0 -0.33555493154232002 0.48209813181120809 0 -0.33223002838820292 0.46459770810850709 0 -0.34577182237806198 0.47197606703724931 0 -0.33555493154232002 0.48209813181120809 0 -0.31611100788996133 0.47140013373736378 0 -0.33223002838820292 0.46459770810850709 0 -0.31389932035037482 0.4551170486588702 0 -0.32905093709809219 0.45100181669037182 0 -0.33223002838820292 0.46459770810850709 0 -0.31611100788996133 0.47140013373736378 0 -0.31389932035037482 0.4551170486588702 0 -0.33223002838820292 0.46459770810850709 0 -0.30434933919719159 0.43650268894173683 0 -0.31389932035037482 0.4551170486588702 0 -0.32031807113964089 0.44179074142891428 0 -0.31389932035037482 0.4551170486588702 0 -0.32031807113964089 0.44179074142891428 0 -0.32905093709809219 0.45100181669037182 0 -0.32031807113964089 0.44179074142891428 0 -0.32905093709809219 0.45100181669037182 0 -0.33698041715268262 0.44036666775777961 0 -0.32905093709809219 0.45100181669037182 0 -0.3418268484595598 0.45313691749778762 0 -0.33698041715268262 0.44036666775777961 0 -0.3418268484595598 0.45313691749778762 0 -0.33698041715268262 0.44036666775777961 0 -0.34730979766238518 0.44376995872755659 0 -0.32905093709809219 0.45100181669037182 0 -0.3418268484595598 0.45313691749778762 0 -0.33223002838820292 0.46459770810850709 0 -0.3418268484595598 0.45313691749778762 0 -0.33223002838820292 0.46459770810850709 0 -0.34668910871274411 0.4613105592093758 0 -0.33223002838820292 0.46459770810850709 0 -0.34668910871274411 0.4613105592093758 0 -0.34577182237806198 0.47197606703724931 0 -0.3418268484595598 0.45313691749778762 0 -0.34668910871274411 0.4613105592093758 0 -0.35889929899516909 0.44766251089007192 0 -0.34668910871274411 0.4613105592093758 0 -0.35501585988112377 0.46681481818130588 0 -0.34577182237806198 0.47197606703724931 0 -0.35501585988112377 0.46681481818130588 0 -0.35889929899516909 0.44766251089007192 0 -0.34668910871274411 0.4613105592093758 0 -0.35501585988112377 0.46681481818130588 0 -0.35889929899516909 0.44766251089007192 0 -0.3418268484595598 0.45313691749778762 0 -0.34730979766238518 0.44376995872755659 0 -0.35889929899516909 0.44766251089007192 0 -0.35153262604212798 0.43391373876458822 0 -0.33698041715268262 0.44036666775777961 0 -0.34730979766238518 0.44376995872755659 0 -0.35153262604212798 0.43391373876458822 0 -0.35889929899516909 0.44766251089007192 0 -0.35153262604212798 0.43391373876458822 0 -0.34730979766238518 0.44376995872755659 0 -0.35889929899516909 0.44766251089007192 0 -0.37613699520865612 0.43909909385515172 0 -0.36229755985309381 0.43090300100836298 0 -0.35889929899516909 0.44766251089007192 0 -0.36229755985309381 0.43090300100836298 0 -0.35889929899516909 0.44766251089007192 0 -0.37613699520865612 0.43909909385515172 0 -0.35889929899516909 0.44766251089007192 0 -0.37272917041155668 0.44869810712959818 0 -0.35889929899516909 0.44766251089007192 0 -0.37272917041155668 0.44869810712959818 0 -0.36590395687818073 0.46073563707123322 0 -0.35501585988112377 0.46681481818130588 0 -0.35889929899516909 0.44766251089007192 0 -0.36590395687818073 0.46073563707123322 0 -0.35501585988112377 0.46681481818130588 0 -0.36590395687818073 0.46073563707123322 0 -0.36345759787072701 0.47716390685690191 0 -0.35501585988112377 0.46681481818130588 0 -0.36590395687818073 0.46073563707123322 0 -0.35889929899516909 0.44766251089007192 0 -0.36590395687818073 0.46073563707123322 0 -0.37642299515177619 0.480367818535617 0 -0.36590395687818073 0.46073563707123322 0 -0.37642299515177619 0.480367818535617 0 -0.36590395687818073 0.46073563707123322 0 -0.36345759787072701 0.47716390685690191 0 -0.37642299515177619 0.480367818535617 0 -0.36345759787072701 0.47716390685690191 0 -0.36761453130835647 0.5 0 -0.36345759787072701 0.47716390685690191 0 -0.36761453130835647 0.5 0 -0.35165144453623232 0.48340740909065361 0 -0.33555493154232002 0.48209813181120809 0 -0.34828702919134119 0.50000000000000144 0 -0.35165144453623232 0.48340740909065361 0 -0.36761453130835647 0.5 0 -0.34828702919134119 0.50000000000000144 0 -0.35165144453623232 0.48340740909065361 0 -0.34828702919134119 0.50000000000000144 0 -0.35165144453623232 0.48340740909065361 0 -0.33555493154232002 0.48209813181120809 0 -0.35165144453623232 0.48340740909065361 0 -0.34577182237806198 0.47197606703724931 0 -0.35501585988112377 0.46681481818130588 0 -0.36345759787072701 0.47716390685690191 0 -0.35165144453623232 0.48340740909065361 0 -0.35501585988112377 0.46681481818130588 0 -0.35165144453623232 0.48340740909065361 0 -0.34577182237806198 0.47197606703724931 0 -0.35501585988112377 0.46681481818130588 0 -0.35165144453623232 0.48340740909065361 0 -0.35501585988112377 0.46681481818130588 0 -0.34577182237806198 0.47197606703724931 0 -0.15265211297275691 0.47984568498216668 0 -0.13430194675397261 0.48241297023048108 0 -0.13747552739470889 0.46384643373045009 0 -0.15265211297275691 0.47984568498216668 0 -0.13747552739470889 0.46384643373045009 0 -0.15265211297275691 0.47984568498216668 0 -0.13747552739470889 0.46384643373045009 0 -0.15559874170619439 0.46842994178923741 0 -0.15265211297275691 0.47984568498216668 0 -0.14347107213314289 0.49056466380316188 0 -0.13430194675397261 0.48241297023048108 0 -0.15265211297275691 0.47984568498216668 0 -0.14347107213314289 0.49056466380316188 0 -0.15633704401222531 0.5 0 -0.14347107213314289 0.49056466380316188 0 -0.13059318479361701 0.5 0 -0.15633704401222531 0.5 0 -0.14347107213314289 0.49056466380316188 0 -0.13059318479361701 0.5 0 -0.13430194675397261 0.48241297023048108 0 -0.13059318479361701 0.5 0 -0.13430194675397261 0.48241297023048108 0 -0.1169994795981979 0.48717377771602211 0 -0.13430194675397261 0.48241297023048108 0 -0.13747552739470889 0.46384643373045009 0 -0.1225507354705023 0.47128646358429888 0 -0.13747552739470889 0.46384643373045009 0 -0.132463984414837 0.44753567170505382 0 -0.13970269436204699 0.45213533814098228 0 -0.13747552739470889 0.46384643373045009 0 -0.122298941816661 0.44784718247873362 0 -0.12395304356163669 0.45919870250019101 0 -0.13747552739470889 0.46384643373045009 0 -0.122298941816661 0.44784718247873362 0 -0.13747552739470889 0.46384643373045009 0 -0.12395304356163669 0.45919870250019101 0 -0.1225507354705023 0.47128646358429888 0 -0.13747552739470889 0.46384643373045009 0 -0.132463984414837 0.44753567170505382 0 -0.122298941816661 0.44784718247873362 0 -0.1307498339847335 0.43768509305413422 0 -0.12665196774111001 0.44217415169062152 0 -0.12109511074820831 0.43562865952456448 0 -0.1307498339847335 0.43768509305413422 0 -0.12665196774111001 0.44217415169062152 0 -0.132463984414837 0.44753567170505382 0 -0.12665196774111001 0.44217415169062152 0 -0.132463984414837 0.44753567170505382 0 -0.122298941816661 0.44784718247873362 0 -0.132463984414837 0.44753567170505382 0 -0.13970269436204699 0.45213533814098228 0 -0.1409347908454992 0.44605637836696188 0 -0.1307498339847335 0.43768509305413422 0 -0.132463984414837 0.44753567170505382 0 -0.13794657077147751 0.44020549074120929 0 -0.132463984414837 0.44753567170505382 0 -0.13794657077147751 0.44020549074120929 0 -0.1409347908454992 0.44605637836696188 0 -0.1465950840034243 0.44126735060624661 0 -0.15562841990333981 0.45664007610958463 0 -0.15264776379393019 0.4298146202764096 0 -0.15562841990333981 0.45664007610958463 0 -0.15785726440106901 0.43755337691654439 0 -0.15264776379393019 0.4298146202764096 0 -0.15562841990333981 0.45664007610958463 0 -0.15264776379393019 0.4298146202764096 0 -0.13794657077147751 0.44020549074120929 0 -0.1465950840034243 0.44126735060624661 0 -0.1409347908454992 0.44605637836696188 0 -0.13794657077147751 0.44020549074120929 0 -0.1465950840034243 0.44126735060624661 0 -0.14030550951066981 0.43154331758783832 0 -0.1465950840034243 0.44126735060624661 0 -0.1409347908454992 0.44605637836696188 0 -0.1469292977077255 0.45133356603066932 0 -0.13970269436204699 0.45213533814098228 0 -0.1409347908454992 0.44605637836696188 0 -0.1469292977077255 0.45133356603066932 0 -0.1465950840034243 0.44126735060624661 0 -0.1469292977077255 0.45133356603066932 0 -0.15562841990333981 0.45664007610958463 0 -0.13747552739470889 0.46384643373045009 0 -0.15562841990333981 0.45664007610958463 0 -0.15559874170619439 0.46842994178923741 0 -0.13747552739470889 0.46384643373045009 0 -0.1469292977077255 0.45133356603066932 0 -0.15562841990333981 0.45664007610958463 0 -0.13747552739470889 0.46384643373045009 0 -0.13970269436204699 0.45213533814098228 0 -0.1469292977077255 0.45133356603066932 0 -0.15562841990333981 0.45664007610958463 0 -0.15559874170619439 0.46842994178923741 0 -0.1672415912662171 0.46657363694834553 0 -0.15562841990333981 0.45664007610958463 0 -0.1672415912662171 0.46657363694834553 0 -0.1676331591433875 0.44847323772215958 0 -0.15785726440106901 0.43755337691654439 0 -0.1676331591433875 0.44847323772215958 0 -0.1746255647054985 0.43275974049356458 0 -0.15562841990333981 0.45664007610958463 0 -0.15785726440106901 0.43755337691654439 0 -0.1676331591433875 0.44847323772215958 0 -0.1676331591433875 0.44847323772215958 0 -0.18281295544081311 0.44883935814275849 0 -0.1746255647054985 0.43275974049356458 0 -0.18281295544081311 0.44883935814275849 0 -0.175968041668013 0.47376118515559978 0 -0.1672415912662171 0.46657363694834553 0 -0.18281295544081311 0.44883935814275849 0 -0.175968041668013 0.47376118515559978 0 -0.18281295544081311 0.44883935814275849 0 -0.175968041668013 0.47376118515559978 0 -0.19714946869932151 0.46791628605248292 0 -0.1672415912662171 0.46657363694834553 0 -0.1676331591433875 0.44847323772215958 0 -0.18281295544081311 0.44883935814275849 0 -0.175968041668013 0.47376118515559978 0 -0.17026166454788461 0.49453768405365639 0 -0.175968041668013 0.47376118515559978 0 -0.17936494119945981 0.48586605490043328 0 -0.19189640205872741 0.48688059257779959 0 -0.175968041668013 0.47376118515559978 0 -0.19189640205872741 0.48688059257779959 0 -0.175968041668013 0.47376118515559978 0 -0.16499625483292191 0.48169852340906649 0 -0.17026166454788461 0.49453768405365639 0 -0.1672415912662171 0.46657363694834553 0 -0.175968041668013 0.47376118515559978 0 -0.16499625483292191 0.48169852340906649 0 -0.1672415912662171 0.46657363694834553 0 -0.175968041668013 0.47376118515559978 0 -0.15265211297275691 0.47984568498216668 0 -0.15559874170619439 0.46842994178923741 0 -0.16499625483292191 0.48169852340906649 0 -0.15559874170619439 0.46842994178923741 0 -0.1672415912662171 0.46657363694834553 0 -0.16499625483292191 0.48169852340906649 0 -0.15633704401222531 0.5 0 -0.17026166454788461 0.49453768405365639 0 -0.18208090323083331 0.5 0 -0.15265211297275691 0.47984568498216668 0 -0.16499625483292191 0.48169852340906649 0 -0.15633704401222531 0.5 0 -0.16499625483292191 0.48169852340906649 0 -0.15633704401222531 0.5 0 -0.17026166454788461 0.49453768405365639 0 -0.17026166454788461 0.49453768405365639 0 -0.17936494119945981 0.48586605490043328 0 -0.18208090323083331 0.5 0 -0.175968041668013 0.47376118515559978 0 -0.17026166454788461 0.49453768405365639 0 -0.17936494119945981 0.48586605490043328 0 -0.17936494119945981 0.48586605490043328 0 -0.18208090323083331 0.5 0 -0.19189640205872741 0.48688059257779959 0 -0.18208090323083331 0.5 0 -0.19189640205872741 0.48688059257779959 0 -0.20782476244944151 0.49999999999999961 0 -0.19189640205872741 0.48688059257779959 0 -0.20782476244944151 0.49999999999999961 0 -0.175968041668013 0.47376118515559978 0 -0.19189640205872741 0.48688059257779959 0 -0.19714946869932151 0.46791628605248292 0 -0.19189640205872741 0.48688059257779959 0 -0.21375736159005651 0.48332425195768258 0 -0.19714946869932151 0.46791628605248292 0 -0.21375736159005651 0.48332425195768258 0 -0.21673886819483859 0.46555398361810868 0 -0.19714946869932151 0.46791628605248292 0 -0.19189640205872741 0.48688059257779959 0 -0.21375736159005651 0.48332425195768258 0 -0.20782476244944151 0.49999999999999961 0 -0.21375736159005651 0.48332425195768258 0 -0.23204683190571521 0.47875537198621088 0 -0.23591721579782141 0.5 0 -0.21375736159005651 0.48332425195768258 0 -0.20782476244944151 0.49999999999999961 0 -0.23591721579782141 0.5 0 -0.21375736159005651 0.48332425195768258 0 -0.23204683190571521 0.47875537198621088 0 -0.21673886819483859 0.46555398361810868 0 -0.23204683190571521 0.47875537198621088 0 -0.2340212723654376 0.46265366002587027 0 -0.21673886819483859 0.46555398361810868 0 -0.25133563139181658 0.47492646442916309 0 -0.23204683190571521 0.47875537198621088 0 -0.2340212723654376 0.46265366002587027 0 -0.25133563139181658 0.47492646442916309 0 -0.23204683190571521 0.47875537198621088 0 -0.23591721579782141 0.5 0 -0.25518496522775569 0.45020258095047289 0 -0.23609632476257289 0.44522803518139198 0 -0.2340212723654376 0.46265366002587027 0 -0.25518496522775569 0.45020258095047289 0 -0.23609632476257289 0.44522803518139198 0 -0.24807017279911869 0.4246869967332732 0 -0.25518496522775569 0.45020258095047289 0 -0.25133563139181658 0.47492646442916309 0 -0.2340212723654376 0.46265366002587027 0 -0.2340212723654376 0.46265366002587027 0 -0.22315382452829799 0.4510080217706236 0 -0.21673886819483859 0.46555398361810868 0 -0.23609632476257289 0.44522803518139198 0 -0.22315382452829799 0.4510080217706236 0 -0.22289847750385411 0.4298172581599532 0 -0.23609632476257289 0.44522803518139198 0 -0.2340212723654376 0.46265366002587027 0 -0.22315382452829799 0.4510080217706236 0 -0.22315382452829799 0.4510080217706236 0 -0.2074602817437351 0.4489290236665428 0 -0.22289847750385411 0.4298172581599532 0 -0.22315382452829799 0.4510080217706236 0 -0.2074602817437351 0.4489290236665428 0 -0.21673886819483859 0.46555398361810868 0 -0.2074602817437351 0.4489290236665428 0 -0.21673886819483859 0.46555398361810868 0 -0.19714946869932151 0.46791628605248292 0 -0.18281295544081311 0.44883935814275849 0 -0.2074602817437351 0.4489290236665428 0 -0.19714946869932151 0.46791628605248292 0 -0.18281295544081311 0.44883935814275849 0 -0.2074602817437351 0.4489290236665428 0 -0.20547722393483389 0.43138015361235948 0 -0.18281295544081311 0.44883935814275849 0 -0.1896578692136133 0.42391753112991731 0 -0.20547722393483389 0.43138015361235948 0 -0.1896578692136133 0.42391753112991731 0 -0.20970063024513519 0.41440648113851442 0 -0.20547722393483389 0.43138015361235948 0 -0.1896578692136133 0.42391753112991731 0 -0.19650278298641541 0.39899570411707641 0 -0.1896578692136133 0.42391753112991731 0 -0.20970063024513519 0.41440648113851442 0 -0.19650278298641541 0.39899570411707641 0 -0.20970063024513519 0.41440648113851442 0 -0.19650278298641541 0.39899570411707641 0 -0.20970063024513519 0.41440648113851442 0 -0.22906209804132091 0.40628365969712399 0 -0.21229493205633931 0.40063802405702759 0 -0.2074602817437351 0.4489290236665428 0 -0.20547722393483389 0.43138015361235948 0 -0.22289847750385411 0.4298172581599532 0 -0.20970063024513519 0.41440648113851442 0 -0.20547722393483389 0.43138015361235948 0 -0.22289847750385411 0.4298172581599532 0 -0.20970063024513519 0.41440648113851442 0 -0.22289847750385411 0.4298172581599532 0 -0.23609632476257289 0.44522803518139198 0 -0.22289847750385411 0.4298172581599532 0 -0.22289847750385411 0.4298172581599532 0 -0.22906209804132091 0.40628365969712399 0 -0.24807017279911869 0.4246869967332732 0 -0.20970063024513519 0.41440648113851442 0 -0.22289847750385411 0.4298172581599532 0 -0.22906209804132091 0.40628365969712399 0 -0.22906209804132091 0.40628365969712399 0 -0.24807017279911869 0.4246869967332732 0 -0.24959503606779609 0.39731151611412452 0 -0.23609632476257289 0.44522803518139198 0 -0.22289847750385411 0.4298172581599532 0 -0.24807017279911869 0.4246869967332732 0 -0.25182284239910208 0.37496965679306948 0 -0.24080496398569071 0.37504896525812098 0 -0.24959503606779609 0.39731151611412452 0 -0.24080496398569071 0.37504896525812098 0 -0.24959503606779609 0.39731151611412452 0 -0.2279832088349506 0.38531504835846331 0 -0.24959503606779609 0.39731151611412452 0 -0.2279832088349506 0.38531504835846331 0 -0.22906209804132091 0.40628365969712399 0 -0.24959503606779609 0.39731151611412452 0 -0.2279832088349506 0.38531504835846331 0 -0.22906209804132091 0.40628365969712399 0 -0.22102081017827421 0.3955726601995932 0 -0.21229493205633931 0.40063802405702759 0 -0.22906209804132091 0.40628365969712399 0 -0.22102081017827421 0.3955726601995932 0 -0.2279832088349506 0.38531504835846331 0 -0.2279832088349506 0.38531504835846331 0 -0.23160440219217321 0.37743974560876709 0 -0.20671669589684011 0.37286136949259302 0 -0.23160440219217321 0.37743974560876709 0 -0.20671669589684011 0.37286136949259302 0 -0.22102081017827421 0.3955726601995932 0 -0.2279832088349506 0.38531504835846331 0 -0.21858966960632159 0.38785769975747503 0 -0.24080496398569071 0.37504896525812098 0 -0.2279832088349506 0.38531504835846331 0 -0.23160440219217321 0.37743974560876709 0 -0.21858966960632159 0.38785769975747503 0 -0.2117275690134624 0.38824041511800023 0 -0.20496826091030709 0.37253972502732891 0 -0.2279832088349506 0.38531504835846331 0 -0.20671669589684011 0.37286136949259302 0 -0.20496826091030709 0.37253972502732891 0 -0.2279832088349506 0.38531504835846331 0 -0.20496826091030709 0.37253972502732891 0 -0.2117275690134624 0.38824041511800023 0 -0.20526603114802061 0.39319256802175989 0 -0.20496826091030709 0.37253972502732891 0 -0.2279832088349506 0.38531504835846331 0 -0.21858966960632159 0.38785769975747503 0 -0.20496826091030709 0.37253972502732891 0 -0.21858966960632159 0.38785769975747503 0 -0.2117275690134624 0.38824041511800023 0 -0.2125898105148219 0.39393719961835072 0 -0.21229493205633931 0.40063802405702759 0 -0.20526603114802061 0.39319256802175989 0 -0.19650278298641541 0.39899570411707641 0 -0.20970063024513519 0.41440648113851442 0 -0.21229493205633931 0.40063802405702759 0 -0.19650278298641541 0.39899570411707641 0 -0.22102081017827421 0.3955726601995932 0 -0.21229493205633931 0.40063802405702759 0 -0.2125898105148219 0.39393719961835072 0 -0.22102081017827421 0.3955726601995932 0 -0.21858966960632159 0.38785769975747503 0 -0.2125898105148219 0.39393719961835072 0 -0.2117275690134624 0.38824041511800023 0 -0.2125898105148219 0.39393719961835072 0 -0.20526603114802061 0.39319256802175989 0 -0.21229493205633931 0.40063802405702759 0 -0.2125898105148219 0.39393719961835072 0 -0.20526603114802061 0.39319256802175989 0 -0.19650278298641541 0.39899570411707641 0 -0.19144174633125541 0.39308606553276199 0 -0.17464950536616131 0.41531972122465249 0 -0.20526603114802061 0.39319256802175989 0 -0.19650278298641541 0.39899570411707641 0 -0.1974221731652622 0.39564827217635168 0 -0.20526603114802061 0.39319256802175989 0 -0.1974221731652622 0.39564827217635168 0 -0.19144174633125541 0.39308606553276199 0 -0.19650278298641541 0.39899570411707641 0 -0.1974221731652622 0.39564827217635168 0 -0.19650278298641541 0.39899570411707641 0 -0.1974221731652622 0.39564827217635168 0 -0.19144174633125541 0.39308606553276199 0 -0.19650278298641541 0.39899570411707641 0 -0.19144174633125541 0.39308606553276199 0 -0.20526603114802061 0.39319256802175989 0 -0.19144174633125541 0.39308606553276199 0 -0.20496826091030709 0.37253972502732891 0 -0.19144174633125541 0.39308606553276199 0 -0.20496826091030709 0.37253972502732891 0 -0.19144174633125541 0.39308606553276199 0 -0.195167100369181 0.37830450832048129 0 -0.20496826091030709 0.37253972502732891 0 -0.19144174633125541 0.39308606553276199 0 -0.195167100369181 0.37830450832048129 0 -0.1878316179084282 0.37912671641195728 0 -0.195167100369181 0.37830450832048129 0 -0.1878316179084282 0.37912671641195728 0 -0.18819825675641019 0.36945469237806688 0 -0.17651936817686589 0.37566159941651928 0 -0.17147516220972481 0.38622171172405589 0 -0.17746643349988331 0.39285526360617012 0 -0.19144174633125541 0.39308606553276199 0 -0.1878316179084282 0.37912671641195728 0 -0.17651936817686589 0.37566159941651928 0 -0.19144174633125541 0.39308606553276199 0 -0.17651936817686589 0.37566159941651928 0 -0.17746643349988331 0.39285526360617012 0 -0.19144174633125541 0.39308606553276199 0 -0.17651936817686589 0.37566159941651928 0 -0.17147516220972481 0.38622171172405589 0 -0.1617087119878175 0.38219890732045869 0 -0.1662886449494394 0.39858252474940109 0 -0.17651936817686589 0.37566159941651928 0 -0.17147516220972481 0.38622171172405589 0 -0.1617087119878175 0.38219890732045869 0 -0.1662886449494394 0.39858252474940109 0 -0.16022205723902411 0.4168518815220485 0 -0.14966710768452049 0.40298916444323463 0 -0.1617087119878175 0.38219890732045869 0 -0.1662886449494394 0.39858252474940109 0 -0.14966710768452049 0.40298916444323463 0 -0.17147516220972481 0.38622171172405589 0 -0.1662886449494394 0.39858252474940109 0 -0.17746643349988331 0.39285526360617012 0 -0.19144174633125541 0.39308606553276199 0 -0.17746643349988331 0.39285526360617012 0 -0.17464950536616131 0.41531972122465249 0 -0.1662886449494394 0.39858252474940109 0 -0.17746643349988331 0.39285526360617012 0 -0.17464950536616131 0.41531972122465249 0 -0.19144174633125541 0.39308606553276199 0 -0.17464950536616131 0.41531972122465249 0 -0.1896578692136133 0.42391753112991731 0 -0.19650278298641541 0.39899570411707641 0 -0.17464950536616131 0.41531972122465249 0 -0.18281295544081311 0.44883935814275849 0 -0.1896578692136133 0.42391753112991731 0 -0.1746255647054985 0.43275974049356458 0 -0.1896578692136133 0.42391753112991731 0 -0.17464950536616131 0.41531972122465249 0 -0.1746255647054985 0.43275974049356458 0 -0.18281295544081311 0.44883935814275849 0 -0.1896578692136133 0.42391753112991731 0 -0.15785726440106901 0.43755337691654439 0 -0.16022205723902411 0.4168518815220485 0 -0.15264776379393019 0.4298146202764096 0 -0.15785726440106901 0.43755337691654439 0 -0.17464950536616131 0.41531972122465249 0 -0.15785726440106901 0.43755337691654439 0 -0.17464950536616131 0.41531972122465249 0 -0.16022205723902411 0.4168518815220485 0 -0.15785726440106901 0.43755337691654439 0 -0.17464950536616131 0.41531972122465249 0 -0.1746255647054985 0.43275974049356458 0 -0.1662886449494394 0.39858252474940109 0 -0.17464950536616131 0.41531972122465249 0 -0.16022205723902411 0.4168518815220485 0 -0.15264776379393019 0.4298146202764096 0 -0.14966710768452049 0.40298916444323463 0 -0.15264776379393019 0.4298146202764096 0 -0.1392250283783377 0.41795567766486402 0 -0.14966710768452049 0.40298916444323463 0 -0.16022205723902411 0.4168518815220485 0 -0.15264776379393019 0.4298146202764096 0 -0.14966710768452049 0.40298916444323463 0 -0.15264776379393019 0.4298146202764096 0 -0.14030550951066981 0.43154331758783832 0 -0.1392250283783377 0.41795567766486402 0 -0.1465950840034243 0.44126735060624661 0 -0.15264776379393019 0.4298146202764096 0 -0.14030550951066981 0.43154331758783832 0 -0.1307498339847335 0.43768509305413422 0 -0.13794657077147751 0.44020549074120929 0 -0.14030550951066981 0.43154331758783832 0 -0.1307498339847335 0.43768509305413422 0 -0.14030550951066981 0.43154331758783832 0 -0.12913489323789129 0.42714943008194067 0 -0.14030550951066981 0.43154331758783832 0 -0.12913489323789129 0.42714943008194067 0 -0.1392250283783377 0.41795567766486402 0 -0.1307498339847335 0.43768509305413422 0 -0.12913489323789129 0.42714943008194067 0 -0.12109511074820831 0.43562865952456448 0 -0.1392250283783377 0.41795567766486402 0 -0.12759898458538449 0.40317141248719779 0 -0.14966710768452049 0.40298916444323463 0 -0.12913489323789129 0.42714943008194067 0 -0.1392250283783377 0.41795567766486402 0 -0.1248681165373486 0.41536467979602459 0 -0.1392250283783377 0.41795567766486402 0 -0.12759898458538449 0.40317141248719779 0 -0.1248681165373486 0.41536467979602459 0 -0.12759898458538449 0.40317141248719779 0 -0.1295701617381706 0.38293919674623339 0 -0.14966710768452049 0.40298916444323463 0 -0.1295701617381706 0.38293919674623339 0 -0.1466864515751127 0.37616370861005949 0 -0.1295701617381706 0.38293919674623339 0 -0.1466864515751127 0.37616370861005949 0 -0.13594070032146741 0.37253126829786892 0 -0.1466864515751127 0.37616370861005949 0 -0.14966710768452049 0.40298916444323463 0 -0.1295701617381706 0.38293919674623339 0 -0.1466864515751127 0.37616370861005949 0 -0.14966710768452049 0.40298916444323463 0 -0.1617087119878175 0.38219890732045869 0 -0.1466864515751127 0.37616370861005949 0 -0.14966710768452049 0.40298916444323463 0 -0.14266882171832529 0.35156415323442181 0 -0.1527205183088243 0.34353762572902541 0 -0.157601823481472 0.3534774261881703 0 -0.14266882171832529 0.35156415323442181 0 -0.1514692722446343 0.36269797870326881 0 -0.157601823481472 0.3534774261881703 0 -0.1466864515751127 0.37616370861005949 0 -0.14637680743537171 0.37337695801231269 0 -0.17142825260251299 0.36636965972880581 0 -0.14637680743537171 0.37337695801231269 0 -0.14164535240799569 0.36424044454525312 0 -0.13594070032146741 0.37253126829786892 0 -0.1466864515751127 0.37616370861005949 0 -0.14637680743537171 0.37337695801231269 0 -0.13594070032146741 0.37253126829786892 0 -0.1466864515751127 0.37616370861005949 0 -0.14637680743537171 0.37337695801231269 0 -0.14266882171832529 0.35156415323442181 0 -0.1514692722446343 0.36269797870326881 0 -0.14164535240799569 0.36424044454525312 0 -0.1514692722446343 0.36269797870326881 0 -0.14637680743537171 0.37337695801231269 0 -0.14164535240799569 0.36424044454525312 0 -0.14164535240799569 0.36424044454525312 0 -0.13594070032146741 0.37253126829786892 0 -0.13216171515812411 0.35971587461028698 0 -0.1295701617381706 0.38293919674623339 0 -0.13594070032146741 0.37253126829786892 0 -0.12568769255360029 0.36815307557729582 0 -0.13594070032146741 0.37253126829786892 0 -0.12568769255360029 0.36815307557729582 0 -0.13216171515812411 0.35971587461028698 0 -0.13216171515812411 0.35971587461028698 0 -0.12830973963933351 0.3461500861297368 0 -0.1171826894748457 0.35234436687975762 0 -0.14266882171832529 0.35156415323442181 0 -0.14164535240799569 0.36424044454525312 0 -0.13216171515812411 0.35971587461028698 0 -0.14266882171832529 0.35156415323442181 0 -0.13216171515812411 0.35971587461028698 0 -0.12830973963933351 0.3461500861297368 0 -0.14266882171832529 0.35156415323442181 0 -0.12830973963933351 0.3461500861297368 0 -0.13313333021521651 0.32991703897271768 0 -0.13313333021521651 0.32991703897271768 0 -0.15151224571844829 0.31564709061656582 0 -0.13015672938023479 0.30575434878206598 0 -0.13313333021521651 0.32991703897271768 0 -0.15151224571844829 0.31564709061656582 0 -0.1527205183088243 0.34353762572902541 0 -0.14266882171832529 0.35156415323442181 0 -0.13313333021521651 0.32991703897271768 0 -0.1527205183088243 0.34353762572902541 0 -0.15151224571844829 0.31564709061656582 0 -0.1527205183088243 0.34353762572902541 0 -0.16561752219612499 0.3386908852490253 0 -0.15151224571844829 0.31564709061656582 0 -0.17448904820026939 0.32892628110333838 0 -0.15151224571844829 0.31564709061656582 0 -0.16561752219612499 0.3386908852490253 0 -0.17448904820026939 0.32892628110333838 0 -0.15151224571844829 0.31564709061656582 0 -0.17448904820026939 0.32892628110333838 0 -0.17489300172595981 0.30970226238793003 0 -0.17448904820026939 0.32892628110333838 0 -0.18909290852124849 0.32290901008418482 0 -0.17489300172595981 0.30970226238793003 0 -0.18909290852124849 0.32290901008418482 0 -0.19567339875991269 0.31036835701374749 0 -0.17489300172595981 0.30970226238793003 0 -0.17448904820026939 0.32892628110333838 0 -0.1974658506820906 0.342205471590111 0 -0.17448904820026939 0.32892628110333838 0 -0.18158219490261521 0.34655724369540691 0 -0.1974658506820906 0.342205471590111 0 -0.17448904820026939 0.32892628110333838 0 -0.1974658506820906 0.342205471590111 0 -0.18909290852124849 0.32290901008418482 0 -0.16561752219612499 0.3386908852490253 0 -0.17448904820026939 0.32892628110333838 0 -0.18158219490261521 0.34655724369540691 0 -0.16561752219612499 0.3386908852490253 0 -0.18158219490261521 0.34655724369540691 0 -0.16861928578714289 0.35236284209566998 0 -0.18158219490261521 0.34655724369540691 0 -0.16861928578714289 0.35236284209566998 0 -0.18451805326546081 0.36118805846231578 0 -0.16861928578714289 0.35236284209566998 0 -0.18451805326546081 0.36118805846231578 0 -0.1527205183088243 0.34353762572902541 0 -0.16861928578714289 0.35236284209566998 0 -0.157601823481472 0.3534774261881703 0 -0.1527205183088243 0.34353762572902541 0 -0.16861928578714289 0.35236284209566998 0 -0.1527205183088243 0.34353762572902541 0 -0.16561752219612499 0.3386908852490253 0 -0.16861928578714289 0.35236284209566998 0 -0.16861928578714289 0.35236284209566998 0 -0.157601823481472 0.3534774261881703 0 -0.17142825260251299 0.36636965972880581 0 -0.1514692722446343 0.36269797870326881 0 -0.17142825260251299 0.36636965972880581 0 -0.1514692722446343 0.36269797870326881 0 -0.157601823481472 0.3534774261881703 0 -0.17142825260251299 0.36636965972880581 0 -0.1514692722446343 0.36269797870326881 0 -0.14637680743537171 0.37337695801231269 0 -0.17142825260251299 0.36636965972880581 0 -0.1617087119878175 0.38219890732045869 0 -0.1466864515751127 0.37616370861005949 0 -0.17142825260251299 0.36636965972880581 0 -0.17651936817686589 0.37566159941651928 0 -0.1617087119878175 0.38219890732045869 0 -0.17142825260251299 0.36636965972880581 0 -0.1466864515751127 0.37616370861005949 0 -0.17142825260251299 0.36636965972880581 0 -0.17142825260251299 0.36636965972880581 0 -0.18819825675641019 0.36945469237806688 0 -0.17142825260251299 0.36636965972880581 0 -0.18451805326546081 0.36118805846231578 0 -0.18819825675641019 0.36945469237806688 0 -0.17651936817686589 0.37566159941651928 0 -0.17142825260251299 0.36636965972880581 0 -0.18819825675641019 0.36945469237806688 0 -0.16861928578714289 0.35236284209566998 0 -0.17142825260251299 0.36636965972880581 0 -0.18451805326546081 0.36118805846231578 0 -0.17142825260251299 0.36636965972880581 0 -0.18451805326546081 0.36118805846231578 0 -0.1878316179084282 0.37912671641195728 0 -0.17651936817686589 0.37566159941651928 0 -0.18819825675641019 0.36945469237806688 0 -0.18451805326546081 0.36118805846231578 0 -0.20159113038146151 0.36276042180205498 0 -0.20496826091030709 0.37253972502732891 0 -0.18451805326546081 0.36118805846231578 0 -0.18819825675641019 0.36945469237806688 0 -0.20496826091030709 0.37253972502732891 0 -0.18451805326546081 0.36118805846231578 0 -0.20159113038146151 0.36276042180205498 0 -0.1988422269884785 0.35551783027353617 0 -0.18451805326546081 0.36118805846231578 0 -0.20496826091030709 0.37253972502732891 0 -0.195167100369181 0.37830450832048129 0 -0.18819825675641019 0.36945469237806688 0 -0.20496826091030709 0.37253972502732891 0 -0.18819825675641019 0.36945469237806688 0 -0.20496826091030709 0.37253972502732891 0 -0.1988422269884785 0.35551783027353617 0 -0.20821268145672989 0.35791512860768793 0 -0.1974658506820906 0.342205471590111 0 -0.18158219490261521 0.34655724369540691 0 -0.18451805326546081 0.36118805846231578 0 -0.1988422269884785 0.35551783027353617 0 -0.18158219490261521 0.34655724369540691 0 -0.1988422269884785 0.35551783027353617 0 -0.1974658506820906 0.342205471590111 0 -0.18451805326546081 0.36118805846231578 0 -0.1988422269884785 0.35551783027353617 0 -0.20159113038146151 0.36276042180205498 0 -0.1988422269884785 0.35551783027353617 0 -0.20821268145672989 0.35791512860768793 0 -0.20821268145672989 0.35791512860768793 0 -0.2204426531639119 0.35548466207688367 0 -0.1974658506820906 0.342205471590111 0 -0.2204426531639119 0.35548466207688367 0 -0.1974658506820906 0.342205471590111 0 -0.2204426531639119 0.35548466207688367 0 -0.21896646906233 0.34488598531708109 0 -0.1974658506820906 0.342205471590111 0 -0.20821268145672989 0.35791512860768793 0 -0.21669580801476471 0.36249235541415747 0 -0.2204426531639119 0.35548466207688367 0 -0.20671669589684011 0.37286136949259302 0 -0.21764261693239789 0.36825054000802798 0 -0.22601007317465879 0.37364315378659152 0 -0.20159113038146151 0.36276042180205498 0 -0.20496826091030709 0.37253972502732891 0 -0.21141442928633039 0.36664136663940761 0 -0.20671669589684011 0.37286136949259302 0 -0.21141442928633039 0.36664136663940761 0 -0.20671669589684011 0.37286136949259302 0 -0.20496826091030709 0.37253972502732891 0 -0.21141442928633039 0.36664136663940761 0 -0.20671669589684011 0.37286136949259302 0 -0.20496826091030709 0.37253972502732891 0 -0.20159113038146151 0.36276042180205498 0 -0.20821268145672989 0.35791512860768793 0 -0.21141442928633039 0.36664136663940761 0 -0.20821268145672989 0.35791512860768793 0 -0.21141442928633039 0.36664136663940761 0 -0.21669580801476471 0.36249235541415747 0 -0.21141442928633039 0.36664136663940761 0 -0.21669580801476471 0.36249235541415747 0 -0.21764261693239789 0.36825054000802798 0 -0.20671669589684011 0.37286136949259302 0 -0.21141442928633039 0.36664136663940761 0 -0.21764261693239789 0.36825054000802798 0 -0.23160440219217321 0.37743974560876709 0 -0.20671669589684011 0.37286136949259302 0 -0.22601007317465879 0.37364315378659152 0 -0.21764261693239789 0.36825054000802798 0 -0.22601007317465879 0.37364315378659152 0 -0.2257666592344533 0.36417007973878007 0 -0.23160440219217321 0.37743974560876709 0 -0.22601007317465879 0.37364315378659152 0 -0.23198973446214929 0.36987628381968579 0 -0.22601007317465879 0.37364315378659152 0 -0.23198973446214929 0.36987628381968579 0 -0.2257666592344533 0.36417007973878007 0 -0.23390177121524999 0.36195366154257941 0 -0.2257666592344533 0.36417007973878007 0 -0.22967495102230201 0.35365068658084048 0 -0.23198973446214929 0.36987628381968579 0 -0.23390177121524999 0.36195366154257941 0 -0.2257666592344533 0.36417007973878007 0 -0.23198973446214929 0.36987628381968579 0 -0.23390177121524999 0.36195366154257941 0 -0.2371720930947416 0.36592300569940611 0 -0.21669580801476471 0.36249235541415747 0 -0.21764261693239789 0.36825054000802798 0 -0.2257666592344533 0.36417007973878007 0 -0.21669580801476471 0.36249235541415747 0 -0.2257666592344533 0.36417007973878007 0 -0.2204426531639119 0.35548466207688367 0 -0.2257666592344533 0.36417007973878007 0 -0.2204426531639119 0.35548466207688367 0 -0.22967495102230201 0.35365068658084048 0 -0.21896646906233 0.34488598531708109 0 -0.22967495102230201 0.35365068658084048 0 -0.22688419040859789 0.33973657754901199 0 -0.2204426531639119 0.35548466207688367 0 -0.21896646906233 0.34488598531708109 0 -0.22967495102230201 0.35365068658084048 0 -0.22967495102230201 0.35365068658084048 0 -0.23621708026014299 0.35525026277754912 0 -0.2347543792317531 0.34567913052946181 0 -0.22967495102230201 0.35365068658084048 0 -0.2347543792317531 0.34567913052946181 0 -0.22688419040859789 0.33973657754901199 0 -0.23390177121524999 0.36195366154257941 0 -0.22967495102230201 0.35365068658084048 0 -0.23621708026014299 0.35525026277754912 0 -0.24129669962091529 0.35234764207603581 0 -0.24634500562581699 0.35522147955953631 0 -0.2385664658395906 0.32717902618348449 0 -0.25184762069606181 0.32948502420814602 0 -0.24925566175548719 0.35427403632965981 0 -0.24634500562581699 0.35522147955953631 0 -0.23621708026014299 0.35525026277754912 0 -0.24129669962091529 0.35234764207603581 0 -0.24145760021049481 0.36262019315882832 0 -0.23621708026014299 0.35525026277754912 0 -0.24129669962091529 0.35234764207603581 0 -0.2347543792317531 0.34567913052946181 0 -0.24129669962091529 0.35234764207603581 0 -0.24634500562581699 0.35522147955953631 0 -0.24145760021049481 0.36262019315882832 0 -0.24129669962091529 0.35234764207603581 0 -0.24634500562581699 0.35522147955953631 0 -0.25182284239910208 0.37496965679306948 0 -0.24634500562581699 0.35522147955953631 0 -0.24145760021049481 0.36262019315882832 0 -0.25182284239910208 0.37496965679306948 0 -0.24634500562581699 0.35522147955953631 0 -0.25182284239910208 0.37496965679306948 0 -0.24080496398569071 0.37504896525812098 0 -0.24145760021049481 0.36262019315882832 0 -0.24080496398569071 0.37504896525812098 0 -0.23198973446214929 0.36987628381968579 0 -0.2371720930947416 0.36592300569940611 0 -0.24080496398569071 0.37504896525812098 0 -0.2371720930947416 0.36592300569940611 0 -0.24145760021049481 0.36262019315882832 0 -0.24080496398569071 0.37504896525812098 0 -0.23160440219217321 0.37743974560876709 0 -0.23198973446214929 0.36987628381968579 0 -0.23390177121524999 0.36195366154257941 0 -0.2371720930947416 0.36592300569940611 0 -0.24145760021049481 0.36262019315882832 0 -0.23390177121524999 0.36195366154257941 0 -0.23621708026014299 0.35525026277754912 0 -0.24145760021049481 0.36262019315882832 0 -0.2385664658395906 0.32717902618348449 0 -0.2307879260533654 0.29913657280743228 0 -0.2385664658395906 0.32717902618348449 0 -0.241317773374714 0.31431079850778892 0 -0.2307879260533654 0.29913657280743228 0 -0.25221460354684649 0.31745922199860271 0 -0.241317773374714 0.31431079850778892 0 -0.24984746391295079 0.30843565107058613 0 -0.25184762069606181 0.32948502420814602 0 -0.25221460354684649 0.31745922199860271 0 -0.241317773374714 0.31431079850778892 0 -0.25184762069606181 0.32948502420814602 0 -0.2385664658395906 0.32717902618348449 0 -0.241317773374714 0.31431079850778892 0 -0.25184762069606181 0.32948502420814602 0 -0.241317773374714 0.31431079850778892 0 -0.24634500562581699 0.35522147955953631 0 -0.2385664658395906 0.32717902618348449 0 -0.24129669962091529 0.35234764207603581 0 -0.2347543792317531 0.34567913052946181 0 -0.2385664658395906 0.32717902618348449 0 -0.25184762069606181 0.32948502420814602 0 -0.24634500562581699 0.35522147955953631 0 -0.2385664658395906 0.32717902618348449 0 -0.2347543792317531 0.34567913052946181 0 -0.2385664658395906 0.32717902618348449 0 -0.22688419040859789 0.33973657754901199 0 -0.2385664658395906 0.32717902618348449 0 -0.22688419040859789 0.33973657754901199 0 -0.22523228319514871 0.32811003691224122 0 -0.21896646906233 0.34488598531708109 0 -0.22688419040859789 0.33973657754901199 0 -0.21413259508258711 0.33402599179281839 0 -0.22688419040859789 0.33973657754901199 0 -0.22523228319514871 0.32811003691224122 0 -0.21413259508258711 0.33402599179281839 0 -0.2385664658395906 0.32717902618348449 0 -0.22561741003408711 0.31703151692126452 0 -0.2307879260533654 0.29913657280743228 0 -0.22523228319514871 0.32811003691224122 0 -0.22561741003408711 0.31703151692126452 0 -0.21542595582974969 0.32113326269223791 0 -0.2385664658395906 0.32717902618348449 0 -0.22523228319514871 0.32811003691224122 0 -0.22561741003408711 0.31703151692126452 0 -0.22561741003408711 0.31703151692126452 0 -0.21542595582974969 0.32113326269223791 0 -0.21832597234828929 0.30721255413599052 0 -0.21542595582974969 0.32113326269223791 0 -0.2075031217602514 0.30996190255031181 0 -0.21832597234828929 0.30721255413599052 0 -0.22523228319514871 0.32811003691224122 0 -0.21542595582974969 0.32113326269223791 0 -0.21413259508258711 0.33402599179281839 0 -0.21542595582974969 0.32113326269223791 0 -0.21413259508258711 0.33402599179281839 0 -0.2029432432380103 0.32334267832579688 0 -0.21542595582974969 0.32113326269223791 0 -0.2029432432380103 0.32334267832579688 0 -0.2075031217602514 0.30996190255031181 0 -0.21896646906233 0.34488598531708109 0 -0.21413259508258711 0.33402599179281839 0 -0.1974658506820906 0.342205471590111 0 -0.21413259508258711 0.33402599179281839 0 -0.1974658506820906 0.342205471590111 0 -0.2029432432380103 0.32334267832579688 0 -0.1974658506820906 0.342205471590111 0 -0.2029432432380103 0.32334267832579688 0 -0.18909290852124849 0.32290901008418482 0 -0.2029432432380103 0.32334267832579688 0 -0.18909290852124849 0.32290901008418482 0 -0.19567339875991269 0.31036835701374749 0 -0.2029432432380103 0.32334267832579688 0 -0.19567339875991269 0.31036835701374749 0 -0.2075031217602514 0.30996190255031181 0 -0.20181395487052389 0.29822765186018629 0 -0.19567339875991269 0.31036835701374749 0 -0.18585898263098341 0.29478354421809738 0 -0.20181395487052389 0.29822765186018629 0 -0.19567339875991269 0.31036835701374749 0 -0.2075031217602514 0.30996190255031181 0 -0.20181395487052389 0.29822765186018629 0 -0.19995212896080031 0.28419700110262203 0 -0.18585898263098341 0.29478354421809738 0 -0.19995212896080031 0.28419700110262203 0 -0.1863387009100084 0.27688532965625462 0 -0.18585898263098341 0.29478354421809738 0 -0.19995212896080031 0.28419700110262203 0 -0.2101489963232395 0.28978200648685443 0 -0.20943459683405191 0.28083608453519843 0 -0.20181395487052389 0.29822765186018629 0 -0.2101489963232395 0.28978200648685443 0 -0.21174710078795661 0.30027309978948469 0 -0.20181395487052389 0.29822765186018629 0 -0.19995212896080031 0.28419700110262203 0 -0.2101489963232395 0.28978200648685443 0 -0.2101489963232395 0.28978200648685443 0 -0.21174710078795661 0.30027309978948469 0 -0.21887431962432591 0.29573897005521188 0 -0.2101489963232395 0.28978200648685443 0 -0.21887431962432591 0.29573897005521188 0 -0.21947506270184461 0.28283396778624958 0 -0.2101489963232395 0.28978200648685443 0 -0.21947506270184461 0.28283396778624958 0 -0.20943459683405191 0.28083608453519843 0 -0.20181395487052389 0.29822765186018629 0 -0.2075031217602514 0.30996190255031181 0 -0.21174710078795661 0.30027309978948469 0 -0.21174710078795661 0.30027309978948469 0 -0.21832597234828929 0.30721255413599052 0 -0.21887431962432591 0.29573897005521188 0 -0.2075031217602514 0.30996190255031181 0 -0.21174710078795661 0.30027309978948469 0 -0.21832597234828929 0.30721255413599052 0 -0.22561741003408711 0.31703151692126452 0 -0.21832597234828929 0.30721255413599052 0 -0.2307879260533654 0.29913657280743228 0 -0.21832597234828929 0.30721255413599052 0 -0.2307879260533654 0.29913657280743228 0 -0.21887431962432591 0.29573897005521188 0 -0.2307879260533654 0.29913657280743228 0 -0.22617215281344141 0.28249622520592321 0 -0.21947506270184461 0.28283396778624958 0 -0.2307879260533654 0.29913657280743228 0 -0.21887431962432591 0.29573897005521188 0 -0.21947506270184461 0.28283396778624958 0 -0.2307879260533654 0.29913657280743228 0 -0.22617215281344141 0.28249622520592321 0 -0.23255297254558219 0.28491131901306221 0 -0.2307879260533654 0.29913657280743228 0 -0.22617215281344141 0.28249622520592321 0 -0.2307879260533654 0.29913657280743228 0 -0.21947506270184461 0.28283396778624958 0 -0.2307879260533654 0.29913657280743228 0 -0.23255297254558219 0.28491131901306221 0 -0.23669780800622409 0.29033053275266979 0 -0.241705346593975 0.29411829537336581 0 -0.23669780800622409 0.29033053275266979 0 -0.2461457009710625 0.28660185007912692 0 -0.2307879260533654 0.29913657280743228 0 -0.241705346593975 0.29411829537336581 0 -0.23669780800622409 0.29033053275266979 0 -0.23669780800622409 0.29033053275266979 0 -0.2461457009710625 0.28660185007912692 0 -0.24349492025683919 0.28000260571889207 0 -0.23255297254558219 0.28491131901306221 0 -0.23669780800622409 0.29033053275266979 0 -0.23678918607245031 0.28026808028607209 0 -0.23669780800622409 0.29033053275266979 0 -0.24349492025683919 0.28000260571889207 0 -0.23678918607245031 0.28026808028607209 0 -0.25015917674991622 0.28055509263042699 0 -0.2461457009710625 0.28660185007912692 0 -0.24349492025683919 0.28000260571889207 0 -0.25015917674991622 0.28055509263042699 0 -0.2523922020655654 0.28743196839307972 0 -0.2461457009710625 0.28660185007912692 0 -0.25002584089292512 0.29324001154297308 0 -0.241705346593975 0.29411829537336581 0 -0.2448694570462977 0.30128250968462711 0 -0.25002584089292512 0.29324001154297308 0 -0.241705346593975 0.29411829537336581 0 -0.2461457009710625 0.28660185007912692 0 -0.25002584089292512 0.29324001154297308 0 -0.2523922020655654 0.28743196839307972 0 -0.2461457009710625 0.28660185007912692 0 -0.25227733084084702 0.30037690198906042 0 -0.2448694570462977 0.30128250968462711 0 -0.24984746391295079 0.30843565107058613 0 -0.25227733084084702 0.30037690198906042 0 -0.25002584089292512 0.29324001154297308 0 -0.2448694570462977 0.30128250968462711 0 -0.241317773374714 0.31431079850778892 0 -0.2448694570462977 0.30128250968462711 0 -0.24984746391295079 0.30843565107058613 0 -0.241317773374714 0.31431079850778892 0 -0.2307879260533654 0.29913657280743228 0 -0.241317773374714 0.31431079850778892 0 -0.2307879260533654 0.29913657280743228 0 -0.2448694570462977 0.30128250968462711 0 -0.2307879260533654 0.29913657280743228 0 -0.241705346593975 0.29411829537336581 0 -0.2448694570462977 0.30128250968462711 0 -0.25768378580886803 0.26017067753966372 0 -0.23937173939900569 0.25000892240791589 0 -0.25768378580886803 0.26017067753966372 0 -0.2453852920754056 0.26435655690198262 0 -0.23937173939900569 0.25000892240791589 0 -0.2453852920754056 0.26435655690198262 0 -0.23348510405799891 0.26024160060393797 0 -0.23937173939900569 0.25000892240791589 0 -0.2453852920754056 0.26435655690198262 0 -0.23883412698910569 0.26871563705222717 0 -0.23348510405799891 0.26024160060393797 0 -0.2453852920754056 0.26435655690198262 0 -0.2462921380449441 0.2736975972161475 0 -0.23883412698910569 0.26871563705222717 0 -0.25664485815251131 0.27330490659200379 0 -0.2453852920754056 0.26435655690198262 0 -0.2462921380449441 0.2736975972161475 0 -0.25015917674991622 0.28055509263042699 0 -0.2462921380449441 0.2736975972161475 0 -0.24349492025683919 0.28000260571889207 0 -0.2462921380449441 0.2736975972161475 0 -0.24349492025683919 0.28000260571889207 0 -0.23989692164957341 0.27501021543347848 0 -0.23989692164957341 0.27501021543347848 0 -0.23678918607245031 0.28026808028607209 0 -0.23136150952170989 0.27410008709021899 0 -0.24349492025683919 0.28000260571889207 0 -0.23989692164957341 0.27501021543347848 0 -0.23678918607245031 0.28026808028607209 0 -0.23883412698910569 0.26871563705222717 0 -0.23136150952170989 0.27410008709021899 0 -0.23348510405799891 0.26024160060393797 0 -0.23989692164957341 0.27501021543347848 0 -0.23883412698910569 0.26871563705222717 0 -0.23136150952170989 0.27410008709021899 0 -0.2462921380449441 0.2736975972161475 0 -0.23989692164957341 0.27501021543347848 0 -0.23883412698910569 0.26871563705222717 0 -0.23136150952170989 0.27410008709021899 0 -0.22213017517067371 0.26891503715575332 0 -0.23348510405799891 0.26024160060393797 0 -0.23255297254558219 0.28491131901306221 0 -0.23678918607245031 0.28026808028607209 0 -0.23136150952170989 0.27410008709021899 0 -0.22617215281344141 0.28249622520592321 0 -0.23255297254558219 0.28491131901306221 0 -0.23136150952170989 0.27410008709021899 0 -0.22617215281344141 0.28249622520592321 0 -0.21947506270184461 0.28283396778624958 0 -0.22213017517067371 0.26891503715575332 0 -0.22617215281344141 0.28249622520592321 0 -0.23136150952170989 0.27410008709021899 0 -0.22213017517067371 0.26891503715575332 0 -0.22213017517067371 0.26891503715575332 0 -0.23348510405799891 0.26024160060393797 0 -0.22434868323342591 0.25287719570877248 0 -0.22213017517067371 0.26891503715575332 0 -0.22434868323342591 0.25287719570877248 0 -0.2122134260157022 0.25346492237249812 0 -0.23348510405799891 0.26024160060393797 0 -0.22434868323342591 0.25287719570877248 0 -0.23937173939900569 0.25000892240791589 0 -0.2122134260157022 0.25346492237249812 0 -0.2081621993503231 0.26653136276506761 0 -0.20004969132505351 0.2485023636020027 0 -0.22213017517067371 0.26891503715575332 0 -0.2122134260157022 0.25346492237249812 0 -0.2081621993503231 0.26653136276506761 0 -0.21947506270184461 0.28283396778624958 0 -0.22213017517067371 0.26891503715575332 0 -0.2081621993503231 0.26653136276506761 0 -0.21947506270184461 0.28283396778624958 0 -0.2081621993503231 0.26653136276506761 0 -0.21947506270184461 0.28283396778624958 0 -0.2081621993503231 0.26653136276506761 0 -0.20943459683405191 0.28083608453519843 0 -0.19995212896080031 0.28419700110262203 0 -0.2081621993503231 0.26653136276506761 0 -0.20943459683405191 0.28083608453519843 0 -0.2081621993503231 0.26653136276506761 0 -0.18791388583343391 0.25901304589080842 0 -0.1863387009100084 0.27688532965625462 0 -0.19995212896080031 0.28419700110262203 0 -0.2081621993503231 0.26653136276506761 0 -0.1863387009100084 0.27688532965625462 0 -0.2081621993503231 0.26653136276506761 0 -0.18791388583343391 0.25901304589080842 0 -0.20004969132505351 0.2485023636020027 0 -0.18791388583343391 0.25901304589080842 0 -0.16814614111586151 0.2521838310994724 0 -0.17188947605980451 0.26858926600654193 0 -0.18791388583343391 0.25901304589080842 0 -0.16814614111586151 0.2521838310994724 0 -0.18624064126421089 0.23967134727906891 0 -0.16814614111586151 0.2521838310994724 0 -0.17188947605980451 0.26858926600654193 0 -0.1478754683942235 0.26686285460477921 0 -0.17188947605980451 0.26858926600654193 0 -0.1642555326247051 0.28819775795439051 0 -0.1478754683942235 0.26686285460477921 0 -0.17188947605980451 0.26858926600654193 0 -0.1863387009100084 0.27688532965625462 0 -0.1642555326247051 0.28819775795439051 0 -0.18791388583343391 0.25901304589080842 0 -0.17188947605980451 0.26858926600654193 0 -0.1863387009100084 0.27688532965625462 0 -0.1863387009100084 0.27688532965625462 0 -0.18585898263098341 0.29478354421809738 0 -0.1642555326247051 0.28819775795439051 0 -0.18585898263098341 0.29478354421809738 0 -0.17489300172595981 0.30970226238793003 0 -0.1642555326247051 0.28819775795439051 0 -0.19567339875991269 0.31036835701374749 0 -0.18585898263098341 0.29478354421809738 0 -0.17489300172595981 0.30970226238793003 0 -0.15151224571844829 0.31564709061656582 0 -0.17489300172595981 0.30970226238793003 0 -0.1642555326247051 0.28819775795439051 0 -0.15151224571844829 0.31564709061656582 0 -0.1642555326247051 0.28819775795439051 0 -0.13987627080168169 0.28392268627230149 0 -0.15151224571844829 0.31564709061656582 0 -0.13015672938023479 0.30575434878206598 0 -0.13987627080168169 0.28392268627230149 0 -0.13015672938023479 0.30575434878206598 0 -0.13987627080168169 0.28392268627230149 0 -0.1162034925783926 0.2880112149255537 0 -0.13987627080168169 0.28392268627230149 0 -0.12615666215155311 0.27299581648130761 0 -0.1162034925783926 0.2880112149255537 0 -0.13987627080168169 0.28392268627230149 0 -0.12615666215155311 0.27299581648130761 0 -0.1478754683942235 0.26686285460477921 0 -0.1478754683942235 0.26686285460477921 0 -0.1200650727569653 0.25654842508966841 0 -0.1447391232489933 0.24560219932977209 0 -0.1200650727569653 0.25654842508966841 0 -0.1447391232489933 0.24560219932977209 0 -0.12615666215155311 0.27299581648130761 0 -0.1478754683942235 0.26686285460477921 0 -0.1200650727569653 0.25654842508966841 0 -0.16814614111586151 0.2521838310994724 0 -0.1478754683942235 0.26686285460477921 0 -0.1447391232489933 0.24560219932977209 0 -0.1642555326247051 0.28819775795439051 0 -0.13987627080168169 0.28392268627230149 0 -0.1478754683942235 0.26686285460477921 0 -0.095391022264937397 0.26749465084956481 0 -0.1162034925783926 0.2880112149255537 0 -0.094052710900202063 0.28745753550443143 0 -0.095391022264937397 0.26749465084956481 0 -0.1200650727569653 0.25654842508966841 0 -0.095391022264937397 0.26749465084956481 0 -0.1200650727569653 0.25654842508966841 0 -0.1000211183564635 0.24910540585133639 0 -0.12615666215155311 0.27299581648130761 0 -0.095391022264937397 0.26749465084956481 0 -0.1162034925783926 0.2880112149255537 0 -0.12615666215155311 0.27299581648130761 0 -0.095391022264937397 0.26749465084956481 0 -0.1200650727569653 0.25654842508966841 0 -0.13015672938023479 0.30575434878206598 0 -0.1162034925783926 0.2880112149255537 0 -0.110058307587435 0.31127371312319108 0 -0.110058307587435 0.31127371312319108 0 -0.094052710900202063 0.28745753550443143 0 -0.083400322711511266 0.30448217569262792 0 -0.1162034925783926 0.2880112149255537 0 -0.110058307587435 0.31127371312319108 0 -0.094052710900202063 0.28745753550443143 0 -0.094052710900202063 0.28745753550443143 0 -0.083400322711511266 0.30448217569262792 0 -0.070716971772909476 0.27844087660946099 0 -0.083400322711511266 0.30448217569262792 0 -0.06317578738175493 0.30251869533136772 0 -0.073441460082124946 0.32540379706685152 0 -0.083400322711511266 0.30448217569262792 0 -0.06317578738175493 0.30251869533136772 0 -0.070716971772909476 0.27844087660946099 0 -0.095391022264937397 0.26749465084956481 0 -0.094052710900202063 0.28745753550443143 0 -0.070716971772909476 0.27844087660946099 0 -0.095391022264937397 0.26749465084956481 0 -0.070716971772909476 0.27844087660946099 0 -0.095391022264937397 0.26749465084956481 0 -0.070716971772909476 0.27844087660946099 0 -0.076858009621886367 0.2482388650172308 0 -0.095391022264937397 0.26749465084956481 0 -0.1000211183564635 0.24910540585133639 0 -0.076858009621886367 0.2482388650172308 0 -0.058128604213958802 0.26410376382122269 0 -0.076858009621886367 0.2482388650172308 0 -0.058125444104681893 0.24600468991723079 0 -0.070716971772909476 0.27844087660946099 0 -0.058128604213958802 0.26410376382122269 0 -0.076858009621886367 0.2482388650172308 0 -0.058128604213958802 0.26410376382122269 0 -0.038899674289434687 0.2584472851928335 0 -0.058125444104681893 0.24600468991723079 0 -0.058128604213958802 0.26410376382122269 0 -0.038899674289434687 0.2584472851928335 0 -0.046042921280881548 0.28938710236935739 0 -0.070716971772909476 0.27844087660946099 0 -0.058128604213958802 0.26410376382122269 0 -0.046042921280881548 0.28938710236935739 0 -0.038899674289434687 0.2584472851928335 0 -0.024469926588574501 0.27345451070547089 0 -0.046042921280881548 0.28938710236935739 0 -0.038899674289434687 0.2584472851928335 0 -0.018000355716265092 0.25741728106819378 0 -0.024469926588574501 0.27345451070547089 0 -0.038899674289434687 0.2584472851928335 0 -0.018000355716265092 0.25741728106819378 0 -0.02627617770287325 0.24201379537057099 0 -0.018000355716265092 0.25741728106819378 0 -0.024469926588574501 0.27345451070547089 0 -0.0068905671122931923 0.27148047605306702 0 -0.024469926588574501 0.27345451070547089 0 -0.0068905671122931923 0.27148047605306702 0 -0.0096305683164936706 0.28565788856963842 0 -0.0068905671122931923 0.27148047605306702 0 -0.0096305683164936706 0.28565788856963842 0 0.0034611098733089872 0.28494369545047238 0 -0.018000355716265092 0.25741728106819378 0 -0.0068905671122931923 0.27148047605306702 0 -0.00045229697026904348 0.25795292580345919 0 -0.018000355716265092 0.25741728106819378 0 -0.00045229697026904348 0.25795292580345919 0 -0.009410176840658601 0.24322056435945061 0 -0.02136887078885363 0.30033332812925367 0 -0.0037405759101894749 0.32486350281032239 0 0.001533996037670159 0.29940650260914209 0 -0.0096305683164936706 0.28565788856963842 0 -0.02136887078885363 0.30033332812925367 0 0.001533996037670159 0.29940650260914209 0 -0.0096305683164936706 0.28565788856963842 0 0.0034611098733089872 0.28494369545047238 0 0.001533996037670159 0.29940650260914209 0 -0.024469926588574501 0.27345451070547089 0 -0.0096305683164936706 0.28565788856963842 0 -0.02136887078885363 0.30033332812925367 0 -0.024469926588574501 0.27345451070547089 0 -0.02136887078885363 0.30033332812925367 0 -0.046042921280881548 0.28938710236935739 0 -0.02136887078885363 0.30033332812925367 0 -0.046042921280881548 0.28938710236935739 0 -0.047698783096894223 0.31435903374308971 0 -0.02136887078885363 0.30033332812925367 0 -0.046042921280881548 0.28938710236935739 0 -0.06317578738175493 0.30251869533136772 0 -0.070716971772909476 0.27844087660946099 0 -0.046042921280881548 0.28938710236935739 0 -0.070716971772909476 0.27844087660946099 0 -0.046042921280881548 0.28938710236935739 0 -0.06317578738175493 0.30251869533136772 0 -0.046042921280881548 0.28938710236935739 0 -0.047698783096894223 0.31435903374308971 0 -0.06317578738175493 0.30251869533136772 0 -0.047698783096894223 0.31435903374308971 0 -0.073441460082124946 0.32540379706685152 0 -0.047698783096894223 0.31435903374308971 0 -0.055896270736539327 0.33360214965434459 0 -0.073441460082124946 0.32540379706685152 0 -0.055896270736539327 0.33360214965434459 0 -0.029032339091940449 0.32792858191182761 0 -0.041798122203174248 0.34615053775984839 0 -0.047698783096894223 0.31435903374308971 0 -0.055896270736539327 0.33360214965434459 0 -0.029032339091940449 0.32792858191182761 0 -0.02136887078885363 0.30033332812925367 0 -0.047698783096894223 0.31435903374308971 0 -0.029032339091940449 0.32792858191182761 0 -0.02136887078885363 0.30033332812925367 0 -0.029032339091940449 0.32792858191182761 0 -0.0037405759101894749 0.32486350281032239 0 -0.029032339091940449 0.32792858191182761 0 -0.0037405759101894749 0.32486350281032239 0 -0.015829856436659781 0.34866010042613732 0 -0.029032339091940449 0.32792858191182761 0 -0.015829856436659781 0.34866010042613732 0 -0.041798122203174248 0.34615053775984839 0 -0.0037405759101894749 0.32486350281032239 0 -0.015829856436659781 0.34866010042613732 0 0.0032870183029002601 0.34063277615122461 0 -0.015829856436659781 0.34866010042613732 0 -0.0086778301900626732 0.37529690039191538 0 -0.015829856436659781 0.34866010042613732 0 -0.0086778301900626732 0.37529690039191538 0 0.01045091256259899 0.3581436725760091 0 -0.015829856436659781 0.34866010042613732 0 0.01045091256259899 0.3581436725760091 0 0.0032870183029002601 0.34063277615122461 0 -0.015829856436659781 0.34866010042613732 0 -0.035788408944294553 0.36457502268037378 0 -0.041798122203174248 0.34615053775984839 0 -0.015829856436659781 0.34866010042613732 0 -0.035788408944294553 0.36457502268037378 0 -0.0086778301900626732 0.37529690039191538 0 -0.035788408944294553 0.36457502268037378 0 -0.032262043459462611 0.38413031888725468 0 -0.0086778301900626732 0.37529690039191538 0 -0.035788408944294553 0.36457502268037378 0 -0.054045320810965983 0.37589378916152522 0 -0.032262043459462611 0.38413031888725468 0 -0.035788408944294553 0.36457502268037378 0 -0.041798122203174248 0.34615053775984839 0 -0.062117280565442051 0.35731848945556199 0 -0.055896270736539327 0.33360214965434459 0 -0.041798122203174248 0.34615053775984839 0 -0.062117280565442051 0.35731848945556199 0 -0.035788408944294553 0.36457502268037378 0 -0.062117280565442051 0.35731848945556199 0 -0.054045320810965983 0.37589378916152522 0 -0.062117280565442051 0.35731848945556199 0 -0.073343956540823402 0.37427212687350608 0 -0.054045320810965983 0.37589378916152522 0 -0.062117280565442051 0.35731848945556199 0 -0.073343956540823402 0.37427212687350608 0 -0.083644330723951804 0.36138377432147251 0 -0.083644330723951804 0.36138377432147251 0 -0.10125747573726759 0.35982137484126908 0 -0.09556724509345732 0.37674832644210771 0 -0.073343956540823402 0.37427212687350608 0 -0.083644330723951804 0.36138377432147251 0 -0.09556724509345732 0.37674832644210771 0 -0.083644330723951804 0.36138377432147251 0 -0.077222478418545321 0.34425603037108699 0 -0.095857177572965316 0.33995898961547238 0 -0.083644330723951804 0.36138377432147251 0 -0.095857177572965316 0.33995898961547238 0 -0.10125747573726759 0.35982137484126908 0 -0.062117280565442051 0.35731848945556199 0 -0.083644330723951804 0.36138377432147251 0 -0.077222478418545321 0.34425603037108699 0 -0.055896270736539327 0.33360214965434459 0 -0.062117280565442051 0.35731848945556199 0 -0.077222478418545321 0.34425603037108699 0 -0.055896270736539327 0.33360214965434459 0 -0.077222478418545321 0.34425603037108699 0 -0.073441460082124946 0.32540379706685152 0 -0.083400322711511266 0.30448217569262792 0 -0.073441460082124946 0.32540379706685152 0 -0.09141107281269889 0.32207798881341559 0 -0.073441460082124946 0.32540379706685152 0 -0.09141107281269889 0.32207798881341559 0 -0.095857177572965316 0.33995898961547238 0 -0.077222478418545321 0.34425603037108699 0 -0.073441460082124946 0.32540379706685152 0 -0.095857177572965316 0.33995898961547238 0 -0.095857177572965316 0.33995898961547238 0 -0.1131221404848019 0.33478380142651298 0 -0.1171826894748457 0.35234436687975762 0 -0.09141107281269889 0.32207798881341559 0 -0.095857177572965316 0.33995898961547238 0 -0.1131221404848019 0.33478380142651298 0 -0.110058307587435 0.31127371312319108 0 -0.083400322711511266 0.30448217569262792 0 -0.09141107281269889 0.32207798881341559 0 -0.110058307587435 0.31127371312319108 0 -0.09141107281269889 0.32207798881341559 0 -0.1131221404848019 0.33478380142651298 0 -0.13313333021521651 0.32991703897271768 0 -0.110058307587435 0.31127371312319108 0 -0.1131221404848019 0.33478380142651298 0 -0.13313333021521651 0.32991703897271768 0 -0.13015672938023479 0.30575434878206598 0 -0.110058307587435 0.31127371312319108 0 -0.12830973963933351 0.3461500861297368 0 -0.13313333021521651 0.32991703897271768 0 -0.1131221404848019 0.33478380142651298 0 -0.12830973963933351 0.3461500861297368 0 -0.1131221404848019 0.33478380142651298 0 -0.1171826894748457 0.35234436687975762 0 -0.12568769255360029 0.36815307557729582 0 -0.1171826894748457 0.35234436687975762 0 -0.11481828068803671 0.37102952588108179 0 -0.1171826894748457 0.35234436687975762 0 -0.11481828068803671 0.37102952588108179 0 -0.1171826894748457 0.35234436687975762 0 -0.11481828068803671 0.37102952588108179 0 -0.10125747573726759 0.35982137484126908 0 -0.12568769255360029 0.36815307557729582 0 -0.13216171515812411 0.35971587461028698 0 -0.1171826894748457 0.35234436687975762 0 -0.1295701617381706 0.38293919674623339 0 -0.12568769255360029 0.36815307557729582 0 -0.11481828068803671 0.37102952588108179 0 -0.11481828068803671 0.37102952588108179 0 -0.10125747573726759 0.35982137484126908 0 -0.09556724509345732 0.37674832644210771 0 -0.095857177572965316 0.33995898961547238 0 -0.1171826894748457 0.35234436687975762 0 -0.10125747573726759 0.35982137484126908 0 -0.095987698795940379 0.39623282412787958 0 -0.11245387190122801 0.38971468488240618 0 -0.095987698795940379 0.39623282412787958 0 -0.11245387190122801 0.38971468488240618 0 -0.1097881140699208 0.41078130805471158 0 -0.095987698795940379 0.39623282412787958 0 -0.09556724509345732 0.37674832644210771 0 -0.11245387190122801 0.38971468488240618 0 -0.11481828068803671 0.37102952588108179 0 -0.09556724509345732 0.37674832644210771 0 -0.11245387190122801 0.38971468488240618 0 -0.1295701617381706 0.38293919674623339 0 -0.11481828068803671 0.37102952588108179 0 -0.11245387190122801 0.38971468488240618 0 -0.1295701617381706 0.38293919674623339 0 -0.11245387190122801 0.38971468488240618 0 -0.11481828068803671 0.37102952588108179 0 -0.11245387190122801 0.38971468488240618 0 -0.11245387190122801 0.38971468488240618 0 -0.1097881140699208 0.41078130805471158 0 -0.12759898458538449 0.40317141248719779 0 -0.1295701617381706 0.38293919674623339 0 -0.11245387190122801 0.38971468488240618 0 -0.12759898458538449 0.40317141248719779 0 -0.11245387190122801 0.38971468488240618 0 -0.1097881140699208 0.41078130805471158 0 -0.12759898458538449 0.40317141248719779 0 -0.1248681165373486 0.41536467979602459 0 -0.1097881140699208 0.41078130805471158 0 -0.1248681165373486 0.41536467979602459 0 -0.1097881140699208 0.41078130805471158 0 -0.11840601960695291 0.42401115440399417 0 -0.1097881140699208 0.41078130805471158 0 -0.11840601960695291 0.42401115440399417 0 -0.10712235623861339 0.43184793122701681 0 -0.12913489323789129 0.42714943008194067 0 -0.1248681165373486 0.41536467979602459 0 -0.11840601960695291 0.42401115440399417 0 -0.12913489323789129 0.42714943008194067 0 -0.12109511074820831 0.43562865952456448 0 -0.11840601960695291 0.42401115440399417 0 -0.12109511074820831 0.43562865952456448 0 -0.11840601960695291 0.42401115440399417 0 -0.10712235623861339 0.43184793122701681 0 -0.10712235623861339 0.43184793122701681 0 -0.091866624328603236 0.42039299564051791 0 -0.087995310567627882 0.44454313092749248 0 -0.10712235623861339 0.43184793122701681 0 -0.093321940964632727 0.41729944730018381 0 -0.10712235623861339 0.43184793122701681 0 -0.093321940964632727 0.41729944730018381 0 -0.091866624328603236 0.42039299564051791 0 -0.1097881140699208 0.41078130805471158 0 -0.10712235623861339 0.43184793122701681 0 -0.095987698795940379 0.39623282412787958 0 -0.1097881140699208 0.41078130805471158 0 -0.093321940964632727 0.41729944730018381 0 -0.1097881140699208 0.41078130805471158 0 -0.10712235623861339 0.43184793122701681 0 -0.093321940964632727 0.41729944730018381 0 -0.093321940964632727 0.41729944730018381 0 -0.079521525690651962 0.40275096337335092 0 -0.093321940964632727 0.41729944730018381 0 -0.091866624328603236 0.42039299564051791 0 -0.082251785866737787 0.41398073822394482 0 -0.091866624328603236 0.42039299564051791 0 -0.082251785866737787 0.41398073822394482 0 -0.082694274508468932 0.42216066851593542 0 -0.082251785866737787 0.41398073822394482 0 -0.082694274508468932 0.42216066851593542 0 -0.073918609462529122 0.42337391657442891 0 -0.093321940964632727 0.41729944730018381 0 -0.082251785866737787 0.41398073822394482 0 -0.079521525690651962 0.40275096337335092 0 -0.091866624328603236 0.42039299564051791 0 -0.087995310567627882 0.44454313092749248 0 -0.091866624328603236 0.42039299564051791 0 -0.082740078376005555 0.43089502362484983 0 -0.087995310567627882 0.44454313092749248 0 -0.091866624328603236 0.42039299564051791 0 -0.082694274508468932 0.42216066851593542 0 -0.082740078376005555 0.43089502362484983 0 -0.082694274508468932 0.42216066851593542 0 -0.082740078376005555 0.43089502362484983 0 -0.073918609462529122 0.42337391657442891 0 -0.073918609462529122 0.42337391657442891 0 -0.058028022297423043 0.42448981426279719 0 -0.066814092203816372 0.43972775186504742 0 -0.082740078376005555 0.43089502362484983 0 -0.073918609462529122 0.42337391657442891 0 -0.066814092203816372 0.43972775186504742 0 -0.082251785866737787 0.41398073822394482 0 -0.063996608029364285 0.40889650638712483 0 -0.079521525690651962 0.40275096337335092 0 -0.082251785866737787 0.41398073822394482 0 -0.073918609462529122 0.42337391657442891 0 -0.063996608029364285 0.40889650638712483 0 -0.073918609462529122 0.42337391657442891 0 -0.063996608029364285 0.40889650638712483 0 -0.058028022297423043 0.42448981426279719 0 -0.063996608029364285 0.40889650638712483 0 -0.079521525690651962 0.40275096337335092 0 -0.06678342325080916 0.38932237626743782 0 -0.079521525690651962 0.40275096337335092 0 -0.082095312455745154 0.38776803087242928 0 -0.06678342325080916 0.38932237626743782 0 -0.079521525690651962 0.40275096337335092 0 -0.06678342325080916 0.38932237626743782 0 -0.063996608029364285 0.40889650638712483 0 -0.079521525690651962 0.40275096337335092 0 -0.095987698795940379 0.39623282412787958 0 -0.079521525690651962 0.40275096337335092 0 -0.095987698795940379 0.39623282412787958 0 -0.079521525690651962 0.40275096337335092 0 -0.082095312455745154 0.38776803087242928 0 -0.095987698795940379 0.39623282412787958 0 -0.093321940964632727 0.41729944730018381 0 -0.079521525690651962 0.40275096337335092 0 -0.073343956540823402 0.37427212687350608 0 -0.09556724509345732 0.37674832644210771 0 -0.082095312455745154 0.38776803087242928 0 -0.095987698795940379 0.39623282412787958 0 -0.09556724509345732 0.37674832644210771 0 -0.082095312455745154 0.38776803087242928 0 -0.073343956540823402 0.37427212687350608 0 -0.06678342325080916 0.38932237626743782 0 -0.054045320810965983 0.37589378916152522 0 -0.073343956540823402 0.37427212687350608 0 -0.082095312455745154 0.38776803087242928 0 -0.06678342325080916 0.38932237626743782 0 -0.06678342325080916 0.38932237626743782 0 -0.054045320810965983 0.37589378916152522 0 -0.06678342325080916 0.38932237626743782 0 -0.054045320810965983 0.37589378916152522 0 -0.051501510936551607 0.39227000045987048 0 -0.063996608029364285 0.40889650638712483 0 -0.051501510936551607 0.39227000045987048 0 -0.041009346331524761 0.40496281412433238 0 -0.063996608029364285 0.40889650638712483 0 -0.06678342325080916 0.38932237626743782 0 -0.051501510936551607 0.39227000045987048 0 -0.051501510936551607 0.39227000045987048 0 -0.041009346331524761 0.40496281412433238 0 -0.032262043459462611 0.38413031888725468 0 -0.054045320810965983 0.37589378916152522 0 -0.051501510936551607 0.39227000045987048 0 -0.032262043459462611 0.38413031888725468 0 -0.032262043459462611 0.38413031888725468 0 -0.01972373283242353 0.3964738495063086 0 -0.0086778301900626732 0.37529690039191538 0 -0.041009346331524761 0.40496281412433238 0 -0.01972373283242353 0.3964738495063086 0 -0.024108089902526331 0.41383353059285699 0 -0.041009346331524761 0.40496281412433238 0 -0.032262043459462611 0.38413031888725468 0 -0.01972373283242353 0.3964738495063086 0 -0.01972373283242353 0.3964738495063086 0 -0.0015258039434690831 0.40193370035769449 0 -0.024108089902526331 0.41383353059285699 0 -0.01972373283242353 0.3964738495063086 0 -0.0015258039434690831 0.40193370035769449 0 -0.0086778301900626732 0.37529690039191538 0 -0.0015258039434690831 0.40193370035769449 0 -0.0086778301900626732 0.37529690039191538 0 0.0075283452960494364 0.38165158931583287 0 -0.0015258039434690831 0.40193370035769449 0 -0.0086778301900626732 0.37529690039191538 0 -0.0022754738389305991 0.41895959912876468 0 -0.01440252082847761 0.44597306608584297 0 -0.0055650288785485703 0.43670133584639043 0 -0.0022754738389305991 0.41895959912876468 0 -0.01440252082847761 0.44597306608584297 0 -0.0022754738389305991 0.41895959912876468 0 -0.016142301810054029 0.42896322653769792 0 -0.01440252082847761 0.44597306608584297 0 -0.0012695274607281511 0.43420893568606522 0 -0.0055650288785485703 0.43670133584639043 0 -0.0022754738389305991 0.41895959912876468 0 -0.0012695274607281511 0.43420893568606522 0 -0.0022754738389305991 0.41895959912876468 0 0.0013592154495942919 0.42753915636897422 0 -0.0015258039434690831 0.40193370035769449 0 -0.0110129173737451 0.41592251415425341 0 -0.024108089902526331 0.41383353059285699 0 -0.0015258039434690831 0.40193370035769449 0 -0.024108089902526331 0.41383353059285699 0 -0.0015258039434690831 0.40193370035769449 0 -0.0022754738389305991 0.41895959912876468 0 0.00293157014834568 0.41853461567350481 0 -0.0015258039434690831 0.40193370035769449 0 -0.0022754738389305991 0.41895959912876468 0 -0.0110129173737451 0.41592251415425341 0 -0.0022754738389305991 0.41895959912876468 0 -0.0110129173737451 0.41592251415425341 0 -0.016142301810054029 0.42896322653769792 0 -0.0110129173737451 0.41592251415425341 0 -0.024108089902526331 0.41383353059285699 0 -0.016142301810054029 0.42896322653769792 0 -0.024108089902526331 0.41383353059285699 0 -0.025747852515111351 0.43007624833453739 0 -0.035156827764763407 0.43007791253975941 0 -0.024108089902526331 0.41383353059285699 0 -0.016142301810054029 0.42896322653769792 0 -0.025747852515111351 0.43007624833453739 0 -0.016142301810054029 0.42896322653769792 0 -0.025747852515111351 0.43007624833453739 0 -0.022320211770270899 0.43854729389142832 0 -0.025747852515111351 0.43007624833453739 0 -0.035156827764763407 0.43007791253975941 0 -0.031011831327942069 0.4389592781109446 0 -0.025747852515111351 0.43007624833453739 0 -0.031011831327942069 0.4389592781109446 0 -0.022320211770270899 0.43854729389142832 0 -0.024108089902526331 0.41383353059285699 0 -0.035156827764763407 0.43007791253975941 0 -0.046690375861583207 0.42573336082802021 0 -0.035156827764763407 0.43007791253975941 0 -0.037956338857574351 0.43721055215260929 0 -0.031011831327942069 0.4389592781109446 0 -0.035156827764763407 0.43007791253975941 0 -0.046690375861583207 0.42573336082802021 0 -0.045632873840004869 0.43491237280260259 0 -0.035156827764763407 0.43007791253975941 0 -0.037956338857574351 0.43721055215260929 0 -0.045632873840004869 0.43491237280260259 0 -0.041009346331524761 0.40496281412433238 0 -0.024108089902526331 0.41383353059285699 0 -0.046690375861583207 0.42573336082802021 0 -0.041009346331524761 0.40496281412433238 0 -0.046690375861583207 0.42573336082802021 0 -0.051115574387240389 0.41429497711955943 0 -0.024108089902526331 0.41383353059285699 0 -0.046690375861583207 0.42573336082802021 0 -0.063996608029364285 0.40889650638712483 0 -0.041009346331524761 0.40496281412433238 0 -0.051115574387240389 0.41429497711955943 0 -0.046690375861583207 0.42573336082802021 0 -0.051115574387240389 0.41429497711955943 0 -0.058028022297423043 0.42448981426279719 0 -0.063996608029364285 0.40889650638712483 0 -0.051115574387240389 0.41429497711955943 0 -0.058028022297423043 0.42448981426279719 0 -0.045632873840004869 0.43491237280260259 0 -0.058028022297423043 0.42448981426279719 0 -0.066814092203816372 0.43972775186504742 0 -0.045632873840004869 0.43491237280260259 0 -0.066814092203816372 0.43972775186504742 0 -0.046690375861583207 0.42573336082802021 0 -0.045632873840004869 0.43491237280260259 0 -0.058028022297423043 0.42448981426279719 0 -0.052147736302853957 0.4481105074578256 0 -0.064811480324659082 0.46096625141121322 0 -0.066814092203816372 0.43972775186504742 0 -0.045632873840004869 0.43491237280260259 0 -0.052147736302853957 0.4481105074578256 0 -0.066814092203816372 0.43972775186504742 0 -0.043456412648202408 0.4600535160531341 0 -0.048768827694778638 0.47935787860093421 0 -0.064811480324659082 0.46096625141121322 0 -0.052147736302853957 0.4481105074578256 0 -0.043456412648202408 0.4600535160531341 0 -0.064811480324659082 0.46096625141121322 0 -0.043456412648202408 0.4600535160531341 0 -0.029151016361737472 0.45022778388173618 0 -0.026529567818024589 0.47298653304292132 0 -0.045632873840004869 0.43491237280260259 0 -0.052147736302853957 0.4481105074578256 0 -0.040023822497587062 0.44489264515713062 0 -0.037956338857574351 0.43721055215260929 0 -0.045632873840004869 0.43491237280260259 0 -0.040023822497587062 0.44489264515713062 0 -0.052147736302853957 0.4481105074578256 0 -0.043456412648202408 0.4600535160531341 0 -0.040023822497587062 0.44489264515713062 0 -0.043456412648202408 0.4600535160531341 0 -0.040023822497587062 0.44489264515713062 0 -0.029151016361737472 0.45022778388173618 0 -0.037956338857574351 0.43721055215260929 0 -0.040023822497587062 0.44489264515713062 0 -0.031011831327942069 0.4389592781109446 0 -0.040023822497587062 0.44489264515713062 0 -0.031011831327942069 0.4389592781109446 0 -0.029151016361737472 0.45022778388173618 0 -0.031011831327942069 0.4389592781109446 0 -0.022320211770270899 0.43854729389142832 0 -0.029151016361737472 0.45022778388173618 0 -0.016142301810054029 0.42896322653769792 0 -0.022320211770270899 0.43854729389142832 0 -0.01440252082847761 0.44597306608584297 0 -0.022320211770270899 0.43854729389142832 0 -0.029151016361737472 0.45022778388173618 0 -0.01440252082847761 0.44597306608584297 0 -0.01203550071017164 0.46280032528659359 0 -0.01440252082847761 0.44597306608584297 0 -0.026529567818024589 0.47298653304292132 0 -0.01440252082847761 0.44597306608584297 0 -0.026529567818024589 0.47298653304292132 0 -0.029151016361737472 0.45022778388173618 0 -0.01440252082847761 0.44597306608584297 0 -0.026529567818024589 0.47298653304292132 0 -0.01203550071017164 0.46280032528659359 0 -0.0082452211601242182 0.45311336726702262 0 -0.01440252082847761 0.44597306608584297 0 -0.01203550071017164 0.46280032528659359 0 -0.002230269715789707 0.45601633521076501 0 0.00016464839372705691 0.46418205686900887 0 -0.01203550071017164 0.46280032528659359 0 -0.00056998108065278003 0.47476596695973361 0 0.00016464839372705691 0.46418205686900887 0 -0.01203550071017164 0.46280032528659359 0 -0.002230269715789707 0.45601633521076501 0 -0.0082452211601242182 0.45311336726702262 0 -0.002230269715789707 0.45601633521076501 0 -0.0043125933860579183 0.44766374248488883 0 -0.0082452211601242182 0.45311336726702262 0 -0.002230269715789707 0.45601633521076501 0 -0.0043125933860579183 0.44766374248488883 0 0.0048859042289793294 0.44940989014404831 0 -0.0012695274607281511 0.43420893568606522 0 -0.0055650288785485703 0.43670133584639043 0 -0.0043125933860579183 0.44766374248488883 0 -0.0055650288785485703 0.43670133584639043 0 -0.0043125933860579183 0.44766374248488883 0 -0.01440252082847761 0.44597306608584297 0 -0.0043125933860579183 0.44766374248488883 0 -0.0082452211601242182 0.45311336726702262 0 -0.01440252082847761 0.44597306608584297 0 -0.0091953996660012471 0.5 0 -0.004868410150129664 0.48756987397218537 0 -0.02142029608989731 0.48877626550080522 0 -0.0091953996660012471 0.5 0 -0.004868410150129664 0.48756987397218537 0 0.0055422051903820033 0.49562282123202211 0 -0.01203550071017164 0.46280032528659359 0 -0.00056998108065278003 0.47476596695973361 0 -0.026529567818024589 0.47298653304292132 0 -0.004868410150129664 0.48756987397218537 0 -0.00056998108065278003 0.47476596695973361 0 -0.026529567818024589 0.47298653304292132 0 -0.004868410150129664 0.48756987397218537 0 -0.026529567818024589 0.47298653304292132 0 -0.02142029608989731 0.48877626550080522 0 -0.0091953996660012471 0.5 0 -0.02142029608989731 0.48877626550080522 0 -0.038656614807571342 0.49999999999999961 0 -0.026529567818024589 0.47298653304292132 0 -0.02142029608989731 0.48877626550080522 0 -0.038656614807571342 0.49999999999999961 0 -0.026529567818024589 0.47298653304292132 0 -0.038656614807571342 0.49999999999999961 0 -0.026529567818024589 0.47298653304292132 0 -0.038656614807571342 0.49999999999999961 0 -0.048768827694778638 0.47935787860093421 0 -0.043456412648202408 0.4600535160531341 0 -0.026529567818024589 0.47298653304292132 0 -0.048768827694778638 0.47935787860093421 0 -0.048768827694778638 0.47935787860093421 0 -0.067023440683967442 0.48251913909517891 0 -0.064811480324659082 0.46096625141121322 0 -0.038656614807571342 0.49999999999999961 0 -0.048768827694778638 0.47935787860093421 0 -0.058881040581985962 0.5 0 -0.048768827694778638 0.47935787860093421 0 -0.058881040581985962 0.5 0 -0.067023440683967442 0.48251913909517891 0 -0.058881040581985962 0.5 0 -0.079105466356400672 0.50000000000000078 0 -0.067023440683967442 0.48251913909517891 0 -0.079105466356400672 0.50000000000000078 0 -0.083550388462012792 0.47227156546374638 0 -0.067023440683967442 0.48251913909517891 0 -0.079105466356400672 0.50000000000000078 0 -0.083550388462012792 0.47227156546374638 0 -0.079105466356400672 0.50000000000000078 0 -0.083550388462012792 0.47227156546374638 0 -0.094693574742992531 0.48676415415472002 0 -0.079105466356400672 0.50000000000000078 0 -0.094693574742992531 0.48676415415472002 0 -0.10484932557500889 0.5 0 -0.083550388462012792 0.47227156546374638 0 -0.094693574742992531 0.48676415415472002 0 -0.1020547431687953 0.47189564061425082 0 -0.083550388462012792 0.47227156546374638 0 -0.067023440683967442 0.48251913909517891 0 -0.064811480324659082 0.46096625141121322 0 -0.066814092203816372 0.43972775186504742 0 -0.087995310567627882 0.44454313092749248 0 -0.064811480324659082 0.46096625141121322 0 -0.066814092203816372 0.43972775186504742 0 -0.087995310567627882 0.44454313092749248 0 -0.082740078376005555 0.43089502362484983 0 -0.066814092203816372 0.43972775186504742 0 -0.087995310567627882 0.44454313092749248 0 -0.083550388462012792 0.47227156546374638 0 -0.087995310567627882 0.44454313092749248 0 -0.094656605530604232 0.45928131329338451 0 -0.083550388462012792 0.47227156546374638 0 -0.064811480324659082 0.46096625141121322 0 -0.087995310567627882 0.44454313092749248 0 -0.083550388462012792 0.47227156546374638 0 -0.087995310567627882 0.44454313092749248 0 -0.083550388462012792 0.47227156546374638 0 -0.094656605530604232 0.45928131329338451 0 -0.1020547431687953 0.47189564061425082 0 -0.1050259799239809 0.44841491616804829 0 -0.1020547431687953 0.47189564061425082 0 -0.094656605530604232 0.45928131329338451 0 -0.1050259799239809 0.44841491616804829 0 -0.1020547431687953 0.47189564061425082 0 -0.1050259799239809 0.44841491616804829 0 -0.1148332131465146 0.46054941509033231 0 -0.1020547431687953 0.47189564061425082 0 -0.10712235623861339 0.43184793122701681 0 -0.087995310567627882 0.44454313092749248 0 -0.1050259799239809 0.44841491616804829 0 -0.087995310567627882 0.44454313092749248 0 -0.094656605530604232 0.45928131329338451 0 -0.1050259799239809 0.44841491616804829 0 -0.087995310567627882 0.44454313092749248 0 -0.1050259799239809 0.44841491616804829 0 -0.10712235623861339 0.43184793122701681 0 -0.1050259799239809 0.44841491616804829 0 -0.12109511074820831 0.43562865952456448 0 -0.10712235623861339 0.43184793122701681 0 -0.122298941816661 0.44784718247873362 0 -0.10712235623861339 0.43184793122701681 0 -0.122298941816661 0.44784718247873362 0 -0.1050259799239809 0.44841491616804829 0 -0.1205815636076578 0.45195135258487251 0 -0.122298941816661 0.44784718247873362 0 -0.10712235623861339 0.43184793122701681 0 -0.1050259799239809 0.44841491616804829 0 -0.122298941816661 0.44784718247873362 0 -0.1050259799239809 0.44841491616804829 0 -0.1205815636076578 0.45195135258487251 0 -0.1205815636076578 0.45195135258487251 0 -0.122298941816661 0.44784718247873362 0 -0.12395304356163669 0.45919870250019101 0 -0.12665196774111001 0.44217415169062152 0 -0.12109511074820831 0.43562865952456448 0 -0.122298941816661 0.44784718247873362 0 -0.1148332131465146 0.46054941509033231 0 -0.1225507354705023 0.47128646358429888 0 -0.1020547431687953 0.47189564061425082 0 -0.1050259799239809 0.44841491616804829 0 -0.1205815636076578 0.45195135258487251 0 -0.1148332131465146 0.46054941509033231 0 -0.1205815636076578 0.45195135258487251 0 -0.1148332131465146 0.46054941509033231 0 -0.12395304356163669 0.45919870250019101 0 -0.1148332131465146 0.46054941509033231 0 -0.12395304356163669 0.45919870250019101 0 -0.1225507354705023 0.47128646358429888 0 -0.13430194675397261 0.48241297023048108 0 -0.1225507354705023 0.47128646358429888 0 -0.1169994795981979 0.48717377771602211 0 -0.1225507354705023 0.47128646358429888 0 -0.1169994795981979 0.48717377771602211 0 -0.1020547431687953 0.47189564061425082 0 -0.13059318479361701 0.5 0 -0.1169994795981979 0.48717377771602211 0 -0.10484932557500889 0.5 0 -0.1169994795981979 0.48717377771602211 0 -0.094693574742992531 0.48676415415472002 0 -0.10484932557500889 0.5 0 -0.1169994795981979 0.48717377771602211 0 -0.094693574742992531 0.48676415415472002 0 -0.1020547431687953 0.47189564061425082 0 -0.16932630887825079 0.090254487428575697 0 -0.1527247203613708 0.099791309772028686 0 -0.1556476987439146 0.085531050941782302 0 -0.16932630887825079 0.090254487428575697 0 -0.15735411268418581 0.069495033819761173 0 -0.1556476987439146 0.085531050941782302 0 -0.16932630887825079 0.090254487428575697 0 -0.15735411268418581 0.069495033819761173 0 -0.17290579426657979 0.066380990371400259 0 -0.15735411268418581 0.069495033819761173 0 -0.17290579426657979 0.066380990371400259 0 -0.15056401392423929 0.052987007549043577 0 -0.17290579426657979 0.066380990371400259 0 -0.18471020849144179 0.087073097701359847 0 -0.19489078129344239 0.075108920114566172 0 -0.17290579426657979 0.066380990371400259 0 -0.18199136212666159 0.055831948938470127 0 -0.19489078129344239 0.075108920114566172 0 -0.16932630887825079 0.090254487428575697 0 -0.17290579426657979 0.066380990371400259 0 -0.18471020849144179 0.087073097701359847 0 -0.16932630887825079 0.090254487428575697 0 -0.18471020849144179 0.087073097701359847 0 -0.1800631522851123 0.1016663216030133 0 -0.18471020849144179 0.087073097701359847 0 -0.1800631522851123 0.1016663216030133 0 -0.19520732703250901 0.098760531561705528 0 -0.1800631522851123 0.1016663216030133 0 -0.18578595734136599 0.11504729894011261 0 -0.19520732703250901 0.098760531561705528 0 -0.1800631522851123 0.1016663216030133 0 -0.18578595734136599 0.11504729894011261 0 -0.16528595968199389 0.11719619238331271 0 -0.18578595734136599 0.11504729894011261 0 -0.16528595968199389 0.11719619238331271 0 -0.17437706766958269 0.13573944841704291 0 -0.18578595734136599 0.11504729894011261 0 -0.16528595968199389 0.11719619238331271 0 -0.16932630887825079 0.090254487428575697 0 -0.16528595968199389 0.11719619238331271 0 -0.1527247203613708 0.099791309772028686 0 -0.16932630887825079 0.090254487428575697 0 -0.1800631522851123 0.1016663216030133 0 -0.16528595968199389 0.11719619238331271 0 -0.1527247203613708 0.099791309772028686 0 -0.13663998307212721 0.105909267868148 0 -0.14318565305185099 0.082583372746763653 0 -0.1527247203613708 0.099791309772028686 0 -0.14478596202262181 0.11934508582651281 0 -0.13663998307212721 0.105909267868148 0 -0.16528595968199389 0.11719619238331271 0 -0.14478596202262181 0.11934508582651281 0 -0.16528595968199389 0.11719619238331271 0 -0.1527247203613708 0.099791309772028686 0 -0.14478596202262181 0.11934508582651281 0 -0.16528595968199389 0.11719619238331271 0 -0.14478596202262181 0.11934508582651281 0 -0.15774333742793059 0.1302126887094634 0 -0.14478596202262181 0.11934508582651281 0 -0.12428596436324971 0.12149397926971151 0 -0.14478596202262181 0.11934508582651281 0 -0.13663998307212721 0.105909267868148 0 -0.12428596436324971 0.12149397926971151 0 -0.13663998307212721 0.105909267868148 0 -0.1213181017677934 0.1093903784047619 0 -0.12428596436324971 0.12149397926971151 0 -0.13663998307212721 0.105909267868148 0 -0.1264769540869648 0.091960025661460235 0 -0.1213181017677934 0.1093903784047619 0 -0.1264769540869648 0.091960025661460235 0 -0.14318565305185099 0.082583372746763653 0 -0.12784063447554311 0.074775983035647059 0 -0.13663998307212721 0.105909267868148 0 -0.1264769540869648 0.091960025661460235 0 -0.14318565305185099 0.082583372746763653 0 -0.15735411268418581 0.069495033819761173 0 -0.1556476987439146 0.085531050941782302 0 -0.14318565305185099 0.082583372746763653 0 -0.1527247203613708 0.099791309772028686 0 -0.1556476987439146 0.085531050941782302 0 -0.14318565305185099 0.082583372746763653 0 -0.14318565305185099 0.082583372746763653 0 -0.13908378100454949 0.063310792189838927 0 -0.15735411268418581 0.069495033819761173 0 -0.14318565305185099 0.082583372746763653 0 -0.13908378100454949 0.063310792189838927 0 -0.14318565305185099 0.082583372746763653 0 -0.13908378100454949 0.063310792189838927 0 -0.12784063447554311 0.074775983035647059 0 -0.13908378100454949 0.063310792189838927 0 -0.12784063447554311 0.074775983035647059 0 -0.12616165157235179 0.060337080632980537 0 -0.13908378100454949 0.063310792189838927 0 -0.12616165157235179 0.060337080632980537 0 -0.13498190895725001 0.044038211632913868 0 -0.13908378100454949 0.063310792189838927 0 -0.13498190895725001 0.044038211632913868 0 -0.13464416500125251 0.042451327028881811 0 -0.1216384926838467 0.042233750192079852 0 -0.13498190895725001 0.044038211632913868 0 -0.13464416500125251 0.042451327028881811 0 -0.1216384926838467 0.042233750192079852 0 -0.13464416500125251 0.042451327028881811 0 -0.13920714872745629 0.042527662918430402 0 -0.1414997753215014 0.030638602760598582 0 -0.13498190895725001 0.044038211632913868 0 -0.13464416500125251 0.042451327028881811 0 -0.13920714872745629 0.042527662918430402 0 -0.13498190895725001 0.044038211632913868 0 -0.13464416500125251 0.042451327028881811 0 -0.13464416500125251 0.042451327028881811 0 -0.13920714872745629 0.042527662918430402 0 -0.13498190895725001 0.044038211632913868 0 -0.13920714872745629 0.042527662918430402 0 -0.13920714872745629 0.042527662918430402 0 -0.16226438274878971 0.042913396152461862 0 -0.13920714872745629 0.042527662918430402 0 -0.1490255857961103 0.039017512418365069 0 -0.13498190895725001 0.044038211632913868 0 -0.13920714872745629 0.042527662918430402 0 -0.15056401392423929 0.052987007549043577 0 -0.13920714872745629 0.042527662918430402 0 -0.1490255857961103 0.039017512418365069 0 -0.16226438274878971 0.042913396152461862 0 -0.13920714872745629 0.042527662918430402 0 -0.15056401392423929 0.052987007549043577 0 -0.16226438274878971 0.042913396152461862 0 -0.13920714872745629 0.042527662918430402 0 -0.1490255857961103 0.039017512418365069 0 -0.1414997753215014 0.030638602760598582 0 -0.1490255857961103 0.039017512418365069 0 -0.1414997753215014 0.030638602760598582 0 -0.15224649340773239 0.028884693790306119 0 -0.1490255857961103 0.039017512418365069 0 -0.15224649340773239 0.028884693790306119 0 -0.16226438274878971 0.042913396152461862 0 -0.15735411268418581 0.069495033819761173 0 -0.13908378100454949 0.063310792189838927 0 -0.15056401392423929 0.052987007549043577 0 -0.13908378100454949 0.063310792189838927 0 -0.13498190895725001 0.044038211632913868 0 -0.15056401392423929 0.052987007549043577 0 -0.1231592389501604 -0.01151041530668794 0 -0.12890170197570541 0.015470455861097149 0 -0.1438800315568145 0.0067594329243729767 0 -0.12890170197570541 0.015470455861097149 0 -0.1462257652850445 0.02135649329836177 0 -0.1438800315568145 0.0067594329243729767 0 -0.1231592389501604 -0.01151041530668794 0 -0.12890170197570541 0.015470455861097149 0 -0.12890170197570541 0.015470455861097149 0 -0.1414997753215014 0.030638602760598582 0 -0.1462257652850445 0.02135649329836177 0 -0.13464416500125251 0.042451327028881811 0 -0.12890170197570541 0.015470455861097149 0 -0.1176555940818048 0.026785626080231089 0 -0.13464416500125251 0.042451327028881811 0 -0.12890170197570541 0.015470455861097149 0 -0.13464416500125251 0.042451327028881811 0 -0.12890170197570541 0.015470455861097149 0 -0.1414997753215014 0.030638602760598582 0 -0.1462257652850445 0.02135649329836177 0 -0.1438800315568145 0.0067594329243729767 0 -0.1646008241634685 0.02502928115543401 0 -0.15224649340773239 0.028884693790306119 0 -0.1462257652850445 0.02135649329836177 0 -0.1646008241634685 0.02502928115543401 0 -0.1438800315568145 0.0067594329243729767 0 -0.1646008241634685 0.02502928115543401 0 -0.1414997753215014 0.030638602760598582 0 -0.15224649340773239 0.028884693790306119 0 -0.1462257652850445 0.02135649329836177 0 -0.14987877517658249 -0.01008769233691054 0 -0.1438800315568145 0.0067594329243729767 0 -0.17107803706591429 0.0042598912221591193 0 -0.1438800315568145 0.0067594329243729767 0 -0.17107803706591429 0.0042598912221591193 0 -0.1646008241634685 0.02502928115543401 0 -0.1646008241634685 0.02502928115543401 0 -0.18532161677012321 0.043299129386494523 0 -0.19413622663648189 0.018730231793931171 0 -0.17107803706591429 0.0042598912221591193 0 -0.1646008241634685 0.02502928115543401 0 -0.19413622663648189 0.018730231793931171 0 -0.19380535654774361 -0.0059916640098042553 0 -0.17107803706591429 0.0042598912221591193 0 -0.19413622663648189 0.018730231793931171 0 -0.17290579426657979 0.066380990371400259 0 -0.15056401392423929 0.052987007549043577 0 -0.16226438274878971 0.042913396152461862 0 -0.1646008241634685 0.02502928115543401 0 -0.16226438274878971 0.042913396152461862 0 -0.18532161677012321 0.043299129386494523 0 -0.15224649340773239 0.028884693790306119 0 -0.1646008241634685 0.02502928115543401 0 -0.16226438274878971 0.042913396152461862 0 -0.1646008241634685 0.02502928115543401 0 -0.18532161677012321 0.043299129386494523 0 -0.16226438274878971 0.042913396152461862 0 -0.18532161677012321 0.043299129386494523 0 -0.17290579426657979 0.066380990371400259 0 -0.16226438274878971 0.042913396152461862 0 -0.18199136212666159 0.055831948938470127 0 -0.16226438274878971 0.042913396152461862 0 -0.18532161677012321 0.043299129386494523 0 -0.18199136212666159 0.055831948938470127 0 -0.18532161677012321 0.043299129386494523 0 -0.18199136212666159 0.055831948938470127 0 -0.1945742355543745 0.051457308667426767 0 -0.18199136212666159 0.055831948938470127 0 -0.1945742355543745 0.051457308667426767 0 -0.19489078129344239 0.075108920114566172 0 -0.20042647768279079 0.054902549167337812 0 -0.1945742355543745 0.051457308667426767 0 -0.21282610245419431 0.067550266331903974 0 -0.20042647768279079 0.054902549167337812 0 -0.1945742355543745 0.051457308667426767 0 -0.20477003795777909 0.043624489418603217 0 -0.1945742355543745 0.051457308667426767 0 -0.19446709672521939 0.043452127597666618 0 -0.18532161677012321 0.043299129386494523 0 -0.1945742355543745 0.051457308667426767 0 -0.18532161677012321 0.043299129386494523 0 -0.19446709672521939 0.043452127597666618 0 -0.19413622663648189 0.018730231793931171 0 -0.18532161677012321 0.043299129386494523 0 -0.1945742355543745 0.051457308667426767 0 -0.19446709672521939 0.043452127597666618 0 -0.18532161677012321 0.043299129386494523 0 -0.19446709672521939 0.043452127597666618 0 -0.19446709672521939 0.043452127597666618 0 -0.20477003795777909 0.043624489418603217 0 -0.20488729312020251 0.028856108783723921 0 -0.19446709672521939 0.043452127597666618 0 -0.20477003795777909 0.043624489418603217 0 -0.1945742355543745 0.051457308667426767 0 -0.19446709672521939 0.043452127597666618 0 -0.20477003795777909 0.043624489418603217 0 -0.20042647768279079 0.054902549167337812 0 -0.2184215455257055 0.034767354606215523 0 -0.20042647768279079 0.054902549167337812 0 -0.20477003795777909 0.043624489418603217 0 -0.2184215455257055 0.034767354606215523 0 -0.20042647768279079 0.054902549167337812 0 -0.2184215455257055 0.034767354606215523 0 -0.21613246675241771 0.046158688988357517 0 -0.20477003795777909 0.043624489418603217 0 -0.2184215455257055 0.034767354606215523 0 -0.20488729312020251 0.028856108783723921 0 -0.20042647768279079 0.054902549167337812 0 -0.21613246675241771 0.046158688988357517 0 -0.2121672819223154 0.057121767307666688 0 -0.21613246675241771 0.046158688988357517 0 -0.2121672819223154 0.057121767307666688 0 -0.2236052180532169 0.064900956492368322 0 -0.1945742355543745 0.051457308667426767 0 -0.21282610245419431 0.067550266331903974 0 -0.20042647768279079 0.054902549167337812 0 -0.2121672819223154 0.057121767307666688 0 -0.21282610245419431 0.067550266331903974 0 -0.19380535654774361 -0.0059916640098042553 0 -0.19413622663648189 0.018730231793931171 0 -0.19380535654774361 -0.0059916640098042553 0 -0.19413622663648189 0.018730231793931171 0 -0.20634245682441041 0.0072878254295738404 0 -0.19446709672521939 0.043452127597666618 0 -0.19413622663648189 0.018730231793931171 0 -0.19413622663648189 0.018730231793931171 0 -0.20488729312020251 0.028856108783723921 0 -0.20634245682441041 0.0072878254295738404 0 -0.19446709672521939 0.043452127597666618 0 -0.19413622663648189 0.018730231793931171 0 -0.20488729312020251 0.028856108783723921 0 -0.21736523960918919 0.017050279470914469 0 -0.20488729312020251 0.028856108783723921 0 -0.20634245682441041 0.0072878254295738404 0 -0.2184215455257055 0.034767354606215523 0 -0.21736523960918919 0.017050279470914469 0 -0.20488729312020251 0.028856108783723921 0 -0.21736523960918919 0.017050279470914469 0 -0.20634245682441041 0.0072878254295738404 0 -0.22160413220632469 0.00074689388804805002 0 -0.21736523960918919 0.017050279470914469 0 -0.22160413220632469 0.00074689388804805002 0 -0.23641661336861999 0.01463216004509341 0 -0.23808270299121401 -0.0090090400044546739 0 -0.22160413220632469 0.00074689388804805002 0 -0.23641661336861999 0.01463216004509341 0 -0.2184215455257055 0.034767354606215523 0 -0.21736523960918919 0.017050279470914469 0 -0.23641661336861999 0.01463216004509341 0 -0.2184215455257055 0.034767354606215523 0 -0.23641661336861999 0.01463216004509341 0 -0.2184215455257055 0.034767354606215523 0 -0.23641661336861999 0.01463216004509341 0 -0.23314585246353561 0.039122333976753187 0 -0.25217160470833527 0.013394340926445741 0 -0.2460635779772137 0.02840502717849459 0 -0.23641661336861999 0.01463216004509341 0 -0.2460635779772137 0.02840502717849459 0 -0.23641661336861999 0.01463216004509341 0 -0.23314585246353561 0.039122333976753187 0 -0.23808270299121401 -0.0090090400044546739 0 -0.25441168121153462 -0.0055030345160287097 0 -0.23641661336861999 0.01463216004509341 0 -0.25441168121153462 -0.0055030345160287097 0 -0.23641661336861999 0.01463216004509341 0 -0.25441168121153462 -0.0055030345160287097 0 -0.25217160470833527 0.013394340926445741 0 -0.23641661336861999 0.01463216004509341 0 -0.21613246675241771 0.046158688988357517 0 -0.2236052180532169 0.064900956492368322 0 -0.22409106705576731 0.051523217870109557 0 -0.24555286837217591 0.06801167056802887 0 -0.2236052180532169 0.064900956492368322 0 -0.22409106705576731 0.051523217870109557 0 -0.23314585246353561 0.039122333976753187 0 -0.24083406165951141 0.05100544580880674 0 -0.21613246675241771 0.046158688988357517 0 -0.22409106705576731 0.051523217870109557 0 -0.2236052180532169 0.064900956492368322 0 -0.2184215455257055 0.034767354606215523 0 -0.21613246675241771 0.046158688988357517 0 -0.22294773294935649 0.042892898860358949 0 -0.21613246675241771 0.046158688988357517 0 -0.22409106705576731 0.051523217870109557 0 -0.22294773294935649 0.042892898860358949 0 -0.2184215455257055 0.034767354606215523 0 -0.22294773294935649 0.042892898860358949 0 -0.23314585246353561 0.039122333976753187 0 -0.22409106705576731 0.051523217870109557 0 -0.22294773294935649 0.042892898860358949 0 -0.23314585246353561 0.039122333976753187 0 -0.23314585246353561 0.039122333976753187 0 -0.24758745507599511 0.041584625118578369 0 -0.24083406165951141 0.05100544580880674 0 -0.2460635779772137 0.02840502717849459 0 -0.23314585246353561 0.039122333976753187 0 -0.24758745507599511 0.041584625118578369 0 -0.22409106705576731 0.051523217870109557 0 -0.24555286837217591 0.06801167056802887 0 -0.25699905901234332 0.05157453444368805 0 -0.24083406165951141 0.05100544580880674 0 -0.24555286837217591 0.06801167056802887 0 -0.25699905901234332 0.05157453444368805 0 -0.24758745507599511 0.041584625118578369 0 -0.24083406165951141 0.05100544580880674 0 -0.22409106705576731 0.051523217870109557 0 -0.24083406165951141 0.05100544580880674 0 -0.24555286837217591 0.06801167056802887 0 -0.25155491262517238 0.10169806643903311 0 -0.24893571653906521 0.091804982588433129 0 -0.23107796935401589 0.083643223996379246 0 -0.25092365096646307 0.083232766792401561 0 -0.24893571653906521 0.091804982588433129 0 -0.23107796935401589 0.083643223996379246 0 -0.25155491262517238 0.10169806643903311 0 -0.23107796935401589 0.083643223996379246 0 -0.25092365096646307 0.083232766792401561 0 -0.24555286837217591 0.06801167056802887 0 -0.23107796935401589 0.083643223996379246 0 -0.23107796935401589 0.083643223996379246 0 -0.21206435335067431 0.087665247270608287 0 -0.22428736280226319 0.096323215944681323 0 -0.23107796935401589 0.083643223996379246 0 -0.22428736280226319 0.096323215944681323 0 -0.23709410665850589 0.09873218523205457 0 -0.23107796935401589 0.083643223996379246 0 -0.23709410665850589 0.09873218523205457 0 -0.23107796935401589 0.083643223996379246 0 -0.2236052180532169 0.064900956492368322 0 -0.21282610245419431 0.067550266331903974 0 -0.24555286837217591 0.06801167056802887 0 -0.23107796935401589 0.083643223996379246 0 -0.2236052180532169 0.064900956492368322 0 -0.23107796935401589 0.083643223996379246 0 -0.21282610245419431 0.067550266331903974 0 -0.23107796935401589 0.083643223996379246 0 -0.2236052180532169 0.064900956492368322 0 -0.21282610245419431 0.067550266331903974 0 -0.21206435335067431 0.087665247270608287 0 -0.19489078129344239 0.075108920114566172 0 -0.2121672819223154 0.057121767307666688 0 -0.2236052180532169 0.064900956492368322 0 -0.21282610245419431 0.067550266331903974 0 -0.23107796935401589 0.083643223996379246 0 -0.21282610245419431 0.067550266331903974 0 -0.21206435335067431 0.087665247270608287 0 -0.18471020849144179 0.087073097701359847 0 -0.19489078129344239 0.075108920114566172 0 -0.19520732703250901 0.098760531561705528 0 -0.19489078129344239 0.075108920114566172 0 -0.19520732703250901 0.098760531561705528 0 -0.21206435335067431 0.087665247270608287 0 -0.19489078129344239 0.075108920114566172 0 -0.19520732703250901 0.098760531561705528 0 -0.1945742355543745 0.051457308667426767 0 -0.19489078129344239 0.075108920114566172 0 -0.1945742355543745 0.051457308667426767 0 -0.21282610245419431 0.067550266331903974 0 -0.19489078129344239 0.075108920114566172 0 -0.18578595734136599 0.11504729894011261 0 -0.20187161438030371 0.1157000723221643 0 -0.19520732703250901 0.098760531561705528 0 -0.18578595734136599 0.11504729894011261 0 -0.20187161438030371 0.1157000723221643 0 -0.19236691300772721 0.1343727488242325 0 -0.21206435335067431 0.087665247270608287 0 -0.19520732703250901 0.098760531561705528 0 -0.21433567901956349 0.10573866322649909 0 -0.20187161438030371 0.1157000723221643 0 -0.19520732703250901 0.098760531561705528 0 -0.21433567901956349 0.10573866322649909 0 -0.21206435335067431 0.087665247270608287 0 -0.21433567901956349 0.10573866322649909 0 -0.22428736280226319 0.096323215944681323 0 -0.20187161438030371 0.1157000723221643 0 -0.21433567901956349 0.10573866322649909 0 -0.2161944328309342 0.1217378127708612 0 -0.20187161438030371 0.1157000723221643 0 -0.2161944328309342 0.1217378127708612 0 -0.20687790530037861 0.13006233669644149 0 -0.2280123945178841 0.1112767802478755 0 -0.24311024396299349 0.1138211464677308 0 -0.23043129815573979 0.13202291149242801 0 -0.21433567901956349 0.10573866322649909 0 -0.2161944328309342 0.1217378127708612 0 -0.2280123945178841 0.1112767802478755 0 -0.2161944328309342 0.1217378127708612 0 -0.2280123945178841 0.1112767802478755 0 -0.23043129815573979 0.13202291149242801 0 -0.21433567901956349 0.10573866322649909 0 -0.2280123945178841 0.1112767802478755 0 -0.22428736280226319 0.096323215944681323 0 -0.2280123945178841 0.1112767802478755 0 -0.22428736280226319 0.096323215944681323 0 -0.23709410665850589 0.09873218523205457 0 -0.25155491262517238 0.10169806643903311 0 -0.23107796935401589 0.083643223996379246 0 -0.23709410665850589 0.09873218523205457 0 -0.2280123945178841 0.1112767802478755 0 -0.23709410665850589 0.09873218523205457 0 -0.24311024396299349 0.1138211464677308 0 -0.23709410665850589 0.09873218523205457 0 -0.24311024396299349 0.1138211464677308 0 -0.25155491262517238 0.10169806643903311 0 -0.23709410665850589 0.09873218523205457 0 -0.24311024396299349 0.1138211464677308 0 -0.25155491262517238 0.10169806643903311 0 -0.24311024396299349 0.1138211464677308 0 -0.25155491262517238 0.10169806643903311 0 -0.24311024396299349 0.1138211464677308 0 -0.2496318767403515 0.1107202465847851 0 -0.24311024396299349 0.1138211464677308 0 -0.24534820520282771 0.1194341351157084 0 -0.23043129815573979 0.13202291149242801 0 -0.24311024396299349 0.1138211464677308 0 -0.23043129815573979 0.13202291149242801 0 -0.2496318767403515 0.1107202465847851 0 -0.24534820520282771 0.1194341351157084 0 -0.24311024396299349 0.1138211464677308 0 -0.2496318767403515 0.1107202465847851 0 -0.24534820520282771 0.1194341351157084 0 -0.24311024396299349 0.1138211464677308 0 -0.24534820520282771 0.1194341351157084 0 -0.25097174827458302 0.1335384381131707 0 -0.24534820520282771 0.1194341351157084 0 -0.25097174827458302 0.1335384381131707 0 -0.24534820520282771 0.1194341351157084 0 -0.23799046829629189 0.13440131891627849 0 -0.25659529134633818 0.147642741110633 0 -0.25097174827458302 0.1335384381131707 0 -0.23799046829629189 0.13440131891627849 0 -0.24534820520282771 0.1194341351157084 0 -0.23799046829629189 0.13440131891627849 0 -0.24534820520282771 0.1194341351157084 0 -0.23799046829629189 0.13440131891627849 0 -0.23043129815573979 0.13202291149242801 0 -0.23799046829629189 0.13440131891627849 0 -0.23043129815573979 0.13202291149242801 0 -0.23063273138975801 0.1493685027168494 0 -0.23043129815573979 0.13202291149242801 0 -0.21563770561173601 0.1356261126397586 0 -0.21775235234848939 0.15022467651712759 0 -0.2161944328309342 0.1217378127708612 0 -0.23043129815573979 0.13202291149242801 0 -0.21563770561173601 0.1356261126397586 0 -0.23043129815573979 0.13202291149242801 0 -0.21775235234848939 0.15022467651712759 0 -0.23043129815573979 0.13202291149242801 0 -0.23063273138975801 0.1493685027168494 0 -0.21775235234848939 0.15022467651712759 0 -0.22410273169939821 0.15487804068602409 0 -0.23063273138975801 0.1493685027168494 0 -0.21775235234848939 0.15022467651712759 0 -0.23063273138975801 0.1493685027168494 0 -0.21775235234848939 0.15022467651712759 0 -0.22410273169939821 0.15487804068602409 0 -0.2267856898831318 0.15719419396532919 0 -0.21988161187857291 0.15631681932921859 0 -0.22410273169939821 0.15487804068602409 0 -0.2267856898831318 0.15719419396532919 0 -0.22410273169939821 0.15487804068602409 0 -0.21988161187857291 0.15631681932921859 0 -0.21775235234848939 0.15022467651712759 0 -0.23799046829629189 0.13440131891627849 0 -0.23063273138975801 0.1493685027168494 0 -0.23063273138975801 0.1493685027168494 0 -0.24230168277068409 0.1592505047815353 0 -0.2267856898831318 0.15719419396532919 0 -0.23063273138975801 0.1493685027168494 0 -0.2267856898831318 0.15719419396532919 0 -0.22410273169939821 0.15487804068602409 0 -0.23063273138975801 0.1493685027168494 0 -0.2267856898831318 0.15719419396532919 0 -0.25659529134633818 0.147642741110633 0 -0.23063273138975801 0.1493685027168494 0 -0.24230168277068409 0.1592505047815353 0 -0.25659529134633818 0.147642741110633 0 -0.23799046829629189 0.13440131891627849 0 -0.23063273138975801 0.1493685027168494 0 -0.25659529134633818 0.147642741110633 0 -0.23063273138975801 0.1493685027168494 0 -0.24230168277068409 0.1592505047815353 0 -0.24598086708149211 0.17376507191802079 0 -0.2267856898831318 0.15719419396532919 0 -0.24598086708149211 0.17376507191802079 0 -0.2267856898831318 0.15719419396532919 0 -0.24598086708149211 0.17376507191802079 0 -0.23249264826705041 0.18162160188631249 0 -0.2267856898831318 0.15719419396532919 0 -0.24598086708149211 0.17376507191802079 0 -0.23249264826705041 0.18162160188631249 0 -0.24598086708149211 0.17376507191802079 0 -0.23249264826705041 0.18162160188631249 0 -0.24533270921762371 0.1881589659560638 0 -0.23249264826705041 0.18162160188631249 0 -0.2267856898831318 0.15719419396532919 0 -0.21588620133310421 0.17936604524687941 0 -0.23249264826705041 0.18162160188631249 0 -0.21588620133310421 0.17936604524687941 0 -0.2228068007490418 0.19555686074912759 0 -0.2267856898831318 0.15719419396532919 0 -0.21588620133310421 0.17936604524687941 0 -0.2267856898831318 0.15719419396532919 0 -0.21988161187857291 0.15631681932921859 0 -0.21432444962176969 0.16201846957298971 0 -0.2267856898831318 0.15719419396532919 0 -0.21432444962176969 0.16201846957298971 0 -0.21294568235437419 0.16992484424802859 0 -0.2030061006273978 0.17139424478430401 0 -0.21775235234848939 0.15022467651712759 0 -0.2267856898831318 0.15719419396532919 0 -0.21294568235437419 0.16992484424802859 0 -0.21588620133310421 0.17936604524687941 0 -0.19671797173653471 0.16074865803322869 0 -0.20286585368567769 0.16303337487360459 0 -0.21775235234848939 0.15022467651712759 0 -0.20286585368567769 0.16303337487360459 0 -0.2030061006273978 0.17139424478430401 0 -0.21775235234848939 0.15022467651712759 0 -0.21432444962176969 0.16201846957298971 0 -0.2030061006273978 0.17139424478430401 0 -0.21775235234848939 0.15022467651712759 0 -0.21432444962176969 0.16201846957298971 0 -0.21294568235437419 0.16992484424802859 0 -0.2030061006273978 0.17139424478430401 0 -0.21294568235437419 0.16992484424802859 0 -0.20814747225395519 0.17283271853450671 0 -0.2030061006273978 0.17139424478430401 0 -0.21294568235437419 0.16992484424802859 0 -0.21588620133310421 0.17936604524687941 0 -0.2080853074986472 0.1775788705318721 0 -0.2051204526938446 0.1739797921343256 0 -0.20152563226927089 0.18048709590645209 0 -0.2030061006273978 0.17139424478430401 0 -0.20814747225395519 0.17283271853450671 0 -0.2051204526938446 0.1739797921343256 0 -0.2080853074986472 0.1775788705318721 0 -0.21294568235437419 0.16992484424802859 0 -0.20814747225395519 0.17283271853450671 0 -0.2080853074986472 0.1775788705318721 0 -0.20814747225395519 0.17283271853450671 0 -0.2051204526938446 0.1739797921343256 0 -0.2030061006273978 0.17139424478430401 0 -0.2051204526938446 0.1739797921343256 0 -0.2080853074986472 0.1775788705318721 0 -0.20152563226927089 0.18048709590645209 0 -0.2080853074986472 0.1775788705318721 0 -0.20277364653395161 0.18746831009985501 0 -0.20152563226927089 0.18048709590645209 0 -0.21588620133310421 0.17936604524687941 0 -0.2080853074986472 0.1775788705318721 0 -0.20277364653395161 0.18746831009985501 0 -0.2030061006273978 0.17139424478430401 0 -0.18864265399251359 0.19201426198190361 0 -0.18403355999473289 0.18439931678386079 0 -0.2030061006273978 0.17139424478430401 0 -0.18864265399251359 0.19201426198190361 0 -0.2030061006273978 0.17139424478430401 0 -0.18403355999473289 0.18439931678386079 0 -0.19398699003028849 0.1697659201597578 0 -0.18557658608654379 0.16665226202435349 0 -0.18403355999473289 0.18439931678386079 0 -0.20152563226927089 0.18048709590645209 0 -0.2030061006273978 0.17139424478430401 0 -0.18864265399251359 0.19201426198190361 0 -0.2030061006273978 0.17139424478430401 0 -0.19398699003028849 0.1697659201597578 0 -0.18403355999473289 0.18439931678386079 0 -0.20277364653395161 0.18746831009985501 0 -0.20152563226927089 0.18048709590645209 0 -0.18864265399251359 0.19201426198190361 0 -0.19671797173653471 0.16074865803322869 0 -0.20286585368567769 0.16303337487360459 0 -0.19398699003028849 0.1697659201597578 0 -0.20286585368567769 0.16303337487360459 0 -0.2030061006273978 0.17139424478430401 0 -0.19398699003028849 0.1697659201597578 0 -0.19671797173653471 0.16074865803322869 0 -0.19398699003028849 0.1697659201597578 0 -0.18557658608654379 0.16665226202435349 0 -0.19671797173653471 0.16074865803322869 0 -0.18776853321361869 0.1522177359056201 0 -0.18557658608654379 0.16665226202435349 0 -0.18776853321361869 0.1522177359056201 0 -0.21775235234848939 0.15022467651712759 0 -0.19671797173653471 0.16074865803322869 0 -0.18776853321361869 0.1522177359056201 0 -0.21775235234848939 0.15022467651712759 0 -0.18776853321361869 0.1522177359056201 0 -0.19236691300772721 0.1343727488242325 0 -0.20408068189639 0.14050072211663611 0 -0.20187161438030371 0.1157000723221643 0 -0.19236691300772721 0.1343727488242325 0 -0.20687790530037861 0.13006233669644149 0 -0.19236691300772721 0.1343727488242325 0 -0.20408068189639 0.14050072211663611 0 -0.20687790530037861 0.13006233669644149 0 -0.20408068189639 0.14050072211663611 0 -0.20687790530037861 0.13006233669644149 0 -0.21563770561173601 0.1356261126397586 0 -0.2161944328309342 0.1217378127708612 0 -0.20687790530037861 0.13006233669644149 0 -0.21563770561173601 0.1356261126397586 0 -0.20408068189639 0.14050072211663611 0 -0.21563770561173601 0.1356261126397586 0 -0.21775235234848939 0.15022467651712759 0 -0.18776853321361869 0.1522177359056201 0 -0.20408068189639 0.14050072211663611 0 -0.21775235234848939 0.15022467651712759 0 -0.21988161187857291 0.15631681932921859 0 -0.21432444962176969 0.16201846957298971 0 -0.21775235234848939 0.15022467651712759 0 -0.23153447884361869 0.23873641724331329 0 -0.22289916584526739 0.22796722002280659 0 -0.21448135671449889 0.2407303788512544 0 -0.22434868323342591 0.25287719570877248 0 -0.23153447884361869 0.23873641724331329 0 -0.21448135671449889 0.2407303788512544 0 -0.22434868323342591 0.25287719570877248 0 -0.23153447884361869 0.23873641724331329 0 -0.23937173939900569 0.25000892240791589 0 -0.23153447884361869 0.23873641724331329 0 -0.23937173939900569 0.25000892240791589 0 -0.24931631970513429 0.23942659273292949 0 -0.25768378580886803 0.26017067753966372 0 -0.23937173939900569 0.25000892240791589 0 -0.24931631970513429 0.23942659273292949 0 -0.23153447884361869 0.23873641724331329 0 -0.24931631970513429 0.23942659273292949 0 -0.2409488536013992 0.21868250792619581 0 -0.24931631970513429 0.23942659273292949 0 -0.2409488536013992 0.21868250792619581 0 -0.25658993574280559 0.22669099971176829 0 -0.24931631970513429 0.23942659273292949 0 -0.2409488536013992 0.21868250792619581 0 -0.23153447884361869 0.23873641724331329 0 -0.22289916584526739 0.22796722002280659 0 -0.2409488536013992 0.21868250792619581 0 -0.22289916584526739 0.22796722002280659 0 -0.2409488536013992 0.21868250792619581 0 -0.21825188853167549 0.21298950263133179 0 -0.2409488536013992 0.21868250792619581 0 -0.24241655283030181 0.20226925745268409 0 -0.21825188853167549 0.21298950263133179 0 -0.24241655283030181 0.20226925745268409 0 -0.21825188853167549 0.21298950263133179 0 -0.24241655283030181 0.20226925745268409 0 -0.2228068007490418 0.19555686074912759 0 -0.21825188853167549 0.21298950263133179 0 -0.25906363908136698 0.2090991990882847 0 -0.2409488536013992 0.21868250792619581 0 -0.24241655283030181 0.20226925745268409 0 -0.23249264826705041 0.18162160188631249 0 -0.24241655283030181 0.20226925745268409 0 -0.24533270921762371 0.1881589659560638 0 -0.23249264826705041 0.18162160188631249 0 -0.24241655283030181 0.20226925745268409 0 -0.2228068007490418 0.19555686074912759 0 -0.21588620133310421 0.17936604524687941 0 -0.20277364653395161 0.18746831009985501 0 -0.2049867127830772 0.20153789652842979 0 -0.21588620133310421 0.17936604524687941 0 -0.2228068007490418 0.19555686074912759 0 -0.2049867127830772 0.20153789652842979 0 -0.21588620133310421 0.17936604524687941 0 -0.2049867127830772 0.20153789652842979 0 -0.20277364653395161 0.18746831009985501 0 -0.2049867127830772 0.20153789652842979 0 -0.19758618999961461 0.19547683597961679 0 -0.20277364653395161 0.18746831009985501 0 -0.18864265399251359 0.19201426198190361 0 -0.19758618999961461 0.19547683597961679 0 -0.18864265399251359 0.19201426198190361 0 -0.19758618999961461 0.19547683597961679 0 -0.19036537556857541 0.20730619405279899 0 -0.2049867127830772 0.20153789652842979 0 -0.19758618999961461 0.19547683597961679 0 -0.19036537556857541 0.20730619405279899 0 -0.2049867127830772 0.20153789652842979 0 -0.1940872242330495 0.2237097478099801 0 -0.2049867127830772 0.20153789652842979 0 -0.19036537556857541 0.20730619405279899 0 -0.1940872242330495 0.2237097478099801 0 -0.2049867127830772 0.20153789652842979 0 -0.21825188853167549 0.21298950263133179 0 -0.1940872242330495 0.2237097478099801 0 -0.21825188853167549 0.21298950263133179 0 -0.1940872242330495 0.2237097478099801 0 -0.2228068007490418 0.19555686074912759 0 -0.2049867127830772 0.20153789652842979 0 -0.21825188853167549 0.21298950263133179 0 -0.22289916584526739 0.22796722002280659 0 -0.21825188853167549 0.21298950263133179 0 -0.20927925153514501 0.22869729346193751 0 -0.21825188853167549 0.21298950263133179 0 -0.20927925153514501 0.22869729346193751 0 -0.1940872242330495 0.2237097478099801 0 -0.22289916584526739 0.22796722002280659 0 -0.20927925153514501 0.22869729346193751 0 -0.21448135671449889 0.2407303788512544 0 -0.1940872242330495 0.2237097478099801 0 -0.19966970003376289 0.2360214062397446 0 -0.18624064126421089 0.23967134727906891 0 -0.1940872242330495 0.2237097478099801 0 -0.18624064126421089 0.23967134727906891 0 -0.20927925153514501 0.22869729346193751 0 -0.1940872242330495 0.2237097478099801 0 -0.19966970003376289 0.2360214062397446 0 -0.18791388583343391 0.25901304589080842 0 -0.20004969132505351 0.2485023636020027 0 -0.18624064126421089 0.23967134727906891 0 -0.19966970003376289 0.2360214062397446 0 -0.20004969132505351 0.2485023636020027 0 -0.18624064126421089 0.23967134727906891 0 -0.2122134260157022 0.25346492237249812 0 -0.20004969132505351 0.2485023636020027 0 -0.21448135671449889 0.2407303788512544 0 -0.20927925153514501 0.22869729346193751 0 -0.19966970003376289 0.2360214062397446 0 -0.21448135671449889 0.2407303788512544 0 -0.19966970003376289 0.2360214062397446 0 -0.20004969132505351 0.2485023636020027 0 -0.21448135671449889 0.2407303788512544 0 -0.22434868323342591 0.25287719570877248 0 -0.2122134260157022 0.25346492237249812 0 -0.21448135671449889 0.2407303788512544 0 -0.16941317374102119 0.23465597356987569 0 -0.1447391232489933 0.24560219932977209 0 -0.16941317374102119 0.23465597356987569 0 -0.15907866849321689 0.22587219153559271 0 -0.1447391232489933 0.24560219932977209 0 -0.16814614111586151 0.2521838310994724 0 -0.16941317374102119 0.23465597356987569 0 -0.1447391232489933 0.24560219932977209 0 -0.16814614111586151 0.2521838310994724 0 -0.16941317374102119 0.23465597356987569 0 -0.18624064126421089 0.23967134727906891 0 -0.1940872242330495 0.2237097478099801 0 -0.16941317374102119 0.23465597356987569 0 -0.17427920735763069 0.2126342791795042 0 -0.1940872242330495 0.2237097478099801 0 -0.16941317374102119 0.23465597356987569 0 -0.1940872242330495 0.2237097478099801 0 -0.16941317374102119 0.23465597356987569 0 -0.18624064126421089 0.23967134727906891 0 -0.16941317374102119 0.23465597356987569 0 -0.15907866849321689 0.22587219153559271 0 -0.17427920735763069 0.2126342791795042 0 -0.160074114029889 0.21291224901200179 0 -0.1650610193620671 0.19740438878341629 0 -0.14608847872940101 0.2104094607829716 0 -0.160074114029889 0.21291224901200179 0 -0.17427920735763069 0.2126342791795042 0 -0.1650610193620671 0.19740438878341629 0 -0.15907866849321689 0.22587219153559271 0 -0.160074114029889 0.21291224901200179 0 -0.17427920735763069 0.2126342791795042 0 -0.18864265399251359 0.19201426198190361 0 -0.19036537556857541 0.20730619405279899 0 -0.17427920735763069 0.2126342791795042 0 -0.19036537556857541 0.20730619405279899 0 -0.1940872242330495 0.2237097478099801 0 -0.17427920735763069 0.2126342791795042 0 -0.1650610193620671 0.19740438878341629 0 -0.18403355999473289 0.18439931678386079 0 -0.16876563770639599 0.18257013005258671 0 -0.18864265399251359 0.19201426198190361 0 -0.17427920735763069 0.2126342791795042 0 -0.18864265399251359 0.19201426198190361 0 -0.17427920735763069 0.2126342791795042 0 -0.1650610193620671 0.19740438878341629 0 -0.1650610193620671 0.19740438878341629 0 -0.18403355999473289 0.18439931678386079 0 -0.18864265399251359 0.19201426198190361 0 -0.1650610193620671 0.19740438878341629 0 -0.18403355999473289 0.18439931678386079 0 -0.1650610193620671 0.19740438878341629 0 -0.15128965124133389 0.1967754593359464 0 -0.15583761074435351 0.18497148983389181 0 -0.1650610193620671 0.19740438878341629 0 -0.16876563770639599 0.18257013005258671 0 -0.15583761074435351 0.18497148983389181 0 -0.1406378501378624 0.18818059040465671 0 -0.14608847872940101 0.2104094607829716 0 -0.1650610193620671 0.19740438878341629 0 -0.15128965124133389 0.1967754593359464 0 -0.14608847872940101 0.2104094607829716 0 -0.15128965124133389 0.1967754593359464 0 -0.1406378501378624 0.18818059040465671 0 -0.14608847872940101 0.2104094607829716 0 -0.15128965124133389 0.1967754593359464 0 -0.1406378501378624 0.18818059040465671 0 -0.15583761074435351 0.18497148983389181 0 -0.1406378501378624 0.18818059040465671 0 -0.12940687414427701 0.20508160682215831 0 -0.1217629237691734 0.18061000490987189 0 -0.1406378501378624 0.18818059040465671 0 -0.12940687414427701 0.20508160682215831 0 -0.14608847872940101 0.2104094607829716 0 -0.14608847872940101 0.2104094607829716 0 -0.12835961704094409 0.2225620304989947 0 -0.12940687414427701 0.20508160682215831 0 -0.14608847872940101 0.2104094607829716 0 -0.12835961704094409 0.2225620304989947 0 -0.1650610193620671 0.19740438878341629 0 -0.14608847872940101 0.2104094607829716 0 -0.14608847872940101 0.2104094607829716 0 -0.14883266097737929 0.22160084365934549 0 -0.12835961704094409 0.2225620304989947 0 -0.14608847872940101 0.2104094607829716 0 -0.14883266097737929 0.22160084365934549 0 -0.160074114029889 0.21291224901200179 0 -0.14608847872940101 0.2104094607829716 0 -0.14883266097737929 0.22160084365934549 0 -0.15907866849321689 0.22587219153559271 0 -0.14176281804788299 0.23109210798496249 0 -0.1447391232489933 0.24560219932977209 0 -0.15907866849321689 0.22587219153559271 0 -0.14176281804788299 0.23109210798496249 0 -0.14883266097737929 0.22160084365934549 0 -0.15907866849321689 0.22587219153559271 0 -0.160074114029889 0.21291224901200179 0 -0.14883266097737929 0.22160084365934549 0 -0.14176281804788299 0.23109210798496249 0 -0.14883266097737929 0.22160084365934549 0 -0.12835961704094409 0.2225620304989947 0 -0.14176281804788299 0.23109210798496249 0 -0.12835961704094409 0.2225620304989947 0 -0.12780402047888129 0.23982327490110761 0 -0.1200650727569653 0.25654842508966841 0 -0.12780402047888129 0.23982327490110761 0 -0.1447391232489933 0.24560219932977209 0 -0.14176281804788299 0.23109210798496249 0 -0.12780402047888129 0.23982327490110761 0 -0.1447391232489933 0.24560219932977209 0 -0.1601302131421079 0.14328027603387791 0 -0.17437706766958269 0.13573944841704291 0 -0.1711438840022981 0.15779537472505051 0 -0.1601302131421079 0.14328027603387791 0 -0.1711438840022981 0.15779537472505051 0 -0.14988834269945039 0.15588395395993129 0 -0.16528595968199389 0.11719619238331271 0 -0.15774333742793059 0.1302126887094634 0 -0.17437706766958269 0.13573944841704291 0 -0.1601302131421079 0.14328027603387791 0 -0.15774333742793059 0.1302126887094634 0 -0.17437706766958269 0.13573944841704291 0 -0.18578595734136599 0.11504729894011261 0 -0.19236691300772721 0.1343727488242325 0 -0.17437706766958269 0.13573944841704291 0 -0.18776853321361869 0.1522177359056201 0 -0.17437706766958269 0.13573944841704291 0 -0.1711438840022981 0.15779537472505051 0 -0.18776853321361869 0.1522177359056201 0 -0.19236691300772721 0.1343727488242325 0 -0.17437706766958269 0.13573944841704291 0 -0.18776853321361869 0.1522177359056201 0 -0.18557658608654379 0.16665226202435349 0 -0.1711438840022981 0.15779537472505051 0 -0.18557658608654379 0.16665226202435349 0 -0.17454801374372439 0.1729178754059362 0 -0.1711438840022981 0.15779537472505051 0 -0.18557658608654379 0.16665226202435349 0 -0.18403355999473289 0.18439931678386079 0 -0.17454801374372439 0.1729178754059362 0 -0.18403355999473289 0.18439931678386079 0 -0.17454801374372439 0.1729178754059362 0 -0.16876563770639599 0.18257013005258671 0 -0.17454801374372439 0.1729178754059362 0 -0.16876563770639599 0.18257013005258671 0 -0.1619926283273648 0.17210633158311989 0 -0.16876563770639599 0.18257013005258671 0 -0.1619926283273648 0.17210633158311989 0 -0.15583761074435351 0.18497148983389181 0 -0.1619926283273648 0.17210633158311989 0 -0.1711438840022981 0.15779537472505051 0 -0.14988834269945039 0.15588395395993129 0 -0.17454801374372439 0.1729178754059362 0 -0.1619926283273648 0.17210633158311989 0 -0.1711438840022981 0.15779537472505051 0 -0.1483002012625072 0.17323973764217021 0 -0.1351872215463249 0.16595172002634151 0 -0.14988834269945039 0.15588395395993129 0 -0.1619926283273648 0.17210633158311989 0 -0.1483002012625072 0.17323973764217021 0 -0.14988834269945039 0.15588395395993129 0 -0.1406378501378624 0.18818059040465671 0 -0.1483002012625072 0.17323973764217021 0 -0.1351872215463249 0.16595172002634151 0 -0.1619926283273648 0.17210633158311989 0 -0.15583761074435351 0.18497148983389181 0 -0.1483002012625072 0.17323973764217021 0 -0.1406378501378624 0.18818059040465671 0 -0.15583761074435351 0.18497148983389181 0 -0.1483002012625072 0.17323973764217021 0 -0.1406378501378624 0.18818059040465671 0 -0.1351872215463249 0.16595172002634151 0 -0.1217629237691734 0.18061000490987189 0 -0.1406378501378624 0.18818059040465671 0 -0.1351872215463249 0.16595172002634151 0 -0.1351872215463249 0.16595172002634151 0 -0.1297365929547874 0.14372284964802651 0 -0.14988834269945039 0.15588395395993129 0 -0.1351872215463249 0.16595172002634151 0 -0.1297365929547874 0.14372284964802651 0 -0.1351872215463249 0.16595172002634151 0 -0.1297365929547874 0.14372284964802651 0 -0.11653844495345229 0.1541483935169842 0 -0.1601302131421079 0.14328027603387791 0 -0.14988834269945039 0.15588395395993129 0 -0.14413748462334661 0.1355024408865704 0 -0.1297365929547874 0.14372284964802651 0 -0.14988834269945039 0.15588395395993129 0 -0.14413748462334661 0.1355024408865704 0 -0.1601302131421079 0.14328027603387791 0 -0.15774333742793059 0.1302126887094634 0 -0.14413748462334661 0.1355024408865704 0 -0.14478596202262181 0.11934508582651281 0 -0.15774333742793059 0.1302126887094634 0 -0.14413748462334661 0.1355024408865704 0 -0.1297365929547874 0.14372284964802651 0 -0.12428596436324971 0.12149397926971151 0 -0.1297365929547874 0.14372284964802651 0 -0.14413748462334661 0.1355024408865704 0 -0.12428596436324971 0.12149397926971151 0 -0.14478596202262181 0.11934508582651281 0 -0.14413748462334661 0.1355024408865704 0 -0.12428596436324971 0.12149397926971151 0 -0.1166903092593479 0.13701797956449671 0 -0.10384790323617391 0.1426328287121395 0 -0.1090426407890762 0.1230918466756219 0 -0.1297365929547874 0.14372284964802651 0 -0.1166903092593479 0.13701797956449671 0 -0.12428596436324971 0.12149397926971151 0 -0.1166903092593479 0.13701797956449671 0 -0.12428596436324971 0.12149397926971151 0 -0.1090426407890762 0.1230918466756219 0 -0.10384790323617391 0.1426328287121395 0 -0.091779074236601324 0.13272338627698679 0 -0.1090426407890762 0.1230918466756219 0 -0.10384790323617391 0.1426328287121395 0 -0.11653844495345229 0.1541483935169842 0 -0.098690851663685089 0.15638447726972871 0 -0.10384790323617391 0.1426328287121395 0 -0.098690851663685089 0.15638447726972871 0 -0.085272729686500709 0.15074616099560109 0 -0.1166903092593479 0.13701797956449671 0 -0.10384790323617391 0.1426328287121395 0 -0.11653844495345229 0.1541483935169842 0 -0.1297365929547874 0.14372284964802651 0 -0.1166903092593479 0.13701797956449671 0 -0.11653844495345229 0.1541483935169842 0 -0.1351872215463249 0.16595172002634151 0 -0.11653844495345229 0.1541483935169842 0 -0.1217629237691734 0.18061000490987189 0 -0.11653844495345229 0.1541483935169842 0 -0.1217629237691734 0.18061000490987189 0 -0.1057425295272337 0.16869612805633691 0 -0.1217629237691734 0.18061000490987189 0 -0.10188697355126571 0.18432059664512679 0 -0.1057425295272337 0.16869612805633691 0 -0.10188697355126571 0.18432059664512679 0 -0.1057425295272337 0.16869612805633691 0 -0.085609858123310303 0.16962402033597759 0 -0.11653844495345229 0.1541483935169842 0 -0.1057425295272337 0.16869612805633691 0 -0.098690851663685089 0.15638447726972871 0 -0.1057425295272337 0.16869612805633691 0 -0.098690851663685089 0.15638447726972871 0 -0.085609858123310303 0.16962402033597759 0 -0.098690851663685089 0.15638447726972871 0 -0.085609858123310303 0.16962402033597759 0 -0.085272729686500709 0.15074616099560109 0 -0.085609858123310303 0.16962402033597759 0 -0.068284939042067352 0.16652294446964 0 -0.085272729686500709 0.15074616099560109 0 -0.085609858123310303 0.16962402033597759 0 -0.086474187029164415 0.18749859622177001 0 -0.064396955062547404 0.18536101898627641 0 -0.10188697355126571 0.18432059664512679 0 -0.085609858123310303 0.16962402033597759 0 -0.086474187029164415 0.18749859622177001 0 -0.085609858123310303 0.16962402033597759 0 -0.064396955062547404 0.18536101898627641 0 -0.068284939042067352 0.16652294446964 0 -0.068284939042067352 0.16652294446964 0 -0.066882263991817084 0.14983470803709509 0 -0.052915166008830651 0.16392052253527931 0 -0.068284939042067352 0.16652294446964 0 -0.066882263991817084 0.14983470803709509 0 -0.085272729686500709 0.15074616099560109 0 -0.066882263991817084 0.14983470803709509 0 -0.078907531041968015 0.13854880261099231 0 -0.085272729686500709 0.15074616099560109 0 -0.066882263991817084 0.14983470803709509 0 -0.06736328638198702 0.13239570911432461 0 -0.055931765650236782 0.1378247398590626 0 -0.06736328638198702 0.13239570911432461 0 -0.078907531041968015 0.13854880261099231 0 -0.081348980203036561 0.12185919610928971 0 -0.066882263991817084 0.14983470803709509 0 -0.06736328638198702 0.13239570911432461 0 -0.078907531041968015 0.13854880261099231 0 -0.06736328638198702 0.13239570911432461 0 -0.056321637274860628 0.1256360977897551 0 -0.066666355503714442 0.1194928112247006 0 -0.078907531041968015 0.13854880261099231 0 -0.091779074236601324 0.13272338627698679 0 -0.081348980203036561 0.12185919610928971 0 -0.10384790323617391 0.1426328287121395 0 -0.091779074236601324 0.13272338627698679 0 -0.085272729686500709 0.15074616099560109 0 -0.078907531041968015 0.13854880261099231 0 -0.091779074236601324 0.13272338627698679 0 -0.085272729686500709 0.15074616099560109 0 -0.1000211183564635 0.24910540585133639 0 -0.11063075535248711 0.2347146002150175 0 -0.09334189120775592 0.23383067957888859 0 -0.1200650727569653 0.25654842508966841 0 -0.12780402047888129 0.23982327490110761 0 -0.11063075535248711 0.2347146002150175 0 -0.1200650727569653 0.25654842508966841 0 -0.1000211183564635 0.24910540585133639 0 -0.11063075535248711 0.2347146002150175 0 -0.12835961704094409 0.2225620304989947 0 -0.11063075535248711 0.2347146002150175 0 -0.11618049091046841 0.21306079305166081 0 -0.12835961704094409 0.2225620304989947 0 -0.12780402047888129 0.23982327490110761 0 -0.11063075535248711 0.2347146002150175 0 -0.12835961704094409 0.2225620304989947 0 -0.11063075535248711 0.2347146002150175 0 -0.11063075535248711 0.2347146002150175 0 -0.099142438113948822 0.215094161283722 0 -0.11618049091046841 0.21306079305166081 0 -0.11063075535248711 0.2347146002150175 0 -0.099142438113948822 0.215094161283722 0 -0.09334189120775592 0.23383067957888859 0 -0.099142438113948822 0.215094161283722 0 -0.1113259679547564 0.19965194026954231 0 -0.096183191124974171 0.19843646837039861 0 -0.099142438113948822 0.215094161283722 0 -0.11618049091046841 0.21306079305166081 0 -0.1113259679547564 0.19965194026954231 0 -0.12940687414427701 0.20508160682215831 0 -0.12835961704094409 0.2225620304989947 0 -0.11618049091046841 0.21306079305166081 0 -0.12940687414427701 0.20508160682215831 0 -0.11618049091046841 0.21306079305166081 0 -0.1113259679547564 0.19965194026954231 0 -0.12940687414427701 0.20508160682215831 0 -0.1217629237691734 0.18061000490987189 0 -0.1113259679547564 0.19965194026954231 0 -0.1217629237691734 0.18061000490987189 0 -0.10188697355126571 0.18432059664512679 0 -0.1113259679547564 0.19965194026954231 0 -0.10188697355126571 0.18432059664512679 0 -0.1113259679547564 0.19965194026954231 0 -0.096183191124974171 0.19843646837039861 0 -0.10188697355126571 0.18432059664512679 0 -0.086474187029164415 0.18749859622177001 0 -0.096183191124974171 0.19843646837039861 0 -0.086474187029164415 0.18749859622177001 0 -0.096183191124974171 0.19843646837039861 0 -0.080159354148327699 0.20364876608186819 0 -0.064396955062547404 0.18536101898627641 0 -0.080159354148327699 0.20364876608186819 0 -0.062471401712302511 0.20868975613548241 0 -0.086474187029164415 0.18749859622177001 0 -0.064396955062547404 0.18536101898627641 0 -0.080159354148327699 0.20364876608186819 0 -0.080159354148327699 0.20364876608186819 0 -0.079261542806851062 0.22102123875498789 0 -0.062471401712302511 0.20868975613548241 0 -0.099142438113948822 0.215094161283722 0 -0.096183191124974171 0.19843646837039861 0 -0.080159354148327699 0.20364876608186819 0 -0.099142438113948822 0.215094161283722 0 -0.080159354148327699 0.20364876608186819 0 -0.079261542806851062 0.22102123875498789 0 -0.09334189120775592 0.23383067957888859 0 -0.079261542806851062 0.22102123875498789 0 -0.076858009621886367 0.2482388650172308 0 -0.099142438113948822 0.215094161283722 0 -0.09334189120775592 0.23383067957888859 0 -0.079261542806851062 0.22102123875498789 0 -0.079261542806851062 0.22102123875498789 0 -0.060227172772067392 0.22782647633180511 0 -0.062471401712302511 0.20868975613548241 0 -0.079261542806851062 0.22102123875498789 0 -0.076858009621886367 0.2482388650172308 0 -0.060227172772067392 0.22782647633180511 0 -0.076858009621886367 0.2482388650172308 0 -0.058125444104681893 0.24600468991723079 0 -0.060227172772067392 0.22782647633180511 0 -0.1000211183564635 0.24910540585133639 0 -0.09334189120775592 0.23383067957888859 0 -0.076858009621886367 0.2482388650172308 0 -0.043164225888924657 0.23581993684767691 0 -0.031296630384082709 0.22788403248973069 0 -0.02627617770287325 0.24201379537057099 0 -0.038899674289434687 0.2584472851928335 0 -0.043164225888924657 0.23581993684767691 0 -0.058125444104681893 0.24600468991723079 0 -0.038899674289434687 0.2584472851928335 0 -0.043164225888924657 0.23581993684767691 0 -0.02627617770287325 0.24201379537057099 0 -0.043164225888924657 0.23581993684767691 0 -0.058125444104681893 0.24600468991723079 0 -0.060227172772067392 0.22782647633180511 0 -0.043164225888924657 0.23581993684767691 0 -0.060227172772067392 0.22782647633180511 0 -0.043431247150020301 0.21579594569525351 0 -0.043164225888924657 0.23581993684767691 0 -0.031296630384082709 0.22788403248973069 0 -0.043431247150020301 0.21579594569525351 0 -0.031296630384082709 0.22788403248973069 0 -0.043431247150020301 0.21579594569525351 0 -0.02783379533968906 0.21576261626462739 0 -0.043431247150020301 0.21579594569525351 0 -0.047538380177680757 0.19930806252014119 0 -0.030949097451782322 0.1989641119691197 0 -0.043431247150020301 0.21579594569525351 0 -0.030949097451782322 0.1989641119691197 0 -0.02783379533968906 0.21576261626462739 0 -0.043431247150020301 0.21579594569525351 0 -0.062471401712302511 0.20868975613548241 0 -0.047538380177680757 0.19930806252014119 0 -0.060227172772067392 0.22782647633180511 0 -0.043431247150020301 0.21579594569525351 0 -0.062471401712302511 0.20868975613548241 0 -0.064396955062547404 0.18536101898627641 0 -0.062471401712302511 0.20868975613548241 0 -0.047538380177680757 0.19930806252014119 0 -0.064396955062547404 0.18536101898627641 0 -0.047538380177680757 0.19930806252014119 0 -0.046988042468333428 0.18398303306613639 0 -0.030949097451782322 0.1989641119691197 0 -0.046988042468333428 0.18398303306613639 0 -0.02932018179806729 0.1797135164588968 0 -0.047538380177680757 0.19930806252014119 0 -0.030949097451782322 0.1989641119691197 0 -0.046988042468333428 0.18398303306613639 0 -0.030949097451782322 0.1989641119691197 0 -0.019626142913709291 0.1881281194796845 0 -0.01341061996080067 0.19824877412901781 0 -0.030949097451782322 0.1989641119691197 0 -0.019626142913709291 0.1881281194796845 0 -0.02932018179806729 0.1797135164588968 0 -0.030949097451782322 0.1989641119691197 0 -0.01341061996080067 0.19824877412901781 0 -0.016330230888524741 0.21060820752694609 0 -0.019626142913709291 0.1881281194796845 0 -0.01341061996080067 0.19824877412901781 0 -0.0058823588514793756 0.18713004986792631 0 -0.0028689028022349751 0.19766052020999331 0 -0.01341061996080067 0.19824877412901781 0 -0.0058823588514793756 0.18713004986792631 0 -0.0028689028022349751 0.19766052020999331 0 -0.0058823588514793756 0.18713004986792631 0 0.0047849366889574953 0.19349205637821959 0 -0.0028689028022349751 0.19766052020999331 0 -0.01341061996080067 0.19824877412901781 0 -0.0055361644606871921 0.2072914226164464 0 -0.0028689028022349751 0.19766052020999331 0 -0.0055361644606871921 0.2072914226164464 0 0.0049951212873046158 0.20414898730819769 0 -0.01341061996080067 0.19824877412901781 0 -0.0055361644606871921 0.2072914226164464 0 -0.016330230888524741 0.21060820752694609 0 -0.0055361644606871921 0.2072914226164464 0 -0.0080852105368486478 0.21888759942834349 0 0.00073282988830796272 0.21488993564660239 0 -0.0055361644606871921 0.2072914226164464 0 -0.016330230888524741 0.21060820752694609 0 -0.0080852105368486478 0.21888759942834349 0 -0.030949097451782322 0.1989641119691197 0 -0.016330230888524741 0.21060820752694609 0 -0.02783379533968906 0.21576261626462739 0 -0.016330230888524741 0.21060820752694609 0 -0.02783379533968906 0.21576261626462739 0 -0.01697700351211678 0.22702045144369809 0 -0.031296630384082709 0.22788403248973069 0 -0.02783379533968906 0.21576261626462739 0 -0.01697700351211678 0.22702045144369809 0 -0.031296630384082709 0.22788403248973069 0 -0.01697700351211678 0.22702045144369809 0 -0.02627617770287325 0.24201379537057099 0 -0.01697700351211678 0.22702045144369809 0 -0.009410176840658601 0.24322056435945061 0 0.00081779036568457939 0.22857396347179651 0 -0.01697700351211678 0.22702045144369809 0 -0.0080852105368486478 0.21888759942834349 0 0.00081779036568457939 0.22857396347179651 0 -0.016330230888524741 0.21060820752694609 0 -0.01697700351211678 0.22702045144369809 0 -0.0080852105368486478 0.21888759942834349 0 -0.0080852105368486478 0.21888759942834349 0 0.00081779036568457939 0.22857396347179651 0 0.00073282988830796272 0.21488993564660239 0 -0.009410176840658601 0.24322056435945061 0 0.0030585758369763671 0.24538293665774921 0 0.00081779036568457939 0.22857396347179651 0 -0.00045229697026904348 0.25795292580345919 0 -0.009410176840658601 0.24322056435945061 0 0.0030585758369763671 0.24538293665774921 0 -0.01697700351211678 0.22702045144369809 0 -0.009410176840658601 0.24322056435945061 0 -0.02627617770287325 0.24201379537057099 0 -0.018000355716265092 0.25741728106819378 0 -0.009410176840658601 0.24322056435945061 0 -0.02627617770287325 0.24201379537057099 0 -0.040279150617135481 0.1311596336187722 0 -0.048812489985384247 0.15009755073536579 0 -0.02995423976938389 0.14753321456201399 0 -0.048812489985384247 0.15009755073536579 0 -0.03873742365468557 0.16654695008502179 0 -0.02995423976938389 0.14753321456201399 0 -0.040279150617135481 0.1311596336187722 0 -0.02995423976938389 0.14753321456201399 0 -0.025269695602097939 0.1268204096453639 0 -0.040279150617135481 0.1311596336187722 0 -0.02995423976938389 0.14753321456201399 0 -0.040279150617135481 0.1311596336187722 0 -0.048812489985384247 0.15009755073536579 0 -0.040279150617135481 0.1311596336187722 0 -0.055931765650236782 0.1378247398590626 0 -0.048812489985384247 0.15009755073536579 0 -0.040279150617135481 0.1311596336187722 0 -0.056321637274860628 0.1256360977897551 0 -0.055931765650236782 0.1378247398590626 0 -0.06736328638198702 0.13239570911432461 0 -0.056321637274860628 0.1256360977897551 0 -0.055931765650236782 0.1378247398590626 0 -0.066882263991817084 0.14983470803709509 0 -0.055931765650236782 0.1378247398590626 0 -0.048812489985384247 0.15009755073536579 0 -0.066882263991817084 0.14983470803709509 0 -0.048812489985384247 0.15009755073536579 0 -0.052915166008830651 0.16392052253527931 0 -0.064396955062547404 0.18536101898627641 0 -0.068284939042067352 0.16652294446964 0 -0.052915166008830651 0.16392052253527931 0 -0.064396955062547404 0.18536101898627641 0 -0.052915166008830651 0.16392052253527931 0 -0.046988042468333428 0.18398303306613639 0 -0.046988042468333428 0.18398303306613639 0 -0.03873742365468557 0.16654695008502179 0 -0.02932018179806729 0.1797135164588968 0 -0.052915166008830651 0.16392052253527931 0 -0.046988042468333428 0.18398303306613639 0 -0.03873742365468557 0.16654695008502179 0 -0.048812489985384247 0.15009755073536579 0 -0.052915166008830651 0.16392052253527931 0 -0.03873742365468557 0.16654695008502179 0 -0.03873742365468557 0.16654695008502179 0 -0.0196293289216313 0.16390679550525519 0 -0.02995423976938389 0.14753321456201399 0 -0.03873742365468557 0.16654695008502179 0 -0.0196293289216313 0.16390679550525519 0 -0.02932018179806729 0.1797135164588968 0 -0.0196293289216313 0.16390679550525519 0 -0.02932018179806729 0.1797135164588968 0 -0.01387835559757384 0.17544615768527189 0 -0.019626142913709291 0.1881281194796845 0 -0.02932018179806729 0.1797135164588968 0 -0.01387835559757384 0.17544615768527189 0 -0.019626142913709291 0.1881281194796845 0 -0.01387835559757384 0.17544615768527189 0 -0.0058823588514793756 0.18713004986792631 0 -0.01387835559757384 0.17544615768527189 0 -0.003776481264609602 0.17825945363558701 0 -0.0058823588514793756 0.18713004986792631 0 -0.01387835559757384 0.17544615768527189 0 -0.003776481264609602 0.17825945363558701 0 -0.00043937756093595721 0.16632191324053061 0 -0.003776481264609602 0.17825945363558701 0 -0.0058823588514793756 0.18713004986792631 0 0.0053637487760516524 0.184772136860261 0 -0.0196293289216313 0.16390679550525519 0 -0.00043937756093595721 0.16632191324053061 0 -0.0081948028869626779 0.15121960150640651 0 -0.0196293289216313 0.16390679550525519 0 -0.01387835559757384 0.17544615768527189 0 -0.00043937756093595721 0.16632191324053061 0 -0.00043937756093595721 0.16632191324053061 0 -0.0081948028869626779 0.15121960150640651 0 0.007349566227534461 0.15479089765464071 0 -0.0081948028869626779 0.15121960150640651 0 -0.01129870168380114 0.1340879280668987 0 0.0048032643864417586 0.14067686000910001 0 -0.0196293289216313 0.16390679550525519 0 -0.02995423976938389 0.14753321456201399 0 -0.0196293289216313 0.16390679550525519 0 -0.0081948028869626779 0.15121960150640651 0 -0.02995423976938389 0.14753321456201399 0 -0.0081948028869626779 0.15121960150640651 0 -0.02995423976938389 0.14753321456201399 0 -0.01129870168380114 0.1340879280668987 0 -0.02995423976938389 0.14753321456201399 0 -0.025269695602097939 0.1268204096453639 0 -0.01129870168380114 0.1340879280668987 0 -0.025269695602097939 0.1268204096453639 0 -0.01129870168380114 0.1340879280668987 0 -0.0072238578802305484 0.1142953266605153 0 -0.01129870168380114 0.1340879280668987 0 0.0045066700958542229 0.12758298615988009 0 0.0048032643864417586 0.14067686000910001 0 -0.01129870168380114 0.1340879280668987 0 -0.0072238578802305484 0.1142953266605153 0 0.0045066700958542229 0.12758298615988009 0 -0.0072238578802305484 0.1142953266605153 0 -0.01379330872441395 0.1012452821986803 0 0.003275387849536876 0.093466029536181411 0 -0.019608245817803859 0.085284992411933783 0 -0.031616519049157722 0.1119347801860909 0 -0.0072238578802305484 0.1142953266605153 0 -0.01379330872441395 0.1012452821986803 0 -0.031616519049157722 0.1119347801860909 0 -0.01379330872441395 0.1012452821986803 0 -0.019608245817803859 0.085284992411933783 0 -0.031616519049157722 0.1119347801860909 0 -0.019608245817803859 0.085284992411933783 0 -0.035870967245175467 0.092664670796908002 0 -0.031616519049157722 0.1119347801860909 0 -0.0072238578802305484 0.1142953266605153 0 -0.031616519049157722 0.1119347801860909 0 -0.025269695602097939 0.1268204096453639 0 -0.0072238578802305484 0.1142953266605153 0 -0.031616519049157722 0.1119347801860909 0 -0.01318292778871487 0.071025376682189681 0 -5.4945168057720336e-06 0.062173785531596408 0 0.0028323667073843371 0.076119067663737605 0 -0.01318292778871487 0.071025376682189681 0 -0.019608245817803859 0.085284992411933783 0 0.0028323667073843371 0.076119067663737605 0 -0.01379330872441395 0.1012452821986803 0 -0.019608245817803859 0.085284992411933783 0 0.003275387849536876 0.093466029536181411 0 -0.019608245817803859 0.085284992411933783 0 0.003275387849536876 0.093466029536181411 0 0.0028323667073843371 0.076119067663737605 0 -0.019608245817803859 0.085284992411933783 0 0.003275387849536876 0.093466029536181411 0 -0.019608245817803859 0.085284992411933783 0 -0.04268297844569318 0.077035636256130136 0 -0.01318292778871487 0.071025376682189681 0 -0.019608245817803859 0.085284992411933783 0 -0.01318292778871487 0.071025376682189681 0 -0.019608245817803859 0.085284992411933783 0 -0.03006649929817248 0.06355845952289009 0 -0.019608245817803859 0.085284992411933783 0 -0.03006649929817248 0.06355845952289009 0 -0.04268297844569318 0.077035636256130136 0 -0.03006649929817248 0.06355845952289009 0 -0.04268297844569318 0.077035636256130136 0 -0.05092248306698078 0.053720877609907791 0 -0.04268297844569318 0.077035636256130136 0 -0.035870967245175467 0.092664670796908002 0 -0.048082021529622793 0.096681178758004693 0 -0.019608245817803859 0.085284992411933783 0 -0.04268297844569318 0.077035636256130136 0 -0.035870967245175467 0.092664670796908002 0 -0.04268297844569318 0.077035636256130136 0 -0.048082021529622793 0.096681178758004693 0 -0.063458194205958302 0.094401549022710501 0 -0.04268297844569318 0.077035636256130136 0 -0.063458194205958302 0.094401549022710501 0 -0.065757711073582373 0.068786280100326141 0 -0.04268297844569318 0.077035636256130136 0 -0.065757711073582373 0.068786280100326141 0 -0.05092248306698078 0.053720877609907791 0 -0.04268297844569318 0.077035636256130136 0 -0.065757711073582373 0.068786280100326141 0 -0.040279150617135481 0.1311596336187722 0 -0.025269695602097939 0.1268204096453639 0 -0.031616519049157722 0.1119347801860909 0 -0.040279150617135481 0.1311596336187722 0 -0.031616519049157722 0.1119347801860909 0 -0.053752860615073061 0.10979258411006119 0 -0.040279150617135481 0.1311596336187722 0 -0.031616519049157722 0.1119347801860909 0 -0.031616519049157722 0.1119347801860909 0 -0.053752860615073061 0.10979258411006119 0 -0.031616519049157722 0.1119347801860909 0 -0.048082021529622793 0.096681178758004693 0 -0.053752860615073061 0.10979258411006119 0 -0.035870967245175467 0.092664670796908002 0 -0.031616519049157722 0.1119347801860909 0 -0.048082021529622793 0.096681178758004693 0 -0.048082021529622793 0.096681178758004693 0 -0.053752860615073061 0.10979258411006119 0 -0.063458194205958302 0.094401549022710501 0 -0.053752860615073061 0.10979258411006119 0 -0.063458194205958302 0.094401549022710501 0 -0.056321637274860628 0.1256360977897551 0 -0.053752860615073061 0.10979258411006119 0 -0.066666355503714442 0.1194928112247006 0 -0.040279150617135481 0.1311596336187722 0 -0.056321637274860628 0.1256360977897551 0 -0.053752860615073061 0.10979258411006119 0 -0.040279150617135481 0.1311596336187722 0 -0.053752860615073061 0.10979258411006119 0 -0.053752860615073061 0.10979258411006119 0 -0.066666355503714442 0.1194928112247006 0 -0.074545013043614897 0.1077804690000722 0 -0.066666355503714442 0.1194928112247006 0 -0.081348980203036561 0.12185919610928971 0 -0.074545013043614897 0.1077804690000722 0 -0.06736328638198702 0.13239570911432461 0 -0.066666355503714442 0.1194928112247006 0 -0.081348980203036561 0.12185919610928971 0 -0.081348980203036561 0.12185919610928971 0 -0.09648344778722219 0.11894476045122671 0 -0.095337165472156746 0.10576835389008279 0 -0.081348980203036561 0.12185919610928971 0 -0.074545013043614897 0.1077804690000722 0 -0.095337165472156746 0.10576835389008279 0 -0.091779074236601324 0.13272338627698679 0 -0.081348980203036561 0.12185919610928971 0 -0.09648344778722219 0.11894476045122671 0 -0.074545013043614897 0.1077804690000722 0 -0.0783060274143145 0.092201751604839233 0 -0.095337165472156746 0.10576835389008279 0 -0.074545013043614897 0.1077804690000722 0 -0.095337165472156746 0.10576835389008279 0 -0.053752860615073061 0.10979258411006119 0 -0.074545013043614897 0.1077804690000722 0 -0.063458194205958302 0.094401549022710501 0 -0.053752860615073061 0.10979258411006119 0 -0.074545013043614897 0.1077804690000722 0 -0.074545013043614897 0.1077804690000722 0 -0.063458194205958302 0.094401549022710501 0 -0.0783060274143145 0.092201751604839233 0 -0.063458194205958302 0.094401549022710501 0 -0.065757711073582373 0.068786280100326141 0 -0.0783060274143145 0.092201751604839233 0 -0.065757711073582373 0.068786280100326141 0 -0.089031204845747419 0.081431668823607542 0 -0.0783060274143145 0.092201751604839233 0 -0.065757711073582373 0.068786280100326141 0 -0.088832443701471586 0.060536923944522147 0 -0.065757711073582373 0.068786280100326141 0 -0.089031204845747419 0.081431668823607542 0 -0.088832443701471586 0.060536923944522147 0 -0.089031204845747419 0.081431668823607542 0 -0.1019181840372896 0.07237042281611912 0 -0.088832443701471586 0.060536923944522147 0 -0.089031204845747419 0.081431668823607542 0 -0.0783060274143145 0.092201751604839233 0 -0.095337165472156746 0.10576835389008279 0 -0.089031204845747419 0.081431668823607542 0 -0.10319640009999551 0.088173285500915313 0 -0.1019181840372896 0.07237042281611912 0 -0.10319640009999551 0.088173285500915313 0 -0.1019181840372896 0.07237042281611912 0 -0.11528942578556239 0.081970169455204661 0 -0.089031204845747419 0.081431668823607542 0 -0.10319640009999551 0.088173285500915313 0 -0.095337165472156746 0.10576835389008279 0 -0.1019181840372896 0.07237042281611912 0 -0.1168463413519793 0.068494457527634459 0 -0.1119071763293608 0.052287567788718139 0 -0.1019181840372896 0.07237042281611912 0 -0.1168463413519793 0.068494457527634459 0 -0.11528942578556239 0.081970169455204661 0 -0.12784063447554311 0.074775983035647059 0 -0.1168463413519793 0.068494457527634459 0 -0.11528942578556239 0.081970169455204661 0 -0.12784063447554311 0.074775983035647059 0 -0.12616165157235179 0.060337080632980537 0 -0.1168463413519793 0.068494457527634459 0 -0.1264769540869648 0.091960025661460235 0 -0.12784063447554311 0.074775983035647059 0 -0.11528942578556239 0.081970169455204661 0 -0.10319640009999551 0.088173285500915313 0 -0.11528942578556239 0.081970169455204661 0 -0.1125477960207598 0.09703495242884308 0 -0.1264769540869648 0.091960025661460235 0 -0.11528942578556239 0.081970169455204661 0 -0.1125477960207598 0.09703495242884308 0 -0.1264769540869648 0.091960025661460235 0 -0.1125477960207598 0.09703495242884308 0 -0.1213181017677934 0.1093903784047619 0 -0.1125477960207598 0.09703495242884308 0 -0.1213181017677934 0.1093903784047619 0 -0.10774744472502561 0.10931942350230341 0 -0.1213181017677934 0.1093903784047619 0 -0.12428596436324971 0.12149397926971151 0 -0.1213181017677934 0.1093903784047619 0 -0.12428596436324971 0.12149397926971151 0 -0.1090426407890762 0.1230918466756219 0 -0.12428596436324971 0.12149397926971151 0 -0.1090426407890762 0.1230918466756219 0 -0.1213181017677934 0.1093903784047619 0 -0.1090426407890762 0.1230918466756219 0 -0.10774744472502561 0.10931942350230341 0 -0.091779074236601324 0.13272338627698679 0 -0.1090426407890762 0.1230918466756219 0 -0.09648344778722219 0.11894476045122671 0 -0.1090426407890762 0.1230918466756219 0 -0.09648344778722219 0.11894476045122671 0 -0.10774744472502561 0.10931942350230341 0 -0.09648344778722219 0.11894476045122671 0 -0.095337165472156746 0.10576835389008279 0 -0.10774744472502561 0.10931942350230341 0 -0.1125477960207598 0.09703495242884308 0 -0.095337165472156746 0.10576835389008279 0 -0.10774744472502561 0.10931942350230341 0 -0.10319640009999551 0.088173285500915313 0 -0.1125477960207598 0.09703495242884308 0 -0.095337165472156746 0.10576835389008279 0 -0.10437996356352169 0.02022488953484505 0 -0.1176555940818048 0.026785626080231089 0 -0.1012337806616924 0.032857733700232102 0 -0.10437996356352169 0.02022488953484505 0 -0.1012337806616924 0.032857733700232102 0 -0.089913769620367012 0.021263165512794079 0 -0.10437996356352169 0.02022488953484505 0 -0.094987884996875799 0.0073395273471782464 0 -0.089913769620367012 0.021263165512794079 0 -0.1022364627064003 -0.0092294706397440755 0 -0.094987884996875799 0.0073395273471782464 0 -0.1107478437432257 0.0076006666536393543 0 -0.10437996356352169 0.02022488953484505 0 -0.094987884996875799 0.0073395273471782464 0 -0.1107478437432257 0.0076006666536393543 0 -0.1231592389501604 -0.01151041530668794 0 -0.12890170197570541 0.015470455861097149 0 -0.1107478437432257 0.0076006666536393543 0 -0.10437996356352169 0.02022488953484505 0 -0.1107478437432257 0.0076006666536393543 0 -0.1176555940818048 0.026785626080231089 0 -0.12890170197570541 0.015470455861097149 0 -0.1107478437432257 0.0076006666536393543 0 -0.1176555940818048 0.026785626080231089 0 -0.1176555940818048 0.026785626080231089 0 -0.1103927889546073 0.040882386711118712 0 -0.1012337806616924 0.032857733700232102 0 -0.13464416500125251 0.042451327028881811 0 -0.1176555940818048 0.026785626080231089 0 -0.1216384926838467 0.042233750192079852 0 -0.13498190895725001 0.044038211632913868 0 -0.1216384926838467 0.042233750192079852 0 -0.1119071763293608 0.052287567788718139 0 -0.1216384926838467 0.042233750192079852 0 -0.1103927889546073 0.040882386711118712 0 -0.1119071763293608 0.052287567788718139 0 -0.1176555940818048 0.026785626080231089 0 -0.1216384926838467 0.042233750192079852 0 -0.1103927889546073 0.040882386711118712 0 -0.13498190895725001 0.044038211632913868 0 -0.1119071763293608 0.052287567788718139 0 -0.12616165157235179 0.060337080632980537 0 -0.13498190895725001 0.044038211632913868 0 -0.1119071763293608 0.052287567788718139 0 -0.12616165157235179 0.060337080632980537 0 -0.1168463413519793 0.068494457527634459 0 -0.1119071763293608 0.052287567788718139 0 -0.1119071763293608 0.052287567788718139 0 -0.09777796342957748 0.048146718731587823 0 -0.088832443701471586 0.060536923944522147 0 -0.1119071763293608 0.052287567788718139 0 -0.088832443701471586 0.060536923944522147 0 -0.1019181840372896 0.07237042281611912 0 -0.1119071763293608 0.052287567788718139 0 -0.088832443701471586 0.060536923944522147 0 -0.1103927889546073 0.040882386711118712 0 -0.1119071763293608 0.052287567788718139 0 -0.09777796342957748 0.048146718731587823 0 -0.1103927889546073 0.040882386711118712 0 -0.09777796342957748 0.048146718731587823 0 -0.1012337806616924 0.032857733700232102 0 -0.09777796342957748 0.048146718731587823 0 -0.1012337806616924 0.032857733700232102 0 -0.086407135526898576 0.038793347099443633 0 -0.086407135526898576 0.038793347099443633 0 -0.088832443701471586 0.060536923944522147 0 -0.071386647718208018 0.046432578021054022 0 -0.09777796342957748 0.048146718731587823 0 -0.086407135526898576 0.038793347099443633 0 -0.088832443701471586 0.060536923944522147 0 -0.065757711073582373 0.068786280100326141 0 -0.071386647718208018 0.046432578021054022 0 -0.05092248306698078 0.053720877609907791 0 -0.065757711073582373 0.068786280100326141 0 -0.088832443701471586 0.060536923944522147 0 -0.071386647718208018 0.046432578021054022 0 -0.071386647718208018 0.046432578021054022 0 -0.075419488694953671 0.02685087021644508 0 -0.05793343393299008 0.033103534692547773 0 -0.086407135526898576 0.038793347099443633 0 -0.071386647718208018 0.046432578021054022 0 -0.075419488694953671 0.02685087021644508 0 -0.075419488694953671 0.02685087021644508 0 -0.078462057111030492 0.0076527769379092746 0 -0.062745540238797651 0.01480389328662406 0 -0.075419488694953671 0.02685087021644508 0 -0.062745540238797651 0.01480389328662406 0 -0.05793343393299008 0.033103534692547773 0 -0.075419488694953671 0.02685087021644508 0 -0.089913769620367012 0.021263165512794079 0 -0.078462057111030492 0.0076527769379092746 0 -0.1012337806616924 0.032857733700232102 0 -0.086407135526898576 0.038793347099443633 0 -0.089913769620367012 0.021263165512794079 0 -0.086407135526898576 0.038793347099443633 0 -0.075419488694953671 0.02685087021644508 0 -0.089913769620367012 0.021263165512794079 0 -0.086168345632243293 -0.0058649827448112217 0 -0.094987884996875799 0.0073395273471782464 0 -0.078462057111030492 0.0076527769379092746 0 -0.094987884996875799 0.0073395273471782464 0 -0.089913769620367012 0.021263165512794079 0 -0.078462057111030492 0.0076527769379092746 0 -0.060466491373628979 -0.0028009421811297751 0 -0.078462057111030492 0.0076527769379092746 0 -0.062745540238797651 0.01480389328662406 0 -0.060466491373628979 -0.0028009421811297751 0 -0.042516026620283989 -0.0011487078488288669 0 -0.052323226607043999 0.0070639686771983706 0 -0.060466491373628979 -0.0028009421811297751 0 -0.062745540238797651 0.01480389328662406 0 -0.052323226607043999 0.0070639686771983706 0 -0.052323226607043999 0.0070639686771983706 0 -0.04951640293274432 0.019836774295890629 0 -0.039041772128967388 0.012823086553396489 0 -0.062745540238797651 0.01480389328662406 0 -0.052323226607043999 0.0070639686771983706 0 -0.04951640293274432 0.019836774295890629 0 -0.062745540238797651 0.01480389328662406 0 -0.04951640293274432 0.019836774295890629 0 -0.05793343393299008 0.033103534692547773 0 -0.04951640293274432 0.019836774295890629 0 -0.05793343393299008 0.033103534692547773 0 -0.037610040946256043 0.036976214725365053 0 -0.04951640293274432 0.019836774295890629 0 -0.039041772128967388 0.012823086553396489 0 -0.037610040946256043 0.036976214725365053 0 -0.039041772128967388 0.012823086553396489 0 -0.037610040946256043 0.036976214725365053 0 -0.023657177189625581 0.01108024914205568 0 -0.042516026620283989 -0.0011487078488288669 0 -0.039041772128967388 0.012823086553396489 0 -0.023657177189625581 0.01108024914205568 0 -0.042516026620283989 -0.0011487078488288669 0 -0.052323226607043999 0.0070639686771983706 0 -0.039041772128967388 0.012823086553396489 0 -0.05092248306698078 0.053720877609907791 0 -0.05793343393299008 0.033103534692547773 0 -0.037610040946256043 0.036976214725365053 0 -0.071386647718208018 0.046432578021054022 0 -0.05092248306698078 0.053720877609907791 0 -0.05793343393299008 0.033103534692547773 0 -0.03006649929817248 0.06355845952289009 0 -0.05092248306698078 0.053720877609907791 0 -0.037610040946256043 0.036976214725365053 0 -0.03006649929817248 0.06355845952289009 0 -0.037610040946256043 0.036976214725365053 0 -0.01445012673707146 0.051601419794444707 0 -0.01318292778871487 0.071025376682189681 0 -0.03006649929817248 0.06355845952289009 0 -0.01445012673707146 0.051601419794444707 0 -0.037610040946256043 0.036976214725365053 0 -0.01445012673707146 0.051601419794444707 0 -0.0097604678939724257 0.028746178545437089 0 -0.037610040946256043 0.036976214725365053 0 -0.0097604678939724257 0.028746178545437089 0 -0.01445012673707146 0.051601419794444707 0 -0.0097604678939724257 0.028746178545437089 0 0.0058445188165981267 0.045896006704466953 0 -0.01318292778871487 0.071025376682189681 0 -0.01445012673707146 0.051601419794444707 0 -5.4945168057720336e-06 0.062173785531596408 0 -0.01445012673707146 0.051601419794444707 0 -5.4945168057720336e-06 0.062173785531596408 0 0.0058445188165981267 0.045896006704466953 0 -0.015120462510579869 -0.0097122517518174346 0 -0.023657177189625581 0.01108024914205568 0 -0.01117614572828979 0.0082338089042717985 0 -0.042516026620283989 -0.0011487078488288669 0 -0.015120462510579869 -0.0097122517518174346 0 -0.023657177189625581 0.01108024914205568 0 -0.037610040946256043 0.036976214725365053 0 -0.023657177189625581 0.01108024914205568 0 -0.0097604678939724257 0.028746178545437089 0 -0.023657177189625581 0.01108024914205568 0 -0.0097604678939724257 0.028746178545437089 0 -0.01117614572828979 0.0082338089042717985 0 -0.0097604678939724257 0.028746178545437089 0 -0.01117614572828979 0.0082338089042717985 0 0.0038335246810187419 0.0028210596814118639 0 -0.015120462510579869 -0.0097122517518174346 0 -0.01117614572828979 0.0082338089042717985 0 0.0038335246810187419 0.0028210596814118639 0 0.0038335246810187419 0.0028210596814118639 0 0.018089105158311192 0.020516142365509141 0 0.016380542671817849 -9.4010737341792714e-05 0 -0.0097604678939724257 0.028746178545437089 0 0.0038335246810187419 0.0028210596814118639 0 0.018089105158311192 0.020516142365509141 0 -0.0097604678939724257 0.028746178545437089 0 0.018089105158311192 0.020516142365509141 0 0.018089105158311192 0.020516142365509141 0 0.016380542671817849 -9.4010737341792714e-05 0 0.031324439248817088 -0.0054374493414821234 0 -5.4945168057720336e-06 0.062173785531596408 0 0.0058445188165981267 0.045896006704466953 0 0.018928696417775 0.06622705681314317 0 -0.0097604678939724257 0.028746178545437089 0 0.018089105158311192 0.020516142365509141 0 0.0058445188165981267 0.045896006704466953 0 0.018089105158311192 0.020516142365509141 0 0.026148840462279489 0.044563724115687722 0 0.035699645136581651 0.03000815060762967 0 0.018089105158311192 0.020516142365509141 0 0.0058445188165981267 0.045896006704466953 0 0.026148840462279489 0.044563724115687722 0 0.026148840462279489 0.044563724115687722 0 0.034582971205233168 0.058017941655503003 0 0.018928696417775 0.06622705681314317 0 0.0058445188165981267 0.045896006704466953 0 0.026148840462279489 0.044563724115687722 0 0.018928696417775 0.06622705681314317 0 0.026148840462279489 0.044563724115687722 0 0.034582971205233168 0.058017941655503003 0 0.043714435815018583 0.046912415627201512 0 0.034582971205233168 0.058017941655503003 0 0.043714435815018583 0.046912415627201512 0 0.048223122024893442 0.06124896968935712 0 0.043714435815018583 0.046912415627201512 0 0.05441792586860672 0.034831634460576598 0 0.035699645136581651 0.03000815060762967 0 0.026148840462279489 0.044563724115687722 0 0.043714435815018583 0.046912415627201512 0 0.035699645136581651 0.03000815060762967 0 0.043714435815018583 0.046912415627201512 0 0.05441792586860672 0.034831634460576598 0 0.06412567888014388 0.054428665289072593 0 0.043714435815018583 0.046912415627201512 0 0.048223122024893442 0.06124896968935712 0 0.06412567888014388 0.054428665289072593 0 0.018089105158311192 0.020516142365509141 0 0.045938678210594802 0.01228610618558118 0 0.031324439248817088 -0.0054374493414821234 0 0.018089105158311192 0.020516142365509141 0 0.045938678210594802 0.01228610618558118 0 0.035699645136581651 0.03000815060762967 0 0.05441792586860672 0.034831634460576598 0 0.045938678210594802 0.01228610618558118 0 0.035699645136581651 0.03000815060762967 0 0.018089105158311192 0.020516142365509141 0 0.045938678210594802 0.01228610618558118 0 0.05441792586860672 0.034831634460576598 0 0.045938678210594802 0.01228610618558118 0 0.069031699238729705 0.022091301778222019 0 0.045938678210594802 0.01228610618558118 0 0.073788251262878413 0.0040560700056532298 0 0.045938678210594802 0.01228610618558118 0 0.073788251262878413 0.0040560700056532298 0 0.059532994407347432 -0.0083949225991459733 0 0.045938678210594802 0.01228610618558118 0 0.073788251262878413 0.0040560700056532298 0 0.069031699238729705 0.022091301778222019 0 0.073788251262878413 0.0040560700056532298 0 0.087560611315197129 0.011325223796156971 0 0.069031699238729705 0.022091301778222019 0 0.073788251262878413 0.0040560700056532298 0 0.087560611315197129 0.011325223796156971 0 0.092203167308598344 -0.01393686192881549 0 0.087560611315197129 0.011325223796156971 0 0.09247345749509446 0.026102992256021501 0 0.069031699238729705 0.022091301778222019 0 0.09247345749509446 0.026102992256021501 0 0.069031699238729705 0.022091301778222019 0 0.078330574613779583 0.038738823242211867 0 0.05441792586860672 0.034831634460576598 0 0.069031699238729705 0.022091301778222019 0 0.078330574613779583 0.038738823242211867 0 0.05441792586860672 0.034831634460576598 0 0.06412567888014388 0.054428665289072593 0 0.078330574613779583 0.038738823242211867 0 0.06412567888014388 0.054428665289072593 0 0.087197384327834235 0.05621989450025535 0 0.07579451139985241 0.068617060847170508 0 0.06412567888014388 0.054428665289072593 0 0.087197384327834235 0.05621989450025535 0 0.078330574613779583 0.038738823242211867 0 0.087197384327834235 0.05621989450025535 0 0.078330574613779583 0.038738823242211867 0 0.10018325754210269 0.039811629286283443 0 0.09247345749509446 0.026102992256021501 0 0.078330574613779583 0.038738823242211867 0 0.10018325754210269 0.039811629286283443 0 0.087197384327834235 0.05621989450025535 0 0.10018325754210269 0.039811629286283443 0 0.10829685216164819 0.057009956350755432 0 0.10829685216164819 0.057009956350755432 0 0.1217668724929772 0.037069692192208473 0 0.10829685216164819 0.057009956350755432 0 0.1222879965447146 0.058325638298925522 0 0.1217668724929772 0.037069692192208473 0 0.10829685216164819 0.057009956350755432 0 0.1222879965447146 0.058325638298925522 0 0.1127817826693789 0.06867153590957624 0 0.10018325754210269 0.039811629286283443 0 0.10829685216164819 0.057009956350755432 0 0.1217668724929772 0.037069692192208473 0 0.1217668724929772 0.037069692192208473 0 0.1123566543533009 0.02299382906094246 0 0.12842307720111881 0.033870046662418503 0 0.10018325754210269 0.039811629286283443 0 0.1217668724929772 0.037069692192208473 0 0.1123566543533009 0.02299382906094246 0 0.1123566543533009 0.02299382906094246 0 0.1274552054474524 0.0077376294574659759 0 0.12842307720111881 0.033870046662418503 0 0.1217668724929772 0.037069692192208473 0 0.1123566543533009 0.02299382906094246 0 0.1123566543533009 0.02299382906094246 0 0.11566825232464489 0.0022947270128303768 0 0.1274552054474524 0.0077376294574659759 0 0.1123566543533009 0.02299382906094246 0 0.11566825232464489 0.0022947270128303768 0 0.1029464362136215 0.0089179659296784383 0 0.087560611315197129 0.011325223796156971 0 0.1029464362136215 0.0089179659296784383 0 0.092203167308598344 -0.01393686192881549 0 0.11566825232464489 0.0022947270128303768 0 0.1029464362136215 0.0089179659296784383 0 0.1090956319150638 -0.0097810016364484054 0 0.087560611315197129 0.011325223796156971 0 0.09247345749509446 0.026102992256021501 0 0.1029464362136215 0.0089179659296784383 0 0.09247345749509446 0.026102992256021501 0 0.10018325754210269 0.039811629286283443 0 0.1123566543533009 0.02299382906094246 0 0.09247345749509446 0.026102992256021501 0 0.1123566543533009 0.02299382906094246 0 0.1029464362136215 0.0089179659296784383 0 0.1123566543533009 0.02299382906094246 0 0.1029464362136215 0.0089179659296784383 0 0.0999590173553353 0.096886218513249453 0 0.098741113106340955 0.1102048138245128 0 0.1132778081699813 0.097516475499287394 0 0.1045001491070531 0.121160327763206 0 0.1180666309774392 0.1177391252782585 0 0.1043387537711581 0.13390325784038359 0 0.098741113106340955 0.1102048138245128 0 0.1045001491070531 0.121160327763206 0 0.1180666309774392 0.1177391252782585 0 0.098741113106340955 0.1102048138245128 0 0.1045001491070531 0.121160327763206 0 0.088975241377871397 0.1232983144918848 0 0.098741113106340955 0.1102048138245128 0 0.1244179337573105 0.1112433619353948 0 0.098741113106340955 0.1102048138245128 0 0.1180666309774392 0.1177391252782585 0 0.1244179337573105 0.1112433619353948 0 0.1180666309774392 0.1177391252782585 0 0.1244179337573105 0.1112433619353948 0 0.1244179337573105 0.1112433619353948 0 0.1132778081699813 0.097516475499287394 0 0.12532476775185619 0.098232396260053964 0 0.098741113106340955 0.1102048138245128 0 0.1244179337573105 0.1112433619353948 0 0.1132778081699813 0.097516475499287394 0 0.1132778081699813 0.097516475499287394 0 0.12524718484145689 0.087181621146692256 0 0.12532476775185619 0.098232396260053964 0 0.1132778081699813 0.097516475499287394 0 0.1064603366460263 0.082933100061346798 0 0.12524718484145689 0.087181621146692256 0 0.1064603366460263 0.082933100061346798 0 0.13156386179305879 0.068975715454841338 0 0.12524718484145689 0.087181621146692256 0 0.1127817826693789 0.06867153590957624 0 0.1064603366460263 0.082933100061346798 0 0.13156386179305879 0.068975715454841338 0 0.1222879965447146 0.058325638298925522 0 0.1127817826693789 0.06867153590957624 0 0.13156386179305879 0.068975715454841338 0 0.1064603366460263 0.082933100061346798 0 0.13156386179305879 0.068975715454841338 0 0.10829685216164819 0.057009956350755432 0 0.1127817826693789 0.06867153590957624 0 0.094826831830320396 0.076950220509303155 0 0.1127817826693789 0.06867153590957624 0 0.094826831830320396 0.076950220509303155 0 0.1064603366460263 0.082933100061346798 0 0.10829685216164819 0.057009956350755432 0 0.094826831830320396 0.076950220509303155 0 0.087197384327834235 0.05621989450025535 0 0.10829685216164819 0.057009956350755432 0 0.094826831830320396 0.076950220509303155 0 0.1064603366460263 0.082933100061346798 0 0.081356811498993375 0.096890484667851301 0 0.0999590173553353 0.096886218513249453 0 0.1064603366460263 0.082933100061346798 0 0.081356811498993375 0.096890484667851301 0 0.094826831830320396 0.076950220509303155 0 0.1064603366460263 0.082933100061346798 0 0.081356811498993375 0.096890484667851301 0 0.0999590173553353 0.096886218513249453 0 0.1132778081699813 0.097516475499287394 0 0.1064603366460263 0.082933100061346798 0 0.094826831830320396 0.076950220509303155 0 0.081356811498993375 0.096890484667851301 0 0.094826831830320396 0.076950220509303155 0 0.074730008773258666 0.082738990664882328 0 0.081356811498993375 0.096890484667851301 0 0.087197384327834235 0.05621989450025535 0 0.094826831830320396 0.076950220509303155 0 0.07579451139985241 0.068617060847170508 0 0.094826831830320396 0.076950220509303155 0 0.07579451139985241 0.068617060847170508 0 0.074730008773258666 0.082738990664882328 0 0.06412567888014388 0.054428665289072593 0 0.07579451139985241 0.068617060847170508 0 0.060524048303039653 0.073697270541428897 0 0.07579451139985241 0.068617060847170508 0 0.074730008773258666 0.082738990664882328 0 0.060524048303039653 0.073697270541428897 0 0.074730008773258666 0.082738990664882328 0 0.062730172185045702 0.089040383673567952 0 0.081356811498993375 0.096890484667851301 0 0.074730008773258666 0.082738990664882328 0 0.062730172185045702 0.089040383673567952 0 0.060524048303039653 0.073697270541428897 0 0.081356811498993375 0.096890484667851301 0 0.060212707486232107 0.1086464587845366 0 0.060140025097589561 0.099815350614570392 0 0.062730172185045702 0.089040383673567952 0 0.081356811498993375 0.096890484667851301 0 0.060140025097589561 0.099815350614570392 0 0.073064292455371382 0.1091662657136315 0 0.081356811498993375 0.096890484667851301 0 0.060212707486232107 0.1086464587845366 0 0.081356811498993375 0.096890484667851301 0 0.060212707486232107 0.1086464587845366 0 0.073064292455371382 0.1091662657136315 0 0.060212707486232107 0.1086464587845366 0 0.073064292455371382 0.1091662657136315 0 0.081356811498993375 0.096890484667851301 0 0.098741113106340955 0.1102048138245128 0 0.073064292455371382 0.1091662657136315 0 0.081356811498993375 0.096890484667851301 0 0.0999590173553353 0.096886218513249453 0 0.098741113106340955 0.1102048138245128 0 0.081356811498993375 0.096890484667851301 0 0.098741113106340955 0.1102048138245128 0 0.073064292455371382 0.1091662657136315 0 0.073064292455371382 0.1091662657136315 0 0.088975241377871397 0.1232983144918848 0 0.072676580737361315 0.12789375094927091 0 0.098741113106340955 0.1102048138245128 0 0.073064292455371382 0.1091662657136315 0 0.088975241377871397 0.1232983144918848 0 0.073064292455371382 0.1091662657136315 0 0.057711194835536862 0.1318941320910455 0 0.073064292455371382 0.1091662657136315 0 0.062859915119376372 0.1210775306243531 0 0.057711194835536862 0.1318941320910455 0 0.073064292455371382 0.1091662657136315 0 0.057711194835536862 0.1318941320910455 0 0.072676580737361315 0.12789375094927091 0 0.073064292455371382 0.1091662657136315 0 0.062859915119376372 0.1210775306243531 0 0.060212707486232107 0.1086464587845366 0 0.062859915119376372 0.1210775306243531 0 0.054415754078611392 0.11619208098947489 0 0.045099145649896498 0.1193587709751326 0 0.062859915119376372 0.1210775306243531 0 0.045099145649896498 0.1193587709751326 0 0.051505254883130312 0.12767828606226539 0 0.062859915119376372 0.1210775306243531 0 0.045099145649896498 0.1193587709751326 0 0.054415754078611392 0.11619208098947489 0 0.047217299804608481 0.115871814668559 0 0.060212707486232107 0.1086464587845366 0 0.050182018382937517 0.11099122364976841 0 0.047217299804608481 0.115871814668559 0 0.060212707486232107 0.1086464587845366 0 0.054415754078611392 0.11619208098947489 0 0.047217299804608481 0.115871814668559 0 0.045099145649896498 0.1193587709751326 0 0.047217299804608481 0.115871814668559 0 0.060212707486232107 0.1086464587845366 0 0.050182018382937517 0.11099122364976841 0 0.0485372123232529 0.1073812492714213 0 0.044797996933480001 0.1110614516307729 0 0.050182018382937517 0.11099122364976841 0 0.047217299804608481 0.115871814668559 0 0.044797996933480001 0.1110614516307729 0 0.050182018382937517 0.11099122364976841 0 0.047217299804608481 0.115871814668559 0 0.062859915119376372 0.1210775306243531 0 0.054415754078611392 0.11619208098947489 0 0.060212707486232107 0.1086464587845366 0 0.060212707486232107 0.1086464587845366 0 0.052074411899988252 0.108317289857363 0 0.060212707486232107 0.1086464587845366 0 0.060140025097589561 0.099815350614570392 0 0.052074411899988252 0.108317289857363 0 0.060140025097589561 0.099815350614570392 0 0.053864144564310129 0.094120004055395959 0 0.050601902950968267 0.10187748264870761 0 0.062730172185045702 0.089040383673567952 0 0.060140025097589561 0.099815350614570392 0 0.053864144564310129 0.094120004055395959 0 0.053864144564310129 0.094120004055395959 0 0.050601902950968267 0.10187748264870761 0 0.044909351635762748 0.096168672344993017 0 0.060140025097589561 0.099815350614570392 0 0.052074411899988252 0.108317289857363 0 0.050601902950968267 0.10187748264870761 0 0.050182018382937517 0.11099122364976841 0 0.060212707486232107 0.1086464587845366 0 0.052074411899988252 0.108317289857363 0 0.050601902950968267 0.10187748264870761 0 0.0485372123232529 0.1073812492714213 0 0.045029731448890463 0.1046587985704948 0 0.052074411899988252 0.108317289857363 0 0.050601902950968267 0.10187748264870761 0 0.0485372123232529 0.1073812492714213 0 0.050182018382937517 0.11099122364976841 0 0.052074411899988252 0.108317289857363 0 0.0485372123232529 0.1073812492714213 0 0.0485372123232529 0.1073812492714213 0 0.045029731448890463 0.1046587985704948 0 0.044797996933480001 0.1110614516307729 0 0.045029731448890463 0.1046587985704948 0 0.039947120760601723 0.10149235179475841 0 0.038822515326388259 0.1074316409650543 0 0.045029731448890463 0.1046587985704948 0 0.038822515326388259 0.1074316409650543 0 0.044797996933480001 0.1110614516307729 0 0.044909351635762748 0.096168672344993017 0 0.039947120760601723 0.10149235179475841 0 0.034188109310850208 0.09710913649489257 0 0.045029731448890463 0.1046587985704948 0 0.044909351635762748 0.096168672344993017 0 0.039947120760601723 0.10149235179475841 0 0.050601902950968267 0.10187748264870761 0 0.045029731448890463 0.1046587985704948 0 0.044909351635762748 0.096168672344993017 0 0.039947120760601723 0.10149235179475841 0 0.034188109310850208 0.09710913649489257 0 0.032408302160277513 0.10391749146686249 0 0.039947120760601723 0.10149235179475841 0 0.038822515326388259 0.1074316409650543 0 0.032408302160277513 0.10391749146686249 0 0.038822515326388259 0.1074316409650543 0 0.032408302160277513 0.10391749146686249 0 0.031810769787740813 0.1106499657970083 0 0.031810769787740813 0.1106499657970083 0 0.041561464457624112 0.11901641960936039 0 0.039806524754348593 0.1127343622233641 0 0.038822515326388259 0.1074316409650543 0 0.031810769787740813 0.1106499657970083 0 0.039806524754348593 0.1127343622233641 0 0.032419260865695472 0.12409942093830351 0 0.041561464457624112 0.11901641960936039 0 0.032419260865695472 0.12409942093830351 0 0.041561464457624112 0.11901641960936039 0 0.045099145649896498 0.1193587709751326 0 0.047217299804608481 0.115871814668559 0 0.041561464457624112 0.11901641960936039 0 0.047217299804608481 0.115871814668559 0 0.041561464457624112 0.11901641960936039 0 0.045099145649896498 0.1193587709751326 0 0.041561464457624112 0.11901641960936039 0 0.045099145649896498 0.1193587709751326 0 0.047217299804608481 0.115871814668559 0 0.045099145649896498 0.1193587709751326 0 0.047217299804608481 0.115871814668559 0 0.043345821487515153 0.1146710120330138 0 0.044797996933480001 0.1110614516307729 0 0.047217299804608481 0.115871814668559 0 0.041561464457624112 0.11901641960936039 0 0.043345821487515153 0.1146710120330138 0 0.043345821487515153 0.1146710120330138 0 0.044797996933480001 0.1110614516307729 0 0.039806524754348593 0.1127343622233641 0 0.038822515326388259 0.1074316409650543 0 0.044797996933480001 0.1110614516307729 0 0.039806524754348593 0.1127343622233641 0 0.041561464457624112 0.11901641960936039 0 0.043345821487515153 0.1146710120330138 0 0.039806524754348593 0.1127343622233641 0 0.048223122024893442 0.06124896968935712 0 0.06412567888014388 0.054428665289072593 0 0.060524048303039653 0.073697270541428897 0 0.048223122024893442 0.06124896968935712 0 0.060524048303039653 0.073697270541428897 0 0.046984838042533977 0.074564296852799694 0 0.060524048303039653 0.073697270541428897 0 0.046984838042533977 0.074564296852799694 0 0.050532038959618011 0.086278398086162514 0 0.062730172185045702 0.089040383673567952 0 0.060524048303039653 0.073697270541428897 0 0.050532038959618011 0.086278398086162514 0 0.062730172185045702 0.089040383673567952 0 0.053864144564310129 0.094120004055395959 0 0.050532038959618011 0.086278398086162514 0 0.053864144564310129 0.094120004055395959 0 0.044909351635762748 0.096168672344993017 0 0.050532038959618011 0.086278398086162514 0 0.044909351635762748 0.096168672344993017 0 0.050532038959618011 0.086278398086162514 0 0.037898717246545047 0.085664534941185241 0 0.034188109310850208 0.09710913649489257 0 0.037898717246545047 0.085664534941185241 0 0.026288346799255211 0.091153945830487595 0 0.044909351635762748 0.096168672344993017 0 0.034188109310850208 0.09710913649489257 0 0.037898717246545047 0.085664534941185241 0 0.037898717246545047 0.085664534941185241 0 0.035899761306199353 0.071137542032125495 0 0.02695646857497961 0.079500782161198491 0 0.046984838042533977 0.074564296852799694 0 0.050532038959618011 0.086278398086162514 0 0.037898717246545047 0.085664534941185241 0 0.046984838042533977 0.074564296852799694 0 0.037898717246545047 0.085664534941185241 0 0.035899761306199353 0.071137542032125495 0 0.048223122024893442 0.06124896968935712 0 0.046984838042533977 0.074564296852799694 0 0.035899761306199353 0.071137542032125495 0 0.034582971205233168 0.058017941655503003 0 0.048223122024893442 0.06124896968935712 0 0.035899761306199353 0.071137542032125495 0 0.018928696417775 0.06622705681314317 0 0.015766821105123431 0.083320831189050953 0 0.02695646857497961 0.079500782161198491 0 0.035899761306199353 0.071137542032125495 0 0.018928696417775 0.06622705681314317 0 0.02695646857497961 0.079500782161198491 0 0.034582971205233168 0.058017941655503003 0 0.035899761306199353 0.071137542032125495 0 0.018928696417775 0.06622705681314317 0 0.015766821105123431 0.083320831189050953 0 0.02695646857497961 0.079500782161198491 0 0.026288346799255211 0.091153945830487595 0 0.037898717246545047 0.085664534941185241 0 0.02695646857497961 0.079500782161198491 0 0.026288346799255211 0.091153945830487595 0 0.015766821105123431 0.083320831189050953 0 0.026288346799255211 0.091153945830487595 0 0.01528594102924084 0.095571762684825784 0 0.015766821105123431 0.083320831189050953 0 0.003275387849536876 0.093466029536181411 0 0.0028323667073843371 0.076119067663737605 0 0.015766821105123431 0.083320831189050953 0 0.003275387849536876 0.093466029536181411 0 0.01528594102924084 0.095571762684825784 0 -5.4945168057720336e-06 0.062173785531596408 0 0.018928696417775 0.06622705681314317 0 0.0028323667073843371 0.076119067663737605 0 0.018928696417775 0.06622705681314317 0 0.015766821105123431 0.083320831189050953 0 0.0028323667073843371 0.076119067663737605 0 0.041561464457624112 0.11901641960936039 0 0.017168803288696761 0.1166558731349378 0 0.032419260865695472 0.12409942093830351 0 0.041561464457624112 0.11901641960936039 0 0.017168803288696761 0.1166558731349378 0 0.031810769787740813 0.1106499657970083 0 0.041561464457624112 0.11901641960936039 0 0.017168803288696761 0.1166558731349378 0 0.032419260865695472 0.12409942093830351 0 0.017168803288696761 0.1166558731349378 0 0.01908384236816428 0.13219894292794901 0 0.031810769787740813 0.1106499657970083 0 0.017168803288696761 0.1166558731349378 0 0.02363563433149499 0.1032043447303254 0 0.032408302160277513 0.10391749146686249 0 0.031810769787740813 0.1106499657970083 0 0.02363563433149499 0.1032043447303254 0 0.034188109310850208 0.09710913649489257 0 0.032408302160277513 0.10391749146686249 0 0.02363563433149499 0.1032043447303254 0 0.034188109310850208 0.09710913649489257 0 0.026288346799255211 0.091153945830487595 0 0.02363563433149499 0.1032043447303254 0 0.02363563433149499 0.1032043447303254 0 0.010428381723747779 0.1046386673493571 0 0.01528594102924084 0.095571762684825784 0 0.026288346799255211 0.091153945830487595 0 0.02363563433149499 0.1032043447303254 0 0.01528594102924084 0.095571762684825784 0 0.017168803288696761 0.1166558731349378 0 0.02363563433149499 0.1032043447303254 0 0.010428381723747779 0.1046386673493571 0 -0.0072238578802305484 0.1142953266605153 0 0.003275387849536876 0.093466029536181411 0 0.010428381723747779 0.1046386673493571 0 0.003275387849536876 0.093466029536181411 0 0.010428381723747779 0.1046386673493571 0 0.01528594102924084 0.095571762684825784 0 -0.0072238578802305484 0.1142953266605153 0 0.017168803288696761 0.1166558731349378 0 0.0045066700958542229 0.12758298615988009 0 -0.0072238578802305484 0.1142953266605153 0 0.017168803288696761 0.1166558731349378 0 0.010428381723747779 0.1046386673493571 0 -0.0072238578802305484 0.1142953266605153 0 0.017168803288696761 0.1166558731349378 0 0.01908384236816428 0.13219894292794901 0 0.016339913481617591 0.1463595216854166 0 0.0048032643864417586 0.14067686000910001 0 0.0045066700958542229 0.12758298615988009 0 0.01908384236816428 0.13219894292794901 0 0.0048032643864417586 0.14067686000910001 0 0.017168803288696761 0.1166558731349378 0 0.0045066700958542229 0.12758298615988009 0 0.01908384236816428 0.13219894292794901 0 0.032419260865695472 0.12409942093830351 0 0.01908384236816428 0.13219894292794901 0 0.031854013358614409 0.14116322627017511 0 0.01908384236816428 0.13219894292794901 0 0.016339913481617591 0.1463595216854166 0 0.031854013358614409 0.14116322627017511 0 0.018608881067333029 0.1629676815652181 0 0.031854013358614409 0.14116322627017511 0 0.030645790621477261 0.14988535404309819 0 0.018608881067333029 0.1629676815652181 0 0.031854013358614409 0.14116322627017511 0 0.016339913481617591 0.1463595216854166 0 0.018608881067333029 0.1629676815652181 0 0.031854013358614409 0.14116322627017511 0 0.016339913481617591 0.1463595216854166 0 0.007349566227534461 0.15479089765464071 0 0.018608881067333029 0.1629676815652181 0 0.016339913481617591 0.1463595216854166 0 0.0048032643864417586 0.14067686000910001 0 0.007349566227534461 0.15479089765464071 0 -0.0081948028869626779 0.15121960150640651 0 0.0048032643864417586 0.14067686000910001 0 0.007349566227534461 0.15479089765464071 0 -0.00043937756093595721 0.16632191324053061 0 0.0053637487760516524 0.184772136860261 0 0.018608881067333029 0.1629676815652181 0 -0.00043937756093595721 0.16632191324053061 0 0.007349566227534461 0.15479089765464071 0 0.018608881067333029 0.1629676815652181 0 0.0053637487760516524 0.184772136860261 0 0.01212954022547773 0.18262073065197801 0 0.018608881067333029 0.1629676815652181 0 -0.003776481264609602 0.17825945363558701 0 -0.00043937756093595721 0.16632191324053061 0 0.0053637487760516524 0.184772136860261 0 0.0053637487760516524 0.184772136860261 0 0.018608881067333029 0.1629676815652181 0 0.01212954022547773 0.18262073065197801 0 0.018411826906390271 0.18735978875058731 0 0.01058911837576797 0.18921186388862549 0 0.0053637487760516524 0.184772136860261 0 0.01212954022547773 0.18262073065197801 0 0.01058911837576797 0.18921186388862549 0 0.01212954022547773 0.18262073065197801 0 0.018608881067333029 0.1629676815652181 0 0.031890426475278018 0.1781355570664811 0 0.01212954022547773 0.18262073065197801 0 0.018411826906390271 0.18735978875058731 0 0.031890426475278018 0.1781355570664811 0 0.01212954022547773 0.18262073065197801 0 0.031890426475278018 0.1781355570664811 0 0.018411826906390271 0.18735978875058731 0 0.031890426475278018 0.1781355570664811 0 0.023656977789674679 0.19144208045555119 0 0.018608881067333029 0.1629676815652181 0 0.030202735564495511 0.16221540183687369 0 0.031890426475278018 0.1781355570664811 0 0.030645790621477261 0.14988535404309819 0 0.018608881067333029 0.1629676815652181 0 0.030202735564495511 0.16221540183687369 0 0.041148551673277863 0.16176786876204069 0 0.031890426475278018 0.1781355570664811 0 0.051651312725078183 0.17365038348098341 0 0.030645790621477261 0.14988535404309819 0 0.030202735564495511 0.16221540183687369 0 0.041148551673277863 0.16176786876204069 0 0.030202735564495511 0.16221540183687369 0 0.041148551673277863 0.16176786876204069 0 0.031890426475278018 0.1781355570664811 0 0.041148551673277863 0.16176786876204069 0 0.051651312725078183 0.17365038348098341 0 0.031890426475278018 0.1781355570664811 0 0.051651312725078183 0.17365038348098341 0 0.031890426475278018 0.1781355570664811 0 0.051651312725078183 0.17365038348098341 0 0.0484443202489937 0.19071570132990431 0 0.051651312725078183 0.17365038348098341 0 0.066367642912453673 0.19030000629900631 0 0.06789155598237881 0.1779168231595131 0 0.051651312725078183 0.17365038348098341 0 0.066367642912453673 0.19030000629900631 0 0.051651312725078183 0.17365038348098341 0 0.0484443202489937 0.19071570132990431 0 0.066367642912453673 0.19030000629900631 0 0.041148551673277863 0.16176786876204069 0 0.052648091946705722 0.1613688886382566 0 0.050733839009107551 0.1532736967363092 0 0.041148551673277863 0.16176786876204069 0 0.051651312725078183 0.17365038348098341 0 0.052648091946705722 0.1613688886382566 0 0.051651312725078183 0.17365038348098341 0 0.052648091946705722 0.1613688886382566 0 0.062405934615306607 0.1620071894659075 0 0.052648091946705722 0.1613688886382566 0 0.062405934615306607 0.1620071894659075 0 0.060564960701842641 0.15317050765724549 0 0.060564960701842641 0.15317050765724549 0 0.050733839009107551 0.1532736967363092 0 0.054446075897820433 0.14282732949552271 0 0.052648091946705722 0.1613688886382566 0 0.060564960701842641 0.15317050765724549 0 0.050733839009107551 0.1532736967363092 0 0.050733839009107551 0.1532736967363092 0 0.054446075897820433 0.14282732949552271 0 0.044861514825891131 0.14723388912848059 0 0.054446075897820433 0.14282732949552271 0 0.047001047255706002 0.1398439005865301 0 0.044861514825891131 0.14723388912848059 0 0.060564960701842641 0.15317050765724549 0 0.054446075897820433 0.14282732949552271 0 0.066107524034792184 0.14114790216249129 0 0.054446075897820433 0.14282732949552271 0 0.057711194835536862 0.1318941320910455 0 0.066107524034792184 0.14114790216249129 0 0.062859915119376372 0.1210775306243531 0 0.057711194835536862 0.1318941320910455 0 0.051505254883130312 0.12767828606226539 0 0.045099145649896498 0.1193587709751326 0 0.051505254883130312 0.12767828606226539 0 0.044195650375637718 0.13366275423547991 0 0.057711194835536862 0.1318941320910455 0 0.051505254883130312 0.12767828606226539 0 0.050971844649566271 0.13518128049416869 0 0.051505254883130312 0.12767828606226539 0 0.050971844649566271 0.13518128049416869 0 0.044195650375637718 0.13366275423547991 0 0.054446075897820433 0.14282732949552271 0 0.057711194835536862 0.1318941320910455 0 0.050971844649566271 0.13518128049416869 0 0.054446075897820433 0.14282732949552271 0 0.050971844649566271 0.13518128049416869 0 0.047001047255706002 0.1398439005865301 0 0.050971844649566271 0.13518128049416869 0 0.047001047255706002 0.1398439005865301 0 0.044195650375637718 0.13366275423547991 0 0.047001047255706002 0.1398439005865301 0 0.044195650375637718 0.13366275423547991 0 0.040977903259533877 0.14167346776299841 0 0.045099145649896498 0.1193587709751326 0 0.044195650375637718 0.13366275423547991 0 0.031854013358614409 0.14116322627017511 0 0.032419260865695472 0.12409942093830351 0 0.045099145649896498 0.1193587709751326 0 0.031854013358614409 0.14116322627017511 0 0.045099145649896498 0.1193587709751326 0 0.031854013358614409 0.14116322627017511 0 0.044195650375637718 0.13366275423547991 0 0.031854013358614409 0.14116322627017511 0 0.040977903259533877 0.14167346776299841 0 0.030645790621477261 0.14988535404309819 0 0.031854013358614409 0.14116322627017511 0 0.03789755474775891 0.1483447611933586 0 0.031854013358614409 0.14116322627017511 0 0.03789755474775891 0.1483447611933586 0 0.040977903259533877 0.14167346776299841 0 0.030645790621477261 0.14988535404309819 0 0.041148551673277863 0.16176786876204069 0 0.03789755474775891 0.1483447611933586 0 0.030645790621477261 0.14988535404309819 0 0.041148551673277863 0.16176786876204069 0 0.041148551673277863 0.16176786876204069 0 0.03789755474775891 0.1483447611933586 0 0.044861514825891131 0.14723388912848059 0 0.041148551673277863 0.16176786876204069 0 0.050733839009107551 0.1532736967363092 0 0.044861514825891131 0.14723388912848059 0 0.047001047255706002 0.1398439005865301 0 0.044861514825891131 0.14723388912848059 0 0.040977903259533877 0.14167346776299841 0 0.03789755474775891 0.1483447611933586 0 0.044861514825891131 0.14723388912848059 0 0.040977903259533877 0.14167346776299841 0 0.025660629095610812 0.23697758840558361 0 0.031926606979727712 0.24884729636136671 0 0.015737155004729369 0.25340011108241312 0 0.025660629095610812 0.23697758840558361 0 0.012216062074806159 0.23815890954856811 0 0.015737155004729369 0.25340011108241312 0 0.025660629095610812 0.23697758840558361 0 0.031926606979727712 0.24884729636136671 0 0.0030585758369763671 0.24538293665774921 0 0.012216062074806159 0.23815890954856811 0 0.015737155004729369 0.25340011108241312 0 0.0030585758369763671 0.24538293665774921 0 0.012216062074806159 0.23815890954856811 0 0.00081779036568457939 0.22857396347179651 0 0.00081779036568457939 0.22857396347179651 0 0.018499943310276531 0.22704142552799769 0 0.011107721486225519 0.2152775864129938 0 0.012216062074806159 0.23815890954856811 0 0.00081779036568457939 0.22857396347179651 0 0.018499943310276531 0.22704142552799769 0 0.00081779036568457939 0.22857396347179651 0 0.011107721486225519 0.2152775864129938 0 0.00073282988830796272 0.21488993564660239 0 0.018499943310276531 0.22704142552799769 0 0.0208137577623408 0.21781064425649291 0 0.011107721486225519 0.2152775864129938 0 0.018499943310276531 0.22704142552799769 0 0.02871651595175119 0.22099370910664981 0 0.0208137577623408 0.21781064425649291 0 0.025660629095610812 0.23697758840558361 0 0.012216062074806159 0.23815890954856811 0 0.018499943310276531 0.22704142552799769 0 0.025660629095610812 0.23697758840558361 0 0.018499943310276531 0.22704142552799769 0 0.031880663497472247 0.22980965551213431 0 0.018499943310276531 0.22704142552799769 0 0.02871651595175119 0.22099370910664981 0 0.031880663497472247 0.22980965551213431 0 0.02871651595175119 0.22099370910664981 0 0.029181012944240789 0.2091677109783408 0 0.0208137577623408 0.21781064425649291 0 0.029181012944240789 0.2091677109783408 0 0.019102810188195509 0.20986268491931331 0 0.02199874058533155 0.20087951285775141 0 0.019102810188195509 0.20986268491931331 0 0.01359754455393582 0.20463722266309109 0 0.02199874058533155 0.20087951285775141 0 0.029181012944240789 0.2091677109783408 0 0.019102810188195509 0.20986268491931331 0 0.0208137577623408 0.21781064425649291 0 0.019102810188195509 0.20986268491931331 0 0.0208137577623408 0.21781064425649291 0 0.011107721486225519 0.2152775864129938 0 0.011107721486225519 0.2152775864129938 0 0.00073282988830796272 0.21488993564660239 0 0.0049951212873046158 0.20414898730819769 0 -0.0055361644606871921 0.2072914226164464 0 0.00073282988830796272 0.21488993564660239 0 0.0049951212873046158 0.20414898730819769 0 0.011107721486225519 0.2152775864129938 0 0.0049951212873046158 0.20414898730819769 0 0.01359754455393582 0.20463722266309109 0 0.019102810188195509 0.20986268491931331 0 0.011107721486225519 0.2152775864129938 0 0.01359754455393582 0.20463722266309109 0 0.0049951212873046158 0.20414898730819769 0 0.013793071665752939 0.19538871169030039 0 0.0047849366889574953 0.19349205637821959 0 0.0049951212873046158 0.20414898730819769 0 0.01359754455393582 0.20463722266309109 0 0.013793071665752939 0.19538871169030039 0 -0.0028689028022349751 0.19766052020999331 0 0.0049951212873046158 0.20414898730819769 0 0.0047849366889574953 0.19349205637821959 0 0.0053637487760516524 0.184772136860261 0 0.0047849366889574953 0.19349205637821959 0 0.01058911837576797 0.18921186388862549 0 -0.0058823588514793756 0.18713004986792631 0 0.0053637487760516524 0.184772136860261 0 0.0047849366889574953 0.19349205637821959 0 0.013793071665752939 0.19538871169030039 0 0.0047849366889574953 0.19349205637821959 0 0.01058911837576797 0.18921186388862549 0 0.018411826906390271 0.18735978875058731 0 0.013793071665752939 0.19538871169030039 0 0.01058911837576797 0.18921186388862549 0 0.031890426475278018 0.1781355570664811 0 0.023656977789674679 0.19144208045555119 0 0.03328805604584191 0.19527270183014089 0 0.018411826906390271 0.18735978875058731 0 0.013793071665752939 0.19538871169030039 0 0.023656977789674679 0.19144208045555119 0 0.01359754455393582 0.20463722266309109 0 0.013793071665752939 0.19538871169030039 0 0.02199874058533155 0.20087951285775141 0 0.013793071665752939 0.19538871169030039 0 0.02199874058533155 0.20087951285775141 0 0.023656977789674679 0.19144208045555119 0 0.02199874058533155 0.20087951285775141 0 0.023656977789674679 0.19144208045555119 0 0.03328805604584191 0.19527270183014089 0 0.029181012944240789 0.2091677109783408 0 0.02199874058533155 0.20087951285775141 0 0.03328805604584191 0.19527270183014089 0 0.031890426475278018 0.1781355570664811 0 0.03328805604584191 0.19527270183014089 0 0.0484443202489937 0.19071570132990431 0 0.03328805604584191 0.19527270183014089 0 0.0484443202489937 0.19071570132990431 0 0.043443334393042599 0.2063261211752965 0 0.0484443202489937 0.19071570132990431 0 0.059917884471532568 0.2032333594711507 0 0.043443334393042599 0.2063261211752965 0 0.0484443202489937 0.19071570132990431 0 0.059917884471532568 0.2032333594711507 0 0.066367642912453673 0.19030000629900631 0 0.059917884471532568 0.2032333594711507 0 0.053603577900333738 0.21414066936412299 0 0.043443334393042599 0.2063261211752965 0 0.059917884471532568 0.2032333594711507 0 0.053603577900333738 0.21414066936412299 0 0.065756331014511005 0.21507664981974359 0 0.053603577900333738 0.21414066936412299 0 0.057376846942089298 0.2225779946415242 0 0.065756331014511005 0.21507664981974359 0 0.053603577900333738 0.21414066936412299 0 0.044208349778401601 0.21638000715232039 0 0.043443334393042599 0.2063261211752965 0 0.053603577900333738 0.21414066936412299 0 0.044208349778401601 0.21638000715232039 0 0.048902305716274477 0.2237494376496891 0 0.044208349778401601 0.21638000715232039 0 0.036859394908858388 0.21520636483257349 0 0.038747761476855748 0.22316427575025999 0 0.044208349778401601 0.21638000715232039 0 0.043443334393042599 0.2063261211752965 0 0.036859394908858388 0.21520636483257349 0 0.029181012944240789 0.2091677109783408 0 0.03328805604584191 0.19527270183014089 0 0.043443334393042599 0.2063261211752965 0 0.029181012944240789 0.2091677109783408 0 0.043443334393042599 0.2063261211752965 0 0.036859394908858388 0.21520636483257349 0 0.02871651595175119 0.22099370910664981 0 0.029181012944240789 0.2091677109783408 0 0.036859394908858388 0.21520636483257349 0 0.02871651595175119 0.22099370910664981 0 0.038747761476855748 0.22316427575025999 0 0.031880663497472247 0.22980965551213431 0 0.02871651595175119 0.22099370910664981 0 0.036859394908858388 0.21520636483257349 0 0.038747761476855748 0.22316427575025999 0 0.031880663497472247 0.22980965551213431 0 0.044022610594166373 0.23201047831318919 0 0.037141491256447189 0.2384003119712243 0 0.038747761476855748 0.22316427575025999 0 0.031880663497472247 0.22980965551213431 0 0.044022610594166373 0.23201047831318919 0 0.044208349778401601 0.21638000715232039 0 0.038747761476855748 0.22316427575025999 0 0.048902305716274477 0.2237494376496891 0 0.038747761476855748 0.22316427575025999 0 0.044022610594166373 0.23201047831318919 0 0.048902305716274477 0.2237494376496891 0 0.048902305716274477 0.2237494376496891 0 0.057376846942089298 0.2225779946415242 0 0.055897890309120193 0.23101425475274689 0 0.053603577900333738 0.21414066936412299 0 0.048902305716274477 0.2237494376496891 0 0.057376846942089298 0.2225779946415242 0 0.057376846942089298 0.2225779946415242 0 0.055897890309120193 0.23101425475274689 0 0.066470994848373224 0.22486311745101531 0 0.055897890309120193 0.23101425475274689 0 0.062548898720300283 0.23716227268140611 0 0.066470994848373224 0.22486311745101531 0 0.044022610594166373 0.23201047831318919 0 0.048902305716274477 0.2237494376496891 0 0.055897890309120193 0.23101425475274689 0 0.044022610594166373 0.23201047831318919 0 0.055897890309120193 0.23101425475274689 0 0.057175485762615101 0.24174678009990461 0 0.055897890309120193 0.23101425475274689 0 0.057175485762615101 0.24174678009990461 0 0.062548898720300283 0.23716227268140611 0 0.057175485762615101 0.24174678009990461 0 0.031926606979727712 0.24884729636136671 0 0.044022610594166373 0.23201047831318919 0 0.057175485762615101 0.24174678009990461 0 0.037141491256447189 0.2384003119712243 0 0.057175485762615101 0.24174678009990461 0 0.037141491256447189 0.2384003119712243 0 0.031926606979727712 0.24884729636136671 0 0.025660629095610812 0.23697758840558361 0 0.031880663497472247 0.22980965551213431 0 0.037141491256447189 0.2384003119712243 0 0.025660629095610812 0.23697758840558361 0 0.037141491256447189 0.2384003119712243 0 0.031926606979727712 0.24884729636136671 0 0.082424364545502393 0.2346462638384427 0 0.075709362988111914 0.2549031265023331 0 0.091865538445326356 0.25786726132117188 0 0.057175485762615101 0.24174678009990461 0 0.082424364545502393 0.2346462638384427 0 0.075709362988111914 0.2549031265023331 0 0.057175485762615101 0.24174678009990461 0 0.082424364545502393 0.2346462638384427 0 0.062548898720300283 0.23716227268140611 0 0.082424364545502393 0.2346462638384427 0 0.062548898720300283 0.23716227268140611 0 0.088506764267415161 0.2314096175332839 0 0.057175485762615101 0.24174678009990461 0 0.082424364545502393 0.2346462638384427 0 0.062548898720300283 0.23716227268140611 0 0.078970404388550533 0.2257149251081623 0 0.088506764267415161 0.2314096175332839 0 0.062548898720300283 0.23716227268140611 0 0.088506764267415161 0.2314096175332839 0 0.062548898720300283 0.23716227268140611 0 0.066470994848373224 0.22486311745101531 0 0.078970404388550533 0.2257149251081623 0 0.066470994848373224 0.22486311745101531 0 0.076084708824908351 0.218695128873619 0 0.065756331014511005 0.21507664981974359 0 0.057376846942089298 0.2225779946415242 0 0.066470994848373224 0.22486311745101531 0 0.065756331014511005 0.21507664981974359 0 0.066470994848373224 0.22486311745101531 0 0.078970404388550533 0.2257149251081623 0 0.076084708824908351 0.218695128873619 0 0.078970404388550533 0.2257149251081623 0 0.0876771389854476 0.21776245070627401 0 0.076084708824908351 0.218695128873619 0 0.078970404388550533 0.2257149251081623 0 0.088730592091694885 0.22391743631748201 0 0.0876771389854476 0.21776245070627401 0 0.078970404388550533 0.2257149251081623 0 0.088506764267415161 0.2314096175332839 0 0.088730592091694885 0.22391743631748201 0 0.082424364545502393 0.2346462638384427 0 0.094055922461069197 0.23137522488119569 0 0.082424364545502393 0.2346462638384427 0 0.088506764267415161 0.2314096175332839 0 0.094055922461069197 0.23137522488119569 0 0.088730592091694885 0.22391743631748201 0 0.0876771389854476 0.21776245070627401 0 0.099768060725366273 0.22078275192220789 0 0.088506764267415161 0.2314096175332839 0 0.088730592091694885 0.22391743631748201 0 0.099768060725366273 0.22078275192220789 0 0.0876771389854476 0.21776245070627401 0 0.092385633476185225 0.20936781306367519 0 0.081083973099828899 0.20694962911702941 0 0.0876771389854476 0.21776245070627401 0 0.092385633476185225 0.20936781306367519 0 0.099768060725366273 0.22078275192220789 0 0.092385633476185225 0.20936781306367519 0 0.081083973099828899 0.20694962911702941 0 0.087994415387941421 0.19415208279322441 0 0.0876771389854476 0.21776245070627401 0 0.081083973099828899 0.20694962911702941 0 0.076084708824908351 0.218695128873619 0 0.059917884471532568 0.2032333594711507 0 0.081083973099828899 0.20694962911702941 0 0.065756331014511005 0.21507664981974359 0 0.081083973099828899 0.20694962911702941 0 0.076084708824908351 0.218695128873619 0 0.065756331014511005 0.21507664981974359 0 0.059917884471532568 0.2032333594711507 0 0.081083973099828899 0.20694962911702941 0 0.066367642912453673 0.19030000629900631 0 0.081083973099828899 0.20694962911702941 0 0.066367642912453673 0.19030000629900631 0 0.066367642912453673 0.19030000629900631 0 0.087994415387941421 0.19415208279322441 0 0.078227156871822065 0.1794386807956338 0 0.081083973099828899 0.20694962911702941 0 0.066367642912453673 0.19030000629900631 0 0.087994415387941421 0.19415208279322441 0 0.087994415387941421 0.19415208279322441 0 0.105889838888107 0.20642234857907241 0 0.1015945732624986 0.18605243600710081 0 0.1142346271182372 0.1935310953488564 0 0.105889838888107 0.20642234857907241 0 0.1015945732624986 0.18605243600710081 0 0.1142346271182372 0.1935310953488564 0 0.1015945732624986 0.18605243600710081 0 0.1112035707905985 0.18320334572689931 0 0.1142346271182372 0.1935310953488564 0 0.1112035707905985 0.18320334572689931 0 0.1223189794720482 0.186439011478234 0 0.1142346271182372 0.1935310953488564 0 0.1223189794720482 0.186439011478234 0 0.12622014118278729 0.19669023701224311 0 0.1142346271182372 0.1935310953488564 0 0.1184851400701229 0.20295188579773249 0 0.12622014118278729 0.19669023701224311 0 0.1184851400701229 0.20295188579773249 0 0.1272382028401417 0.20671964801652101 0 0.12622014118278729 0.19669023701224311 0 0.1142346271182372 0.1935310953488564 0 0.1184851400701229 0.20295188579773249 0 0.105889838888107 0.20642234857907241 0 0.1188428903213411 0.21139610003196929 0 0.11446462981453009 0.22565696238516161 0 0.1301594886221448 0.21434063978879969 0 0.1184851400701229 0.20295188579773249 0 0.1188428903213411 0.21139610003196929 0 0.105889838888107 0.20642234857907241 0 0.1188428903213411 0.21139610003196929 0 0.105889838888107 0.20642234857907241 0 0.11446462981453009 0.22565696238516161 0 0.1184851400701229 0.20295188579773249 0 0.1188428903213411 0.21139610003196929 0 0.1272382028401417 0.20671964801652101 0 0.092385633476185225 0.20936781306367519 0 0.087994415387941421 0.19415208279322441 0 0.105889838888107 0.20642234857907241 0 0.105889838888107 0.20642234857907241 0 0.099768060725366273 0.22078275192220789 0 0.11446462981453009 0.22565696238516161 0 0.092385633476185225 0.20936781306367519 0 0.105889838888107 0.20642234857907241 0 0.099768060725366273 0.22078275192220789 0 0.088506764267415161 0.2314096175332839 0 0.099768060725366273 0.22078275192220789 0 0.11446462981453009 0.22565696238516161 0 0.094055922461069197 0.23137522488119569 0 0.11446462981453009 0.22565696238516161 0 0.1077326591238164 0.2361673253340946 0 0.088506764267415161 0.2314096175332839 0 0.094055922461069197 0.23137522488119569 0 0.11446462981453009 0.22565696238516161 0 0.088506764267415161 0.2314096175332839 0 0.11446462981453009 0.22565696238516161 0 0.11446462981453009 0.22565696238516161 0 0.1249830071677395 0.23970666730875029 0 0.1077326591238164 0.2361673253340946 0 0.1249830071677395 0.23970666730875029 0 0.1077326591238164 0.2361673253340946 0 0.1070286098646317 0.24911961171667879 0 0.082424364545502393 0.2346462638384427 0 0.1070286098646317 0.24911961171667879 0 0.091865538445326356 0.25786726132117188 0 0.094055922461069197 0.23137522488119569 0 0.1077326591238164 0.2361673253340946 0 0.1070286098646317 0.24911961171667879 0 0.082424364545502393 0.2346462638384427 0 0.1070286098646317 0.24911961171667879 0 0.082424364545502393 0.2346462638384427 0 0.094055922461069197 0.23137522488119569 0 0.1070286098646317 0.24911961171667879 0 0.084488971827492487 0.1552086344096246 0 0.079401135753446636 0.1375337472912409 0 0.07184519628274523 0.1535679454906228 0 0.084488971827492487 0.1552086344096246 0 0.079401135753446636 0.1375337472912409 0 0.095128477118697721 0.14784069003938199 0 0.084488971827492487 0.1552086344096246 0 0.098988910115244327 0.16290606064387411 0 0.095128477118697721 0.14784069003938199 0 0.079401135753446636 0.1375337472912409 0 0.1043387537711581 0.13390325784038359 0 0.088975241377871397 0.1232983144918848 0 0.079401135753446636 0.1375337472912409 0 0.072676580737361315 0.12789375094927091 0 0.079401135753446636 0.1375337472912409 0 0.095128477118697721 0.14784069003938199 0 0.1043387537711581 0.13390325784038359 0 0.088975241377871397 0.1232983144918848 0 0.079401135753446636 0.1375337472912409 0 0.1043387537711581 0.13390325784038359 0 0.079401135753446636 0.1375337472912409 0 0.072676580737361315 0.12789375094927091 0 0.066107524034792184 0.14114790216249129 0 0.057711194835536862 0.1318941320910455 0 0.072676580737361315 0.12789375094927091 0 0.066107524034792184 0.14114790216249129 0 0.079401135753446636 0.1375337472912409 0 0.066107524034792184 0.14114790216249129 0 0.07184519628274523 0.1535679454906228 0 0.062405934615306607 0.1620071894659075 0 0.060564960701842641 0.15317050765724549 0 0.07184519628274523 0.1535679454906228 0 0.060564960701842641 0.15317050765724549 0 0.066107524034792184 0.14114790216249129 0 0.07184519628274523 0.1535679454906228 0 0.051651312725078183 0.17365038348098341 0 0.075320111420161304 0.16827822206242909 0 0.062405934615306607 0.1620071894659075 0 0.07184519628274523 0.1535679454906228 0 0.075320111420161304 0.16827822206242909 0 0.051651312725078183 0.17365038348098341 0 0.062405934615306607 0.1620071894659075 0 0.075320111420161304 0.16827822206242909 0 0.084488971827492487 0.1552086344096246 0 0.07184519628274523 0.1535679454906228 0 0.075320111420161304 0.16827822206242909 0 0.051651312725078183 0.17365038348098341 0 0.075320111420161304 0.16827822206242909 0 0.06789155598237881 0.1779168231595131 0 0.075320111420161304 0.16827822206242909 0 0.06789155598237881 0.1779168231595131 0 0.078227156871822065 0.1794386807956338 0 0.066367642912453673 0.19030000629900631 0 0.06789155598237881 0.1779168231595131 0 0.078227156871822065 0.1794386807956338 0 0.087994415387941421 0.19415208279322441 0 0.078227156871822065 0.1794386807956338 0 0.090412089204694471 0.1805336656910532 0 0.075320111420161304 0.16827822206242909 0 0.078227156871822065 0.1794386807956338 0 0.085685951813686212 0.16827327006789861 0 0.078227156871822065 0.1794386807956338 0 0.090412089204694471 0.1805336656910532 0 0.085685951813686212 0.16827327006789861 0 0.090412089204694471 0.1805336656910532 0 0.085685951813686212 0.16827327006789861 0 0.099043608393289129 0.1739820565908404 0 0.087994415387941421 0.19415208279322441 0 0.090412089204694471 0.1805336656910532 0 0.1015945732624986 0.18605243600710081 0 0.084488971827492487 0.1552086344096246 0 0.075320111420161304 0.16827822206242909 0 0.098988910115244327 0.16290606064387411 0 0.075320111420161304 0.16827822206242909 0 0.098988910115244327 0.16290606064387411 0 0.075320111420161304 0.16827822206242909 0 0.085685951813686212 0.16827327006789861 0 0.098988910115244327 0.16290606064387411 0 0.085685951813686212 0.16827327006789861 0 0.099043608393289129 0.1739820565908404 0 0.1121134076687188 0.1681877601004072 0 0.085685951813686212 0.16827327006789861 0 0.098988910115244327 0.16290606064387411 0 0.1121134076687188 0.1681877601004072 0 0.085685951813686212 0.16827327006789861 0 0.1121134076687188 0.1681877601004072 0 0.098988910115244327 0.16290606064387411 0 0.1071691429050209 0.16399998765341009 0 0.1121134076687188 0.1681877601004072 0 0.090412089204694471 0.1805336656910532 0 0.099043608393289129 0.1739820565908404 0 0.1015945732624986 0.18605243600710081 0 0.099043608393289129 0.1739820565908404 0 0.10753342209534419 0.17728452549828749 0 0.1121134076687188 0.1681877601004072 0 0.099043608393289129 0.1739820565908404 0 0.10753342209534419 0.17728452549828749 0 0.1015945732624986 0.18605243600710081 0 0.10753342209534419 0.17728452549828749 0 0.1015945732624986 0.18605243600710081 0 0.1112035707905985 0.18320334572689931 0 0.1121134076687188 0.1681877601004072 0 0.13523038861601519 0.1877677503508666 0 0.11767995372854489 0.18057647863093951 0 0.1121134076687188 0.1681877601004072 0 0.13523038861601519 0.1877677503508666 0 0.1112035707905985 0.18320334572689931 0 0.1223189794720482 0.186439011478234 0 0.11767995372854489 0.18057647863093951 0 0.10753342209534419 0.17728452549828749 0 0.1112035707905985 0.18320334572689931 0 0.11767995372854489 0.18057647863093951 0 0.10753342209534419 0.17728452549828749 0 0.11767995372854489 0.18057647863093951 0 0.1121134076687188 0.1681877601004072 0 0.098988910115244327 0.16290606064387411 0 0.1226577088103273 0.1575338992253191 0 0.098988910115244327 0.16290606064387411 0 0.1071691429050209 0.16399998765341009 0 0.1226577088103273 0.1575338992253191 0 0.098988910115244327 0.16290606064387411 0 0.1226577088103273 0.1575338992253191 0 0.1084246141261471 0.14965175001178699 0 0.1071691429050209 0.16399998765341009 0 0.1121134076687188 0.1681877601004072 0 0.1226577088103273 0.1575338992253191 0 0.1071691429050209 0.16399998765341009 0 0.1121134076687188 0.1681877601004072 0 0.11942188521867581 0.14298783467179341 0 0.1084246141261471 0.14965175001178699 0 0.1043387537711581 0.13390325784038359 0 0.1226577088103273 0.1575338992253191 0 0.11942188521867581 0.14298783467179341 0 0.13241197759687681 0.1435774978919509 0 0.1226577088103273 0.1575338992253191 0 0.11942188521867581 0.14298783467179341 0 0.1084246141261471 0.14965175001178699 0 0.1084246141261471 0.14965175001178699 0 0.095128477118697721 0.14784069003938199 0 0.1043387537711581 0.13390325784038359 0 0.098988910115244327 0.16290606064387411 0 0.1084246141261471 0.14965175001178699 0 0.095128477118697721 0.14784069003938199 0 0.1045001491070531 0.121160327763206 0 0.088975241377871397 0.1232983144918848 0 0.1043387537711581 0.13390325784038359 0 0.1180666309774392 0.1177391252782585 0 0.1043387537711581 0.13390325784038359 0 0.1292763717888695 0.13027276838952631 0 0.11942188521867581 0.14298783467179341 0 0.1043387537711581 0.13390325784038359 0 0.1292763717888695 0.13027276838952631 0 0.1043387537711581 0.13390325784038359 0 0.1292763717888695 0.13027276838952631 0 0.1292763717888695 0.13027276838952631 0 0.15421398980658099 0.126642278938669 0 0.1334928892187158 0.1190613281269169 0 0.1292763717888695 0.13027276838952631 0 0.1451753218221403 0.13909416798535271 0 0.13241197759687681 0.1435774978919509 0 0.11942188521867581 0.14298783467179341 0 0.1292763717888695 0.13027276838952631 0 0.13241197759687681 0.1435774978919509 0 0.1292763717888695 0.13027276838952631 0 0.1451753218221403 0.13909416798535271 0 0.15421398980658099 0.126642278938669 0 0.1451753218221403 0.13909416798535271 0 0.15421398980658099 0.126642278938669 0 0.16364776241296411 0.1428165568998532 0 0.1292763717888695 0.13027276838952631 0 0.15421398980658099 0.126642278938669 0 0.1451753218221403 0.13909416798535271 0 0.14632650750541029 0.15216173780676409 0 0.16364776241296411 0.1428165568998532 0 0.1451753218221403 0.13909416798535271 0 0.14632650750541029 0.15216173780676409 0 0.13241197759687681 0.1435774978919509 0 0.1226577088103273 0.1575338992253191 0 0.14632650750541029 0.15216173780676409 0 0.13241197759687681 0.1435774978919509 0 0.1226577088103273 0.1575338992253191 0 0.14632650750541029 0.15216173780676409 0 0.1226577088103273 0.1575338992253191 0 0.14632650750541029 0.15216173780676409 0 0.14186297871677539 0.1680915009346671 0 0.1121134076687188 0.1681877601004072 0 0.1226577088103273 0.1575338992253191 0 0.14186297871677539 0.1680915009346671 0 0.1121134076687188 0.1681877601004072 0 0.14186297871677539 0.1680915009346671 0 0.1223189794720482 0.186439011478234 0 0.11767995372854489 0.18057647863093951 0 0.13523038861601519 0.1877677503508666 0 0.1121134076687188 0.1681877601004072 0 0.14186297871677539 0.1680915009346671 0 0.13523038861601519 0.1877677503508666 0 0.1223189794720482 0.186439011478234 0 0.13523038861601519 0.1877677503508666 0 0.1512589405887978 0.17844840764517481 0 0.14186297871677539 0.1680915009346671 0 0.13523038861601519 0.1877677503508666 0 0.1512589405887978 0.17844840764517481 0 0.13523038861601519 0.1877677503508666 0 0.15632984525756879 0.18993913752623531 0 0.1512589405887978 0.17844840764517481 0 0.14186297871677539 0.1680915009346671 0 0.17161254976483209 0.16799524176892761 0 0.14632650750541029 0.15216173780676409 0 0.14186297871677539 0.1680915009346671 0 0.15933199995061489 0.15696740310647361 0 0.14186297871677539 0.1680915009346671 0 0.15933199995061489 0.15696740310647361 0 0.17161254976483209 0.16799524176892761 0 0.14186297871677539 0.1680915009346671 0 0.17161254976483209 0.16799524176892761 0 0.15933199995061489 0.15696740310647361 0 0.17161254976483209 0.16799524176892761 0 0.17321020135309259 0.1537719781221559 0 0.17924246688167089 0.17802288737896241 0 0.15632984525756879 0.18993913752623531 0 0.17742930189912279 0.19211052470160059 0 0.1512589405887978 0.17844840764517481 0 0.17161254976483209 0.16799524176892761 0 0.15632984525756879 0.18993913752623531 0 0.17161254976483209 0.16799524176892761 0 0.17924246688167089 0.17802288737896241 0 0.15632984525756879 0.18993913752623531 0 0.17924246688167089 0.17802288737896241 0 0.17742930189912279 0.19211052470160059 0 0.19050692962700749 0.18414866427407081 0 0.17161254976483209 0.16799524176892761 0 0.17924246688167089 0.17802288737896241 0 0.1856607932485142 0.16089932896482639 0 0.17924246688167089 0.17802288737896241 0 0.1856607932485142 0.16089932896482639 0 0.19391538149298049 0.17304442703811321 0 0.17161254976483209 0.16799524176892761 0 0.1856607932485142 0.16089932896482639 0 0.17321020135309259 0.1537719781221559 0 0.17321020135309259 0.1537719781221559 0 0.18388433036956739 0.14217247623031959 0 0.16364776241296411 0.1428165568998532 0 0.1856607932485142 0.16089932896482639 0 0.17321020135309259 0.1537719781221559 0 0.18388433036956739 0.14217247623031959 0 0.18388433036956739 0.14217247623031959 0 0.1938103907077679 0.1294427671103697 0 0.17915160782429251 0.1230117894878117 0 0.18388433036956739 0.14217247623031959 0 0.16364776241296411 0.1428165568998532 0 0.17915160782429251 0.1230117894878117 0 0.15421398980658099 0.126642278938669 0 0.16364776241296411 0.1428165568998532 0 0.17915160782429251 0.1230117894878117 0 0.14632650750541029 0.15216173780676409 0 0.15933199995061489 0.15696740310647361 0 0.16364776241296411 0.1428165568998532 0 0.15933199995061489 0.15696740310647361 0 0.17321020135309259 0.1537719781221559 0 0.16364776241296411 0.1428165568998532 0 0.15459121070718229 0.2476980005371214 0 0.14804547269228571 0.22658889320266329 0 0.15695841345200659 0.23334490771670921 0 0.15459121070718229 0.2476980005371214 0 0.13803525363611691 0.22833814077175571 0 0.15459121070718229 0.2476980005371214 0 0.13931030980740869 0.24232932569779139 0 0.13803525363611691 0.22833814077175571 0 0.15459121070718229 0.2476980005371214 0 0.15695841345200659 0.23334490771670921 0 0.15459121070718229 0.2476980005371214 0 0.13931030980740869 0.24232932569779139 0 0.13963176771859701 0.25357449417353739 0 0.1249830071677395 0.23970666730875029 0 0.13931030980740869 0.24232932569779139 0 0.13963176771859701 0.25357449417353739 0 0.1249830071677395 0.23970666730875029 0 0.13931030980740869 0.24232932569779139 0 0.13803525363611691 0.22833814077175571 0 0.11446462981453009 0.22565696238516161 0 0.14042249536164489 0.21990430723703941 0 0.1301594886221448 0.21434063978879969 0 0.11446462981453009 0.22565696238516161 0 0.13803525363611691 0.22833814077175571 0 0.14042249536164489 0.21990430723703941 0 0.11446462981453009 0.22565696238516161 0 0.14042249536164489 0.21990430723703941 0 0.11446462981453009 0.22565696238516161 0 0.1249830071677395 0.23970666730875029 0 0.13803525363611691 0.22833814077175571 0 0.13803525363611691 0.22833814077175571 0 0.14042249536164489 0.21990430723703941 0 0.14804547269228571 0.22658889320266329 0 0.14042249536164489 0.21990430723703941 0 0.14804547269228571 0.22658889320266329 0 0.16638036090875921 0.2141516520889146 0 0.15459121070718229 0.2476980005371214 0 0.13803525363611691 0.22833814077175571 0 0.14804547269228571 0.22658889320266329 0 0.14883012655736261 0.2100916938690536 0 0.15080537476238881 0.20095970121988879 0 0.16638036090875921 0.2141516520889146 0 0.14042249536164489 0.21990430723703941 0 0.14883012655736261 0.2100916938690536 0 0.16638036090875921 0.2141516520889146 0 0.14042249536164489 0.21990430723703941 0 0.16638036090875921 0.2141516520889146 0 0.14883012655736261 0.2100916938690536 0 0.13771227519665649 0.2053511149303727 0 0.15080537476238881 0.20095970121988879 0 0.14042249536164489 0.21990430723703941 0 0.14883012655736261 0.2100916938690536 0 0.13771227519665649 0.2053511149303727 0 0.14042249536164489 0.21990430723703941 0 0.1301594886221448 0.21434063978879969 0 0.13771227519665649 0.2053511149303727 0 0.1301594886221448 0.21434063978879969 0 0.1272382028401417 0.20671964801652101 0 0.13771227519665649 0.2053511149303727 0 0.1188428903213411 0.21139610003196929 0 0.1301594886221448 0.21434063978879969 0 0.1272382028401417 0.20671964801652101 0 0.13771227519665649 0.2053511149303727 0 0.12622014118278729 0.19669023701224311 0 0.13523038861601519 0.1877677503508666 0 0.1272382028401417 0.20671964801652101 0 0.13771227519665649 0.2053511149303727 0 0.12622014118278729 0.19669023701224311 0 0.1223189794720482 0.186439011478234 0 0.12622014118278729 0.19669023701224311 0 0.13523038861601519 0.1877677503508666 0 0.13523038861601519 0.1877677503508666 0 0.15080537476238881 0.20095970121988879 0 0.13523038861601519 0.1877677503508666 0 0.15632984525756879 0.18993913752623531 0 0.13771227519665649 0.2053511149303727 0 0.13523038861601519 0.1877677503508666 0 0.15080537476238881 0.20095970121988879 0 0.13523038861601519 0.1877677503508666 0 0.15080537476238881 0.20095970121988879 0 0.15632984525756879 0.18993913752623531 0 0.15632984525756879 0.18993913752623531 0 0.1688244142983655 0.19262551569402109 0 0.17742930189912279 0.19211052470160059 0 0.15632984525756879 0.18993913752623531 0 0.17742930189912279 0.19211052470160059 0 0.15632984525756879 0.18993913752623531 0 0.16323374564898149 0.20035430453948591 0 0.1688244142983655 0.19262551569402109 0 0.15080537476238881 0.20095970121988879 0 0.15632984525756879 0.18993913752623531 0 0.16323374564898149 0.20035430453948591 0 0.16323374564898149 0.20035430453948591 0 0.1688244142983655 0.19262551569402109 0 0.17339645801772491 0.20286025598974081 0 0.17742930189912279 0.19211052470160059 0 0.17339645801772491 0.20286025598974081 0 0.18903954733291761 0.2091300340672583 0 0.1688244142983655 0.19262551569402109 0 0.17742930189912279 0.19211052470160059 0 0.1688244142983655 0.19262551569402109 0 0.17742930189912279 0.19211052470160059 0 0.17339645801772491 0.20286025598974081 0 0.17339645801772491 0.20286025598974081 0 0.16638036090875921 0.2141516520889146 0 0.18903954733291761 0.2091300340672583 0 0.1770828168939288 0.216333749285332 0 0.194390775325502 0.21022108266546549 0 0.17741234396637909 0.21289939025683249 0 0.16638036090875921 0.2141516520889146 0 0.18903954733291761 0.2091300340672583 0 0.16638036090875921 0.2141516520889146 0 0.18903954733291761 0.2091300340672583 0 0.1770828168939288 0.216333749285332 0 0.194390775325502 0.21022108266546549 0 0.18903954733291761 0.2091300340672583 0 0.1770828168939288 0.216333749285332 0 0.18436228055408271 0.21978819610644951 0 0.194390775325502 0.21022108266546549 0 0.1770828168939288 0.216333749285332 0 0.17741234396637909 0.21289939025683249 0 0.18903954733291761 0.2091300340672583 0 0.1770828168939288 0.216333749285332 0 0.17741234396637909 0.21289939025683249 0 0.1770828168939288 0.216333749285332 0 0.17741234396637909 0.21289939025683249 0 0.17134791419566231 0.2183591498217661 0 0.1770828168939288 0.216333749285332 0 0.17134791419566231 0.2183591498217661 0 0.17134791419566231 0.2183591498217661 0 0.16638036090875921 0.2141516520889146 0 0.17741234396637909 0.21289939025683249 0 0.17134791419566231 0.2183591498217661 0 0.16638036090875921 0.2141516520889146 0 0.16323374564898149 0.20035430453948591 0 0.17339645801772491 0.20286025598974081 0 0.16638036090875921 0.2141516520889146 0 0.15080537476238881 0.20095970121988879 0 0.16638036090875921 0.2141516520889146 0 0.15080537476238881 0.20095970121988879 0 0.16323374564898149 0.20035430453948591 0 0.16638036090875921 0.2141516520889146 0 0.14804547269228571 0.22658889320266329 0 0.17134791419566231 0.2183591498217661 0 0.16638036090875921 0.2141516520889146 0 0.14804547269228571 0.22658889320266329 0 0.17134791419566231 0.2183591498217661 0 0.14804547269228571 0.22658889320266329 0 0.17134791419566231 0.2183591498217661 0 0.166641295919007 0.22922891500183079 0 0.14804547269228571 0.22658889320266329 0 0.15695841345200659 0.23334490771670921 0 0.166641295919007 0.22922891500183079 0 0.17134791419566231 0.2183591498217661 0 0.166641295919007 0.22922891500183079 0 0.1764720447828754 0.22269926790069941 0 0.166641295919007 0.22922891500183079 0 0.1764720447828754 0.22269926790069941 0 0.174290035055923 0.24544035788243229 0 0.1764720447828754 0.22269926790069941 0 0.174290035055923 0.24544035788243229 0 0.1764720447828754 0.22269926790069941 0 0.18089437890534679 0.22644496718555099 0 0.174290035055923 0.24544035788243229 0 0.1770828168939288 0.216333749285332 0 0.17134791419566231 0.2183591498217661 0 0.1764720447828754 0.22269926790069941 0 0.17134791419566231 0.2183591498217661 0 0.1764720447828754 0.22269926790069941 0 0.1770828168939288 0.216333749285332 0 0.1764720447828754 0.22269926790069941 0 0.18436228055408271 0.21978819610644951 0 0.1764720447828754 0.22269926790069941 0 0.18089437890534679 0.22644496718555099 0 0.1770828168939288 0.216333749285332 0 0.1764720447828754 0.22269926790069941 0 0.18436228055408271 0.21978819610644951 0 0.18089437890534679 0.22644496718555099 0 0.19297138686276169 0.22324191349519909 0 0.1764720447828754 0.22269926790069941 0 0.18436228055408271 0.21978819610644951 0 0.18089437890534679 0.22644496718555099 0 0.18089437890534679 0.22644496718555099 0 0.174290035055923 0.24544035788243229 0 0.19116911437402651 0.23984220284583591 0 0.174290035055923 0.24544035788243229 0 0.16359017739155601 0.24116098067279809 0 0.1654699318236621 0.25009272222589601 0 0.166641295919007 0.22922891500183079 0 0.174290035055923 0.24544035788243229 0 0.16359017739155601 0.24116098067279809 0 0.15459121070718229 0.2476980005371214 0 0.15695841345200659 0.23334490771670921 0 0.16359017739155601 0.24116098067279809 0 0.15695841345200659 0.23334490771670921 0 0.166641295919007 0.22922891500183079 0 0.16359017739155601 0.24116098067279809 0 0.15459121070718229 0.2476980005371214 0 0.16359017739155601 0.24116098067279809 0 0.1654699318236621 0.25009272222589601 0 0.20875825771649001 0.24791684293498359 0 0.19116911437402651 0.23984220284583591 0 0.20073192019578509 0.23233936521753559 0 0.18089437890534679 0.22644496718555099 0 0.19116911437402651 0.23984220284583591 0 0.19297138686276169 0.22324191349519909 0 0.19116911437402651 0.23984220284583591 0 0.20073192019578509 0.23233936521753559 0 0.19297138686276169 0.22324191349519909 0 0.20073192019578509 0.23233936521753559 0 0.19297138686276169 0.22324191349519909 0 0.21326442046005309 0.2197184992285473 0 0.20875825771649001 0.24791684293498359 0 0.21326442046005309 0.2197184992285473 0 0.22632415865285471 0.2327733653222773 0 0.20875825771649001 0.24791684293498359 0 0.20073192019578509 0.23233936521753559 0 0.21326442046005309 0.2197184992285473 0 0.21326442046005309 0.2197184992285473 0 0.21169873375707521 0.20410841604559901 0 0.194390775325502 0.21022108266546549 0 0.21326442046005309 0.2197184992285473 0 0.21169873375707521 0.20410841604559901 0 0.22606868467797961 0.21426142885737309 0 0.19297138686276169 0.22324191349519909 0 0.21326442046005309 0.2197184992285473 0 0.194390775325502 0.21022108266546549 0 0.21169873375707521 0.20410841604559901 0 0.194390775325502 0.21022108266546549 0 0.21169873375707521 0.20410841604559901 0 0.194390775325502 0.21022108266546549 0 0.18903954733291761 0.2091300340672583 0 0.21169873375707521 0.20410841604559901 0 0.18903954733291761 0.2091300340672583 0 0.18436228055408271 0.21978819610644951 0 0.19297138686276169 0.22324191349519909 0 0.194390775325502 0.21022108266546549 0 0.21169873375707521 0.20410841604559901 0 0.18903954733291761 0.2091300340672583 0 0.20385087831175711 0.19482962183997801 0 0.17742930189912279 0.19211052470160059 0 0.20455709962581031 0.1904869623587003 0 0.19050692962700749 0.18414866427407081 0 0.17742930189912279 0.19211052470160059 0 0.20455709962581031 0.1904869623587003 0 0.17742930189912279 0.19211052470160059 0 0.20385087831175711 0.19482962183997801 0 0.20455709962581031 0.1904869623587003 0 0.17742930189912279 0.19211052470160059 0 0.18903954733291761 0.2091300340672583 0 0.20385087831175711 0.19482962183997801 0 0.17742930189912279 0.19211052470160059 0 0.20385087831175711 0.19482962183997801 0 0.20455709962581031 0.1904869623587003 0 0.2316848973524977 0.1888634000158009 0 0.21508090582821379 0.1847180537064248 0 0.20455709962581031 0.1904869623587003 0 0.2316848973524977 0.1888634000158009 0 0.20385087831175711 0.19482962183997801 0 0.2302724547243919 0.19754871897835291 0 0.21169873375707521 0.20410841604559901 0 0.20385087831175711 0.19482962183997801 0 0.2302724547243919 0.19754871897835291 0 0.20385087831175711 0.19482962183997801 0 0.20455709962581031 0.1904869623587003 0 0.2302724547243919 0.19754871897835291 0 0.21169873375707521 0.20410841604559901 0 0.2378018101945456 0.19832357997048591 0 0.21169873375707521 0.20410841604559901 0 0.2302724547243919 0.19754871897835291 0 0.2378018101945456 0.19832357997048591 0 0.20455709962581031 0.1904869623587003 0 0.2302724547243919 0.19754871897835291 0 0.2316848973524977 0.1888634000158009 0 0.21169873375707521 0.20410841604559901 0 0.2302724547243919 0.19754871897835291 0 0.2302724547243919 0.19754871897835291 0 0.2378018101945456 0.19832357997048591 0 0.24286991913566969 0.19325292944681119 0 0.2378018101945456 0.19832357997048591 0 0.2553921061020899 0.19442530466253319 0 0.2316848973524977 0.1888634000158009 0 0.25881269507918508 0.18723983767290139 0 0.2378018101945456 0.19832357997048591 0 0.2553921061020899 0.19442530466253319 0 0.2302724547243919 0.19754871897835291 0 0.2316848973524977 0.1888634000158009 0 0.24286991913566969 0.19325292944681119 0 0.2316848973524977 0.1888634000158009 0 0.24286991913566969 0.19325292944681119 0 0.25881269507918508 0.18723983767290139 0 0.2302724547243919 0.19754871897835291 0 0.24286991913566969 0.19325292944681119 0 0.2378018101945456 0.19832357997048591 0 0.2378018101945456 0.19832357997048591 0 0.24125430032536929 0.21638328371995821 0 0.26746882517478771 0.20137667166634279 0 0.2378018101945456 0.19832357997048591 0 0.24125430032536929 0.21638328371995821 0 0.22606868467797961 0.21426142885737309 0 0.21169873375707521 0.20410841604559901 0 0.2378018101945456 0.19832357997048591 0 0.22606868467797961 0.21426142885737309 0 0.24125430032536929 0.21638328371995821 0 0.22606868467797961 0.21426142885737309 0 0.22632415865285471 0.2327733653222773 0 0.21326442046005309 0.2197184992285473 0 0.22606868467797961 0.21426142885737309 0 0.22632415865285471 0.2327733653222773 0 0.24125430032536929 0.21638328371995821 0 0.24408767522763519 0.24738620800961111 0 0.25577825020120981 0.22438143983797609 0 0.24125430032536929 0.21638328371995821 0 0.22632415865285471 0.2327733653222773 0 0.24408767522763519 0.24738620800961111 0 0.24408767522763519 0.24738620800961111 0 0.25577825020120981 0.22438143983797609 0 0.22632415865285471 0.2327733653222773 0 0.24408767522763519 0.24738620800961111 0 0.2248599153753294 0.25464974868018769 0 0.20875825771649001 0.24791684293498359 0 0.22632415865285471 0.2327733653222773 0 0.2248599153753294 0.25464974868018769 0 0.21200562066160161 0.1467079360452806 0 0.21183658649135309 0.1279691399927933 0 0.2301866131769571 0.14830988563429301 0 0.21200562066160161 0.1467079360452806 0 0.20730265976586951 0.15802178200219799 0 0.2192286380700631 0.16321437026710581 0 0.21200562066160161 0.1467079360452806 0 0.20467337404855979 0.13542598228504671 0 0.19801548590604709 0.14912698265977739 0 0.21200562066160161 0.1467079360452806 0 0.19801548590604709 0.14912698265977739 0 0.20730265976586951 0.15802178200219799 0 0.21200562066160161 0.1467079360452806 0 0.21183658649135309 0.1279691399927933 0 0.20467337404855979 0.13542598228504671 0 0.21183658649135309 0.1279691399927933 0 0.20360239427242119 0.1280547973562908 0 0.2040892258420039 0.11938130003695351 0 0.21183658649135309 0.1279691399927933 0 0.20360239427242119 0.1280547973562908 0 0.20467337404855979 0.13542598228504671 0 0.21183658649135309 0.1279691399927933 0 0.20467337404855979 0.13542598228504671 0 0.20467337404855979 0.13542598228504671 0 0.1938103907077679 0.1294427671103697 0 0.19509589525798551 0.13904205207137829 0 0.20360239427242119 0.1280547973562908 0 0.1938103907077679 0.1294427671103697 0 0.2040892258420039 0.11938130003695351 0 0.20360239427242119 0.1280547973562908 0 0.20467337404855979 0.13542598228504671 0 0.1938103907077679 0.1294427671103697 0 0.18388433036956739 0.14217247623031959 0 0.1938103907077679 0.1294427671103697 0 0.19509589525798551 0.13904205207137829 0 0.1856607932485142 0.16089932896482639 0 0.18388433036956739 0.14217247623031959 0 0.19801548590604709 0.14912698265977739 0 0.18388433036956739 0.14217247623031959 0 0.19509589525798551 0.13904205207137829 0 0.19801548590604709 0.14912698265977739 0 0.20467337404855979 0.13542598228504671 0 0.19509589525798551 0.13904205207137829 0 0.19801548590604709 0.14912698265977739 0 0.1856607932485142 0.16089932896482639 0 0.19801548590604709 0.14912698265977739 0 0.19889398188953639 0.1627170798960525 0 0.1856607932485142 0.16089932896482639 0 0.19889398188953639 0.1627170798960525 0 0.19391538149298049 0.17304442703811321 0 0.20143531521365571 0.16978026797347801 0 0.19889398188953639 0.1627170798960525 0 0.20875327909871441 0.1674092356009908 0 0.20143531521365571 0.16978026797347801 0 0.19889398188953639 0.1627170798960525 0 0.19391538149298049 0.17304442703811321 0 0.19801548590604709 0.14912698265977739 0 0.19889398188953639 0.1627170798960525 0 0.20730265976586951 0.15802178200219799 0 0.17924246688167089 0.17802288737896241 0 0.19050692962700749 0.18414866427407081 0 0.19391538149298049 0.17304442703811321 0 0.19050692962700749 0.18414866427407081 0 0.19391538149298049 0.17304442703811321 0 0.19960271430958501 0.18129469115971381 0 0.20143531521365571 0.16978026797347801 0 0.19391538149298049 0.17304442703811321 0 0.20332197819795689 0.17643680315801899 0 0.19391538149298049 0.17304442703811321 0 0.19960271430958501 0.18129469115971381 0 0.20332197819795689 0.17643680315801899 0 0.20455709962581031 0.1904869623587003 0 0.19050692962700749 0.18414866427407081 0 0.19960271430958501 0.18129469115971381 0 0.19960271430958501 0.18129469115971381 0 0.20571218260416971 0.1823565989696658 0 0.20332197819795689 0.17643680315801899 0 0.20455709962581031 0.1904869623587003 0 0.19960271430958501 0.18129469115971381 0 0.20571218260416971 0.1823565989696658 0 0.20455709962581031 0.1904869623587003 0 0.20571218260416971 0.1823565989696658 0 0.21508090582821379 0.1847180537064248 0 0.21013113837578951 0.17591730582290491 0 0.20332197819795689 0.17643680315801899 0 0.20875327909871441 0.1674092356009908 0 0.20571218260416971 0.1823565989696658 0 0.21013113837578951 0.17591730582290491 0 0.21256645528335069 0.1806948814876517 0 0.20571218260416971 0.1823565989696658 0 0.21013113837578951 0.17591730582290491 0 0.20332197819795689 0.17643680315801899 0 0.21013113837578951 0.17591730582290491 0 0.2166911235731557 0.17413001875681339 0 0.20875327909871441 0.1674092356009908 0 0.2166911235731557 0.17413001875681339 0 0.21256645528335069 0.1806948814876517 0 0.22088389427524049 0.1811884257003053 0 0.21013113837578951 0.17591730582290491 0 0.2166911235731557 0.17413001875681339 0 0.21256645528335069 0.1806948814876517 0 0.20571218260416971 0.1823565989696658 0 0.21508090582821379 0.1847180537064248 0 0.21256645528335069 0.1806948814876517 0 0.21508090582821379 0.1847180537064248 0 0.21256645528335069 0.1806948814876517 0 0.22088389427524049 0.1811884257003053 0 0.19889398188953639 0.1627170798960525 0 0.20730265976586951 0.15802178200219799 0 0.20875327909871441 0.1674092356009908 0 0.20143531521365571 0.16978026797347801 0 0.20332197819795689 0.17643680315801899 0 0.20875327909871441 0.1674092356009908 0 0.2166911235731557 0.17413001875681339 0 0.20875327909871441 0.1674092356009908 0 0.2192286380700631 0.16321437026710581 0 0.20730265976586951 0.15802178200219799 0 0.20875327909871441 0.1674092356009908 0 0.2192286380700631 0.16321437026710581 0 0.2192286380700631 0.16321437026710581 0 0.23401579035750819 0.172444394405212 0 0.2301866131769571 0.14830988563429301 0 0.2192286380700631 0.16321437026710581 0 0.2241587286974436 0.1744804302995725 0 0.23401579035750819 0.172444394405212 0 0.2166911235731557 0.17413001875681339 0 0.2192286380700631 0.16321437026710581 0 0.2241587286974436 0.1744804302995725 0 0.2316848973524977 0.1888634000158009 0 0.21508090582821379 0.1847180537064248 0 0.22088389427524049 0.1811884257003053 0 0.22088389427524049 0.1811884257003053 0 0.2241587286974436 0.1744804302995725 0 0.22961269111701679 0.18012562215720671 0 0.2166911235731557 0.17413001875681339 0 0.22088389427524049 0.1811884257003053 0 0.2241587286974436 0.1744804302995725 0 0.2241587286974436 0.1744804302995725 0 0.23401579035750819 0.172444394405212 0 0.22961269111701679 0.18012562215720671 0 0.23401579035750819 0.172444394405212 0 0.22961269111701679 0.18012562215720671 0 0.2357178922152014 0.1819785387317952 0 0.2316848973524977 0.1888634000158009 0 0.22961269111701679 0.18012562215720671 0 0.2357178922152014 0.1819785387317952 0 0.2316848973524977 0.1888634000158009 0 0.22088389427524049 0.1811884257003053 0 0.22961269111701679 0.18012562215720671 0 0.2316848973524977 0.1888634000158009 0 0.24499458573427471 0.18380406373560509 0 0.25881269507918508 0.18723983767290139 0 0.2316848973524977 0.1888634000158009 0 0.2357178922152014 0.1819785387317952 0 0.24499458573427471 0.18380406373560509 0 0.23401579035750819 0.172444394405212 0 0.2357178922152014 0.1819785387317952 0 0.24499458573427471 0.18380406373560509 0 0.23401579035750819 0.172444394405212 0 0.24499458573427471 0.18380406373560509 0 0.24853663986256111 0.1686506312757925 0 0.24853663986256111 0.1686506312757925 0 0.2301866131769571 0.14830988563429301 0 0.23401579035750819 0.172444394405212 0 0.24853663986256111 0.1686506312757925 0 0.2301866131769571 0.14830988563429301 0 0.24853663986256111 0.1686506312757925 0 0.2301866131769571 0.14830988563429301 0 0.25050055172898211 0.1470204461234195 0 0.2301866131769571 0.14830988563429301 0 0.24676159003455239 0.12791355937761181 0 0.25050055172898211 0.1470204461234195 0 0.21200562066160161 0.1467079360452806 0 0.2192286380700631 0.16321437026710581 0 0.2301866131769571 0.14830988563429301 0 0.21183658649135309 0.1279691399927933 0 0.2301866131769571 0.14830988563429301 0 0.21183658649135309 0.1279691399927933 0 0.2301866131769571 0.14830988563429301 0 0.22978096906059331 0.12744245418595729 0 0.2301866131769571 0.14830988563429301 0 0.22978096906059331 0.12744245418595729 0 0.24676159003455239 0.12791355937761181 0 0.24676159003455239 0.12791355937761181 0 0.2412009338978682 0.11370209041744 0 0.25477011833646362 0.1103263086023575 0 0.22978096906059331 0.12744245418595729 0 0.24676159003455239 0.12791355937761181 0 0.2412009338978682 0.11370209041744 0 0.2412009338978682 0.11370209041744 0 0.24584913254136981 0.092562373283250871 0 0.25477011833646362 0.1103263086023575 0 0.2412009338978682 0.11370209041744 0 0.2288428595163621 0.1102657566380227 0 0.24584913254136981 0.092562373283250871 0 0.2288428595163621 0.1102657566380227 0 0.24584913254136981 0.092562373283250871 0 0.22640857620066671 0.09481467996488116 0 0.2288428595163621 0.1102657566380227 0 0.24584913254136981 0.092562373283250871 0 0.22640857620066671 0.09481467996488116 0 0.2288428595163621 0.1102657566380227 0 0.21827246483601331 0.1065849565034198 0 0.22640857620066671 0.09481467996488116 0 0.21827246483601331 0.1065849565034198 0 0.21351959618813299 0.097147580017458796 0 0.21183658649135309 0.1279691399927933 0 0.22978096906059331 0.12744245418595729 0 0.2288428595163621 0.1102657566380227 0 0.21183658649135309 0.1279691399927933 0 0.2288428595163621 0.1102657566380227 0 0.22978096906059331 0.12744245418595729 0 0.2412009338978682 0.11370209041744 0 0.2288428595163621 0.1102657566380227 0 0.2288428595163621 0.1102657566380227 0 0.21475418187066561 0.117828665365575 0 0.21827246483601331 0.1065849565034198 0 0.21183658649135309 0.1279691399927933 0 0.2288428595163621 0.1102657566380227 0 0.21475418187066561 0.117828665365575 0 0.21183658649135309 0.1279691399927933 0 0.2040892258420039 0.11938130003695351 0 0.21475418187066561 0.117828665365575 0 0.2040892258420039 0.11938130003695351 0 0.21183658649135309 0.1279691399927933 0 0.21475418187066561 0.117828665365575 0 0.2040892258420039 0.11938130003695351 0 0.21475418187066561 0.117828665365575 0 0.2040892258420039 0.11938130003695351 0 0.20676832633911099 0.1065873948542566 0 0.21475418187066561 0.117828665365575 0 0.21827246483601331 0.1065849565034198 0 0.20676832633911099 0.1065873948542566 0 0.21827246483601331 0.1065849565034198 0 0.21351959618813299 0.097147580017458796 0 0.20676832633911099 0.1065873948542566 0 0.21351959618813299 0.097147580017458796 0 0.20676832633911099 0.1065873948542566 0 0.19869038202340161 0.092333199231360963 0 0.20676832633911099 0.1065873948542566 0 0.19106144392754701 0.1049401876214167 0 0.19869038202340161 0.092333199231360963 0 0.19106144392754701 0.1049401876214167 0 0.19869038202340161 0.092333199231360963 0 0.1787081257172177 0.086276202607328517 0 0.2040892258420039 0.11938130003695351 0 0.19106144392754701 0.1049401876214167 0 0.17915160782429251 0.1230117894878117 0 0.1938103907077679 0.1294427671103697 0 0.2040892258420039 0.11938130003695351 0 0.17915160782429251 0.1230117894878117 0 0.2040892258420039 0.11938130003695351 0 0.17915160782429251 0.1230117894878117 0 0.2040892258420039 0.11938130003695351 0 0.20676832633911099 0.1065873948542566 0 0.19106144392754701 0.1049401876214167 0 0.2040892258420039 0.11938130003695351 0 0.19106144392754701 0.1049401876214167 0 0.19563724610143751 0.070716739318868613 0 0.20342718918346001 0.077021393457067142 0 0.20344180440486831 0.06417624827846824 0 0.19563724610143751 0.070716739318868613 0 0.19198287475904319 0.080036371251744579 0 0.20342718918346001 0.077021393457067142 0 0.19563724610143751 0.070716739318868613 0 0.20344180440486831 0.06417624827846824 0 0.19374316784163351 0.061695067438316313 0 0.19563724610143751 0.070716739318868613 0 0.19374316784163351 0.061695067438316313 0 0.1855911943181823 0.07065461616874677 0 0.19374316784163351 0.061695067438316313 0 0.18500291587706469 0.059550594622267708 0 0.1855911943181823 0.07065461616874677 0 0.19563724610143751 0.070716739318868613 0 0.19198287475904319 0.080036371251744579 0 0.1855911943181823 0.07065461616874677 0 0.19198287475904319 0.080036371251744579 0 0.19869038202340161 0.092333199231360963 0 0.1787081257172177 0.086276202607328517 0 0.19198287475904319 0.080036371251744579 0 0.19869038202340161 0.092333199231360963 0 0.20342718918346001 0.077021393457067142 0 0.19869038202340161 0.092333199231360963 0 0.21547303208359009 0.083914521248534671 0 0.20342718918346001 0.077021393457067142 0 0.21351959618813299 0.097147580017458796 0 0.19869038202340161 0.092333199231360963 0 0.21547303208359009 0.083914521248534671 0 0.22640857620066671 0.09481467996488116 0 0.21351959618813299 0.097147580017458796 0 0.21547303208359009 0.083914521248534671 0 0.21547303208359009 0.083914521248534671 0 0.20342718918346001 0.077021393457067142 0 0.21658756443749691 0.068119304344926843 0 0.20344180440486831 0.06417624827846824 0 0.21658756443749691 0.068119304344926843 0 0.210008963553066 0.055643958593990329 0 0.20342718918346001 0.077021393457067142 0 0.20344180440486831 0.06417624827846824 0 0.21658756443749691 0.068119304344926843 0 0.21547303208359009 0.083914521248534671 0 0.21658756443749691 0.068119304344926843 0 0.2305814522767862 0.079458889308718778 0 0.21658756443749691 0.068119304344926843 0 0.23208686383455979 0.06275930026955677 0 0.2305814522767862 0.079458889308718778 0 0.22640857620066671 0.09481467996488116 0 0.2305814522767862 0.079458889308718778 0 0.24584913254136981 0.092562373283250871 0 0.22640857620066671 0.09481467996488116 0 0.21547303208359009 0.083914521248534671 0 0.2305814522767862 0.079458889308718778 0 0.2305814522767862 0.079458889308718778 0 0.24584913254136981 0.092562373283250871 0 0.24508406686404721 0.074042699616066798 0 0.23208686383455979 0.06275930026955677 0 0.2305814522767862 0.079458889308718778 0 0.24508406686404721 0.074042699616066798 0 0.24508406686404721 0.074042699616066798 0 0.24702940652874461 0.056345053222077328 0 0.25413798255185233 0.06612457479804941 0 0.23208686383455979 0.06275930026955677 0 0.24508406686404721 0.074042699616066798 0 0.24702940652874461 0.056345053222077328 0 0.23208686383455979 0.06275930026955677 0 0.24702940652874461 0.056345053222077328 0 0.23203932564475119 0.044831597350697042 0 0.24702940652874461 0.056345053222077328 0 0.24524984186232679 0.043358196906864918 0 0.23203932564475119 0.044831597350697042 0 0.24524984186232679 0.043358196906864918 0 0.23203932564475119 0.044831597350697042 0 0.23246702221514451 0.028110850203026699 0 0.24524984186232679 0.043358196906864918 0 0.23246702221514451 0.028110850203026699 0 0.2541752168156497 0.033283058422897631 0 0.23203932564475119 0.044831597350697042 0 0.22363600348005541 0.036035888530111748 0 0.23246702221514451 0.028110850203026699 0 0.22363600348005541 0.036035888530111748 0 0.22206298073655961 0.044373988480887673 0 0.21666632842785979 0.040008119722642371 0 0.23203932564475119 0.044831597350697042 0 0.22363600348005541 0.036035888530111748 0 0.22206298073655961 0.044373988480887673 0 0.23203932564475119 0.044831597350697042 0 0.22206298073655961 0.044373988480887673 0 0.2211993672555326 0.053758257774853817 0 0.23208686383455979 0.06275930026955677 0 0.23203932564475119 0.044831597350697042 0 0.2211993672555326 0.053758257774853817 0 0.22206298073655961 0.044373988480887673 0 0.2211993672555326 0.053758257774853817 0 0.21418756517433479 0.046942275290459273 0 0.21658756443749691 0.068119304344926843 0 0.23208686383455979 0.06275930026955677 0 0.2211993672555326 0.053758257774853817 0 0.23798902324653681 0.01383044680823774 0 0.23129756664408271 0.0034871144361431051 0 0.24069971132508289 -0.0141716467182247 0 0.2493448423645083 0.0014051681544095839 0 0.23798902324653681 0.01383044680823774 0 0.24069971132508289 -0.0141716467182247 0 0.2493448423645083 0.0014051681544095839 0 0.23798902324653681 0.01383044680823774 0 0.25291095945433317 0.015933972917932249 0 0.23798902324653681 0.01383044680823774 0 0.23246702221514451 0.028110850203026699 0 0.25291095945433317 0.015933972917932249 0 0.23246702221514451 0.028110850203026699 0 0.2541752168156497 0.033283058422897631 0 0.23246702221514451 0.028110850203026699 0 0.25291095945433317 0.015933972917932249 0 0.2541752168156497 0.033283058422897631 0 0.23246702221514451 0.028110850203026699 0 0.2243114274660212 0.018967332534370881 0 0.21075882761463979 0.02293864198315421 0 0.23246702221514451 0.028110850203026699 0 0.21075882761463979 0.02293864198315421 0 0.22363600348005541 0.036035888530111748 0 0.23246702221514451 0.028110850203026699 0 0.21075882761463979 0.02293864198315421 0 0.2243114274660212 0.018967332534370881 0 0.22440403978193491 0.0089830690756811174 0 0.21075882761463979 0.02293864198315421 0 0.23798902324653681 0.01383044680823774 0 0.23246702221514451 0.028110850203026699 0 0.2300938158707441 0.014675762611491909 0 0.23246702221514451 0.028110850203026699 0 0.2243114274660212 0.018967332534370881 0 0.2300938158707441 0.014675762611491909 0 0.2300938158707441 0.014675762611491909 0 0.22440403978193491 0.0089830690756811174 0 0.23129756664408271 0.0034871144361431051 0 0.23798902324653681 0.01383044680823774 0 0.2300938158707441 0.014675762611491909 0 0.23129756664408271 0.0034871144361431051 0 0.2243114274660212 0.018967332534370881 0 0.2300938158707441 0.014675762611491909 0 0.22440403978193491 0.0089830690756811174 0 0.22440403978193491 0.0089830690756811174 0 0.22579893665580589 0.002145308586464775 0 0.2181200160463545 0.0011720216127723371 0 0.22579893665580589 0.002145308586464775 0 0.23129756664408271 0.0034871144361431051 0 0.22937412415085151 -0.0050609707787374596 0 0.22440403978193491 0.0089830690756811174 0 0.22579893665580589 0.002145308586464775 0 0.23129756664408271 0.0034871144361431051 0 0.2181200160463545 0.0011720216127723371 0 0.2070527856573989 0.022055638074854261 0 0.19959946491814479 0.0046282397502151107 0 0.2181200160463545 0.0011720216127723371 0 0.2070527856573989 0.022055638074854261 0 0.21075882761463979 0.02293864198315421 0 0.22440403978193491 0.0089830690756811174 0 0.2181200160463545 0.0011720216127723371 0 0.21075882761463979 0.02293864198315421 0 0.2181200160463545 0.0011720216127723371 0 0.2070527856573989 0.022055638074854261 0 0.2070527856573989 0.022055638074854261 0 0.21075882761463979 0.02293864198315421 0 0.22440403978193491 0.0089830690756811174 0 0.21075882761463979 0.02293864198315421 0 0.22363600348005541 0.036035888530111748 0 0.21075882761463979 0.02293864198315421 0 0.21292436932785841 0.034259823922778203 0 0.21075882761463979 0.02293864198315421 0 0.21292436932785841 0.034259823922778203 0 0.20164528338889179 0.032259474032410383 0 0.2070527856573989 0.022055638074854261 0 0.21075882761463979 0.02293864198315421 0 0.20164528338889179 0.032259474032410383 0 0.2070527856573989 0.022055638074854261 0 0.20164528338889179 0.032259474032410383 0 0.21075882761463979 0.02293864198315421 0 0.20164528338889179 0.032259474032410383 0 0.2070527856573989 0.022055638074854261 0 0.18390892145290899 0.016541366304171679 0 0.2070527856573989 0.022055638074854261 0 0.19227303984839511 0.02803136421358807 0 0.18390892145290899 0.016541366304171679 0 0.2070527856573989 0.022055638074854261 0 0.19227303984839511 0.02803136421358807 0 0.20164528338889179 0.032259474032410383 0 0.2070527856573989 0.022055638074854261 0 0.19959946491814479 0.0046282397502151107 0 0.18390892145290899 0.016541366304171679 0 0.19959946491814479 0.0046282397502151107 0 0.1859869084017956 0.0024433714559852532 0 0.18390892145290899 0.016541366304171679 0 0.210008963553066 0.055643958593990329 0 0.21418756517433479 0.046942275290459273 0 0.2044185664875118 0.046571643346486953 0 0.210008963553066 0.055643958593990329 0 0.2044185664875118 0.046571643346486953 0 0.20057574429193831 0.055804475416308452 0 0.20344180440486831 0.06417624827846824 0 0.210008963553066 0.055643958593990329 0 0.20057574429193831 0.055804475416308452 0 0.21658756443749691 0.068119304344926843 0 0.2211993672555326 0.053758257774853817 0 0.210008963553066 0.055643958593990329 0 0.2211993672555326 0.053758257774853817 0 0.210008963553066 0.055643958593990329 0 0.21418756517433479 0.046942275290459273 0 0.22206298073655961 0.044373988480887673 0 0.21418756517433479 0.046942275290459273 0 0.21666632842785979 0.040008119722642371 0 0.21418756517433479 0.046942275290459273 0 0.21666632842785979 0.040008119722642371 0 0.20932909002758099 0.039763191609896213 0 0.22363600348005541 0.036035888530111748 0 0.21666632842785979 0.040008119722642371 0 0.21292436932785841 0.034259823922778203 0 0.21666632842785979 0.040008119722642371 0 0.21292436932785841 0.034259823922778203 0 0.20932909002758099 0.039763191609896213 0 0.21292436932785841 0.034259823922778203 0 0.20932909002758099 0.039763191609896213 0 0.20164528338889179 0.032259474032410383 0 0.2044185664875118 0.046571643346486953 0 0.20932909002758099 0.039763191609896213 0 0.20164528338889179 0.032259474032410383 0 0.21418756517433479 0.046942275290459273 0 0.2044185664875118 0.046571643346486953 0 0.20932909002758099 0.039763191609896213 0 0.20164528338889179 0.032259474032410383 0 0.18519497383260769 0.04908394634903547 0 0.20164528338889179 0.032259474032410383 0 0.19141489864481501 0.051563981460764373 0 0.18519497383260769 0.04908394634903547 0 0.2044185664875118 0.046571643346486953 0 0.20164528338889179 0.032259474032410383 0 0.19141489864481501 0.051563981460764373 0 0.20164528338889179 0.032259474032410383 0 0.19141489864481501 0.051563981460764373 0 0.20164528338889179 0.032259474032410383 0 0.18939133038019751 0.036732509199146293 0 0.18519497383260769 0.04908394634903547 0 0.19227303984839511 0.02803136421358807 0 0.20164528338889179 0.032259474032410383 0 0.18939133038019751 0.036732509199146293 0 0.2044185664875118 0.046571643346486953 0 0.19141489864481501 0.051563981460764373 0 0.20057574429193831 0.055804475416308452 0 0.20344180440486831 0.06417624827846824 0 0.20057574429193831 0.055804475416308452 0 0.19374316784163351 0.061695067438316313 0 0.19141489864481501 0.051563981460764373 0 0.19374316784163351 0.061695067438316313 0 0.18500291587706469 0.059550594622267708 0 0.19141489864481501 0.051563981460764373 0 0.20057574429193831 0.055804475416308452 0 0.19374316784163351 0.061695067438316313 0 0.18500291587706469 0.059550594622267708 0 0.18519497383260769 0.04908394634903547 0 0.16874466427632431 0.065908418665661217 0 0.18519497383260769 0.04908394634903547 0 0.16874466427632431 0.065908418665661217 0 0.18519497383260769 0.04908394634903547 0 0.17039796700966819 0.048809246888128092 0 0.16874466427632431 0.065908418665661217 0 0.19141489864481501 0.051563981460764373 0 0.18500291587706469 0.059550594622267708 0 0.18519497383260769 0.04908394634903547 0 0.18519497383260769 0.04908394634903547 0 0.1828404780051455 0.040176367584277208 0 0.17740872944519931 0.042321181331569327 0 0.18939133038019751 0.036732509199146293 0 0.18519497383260769 0.04908394634903547 0 0.1828404780051455 0.040176367584277208 0 0.1828404780051455 0.040176367584277208 0 0.1793668783625775 0.032567833457357767 0 0.17740872944519931 0.042321181331569327 0 0.19227303984839511 0.02803136421358807 0 0.18939133038019751 0.036732509199146293 0 0.1793668783625775 0.032567833457357767 0 0.18939133038019751 0.036732509199146293 0 0.1828404780051455 0.040176367584277208 0 0.1793668783625775 0.032567833457357767 0 0.1793668783625775 0.032567833457357767 0 0.17740872944519931 0.042321181331569327 0 0.16803154565152301 0.038583782461969467 0 0.18519497383260769 0.04908394634903547 0 0.17740872944519931 0.042321181331569327 0 0.17039796700966819 0.048809246888128092 0 0.17740872944519931 0.042321181331569327 0 0.16803154565152301 0.038583782461969467 0 0.17039796700966819 0.048809246888128092 0 0.16803154565152301 0.038583782461969467 0 0.17039796700966819 0.048809246888128092 0 0.1539984167861182 0.047960708560429839 0 0.1793668783625775 0.032567833457357767 0 0.16803154565152301 0.038583782461969467 0 0.16815846286458169 0.026015699769816179 0 0.16803154565152301 0.038583782461969467 0 0.15885881944099309 0.033828024764515678 0 0.16815846286458169 0.026015699769816179 0 0.16803154565152301 0.038583782461969467 0 0.15885881944099309 0.033828024764515678 0 0.1539984167861182 0.047960708560429839 0 0.1539984167861182 0.047960708560429839 0 0.1530170123472486 0.06412582744890627 0 0.16874466427632431 0.065908418665661217 0 0.17039796700966819 0.048809246888128092 0 0.1539984167861182 0.047960708560429839 0 0.16874466427632431 0.065908418665661217 0 0.17415294238970491 0.003088488330222813 0 0.18390892145290899 0.016541366304171679 0 0.16377362211656199 0.01263194899624916 0 0.17415294238970491 0.003088488330222813 0 0.1859869084017956 0.0024433714559852532 0 0.18390892145290899 0.016541366304171679 0 0.19227303984839511 0.02803136421358807 0 0.1793668783625775 0.032567833457357767 0 0.18390892145290899 0.016541366304171679 0 0.1793668783625775 0.032567833457357767 0 0.18390892145290899 0.016541366304171679 0 0.16815846286458169 0.026015699769816179 0 0.18390892145290899 0.016541366304171679 0 0.16815846286458169 0.026015699769816179 0 0.16377362211656199 0.01263194899624916 0 0.15885881944099309 0.033828024764515678 0 0.16815846286458169 0.026015699769816179 0 0.15558988979038091 0.021892097110660969 0 0.16815846286458169 0.026015699769816179 0 0.16377362211656199 0.01263194899624916 0 0.15558988979038091 0.021892097110660969 0 0.16377362211656199 0.01263194899624916 0 0.1493895168637106 0.0071916650305739582 0 0.15901711775268429 -0.006544852682459551 0 0.17415294238970491 0.003088488330222813 0 0.16377362211656199 0.01263194899624916 0 0.15901711775268429 -0.006544852682459551 0 0.16377362211656199 0.01263194899624916 0 0.1493895168637106 0.0071916650305739582 0 0.15558988979038091 0.021892097110660969 0 0.1493895168637106 0.0071916650305739582 0 0.14395828523593829 0.019055053518294309 0 0.15558988979038091 0.021892097110660969 0 0.15885881944099309 0.033828024764515678 0 0.15558988979038091 0.021892097110660969 0 0.15007948103951901 0.03066518273400419 0 0.14395828523593829 0.019055053518294309 0 0.15558988979038091 0.021892097110660969 0 0.15007948103951901 0.03066518273400419 0 0.14395828523593829 0.019055053518294309 0 0.15007948103951901 0.03066518273400419 0 0.1377698774003924 0.026703941123774021 0 0.1377698774003924 0.026703941123774021 0 0.1274552054474524 0.0077376294574659759 0 0.12842307720111881 0.033870046662418503 0 0.14395828523593829 0.019055053518294309 0 0.1377698774003924 0.026703941123774021 0 0.1274552054474524 0.0077376294574659759 0 0.1274552054474524 0.0077376294574659759 0 0.12842307720111881 0.033870046662418503 0 0.1493895168637106 0.0071916650305739582 0 0.1274552054474524 0.0077376294574659759 0 0.14319412215549979 -0.0041842003619043198 0 0.1493895168637106 0.0071916650305739582 0 0.14395828523593829 0.019055053518294309 0 0.1274552054474524 0.0077376294574659759 0 0.1539984167861182 0.047960708560429839 0 0.1429959282635844 0.036715771591496263 0 0.1370306136065107 0.059901291587246872 0 0.1539984167861182 0.047960708560429839 0 0.1370306136065107 0.059901291587246872 0 0.1530170123472486 0.06412582744890627 0 0.15007948103951901 0.03066518273400419 0 0.1539984167861182 0.047960708560429839 0 0.1429959282635844 0.036715771591496263 0 0.15885881944099309 0.033828024764515678 0 0.15007948103951901 0.03066518273400419 0 0.1539984167861182 0.047960708560429839 0 0.15007948103951901 0.03066518273400419 0 0.1377698774003924 0.026703941123774021 0 0.1429959282635844 0.036715771591496263 0 0.1217668724929772 0.037069692192208473 0 0.12842307720111881 0.033870046662418503 0 0.1370306136065107 0.059901291587246872 0 0.1429959282635844 0.036715771591496263 0 0.12842307720111881 0.033870046662418503 0 0.1370306136065107 0.059901291587246872 0 0.1377698774003924 0.026703941123774021 0 0.1429959282635844 0.036715771591496263 0 0.12842307720111881 0.033870046662418503 0 0.1217668724929772 0.037069692192208473 0 0.1370306136065107 0.059901291587246872 0 0.1222879965447146 0.058325638298925522 0 0.1217668724929772 0.037069692192208473 0 0.1370306136065107 0.059901291587246872 0 0.1222879965447146 0.058325638298925522 0 0.1370306136065107 0.059901291587246872 0 0.13156386179305879 0.068975715454841338 0 0.1370306136065107 0.059901291587246872 0 0.13156386179305879 0.068975715454841338 0 0.13689843183994871 0.079155929125981739 0 0.1370306136065107 0.059901291587246872 0 0.15229435472004099 0.082732890982287172 0 0.1370306136065107 0.059901291587246872 0 0.1530170123472486 0.06412582744890627 0 0.15229435472004099 0.082732890982287172 0 0.1370306136065107 0.059901291587246872 0 0.15229435472004099 0.082732890982287172 0 0.13689843183994871 0.079155929125981739 0 0.15385722884414671 0.093632013040876705 0 0.15427566249759619 0.085696543544195286 0 0.1383561442386759 0.096988126458841084 0 0.15427566249759619 0.085696543544195286 0 0.15229435472004099 0.082732890982287172 0 0.1383561442386759 0.096988126458841084 0 0.15229435472004099 0.082732890982287172 0 0.13689843183994871 0.079155929125981739 0 0.1383561442386759 0.096988126458841084 0 0.15385722884414671 0.093632013040876705 0 0.15427566249759619 0.085696543544195286 0 0.15872793673397659 0.089370608888344291 0 0.15427566249759619 0.085696543544195286 0 0.15229435472004099 0.082732890982287172 0 0.15229435472004099 0.082732890982287172 0 0.1383561442386759 0.096988126458841084 0 0.13689843183994871 0.079155929125981739 0 0.12524718484145689 0.087181621146692256 0 0.1383561442386759 0.096988126458841084 0 0.13156386179305879 0.068975715454841338 0 0.13689843183994871 0.079155929125981739 0 0.12524718484145689 0.087181621146692256 0 0.12524718484145689 0.087181621146692256 0 0.12532476775185619 0.098232396260053964 0 0.1383561442386759 0.096988126458841084 0 0.1244179337573105 0.1112433619353948 0 0.1383561442386759 0.096988126458841084 0 0.14316959303687149 0.11200180865219719 0 0.1244179337573105 0.1112433619353948 0 0.1383561442386759 0.096988126458841084 0 0.1244179337573105 0.1112433619353948 0 0.12532476775185619 0.098232396260053964 0 0.1383561442386759 0.096988126458841084 0 0.1244179337573105 0.1112433619353948 0 0.14316959303687149 0.11200180865219719 0 0.1244179337573105 0.1112433619353948 0 0.1334928892187158 0.1190613281269169 0 0.14316959303687149 0.11200180865219719 0 0.1180666309774392 0.1177391252782585 0 0.1292763717888695 0.13027276838952631 0 0.1334928892187158 0.1190613281269169 0 0.1180666309774392 0.1177391252782585 0 0.1244179337573105 0.1112433619353948 0 0.1334928892187158 0.1190613281269169 0 0.15421398980658099 0.126642278938669 0 0.1334928892187158 0.1190613281269169 0 0.14316959303687149 0.11200180865219719 0 0.15421398980658099 0.126642278938669 0 0.14316959303687149 0.11200180865219719 0 0.15379686645975449 0.1125428177400736 0 0.1383561442386759 0.096988126458841084 0 0.14316959303687149 0.11200180865219719 0 0.15310975452106859 0.10261352196875061 0 0.14316959303687149 0.11200180865219719 0 0.15379686645975449 0.1125428177400736 0 0.15310975452106859 0.10261352196875061 0 0.15385722884414671 0.093632013040876705 0 0.1383561442386759 0.096988126458841084 0 0.15310975452106859 0.10261352196875061 0 0.15385722884414671 0.093632013040876705 0 0.15310975452106859 0.10261352196875061 0 0.16385095723173471 0.094241224129627044 0 0.15379686645975449 0.1125428177400736 0 0.15310975452106859 0.10261352196875061 0 0.16469412847449699 0.1089136614006774 0 0.15310975452106859 0.10261352196875061 0 0.16385095723173471 0.094241224129627044 0 0.16469412847449699 0.1089136614006774 0 0.16385095723173471 0.094241224129627044 0 0.16469412847449699 0.1089136614006774 0 0.17427025395160581 0.09948683593011054 0 0.15421398980658099 0.126642278938669 0 0.17915160782429251 0.1230117894878117 0 0.15421398980658099 0.126642278938669 0 0.15379686645975449 0.1125428177400736 0 0.16469412847449699 0.1089136614006774 0 0.15421398980658099 0.126642278938669 0 0.16469412847449699 0.1089136614006774 0 0.17915160782429251 0.1230117894878117 0 0.19106144392754701 0.1049401876214167 0 0.17915160782429251 0.1230117894878117 0 0.17701599822903011 0.10972843340603081 0 0.16469412847449699 0.1089136614006774 0 0.17915160782429251 0.1230117894878117 0 0.17701599822903011 0.10972843340603081 0 0.19106144392754701 0.1049401876214167 0 0.17701599822903011 0.10972843340603081 0 0.17427025395160581 0.09948683593011054 0 0.19106144392754701 0.1049401876214167 0 0.17427025395160581 0.09948683593011054 0 0.1787081257172177 0.086276202607328517 0 0.16469412847449699 0.1089136614006774 0 0.17701599822903011 0.10972843340603081 0 0.17427025395160581 0.09948683593011054 0 0.16385095723173471 0.094241224129627044 0 0.17427025395160581 0.09948683593011054 0 0.1787081257172177 0.086276202607328517 0 0.19198287475904319 0.080036371251744579 0 0.1787081257172177 0.086276202607328517 0 0.1855911943181823 0.07065461616874677 0 0.18500291587706469 0.059550594622267708 0 0.1855911943181823 0.07065461616874677 0 0.16874466427632431 0.065908418665661217 0 0.1787081257172177 0.086276202607328517 0 0.1855911943181823 0.07065461616874677 0 0.16874466427632431 0.065908418665661217 0 0.1530170123472486 0.06412582744890627 0 0.15229435472004099 0.082732890982287172 0 0.16874466427632431 0.065908418665661217 0 0.15229435472004099 0.082732890982287172 0 0.16874466427632431 0.065908418665661217 0 0.15229435472004099 0.082732890982287172 0 0.16874466427632431 0.065908418665661217 0 0.16292789836242871 0.08391265483867813 0 0.15427566249759619 0.085696543544195286 0 0.15229435472004099 0.082732890982287172 0 0.16292789836242871 0.08391265483867813 0 0.16385095723173471 0.094241224129627044 0 0.1787081257172177 0.086276202607328517 0 0.16292789836242871 0.08391265483867813 0 0.1787081257172177 0.086276202607328517 0 0.16874466427632431 0.065908418665661217 0 0.16292789836242871 0.08391265483867813 0 0.15385722884414671 0.093632013040876705 0 0.16385095723173471 0.094241224129627044 0 0.15872793673397659 0.089370608888344291 0 0.15427566249759619 0.085696543544195286 0 0.16292789836242871 0.08391265483867813 0 0.15872793673397659 0.089370608888344291 0 0.16385095723173471 0.094241224129627044 0 0.16292789836242871 0.08391265483867813 0 0.15872793673397659 0.089370608888344291 0 0.1065252841911684 0.47711053739363207 0 0.099947155838976592 0.45792640442606758 0 0.091519043696944705 0.47407271812275648 0 0.1065252841911684 0.47711053739363207 0 0.091519043696944705 0.47407271812275648 0 0.091930541946857458 0.49099069221018171 0 0.1086494609002788 0.5 0 0.091930541946857458 0.49099069221018171 0 0.082317445275920942 0.5 0 0.1065252841911684 0.47711053739363207 0 0.1086494609002788 0.5 0 0.091930541946857458 0.49099069221018171 0 0.1086494609002788 0.5 0 0.1259428405829203 0.48023978707085452 0 0.13811067604184879 0.50000000000000067 0 0.1065252841911684 0.47711053739363207 0 0.1086494609002788 0.5 0 0.1259428405829203 0.48023978707085452 0 0.1065252841911684 0.47711053739363207 0 0.1137750051239922 0.4604795741417082 0 0.1259428405829203 0.48023978707085452 0 0.1137750051239922 0.4604795741417082 0 0.1259428405829203 0.48023978707085452 0 0.1137750051239922 0.4604795741417082 0 0.1226530656482125 0.44308759750645899 0 0.10160716966506381 0.44071936121256211 0 0.1137750051239922 0.4604795741417082 0 0.10160716966506381 0.44071936121256211 0 0.099947155838976592 0.45792640442606758 0 0.10160716966506381 0.44071936121256211 0 0.099947155838976592 0.45792640442606758 0 0.085183984830352832 0.45879253097320649 0 0.1137750051239922 0.4604795741417082 0 0.10160716966506381 0.44071936121256211 0 0.10160716966506381 0.44071936121256211 0 0.098143415835495615 0.43509432515438617 0 0.1065252841911684 0.47711053739363207 0 0.1137750051239922 0.4604795741417082 0 0.099947155838976592 0.45792640442606758 0 0.099947155838976592 0.45792640442606758 0 0.085183984830352832 0.45879253097320649 0 0.091519043696944705 0.47407271812275648 0 0.085183984830352832 0.45879253097320649 0 0.070530613862346131 0.46556320298305282 0 0.079335058659130764 0.47262436960970672 0 0.085183984830352832 0.45879253097320649 0 0.079335058659130764 0.47262436960970672 0 0.091519043696944705 0.47407271812275648 0 0.10160716966506381 0.44071936121256211 0 0.085183984830352832 0.45879253097320649 0 0.082674190114861767 0.44171109356619948 0 0.085183984830352832 0.45879253097320649 0 0.082674190114861767 0.44171109356619948 0 0.072758466758936907 0.45345272281234389 0 0.10160716966506381 0.44071936121256211 0 0.085183984830352832 0.45879253097320649 0 0.10160716966506381 0.44071936121256211 0 0.082674190114861767 0.44171109356619948 0 0.091479251218205881 0.43408889317397459 0 0.082674190114861767 0.44171109356619948 0 0.06772429520313103 0.44208217867330302 0 0.076548976619749853 0.43084815822997002 0 0.082674190114861767 0.44171109356619948 0 0.06772429520313103 0.44208217867330302 0 0.072758466758936907 0.45345272281234389 0 0.06772429520313103 0.44208217867330302 0 0.072758466758936907 0.45345272281234389 0 0.057849204007633173 0.45512485857810719 0 0.085183984830352832 0.45879253097320649 0 0.070530613862346131 0.46556320298305282 0 0.072758466758936907 0.45345272281234389 0 0.070530613862346131 0.46556320298305282 0 0.072758466758936907 0.45345272281234389 0 0.057849204007633173 0.45512485857810719 0 0.070530613862346131 0.46556320298305282 0 0.070593882823158913 0.47861203821777282 0 0.057498493224789352 0.47394149993887719 0 0.070593882823158913 0.47861203821777282 0 0.068422877870224469 0.48983571467378012 0 0.064096491817175555 0.48449405863899447 0 0.070593882823158913 0.47861203821777282 0 0.064096491817175555 0.48449405863899447 0 0.057498493224789352 0.47394149993887719 0 0.070593882823158913 0.47861203821777282 0 0.079335058659130764 0.47262436960970672 0 0.080615796170122475 0.48516309509711109 0 0.070530613862346131 0.46556320298305282 0 0.070593882823158913 0.47861203821777282 0 0.079335058659130764 0.47262436960970672 0 0.091519043696944705 0.47407271812275648 0 0.091930541946857458 0.49099069221018171 0 0.080615796170122475 0.48516309509711109 0 0.079335058659130764 0.47262436960970672 0 0.091519043696944705 0.47407271812275648 0 0.080615796170122475 0.48516309509711109 0 0.080615796170122475 0.48516309509711109 0 0.08228552980564445 0.49228977083507158 0 0.074278335829676898 0.49323832161257802 0 0.091930541946857458 0.49099069221018171 0 0.080615796170122475 0.48516309509711109 0 0.08228552980564445 0.49228977083507158 0 0.082317445275920942 0.5 0 0.08228552980564445 0.49228977083507158 0 0.074278335829676898 0.49323832161257802 0 0.079200649029350242 0.49980338243369349 0 0.082317445275920942 0.5 0 0.074278335829676898 0.49323832161257802 0 0.091930541946857458 0.49099069221018171 0 0.082317445275920942 0.5 0 0.08228552980564445 0.49228977083507158 0 0.079200649029350242 0.49980338243369349 0 0.074278335829676898 0.49323832161257802 0 0.056725698580741259 0.49838559002428418 0 0.079200649029350242 0.49980338243369349 0 0.056725698580741259 0.49838559002428418 0 0.074278335829676898 0.49323832161257802 0 0.068422877870224469 0.48983571467378012 0 0.056725698580741259 0.49838559002428418 0 0.080615796170122475 0.48516309509711109 0 0.074278335829676898 0.49323832161257802 0 0.068422877870224469 0.48983571467378012 0 0.070593882823158913 0.47861203821777282 0 0.080615796170122475 0.48516309509711109 0 0.068422877870224469 0.48983571467378012 0 0.068422877870224469 0.48983571467378012 0 0.064096491817175555 0.48449405863899447 0 0.06010451598281559 0.48941248703324319 0 0.056725698580741259 0.49838559002428418 0 0.06010451598281559 0.48941248703324319 0 0.05352720807103041 0.48934691354558202 0 0.068422877870224469 0.48983571467378012 0 0.056725698580741259 0.49838559002428418 0 0.06010451598281559 0.48941248703324319 0 0.079200649029350242 0.49980338243369349 0 0.049727030617138901 0.5 0 0.056725698580741259 0.49838559002428418 0 0.064096491817175555 0.48449405863899447 0 0.06010451598281559 0.48941248703324319 0 0.056958543780867038 0.48426591022039911 0 0.06010451598281559 0.48941248703324319 0 0.05352720807103041 0.48934691354558202 0 0.056958543780867038 0.48426591022039911 0 0.05352720807103041 0.48934691354558202 0 0.056958543780867038 0.48426591022039911 0 0.048957605000578823 0.48268504792512801 0 0.05352720807103041 0.48934691354558202 0 0.048957605000578823 0.48268504792512801 0 0.044348449432884421 0.48993939942182979 0 0.056725698580741259 0.49838559002428418 0 0.05352720807103041 0.48934691354558202 0 0.044348449432884421 0.48993939942182979 0 0.064096491817175555 0.48449405863899447 0 0.057498493224789352 0.47394149993887719 0 0.056958543780867038 0.48426591022039911 0 0.057498493224789352 0.47394149993887719 0 0.056958543780867038 0.48426591022039911 0 0.048957605000578823 0.48268504792512801 0 0.057498493224789352 0.47394149993887719 0 0.048957605000578823 0.48268504792512801 0 0.046173344320312122 0.47445304769722829 0 0.057498493224789352 0.47394149993887719 0 0.046173344320312122 0.47445304769722829 0 0.04580452847947504 0.46468132453252442 0 0.046173344320312122 0.47445304769722829 0 0.037810575823929077 0.47231286533915579 0 0.04580452847947504 0.46468132453252442 0 0.046173344320312122 0.47445304769722829 0 0.040186927035656808 0.48178304719115722 0 0.037810575823929077 0.47231286533915579 0 0.048957605000578823 0.48268504792512801 0 0.046173344320312122 0.47445304769722829 0 0.040186927035656808 0.48178304719115722 0 0.040186927035656808 0.48178304719115722 0 0.03375530408202753 0.48770147227430238 0 0.030855411237433961 0.48051407750087938 0 0.040186927035656808 0.48178304719115722 0 0.037810575823929077 0.47231286533915579 0 0.030855411237433961 0.48051407750087938 0 0.037810575823929077 0.47231286533915579 0 0.030855411237433961 0.48051407750087938 0 0.028670160709571669 0.47085520748804238 0 0.056725698580741259 0.49838559002428418 0 0.031133951885561589 0.49700420562815312 0 0.049727030617138901 0.5 0 0.020265815475568879 0.5 0 0.031133951885561589 0.49700420562815312 0 0.056725698580741259 0.49838559002428418 0 0.044348449432884421 0.48993939942182979 0 0.031133951885561589 0.49700420562815312 0 0.049727030617138901 0.5 0 0.056725698580741259 0.49838559002428418 0 0.031133951885561589 0.49700420562815312 0 0.048957605000578823 0.48268504792512801 0 0.040186927035656808 0.48178304719115722 0 0.044348449432884421 0.48993939942182979 0 0.040186927035656808 0.48178304719115722 0 0.044348449432884421 0.48993939942182979 0 0.03375530408202753 0.48770147227430238 0 0.044348449432884421 0.48993939942182979 0 0.03375530408202753 0.48770147227430238 0 0.031133951885561589 0.49700420562815312 0 0.020265815475568879 0.5 0 0.031133951885561589 0.49700420562815312 0 0.0055422051903820033 0.49562282123202211 0 0.031133951885561589 0.49700420562815312 0 0.022170315310345499 0.48710161908857241 0 0.0055422051903820033 0.49562282123202211 0 0.031133951885561589 0.49700420562815312 0 0.0055422051903820033 0.49562282123202211 0 0.03375530408202753 0.48770147227430238 0 0.022170315310345499 0.48710161908857241 0 0.030855411237433961 0.48051407750087938 0 0.03375530408202753 0.48770147227430238 0 0.031133951885561589 0.49700420562815312 0 0.022170315310345499 0.48710161908857241 0 0.022170315310345499 0.48710161908857241 0 0.030855411237433961 0.48051407750087938 0 0.02182755244061553 0.47744571839680411 0 0.030855411237433961 0.48051407750087938 0 0.028670160709571669 0.47085520748804238 0 0.02182755244061553 0.47744571839680411 0 0.028670160709571669 0.47085520748804238 0 0.02182755244061553 0.47744571839680411 0 0.020894438527234299 0.4679868059976498 0 0.02182755244061553 0.47744571839680411 0 0.013610981178002661 0.47465289425451868 0 0.020894438527234299 0.4679868059976498 0 0.022170315310345499 0.48710161908857241 0 0.02182755244061553 0.47744571839680411 0 0.0098667342719247174 0.48323891322881363 0 0.02182755244061553 0.47744571839680411 0 0.0098667342719247174 0.48323891322881363 0 0.013610981178002661 0.47465289425451868 0 -0.00056998108065278003 0.47476596695973361 0 0.00016464839372705691 0.46418205686900887 0 0.0080675545853975301 0.46755182893969383 0 -0.00056998108065278003 0.47476596695973361 0 0.013610981178002661 0.47465289425451868 0 0.0080675545853975301 0.46755182893969383 0 -0.004868410150129664 0.48756987397218537 0 -0.00056998108065278003 0.47476596695973361 0 0.0098667342719247174 0.48323891322881363 0 -0.00056998108065278003 0.47476596695973361 0 0.0098667342719247174 0.48323891322881363 0 0.013610981178002661 0.47465289425451868 0 0.022170315310345499 0.48710161908857241 0 0.0098667342719247174 0.48323891322881363 0 0.0055422051903820033 0.49562282123202211 0 -0.0091953996660012471 0.5 0 0.020265815475568879 0.5 0 0.0055422051903820033 0.49562282123202211 0 -0.004868410150129664 0.48756987397218537 0 0.0098667342719247174 0.48323891322881363 0 0.0055422051903820033 0.49562282123202211 0 0.011077797230648201 0.44630830348692452 0 0.0048859042289793294 0.44940989014404831 0 0.0093666199823670762 0.45628196358129808 0 0.011077797230648201 0.44630830348692452 0 0.0093666199823670762 0.45628196358129808 0 0.017031837957738709 0.44978034574961362 0 0.011077797230648201 0.44630830348692452 0 0.017031837957738709 0.44978034574961362 0 0.01577445486985923 0.44098685460826598 0 0.0087291176804212712 0.44012683423918247 0 0.01577445486985923 0.44098685460826598 0 0.0073889442401581171 0.43513553098931568 0 0.011077797230648201 0.44630830348692452 0 0.0087291176804212712 0.44012683423918247 0 0.01577445486985923 0.44098685460826598 0 0.011077797230648201 0.44630830348692452 0 0.0087291176804212712 0.44012683423918247 0 0.0048859042289793294 0.44940989014404831 0 0.0087291176804212712 0.44012683423918247 0 0.0073889442401581171 0.43513553098931568 0 -0.0012695274607281511 0.43420893568606522 0 -0.0043125933860579183 0.44766374248488883 0 0.0073889442401581171 0.43513553098931568 0 -0.0043125933860579183 0.44766374248488883 0 0.0087291176804212712 0.44012683423918247 0 0.0073889442401581171 0.43513553098931568 0 -0.0043125933860579183 0.44766374248488883 0 0.0073889442401581171 0.43513553098931568 0 -0.0043125933860579183 0.44766374248488883 0 0.0087291176804212712 0.44012683423918247 0 0.0048859042289793294 0.44940989014404831 0 -0.002230269715789707 0.45601633521076501 0 0.00016464839372705691 0.46418205686900887 0 0.0093666199823670762 0.45628196358129808 0 -0.002230269715789707 0.45601633521076501 0 0.0048859042289793294 0.44940989014404831 0 0.0093666199823670762 0.45628196358129808 0 0.00016464839372705691 0.46418205686900887 0 0.0080675545853975301 0.46755182893969383 0 0.0093666199823670762 0.45628196358129808 0 0.013610981178002661 0.47465289425451868 0 0.0080675545853975301 0.46755182893969383 0 0.01445451361234033 0.46343848548205241 0 0.0080675545853975301 0.46755182893969383 0 0.01445451361234033 0.46343848548205241 0 0.0093666199823670762 0.45628196358129808 0 0.01445451361234033 0.46343848548205241 0 0.0093666199823670762 0.45628196358129808 0 0.019546964779171089 0.45799343161942763 0 0.0093666199823670762 0.45628196358129808 0 0.019546964779171089 0.45799343161942763 0 0.017031837957738709 0.44978034574961362 0 0.013610981178002661 0.47465289425451868 0 0.01445451361234033 0.46343848548205241 0 0.020894438527234299 0.4679868059976498 0 0.019546964779171089 0.45799343161942763 0 0.020894438527234299 0.4679868059976498 0 0.026707852453600609 0.46112549965709437 0 0.01445451361234033 0.46343848548205241 0 0.019546964779171089 0.45799343161942763 0 0.020894438527234299 0.4679868059976498 0 0.028670160709571669 0.47085520748804238 0 0.026707852453600609 0.46112549965709437 0 0.035173083161124892 0.46159048762510302 0 0.028670160709571669 0.47085520748804238 0 0.020894438527234299 0.4679868059976498 0 0.026707852453600609 0.46112549965709437 0 0.019546964779171089 0.45799343161942763 0 0.026707852453600609 0.46112549965709437 0 0.029254615090901069 0.44720156555524898 0 0.026707852453600609 0.46112549965709437 0 0.029254615090901069 0.44720156555524898 0 0.035173083161124892 0.46159048762510302 0 0.019546964779171089 0.45799343161942763 0 0.029254615090901069 0.44720156555524898 0 0.017031837957738709 0.44978034574961362 0 0.029254615090901069 0.44720156555524898 0 0.017031837957738709 0.44978034574961362 0 0.01577445486985923 0.44098685460826598 0 0.029254615090901069 0.44720156555524898 0 0.01577445486985923 0.44098685460826598 0 0.023025757724895481 0.43345508144583089 0 0.029254615090901069 0.44720156555524898 0 0.043376249555310088 0.45332877312057701 0 0.048799817037416288 0.43804562931190122 0 0.029254615090901069 0.44720156555524898 0 0.048799817037416288 0.43804562931190122 0 0.036072678231062208 0.42916325703607422 0 0.037810575823929077 0.47231286533915579 0 0.028670160709571669 0.47085520748804238 0 0.035173083161124892 0.46159048762510302 0 0.029254615090901069 0.44720156555524898 0 0.035173083161124892 0.46159048762510302 0 0.043376249555310088 0.45332877312057701 0 0.035173083161124892 0.46159048762510302 0 0.043376249555310088 0.45332877312057701 0 0.04580452847947504 0.46468132453252442 0 0.037810575823929077 0.47231286533915579 0 0.035173083161124892 0.46159048762510302 0 0.04580452847947504 0.46468132453252442 0 0.070530613862346131 0.46556320298305282 0 0.057498493224789352 0.47394149993887719 0 0.057849204007633173 0.45512485857810719 0 0.057498493224789352 0.47394149993887719 0 0.04580452847947504 0.46468132453252442 0 0.057849204007633173 0.45512485857810719 0 0.043376249555310088 0.45332877312057701 0 0.04580452847947504 0.46468132453252442 0 0.057849204007633173 0.45512485857810719 0 0.06772429520313103 0.44208217867330302 0 0.057849204007633173 0.45512485857810719 0 0.048799817037416288 0.43804562931190122 0 0.043376249555310088 0.45332877312057701 0 0.057849204007633173 0.45512485857810719 0 0.048799817037416288 0.43804562931190122 0 0.048799817037416288 0.43804562931190122 0 0.046554608109210548 0.41682620034058909 0 0.048799817037416288 0.43804562931190122 0 0.062151304526816199 0.42808079734946519 0 0.046554608109210548 0.41682620034058909 0 0.06772429520313103 0.44208217867330302 0 0.048799817037416288 0.43804562931190122 0 0.062151304526816199 0.42808079734946519 0 0.059776059665656731 0.40674502239450239 0 0.046554608109210548 0.41682620034058909 0 0.044309399181004752 0.39560677136927691 0 0.059776059665656731 0.40674502239450239 0 0.059338754594765002 0.41678480391158401 0 0.046554608109210548 0.41682620034058909 0 0.062151304526816199 0.42808079734946519 0 0.059338754594765002 0.41678480391158401 0 0.046554608109210548 0.41682620034058909 0 0.046554608109210548 0.41682620034058909 0 0.025849171710582229 0.41537115117929713 0 0.044309399181004752 0.39560677136927691 0 0.046554608109210548 0.41682620034058909 0 0.036072678231062208 0.42916325703607422 0 0.025849171710582229 0.41537115117929713 0 0.048799817037416288 0.43804562931190122 0 0.046554608109210548 0.41682620034058909 0 0.036072678231062208 0.42916325703607422 0 0.025849171710582229 0.41537115117929713 0 0.0073889442401581171 0.43513553098931568 0 0.029254615090901069 0.44720156555524898 0 0.036072678231062208 0.42916325703607422 0 0.023025757724895481 0.43345508144583089 0 0.023025757724895481 0.43345508144583089 0 0.025849171710582229 0.41537115117929713 0 0.0073889442401581171 0.43513553098931568 0 0.036072678231062208 0.42916325703607422 0 0.023025757724895481 0.43345508144583089 0 0.025849171710582229 0.41537115117929713 0 -0.0015258039434690831 0.40193370035769449 0 0.00293157014834568 0.41853461567350481 0 -0.0015258039434690831 0.40193370035769449 0 0.01272876417697287 0.40682933131116839 0 0.00293157014834568 0.41853461567350481 0 0.025849171710582229 0.41537115117929713 0 0.01272876417697287 0.40682933131116839 0 0.00293157014834568 0.41853461567350481 0 -0.0022754738389305991 0.41895959912876468 0 0.00293157014834568 0.41853461567350481 0 0.0013592154495942919 0.42753915636897422 0 0.00293157014834568 0.41853461567350481 0 0.0073889442401581171 0.43513553098931568 0 0.00293157014834568 0.41853461567350481 0 0.0013592154495942919 0.42753915636897422 0 0.0073889442401581171 0.43513553098931568 0 0.01577445486985923 0.44098685460826598 0 0.023025757724895481 0.43345508144583089 0 0.0073889442401581171 0.43513553098931568 0 0.025849171710582229 0.41537115117929713 0 0.00293157014834568 0.41853461567350481 0 0.0073889442401581171 0.43513553098931568 0 -0.0012695274607281511 0.43420893568606522 0 0.0013592154495942919 0.42753915636897422 0 0.0073889442401581171 0.43513553098931568 0 -0.0015258039434690831 0.40193370035769449 0 0.01272876417697287 0.40682933131116839 0 0.020498520531169899 0.39032789026532599 0 -0.0015258039434690831 0.40193370035769449 0 0.020498520531169899 0.39032789026532599 0 -0.0015258039434690831 0.40193370035769449 0 0.0075283452960494364 0.38165158931583287 0 0.020498520531169899 0.39032789026532599 0 0.025849171710582229 0.41537115117929713 0 0.01272876417697287 0.40682933131116839 0 0.020498520531169899 0.39032789026532599 0 0.025849171710582229 0.41537115117929713 0 0.020498520531169899 0.39032789026532599 0 0.044309399181004752 0.39560677136927691 0 0.0075283452960494364 0.38165158931583287 0 0.020498520531169899 0.39032789026532599 0 0.02353520169299585 0.37362814472054379 0 0.020498520531169899 0.39032789026532599 0 0.042522845005809037 0.37872208017295772 0 0.02353520169299585 0.37362814472054379 0 0.020498520531169899 0.39032789026532599 0 0.042522845005809037 0.37872208017295772 0 0.044309399181004752 0.39560677136927691 0 0.042522845005809037 0.37872208017295772 0 0.044309399181004752 0.39560677136927691 0 0.020498520531169899 0.39032789026532599 0 0.042522845005809037 0.37872208017295772 0 0.042522845005809037 0.37872208017295772 0 0.044309399181004752 0.39560677136927691 0 0.051839614348198802 0.38025980930703013 0 0.025849171710582229 0.41537115117929713 0 0.044309399181004752 0.39560677136927691 0 0.046554608109210548 0.41682620034058909 0 0.044309399181004752 0.39560677136927691 0 0.059776059665656731 0.40674502239450239 0 0.044309399181004752 0.39560677136927691 0 0.060692018588842989 0.39599944870225418 0 0.044309399181004752 0.39560677136927691 0 0.060692018588842989 0.39599944870225418 0 0.063776238410546054 0.38660302214779418 0 0.044309399181004752 0.39560677136927691 0 0.062450700161850503 0.37618384912155189 0 0.044309399181004752 0.39560677136927691 0 0.051839614348198802 0.38025980930703013 0 0.062450700161850503 0.37618384912155189 0 0.044309399181004752 0.39560677136927691 0 0.062450700161850503 0.37618384912155189 0 0.063776238410546054 0.38660302214779418 0 0.042522845005809037 0.37872208017295772 0 0.051839614348198802 0.38025980930703013 0 0.058075513044131097 0.37052653656433382 0 0.051839614348198802 0.38025980930703013 0 0.062450700161850503 0.37618384912155189 0 0.058075513044131097 0.37052653656433382 0 0.067287092461653333 0.37904149457876463 0 0.063776238410546054 0.38660302214779418 0 0.072161400797743178 0.38105793652148168 0 0.062450700161850503 0.37618384912155189 0 0.067287092461653333 0.37904149457876463 0 0.072198494027249482 0.37380671869315413 0 0.062450700161850503 0.37618384912155189 0 0.067287092461653333 0.37904149457876463 0 0.063776238410546054 0.38660302214779418 0 0.063776238410546054 0.38660302214779418 0 0.071901741195008168 0.38739861614482091 0 0.072161400797743178 0.38105793652148168 0 0.063776238410546054 0.38660302214779418 0 0.071901741195008168 0.38739861614482091 0 0.069463407887191714 0.39214592385066471 0 0.071901741195008168 0.38739861614482091 0 0.0755621302242519 0.39201682209458011 0 0.069463407887191714 0.39214592385066471 0 0.071901741195008168 0.38739861614482091 0 0.077825643554641777 0.38672279390977482 0 0.072161400797743178 0.38105793652148168 0 0.071901741195008168 0.38739861614482091 0 0.077825643554641777 0.38672279390977482 0 0.0755621302242519 0.39201682209458011 0 0.077825643554641777 0.38672279390977482 0 0.072161400797743178 0.38105793652148168 0 0.078510616705444347 0.37816864488247398 0 0.067287092461653333 0.37904149457876463 0 0.072161400797743178 0.38105793652148168 0 0.072198494027249482 0.37380671869315413 0 0.072161400797743178 0.38105793652148168 0 0.078510616705444347 0.37816864488247398 0 0.072198494027249482 0.37380671869315413 0 0.078510616705444347 0.37816864488247398 0 0.085042866206672563 0.38324630826622891 0 0.085928288961728452 0.3737483007788362 0 0.077825643554641777 0.38672279390977482 0 0.078510616705444347 0.37816864488247398 0 0.085042866206672563 0.38324630826622891 0 0.077825643554641777 0.38672279390977482 0 0.083098249508078564 0.38866747558607623 0 0.085042866206672563 0.38324630826622891 0 0.077825643554641777 0.38672279390977482 0 0.083098249508078564 0.38866747558607623 0 0.081347089647310994 0.39426359033038871 0 0.083098249508078564 0.38866747558607623 0 0.085042866206672563 0.38324630826622891 0 0.088177398623688952 0.39043720983791258 0 0.085042866206672563 0.38324630826622891 0 0.088177398623688952 0.39043720983791258 0 0.091961366483198859 0.38511466468823341 0 0.088177398623688952 0.39043720983791258 0 0.091961366483198859 0.38511466468823341 0 0.093163232144819058 0.39217899767117248 0 0.091614388727837989 0.37859335300503172 0 0.093988035157245742 0.37336089834647151 0 0.085928288961728452 0.3737483007788362 0 0.085042866206672563 0.38324630826622891 0 0.091614388727837989 0.37859335300503172 0 0.085928288961728452 0.3737483007788362 0 0.085042866206672563 0.38324630826622891 0 0.091961366483198859 0.38511466468823341 0 0.091614388727837989 0.37859335300503172 0 0.090282319238747327 0.40191263429965152 0 0.088053698241654391 0.39613237643080118 0 0.084962355642285742 0.40125572261711823 0 0.090282319238747327 0.40191263429965152 0 0.084962355642285742 0.40125572261711823 0 0.089779071214557193 0.40744557907222029 0 0.090282319238747327 0.40191263429965152 0 0.089779071214557193 0.40744557907222029 0 0.095873434265167576 0.40345952162490772 0 0.090282319238747327 0.40191263429965152 0 0.092961693427375994 0.39769616808479702 0 0.088053698241654391 0.39613237643080118 0 0.090282319238747327 0.40191263429965152 0 0.092961693427375994 0.39769616808479702 0 0.095873434265167576 0.40345952162490772 0 0.092961693427375994 0.39769616808479702 0 0.093163232144819058 0.39217899767117248 0 0.088053698241654391 0.39613237643080118 0 0.088177398623688952 0.39043720983791258 0 0.093163232144819058 0.39217899767117248 0 0.088053698241654391 0.39613237643080118 0 0.088053698241654391 0.39613237643080118 0 0.081347089647310994 0.39426359033038871 0 0.084962355642285742 0.40125572261711823 0 0.083098249508078564 0.38866747558607623 0 0.088177398623688952 0.39043720983791258 0 0.081347089647310994 0.39426359033038871 0 0.088177398623688952 0.39043720983791258 0 0.088053698241654391 0.39613237643080118 0 0.081347089647310994 0.39426359033038871 0 0.077825643554641777 0.38672279390977482 0 0.081347089647310994 0.39426359033038871 0 0.0755621302242519 0.39201682209458011 0 0.081347089647310994 0.39426359033038871 0 0.079877669833030254 0.40036917963206492 0 0.074292059518741571 0.39920508055259551 0 0.084962355642285742 0.40125572261711823 0 0.079339507102095377 0.40621924866773762 0 0.084128475355517637 0.41049986621277212 0 0.081347089647310994 0.39426359033038871 0 0.079877669833030254 0.40036917963206492 0 0.084962355642285742 0.40125572261711823 0 0.079877669833030254 0.40036917963206492 0 0.084962355642285742 0.40125572261711823 0 0.079339507102095377 0.40621924866773762 0 0.079339507102095377 0.40621924866773762 0 0.074292059518741571 0.39920508055259551 0 0.071003470476364738 0.40658862694881098 0 0.079877669833030254 0.40036917963206492 0 0.079339507102095377 0.40621924866773762 0 0.074292059518741571 0.39920508055259551 0 0.074292059518741571 0.39920508055259551 0 0.067045403227359551 0.40013682048976562 0 0.071003470476364738 0.40658862694881098 0 0.081347089647310994 0.39426359033038871 0 0.074292059518741571 0.39920508055259551 0 0.0755621302242519 0.39201682209458011 0 0.074292059518741571 0.39920508055259551 0 0.0755621302242519 0.39201682209458011 0 0.069463407887191714 0.39214592385066471 0 0.060692018588842989 0.39599944870225418 0 0.069463407887191714 0.39214592385066471 0 0.067045403227359551 0.40013682048976562 0 0.060692018588842989 0.39599944870225418 0 0.063776238410546054 0.38660302214779418 0 0.069463407887191714 0.39214592385066471 0 0.074292059518741571 0.39920508055259551 0 0.069463407887191714 0.39214592385066471 0 0.067045403227359551 0.40013682048976562 0 0.059776059665656731 0.40674502239450239 0 0.067045403227359551 0.40013682048976562 0 0.071003470476364738 0.40658862694881098 0 0.059776059665656731 0.40674502239450239 0 0.060692018588842989 0.39599944870225418 0 0.067045403227359551 0.40013682048976562 0 0.059776059665656731 0.40674502239450239 0 0.068873046077376571 0.41548719556177949 0 0.071003470476364738 0.40658862694881098 0 0.059776059665656731 0.40674502239450239 0 0.059338754594765002 0.41678480391158401 0 0.068873046077376571 0.41548719556177949 0 0.062151304526816199 0.42808079734946519 0 0.068873046077376571 0.41548719556177949 0 0.075294135126374478 0.42133205033833698 0 0.062151304526816199 0.42808079734946519 0 0.059338754594765002 0.41678480391158401 0 0.068873046077376571 0.41548719556177949 0 0.068873046077376571 0.41548719556177949 0 0.075294135126374478 0.42133205033833698 0 0.077297920235404174 0.41271147306734579 0 0.079339507102095377 0.40621924866773762 0 0.077297920235404174 0.41271147306734579 0 0.071003470476364738 0.40658862694881098 0 0.068873046077376571 0.41548719556177949 0 0.077297920235404174 0.41271147306734579 0 0.071003470476364738 0.40658862694881098 0 0.06772429520313103 0.44208217867330302 0 0.062151304526816199 0.42808079734946519 0 0.076548976619749853 0.43084815822997002 0 0.062151304526816199 0.42808079734946519 0 0.075294135126374478 0.42133205033833698 0 0.076548976619749853 0.43084815822997002 0 0.082674190114861767 0.44171109356619948 0 0.076548976619749853 0.43084815822997002 0 0.084528829458390686 0.43128968827045899 0 0.075294135126374478 0.42133205033833698 0 0.076548976619749853 0.43084815822997002 0 0.083263707117607749 0.42407195869550268 0 0.076548976619749853 0.43084815822997002 0 0.084528829458390686 0.43128968827045899 0 0.083263707117607749 0.42407195869550268 0 0.084528829458390686 0.43128968827045899 0 0.083263707117607749 0.42407195869550268 0 0.089623471072728958 0.42646151850846198 0 0.089623471072728958 0.42646151850846198 0 0.091068973200555417 0.42026376808051291 0 0.1000498018024437 0.42580470649849539 0 0.083263707117607749 0.42407195869550268 0 0.089623471072728958 0.42646151850846198 0 0.091068973200555417 0.42026376808051291 0 0.082674190114861767 0.44171109356619948 0 0.084528829458390686 0.43128968827045899 0 0.091479251218205881 0.43408889317397459 0 0.084528829458390686 0.43128968827045899 0 0.089623471072728958 0.42646151850846198 0 0.091479251218205881 0.43408889317397459 0 0.089623471072728958 0.42646151850846198 0 0.091479251218205881 0.43408889317397459 0 0.094823984982218543 0.4303623608338295 0 0.079339507102095377 0.40621924866773762 0 0.077297920235404174 0.41271147306734579 0 0.084128475355517637 0.41049986621277212 0 0.077297920235404174 0.41271147306734579 0 0.084128475355517637 0.41049986621277212 0 0.08369740420832586 0.41702407584296819 0 0.075294135126374478 0.42133205033833698 0 0.083263707117607749 0.42407195869550268 0 0.08369740420832586 0.41702407584296819 0 0.075294135126374478 0.42133205033833698 0 0.077297920235404174 0.41271147306734579 0 0.08369740420832586 0.41702407584296819 0 0.08369740420832586 0.41702407584296819 0 0.091068973200555417 0.42026376808051291 0 0.090721372797857316 0.41368114093695391 0 0.083263707117607749 0.42407195869550268 0 0.08369740420832586 0.41702407584296819 0 0.091068973200555417 0.42026376808051291 0 0.091068973200555417 0.42026376808051291 0 0.090721372797857316 0.41368114093695391 0 0.097301291656883893 0.41709482374236828 0 0.084962355642285742 0.40125572261711823 0 0.084128475355517637 0.41049986621277212 0 0.089779071214557193 0.40744557907222029 0 0.090721372797857316 0.41368114093695391 0 0.089779071214557193 0.40744557907222029 0 0.098064020896281523 0.40982694706785061 0 0.084128475355517637 0.41049986621277212 0 0.090721372797857316 0.41368114093695391 0 0.089779071214557193 0.40744557907222029 0 0.084128475355517637 0.41049986621277212 0 0.08369740420832586 0.41702407584296819 0 0.090721372797857316 0.41368114093695391 0 0.098064020896281523 0.40982694706785061 0 0.097301291656883893 0.41709482374236828 0 0.1067610578026295 0.41358822798818279 0 0.1067610578026295 0.41358822798818279 0 0.1000498018024437 0.42580470649849539 0 0.1194700949355865 0.4210618048929417 0 0.089779071214557193 0.40744557907222029 0 0.098064020896281523 0.40982694706785061 0 0.095873434265167576 0.40345952162490772 0 0.090721372797857316 0.41368114093695391 0 0.098064020896281523 0.40982694706785061 0 0.097301291656883893 0.41709482374236828 0 0.091068973200555417 0.42026376808051291 0 0.097301291656883893 0.41709482374236828 0 0.1000498018024437 0.42580470649849539 0 0.097301291656883893 0.41709482374236828 0 0.1067610578026295 0.41358822798818279 0 0.1000498018024437 0.42580470649849539 0 0.098064020896281523 0.40982694706785061 0 0.1067610578026295 0.41358822798818279 0 0.10302055889256249 0.40485541722502572 0 0.1067610578026295 0.41358822798818279 0 0.10302055889256249 0.40485541722502572 0 0.1085193894561451 0.40570112299548461 0 0.10160716966506381 0.44071936121256211 0 0.1000498018024437 0.42580470649849539 0 0.1194700949355865 0.4210618048929417 0 0.10160716966506381 0.44071936121256211 0 0.091479251218205881 0.43408889317397459 0 0.098143415835495615 0.43509432515438617 0 0.10160716966506381 0.44071936121256211 0 0.098143415835495615 0.43509432515438617 0 0.1000498018024437 0.42580470649849539 0 0.098143415835495615 0.43509432515438617 0 0.094823984982218543 0.4303623608338295 0 0.1000498018024437 0.42580470649849539 0 0.091479251218205881 0.43408889317397459 0 0.098143415835495615 0.43509432515438617 0 0.094823984982218543 0.4303623608338295 0 0.089623471072728958 0.42646151850846198 0 0.094823984982218543 0.4303623608338295 0 0.1000498018024437 0.42580470649849539 0 0.1226530656482125 0.44308759750645899 0 0.10160716966506381 0.44071936121256211 0 0.1194700949355865 0.4210618048929417 0 0.10160716966506381 0.44071936121256211 0 0.1194700949355865 0.4210618048929417 0 0.1194700949355865 0.4210618048929417 0 0.1155497812843712 0.40499914186118657 0 0.1251947550425104 0.40439573951467739 0 0.1067610578026295 0.41358822798818279 0 0.1194700949355865 0.4210618048929417 0 0.1155497812843712 0.40499914186118657 0 0.1067610578026295 0.41358822798818279 0 0.1155497812843712 0.40499914186118657 0 0.1085193894561451 0.40570112299548461 0 0.1155497812843712 0.40499914186118657 0 0.122036774282776 0.39822043035423382 0 0.1251947550425104 0.40439573951467739 0 0.1155497812843712 0.40499914186118657 0 0.11610378482444179 0.39412346996140252 0 0.122036774282776 0.39822043035423382 0 0.1155497812843712 0.40499914186118657 0 0.11610378482444179 0.39412346996140252 0 0.1087461598450174 0.39936170490754319 0 0.1155497812843712 0.40499914186118657 0 0.1085193894561451 0.40570112299548461 0 0.1087461598450174 0.39936170490754319 0 0.11610378482444179 0.39412346996140252 0 0.11375067629314541 0.38688685370398818 0 0.1075603428337702 0.39169969160667051 0 0.11610378482444179 0.39412346996140252 0 0.1087461598450174 0.39936170490754319 0 0.1075603428337702 0.39169969160667051 0 0.11610378482444179 0.39412346996140252 0 0.1238054918579997 0.39208600405537319 0 0.1206795994765712 0.38675533732833728 0 0.11610378482444179 0.39412346996140252 0 0.122036774282776 0.39822043035423382 0 0.1238054918579997 0.39208600405537319 0 0.1238054918579997 0.39208600405537319 0 0.1206795994765712 0.38675533732833728 0 0.12788083109945839 0.38860499240783991 0 0.1206795994765712 0.38675533732833728 0 0.1248009215614351 0.38126099366717242 0 0.12788083109945839 0.38860499240783991 0 0.1248009215614351 0.38126099366717242 0 0.1159841220893128 0.3789005706549779 0 0.1228562141210252 0.37132582093148131 0 0.1206795994765712 0.38675533732833728 0 0.1248009215614351 0.38126099366717242 0 0.1159841220893128 0.3789005706549779 0 0.1159841220893128 0.3789005706549779 0 0.1078296744761738 0.38329985712023329 0 0.10747452083672961 0.37579109917207609 0 0.11375067629314541 0.38688685370398818 0 0.1078296744761738 0.38329985712023329 0 0.1075603428337702 0.39169969160667051 0 0.1159841220893128 0.3789005706549779 0 0.11375067629314541 0.38688685370398818 0 0.1078296744761738 0.38329985712023329 0 0.1206795994765712 0.38675533732833728 0 0.1159841220893128 0.3789005706549779 0 0.11375067629314541 0.38688685370398818 0 0.11610378482444179 0.39412346996140252 0 0.1206795994765712 0.38675533732833728 0 0.11375067629314541 0.38688685370398818 0 0.103261688095483 0.38762897924253831 0 0.1078296744761738 0.38329985712023329 0 0.1075603428337702 0.39169969160667051 0 0.103261688095483 0.38762897924253831 0 0.1078296744761738 0.38329985712023329 0 0.099362575009813214 0.37959851779976828 0 0.1078296744761738 0.38329985712023329 0 0.10747452083672961 0.37579109917207609 0 0.099362575009813214 0.37959851779976828 0 0.091961366483198859 0.38511466468823341 0 0.091614388727837989 0.37859335300503172 0 0.099362575009813214 0.37959851779976828 0 0.091614388727837989 0.37859335300503172 0 0.099362575009813214 0.37959851779976828 0 0.093988035157245742 0.37336089834647151 0 0.103261688095483 0.38762897924253831 0 0.097487119725900739 0.38859517481362588 0 0.099967316698447939 0.39560048560951988 0 0.091961366483198859 0.38511466468823341 0 0.099362575009813214 0.37959851779976828 0 0.097487119725900739 0.38859517481362588 0 0.103261688095483 0.38762897924253831 0 0.099362575009813214 0.37959851779976828 0 0.097487119725900739 0.38859517481362588 0 0.091961366483198859 0.38511466468823341 0 0.093163232144819058 0.39217899767117248 0 0.097487119725900739 0.38859517481362588 0 0.093163232144819058 0.39217899767117248 0 0.097487119725900739 0.38859517481362588 0 0.099967316698447939 0.39560048560951988 0 0.092961693427375994 0.39769616808479702 0 0.093163232144819058 0.39217899767117248 0 0.099967316698447939 0.39560048560951988 0 0.099967316698447939 0.39560048560951988 0 0.095873434265167576 0.40345952162490772 0 0.10302055889256249 0.40485541722502572 0 0.092961693427375994 0.39769616808479702 0 0.099967316698447939 0.39560048560951988 0 0.095873434265167576 0.40345952162490772 0 0.098064020896281523 0.40982694706785061 0 0.095873434265167576 0.40345952162490772 0 0.10302055889256249 0.40485541722502572 0 0.099967316698447939 0.39560048560951988 0 0.10302055889256249 0.40485541722502572 0 0.1087461598450174 0.39936170490754319 0 0.10302055889256249 0.40485541722502572 0 0.1085193894561451 0.40570112299548461 0 0.1087461598450174 0.39936170490754319 0 0.099967316698447939 0.39560048560951988 0 0.1087461598450174 0.39936170490754319 0 0.1075603428337702 0.39169969160667051 0 0.103261688095483 0.38762897924253831 0 0.099967316698447939 0.39560048560951988 0 0.1075603428337702 0.39169969160667051 0 0.1070314257879712 0.36115535327770337 0 0.10505301399626719 0.34363514048202282 0 0.096563986772785507 0.35476043998674173 0 0.10505301399626719 0.34363514048202282 0 0.087248136190972408 0.34779896317862757 0 0.096563986772785507 0.35476043998674173 0 0.1070314257879712 0.36115535327770337 0 0.10505301399626719 0.34363514048202282 0 0.096563986772785507 0.35476043998674173 0 0.096690917100078641 0.36231159242797178 0 0.088604352889948987 0.3592956006147226 0 0.096690917100078641 0.36231159242797178 0 0.1007356681384701 0.36895508763759249 0 0.1070314257879712 0.36115535327770337 0 0.096690917100078641 0.36231159242797178 0 0.1007356681384701 0.36895508763759249 0 0.090519151911217358 0.36739148062309868 0 0.096563986772785507 0.35476043998674173 0 0.096690917100078641 0.36231159242797178 0 0.1070314257879712 0.36115535327770337 0 0.1007356681384701 0.36895508763759249 0 0.093988035157245742 0.37336089834647151 0 0.090519151911217358 0.36739148062309868 0 0.099362575009813214 0.37959851779976828 0 0.1007356681384701 0.36895508763759249 0 0.093988035157245742 0.37336089834647151 0 0.10747452083672961 0.37579109917207609 0 0.099362575009813214 0.37959851779976828 0 0.1007356681384701 0.36895508763759249 0 0.10747452083672961 0.37579109917207609 0 0.1007356681384701 0.36895508763759249 0 0.1131792697929641 0.36857306582399502 0 0.1007356681384701 0.36895508763759249 0 0.1070314257879712 0.36115535327770337 0 0.1131792697929641 0.36857306582399502 0 0.1070314257879712 0.36115535327770337 0 0.1131792697929641 0.36857306582399502 0 0.1201977060607657 0.36164614878284479 0 0.1159841220893128 0.3789005706549779 0 0.10747452083672961 0.37579109917207609 0 0.1131792697929641 0.36857306582399502 0 0.1159841220893128 0.3789005706549779 0 0.1131792697929641 0.36857306582399502 0 0.1228562141210252 0.37132582093148131 0 0.1131792697929641 0.36857306582399502 0 0.1228562141210252 0.37132582093148131 0 0.1201977060607657 0.36164614878284479 0 0.1201977060607657 0.36164614878284479 0 0.11904464068305751 0.34247939576895581 0 0.1318037841364455 0.35049240264412712 0 0.1201977060607657 0.36164614878284479 0 0.10505301399626719 0.34363514048202282 0 0.1070314257879712 0.36115535327770337 0 0.1201977060607657 0.36164614878284479 0 0.10505301399626719 0.34363514048202282 0 0.1201977060607657 0.36164614878284479 0 0.11904464068305751 0.34247939576895581 0 0.10505301399626719 0.34363514048202282 0 0.11904464068305751 0.34247939576895581 0 0.111169422108031 0.32897458672790703 0 0.12699927711377751 0.32764870020787812 0 0.11904464068305751 0.34247939576895581 0 0.111169422108031 0.32897458672790703 0 0.10505301399626719 0.34363514048202282 0 0.1019377336549251 0.31604716576037573 0 0.12272199582340169 0.30731176645537173 0 0.12699927711377751 0.32764870020787812 0 0.111169422108031 0.32897458672790703 0 0.1019377336549251 0.31604716576037573 0 0.12699927711377751 0.32764870020787812 0 0.12272199582340169 0.30731176645537173 0 0.12699927711377751 0.32764870020787812 0 0.1019377336549251 0.31604716576037573 0 0.12699927711377751 0.32764870020787812 0 0.1019377336549251 0.31604716576037573 0 0.093413935085940425 0.3297932250455779 0 0.091840594142204232 0.31930181930877521 0 0.1019377336549251 0.31604716576037573 0 0.10505301399626719 0.34363514048202282 0 0.093413935085940425 0.3297932250455779 0 0.1019377336549251 0.31604716576037573 0 0.10505301399626719 0.34363514048202282 0 0.10505301399626719 0.34363514048202282 0 0.093413935085940425 0.3297932250455779 0 0.087248136190972408 0.34779896317862757 0 0.111169422108031 0.32897458672790703 0 0.1019377336549251 0.31604716576037573 0 0.10505301399626719 0.34363514048202282 0 0.10505301399626719 0.34363514048202282 0 0.093413935085940425 0.3297932250455779 0 0.093413935085940425 0.3297932250455779 0 0.078093667277052858 0.32651861942907051 0 0.076801923089993104 0.33974896164158658 0 0.093413935085940425 0.3297932250455779 0 0.076801923089993104 0.33974896164158658 0 0.087248136190972408 0.34779896317862757 0 0.1019377336549251 0.31604716576037573 0 0.091840594142204232 0.31930181930877521 0 0.085358563611757018 0.30837230676046762 0 0.091840594142204232 0.31930181930877521 0 0.081774856175614224 0.31595130960913248 0 0.085358563611757018 0.30837230676046762 0 0.093413935085940425 0.3297932250455779 0 0.081774856175614224 0.31595130960913248 0 0.093413935085940425 0.3297932250455779 0 0.091840594142204232 0.31930181930877521 0 0.081774856175614224 0.31595130960913248 0 0.093413935085940425 0.3297932250455779 0 0.081774856175614224 0.31595130960913248 0 0.078093667277052858 0.32651861942907051 0 0.081774856175614224 0.31595130960913248 0 0.074779223938614858 0.31675449251595339 0 0.078093667277052858 0.32651861942907051 0 0.081774856175614224 0.31595130960913248 0 0.074779223938614858 0.31675449251595339 0 0.078157698810994575 0.31031282368079488 0 0.074779223938614858 0.31675449251595339 0 0.067583113670808562 0.32297255061226532 0 0.068733935009112027 0.31501589369963501 0 0.074779223938614858 0.31675449251595339 0 0.068733935009112027 0.31501589369963501 0 0.072815129511188376 0.309747125514023 0 0.078093667277052858 0.32651861942907051 0 0.067583113670808562 0.32297255061226532 0 0.070983533745935329 0.33106107361140152 0 0.074779223938614858 0.31675449251595339 0 0.078093667277052858 0.32651861942907051 0 0.067583113670808562 0.32297255061226532 0 0.067583113670808562 0.32297255061226532 0 0.068733935009112027 0.31501589369963501 0 0.061053530019529879 0.31528693756382559 0 0.068733935009112027 0.31501589369963501 0 0.061053530019529879 0.31528693756382559 0 0.066708625189063606 0.31111637419607008 0 0.076801923089993104 0.33974896164158658 0 0.070983533745935329 0.33106107361140152 0 0.063292770552126135 0.33583756265574971 0 0.078093667277052858 0.32651861942907051 0 0.076801923089993104 0.33974896164158658 0 0.070983533745935329 0.33106107361140152 0 0.067583113670808562 0.32297255061226532 0 0.070983533745935329 0.33106107361140152 0 0.063292770552126135 0.33583756265574971 0 0.076801923089993104 0.33974896164158658 0 0.063292770552126135 0.33583756265574971 0 0.063421470585559289 0.34501080574176468 0 0.076801923089993104 0.33974896164158658 0 0.063421470585559289 0.34501080574176468 0 0.070320717373048111 0.35105773439845123 0 0.063421470585559289 0.34501080574176468 0 0.070320717373048111 0.35105773439845123 0 0.056408336690397728 0.35253022819375718 0 0.070320717373048111 0.35105773439845123 0 0.073628181082452948 0.36233099295570942 0 0.062336014267468542 0.35959299855628579 0 0.070320717373048111 0.35105773439845123 0 0.062336014267468542 0.35959299855628579 0 0.056408336690397728 0.35253022819375718 0 0.070320717373048111 0.35105773439845123 0 0.080592001142696351 0.35676092687382699 0 0.073628181082452948 0.36233099295570942 0 0.070320717373048111 0.35105773439845123 0 0.0785546102867892 0.34893469067558219 0 0.080592001142696351 0.35676092687382699 0 0.076801923089993104 0.33974896164158658 0 0.070320717373048111 0.35105773439845123 0 0.0785546102867892 0.34893469067558219 0 0.0785546102867892 0.34893469067558219 0 0.080592001142696351 0.35676092687382699 0 0.087248136190972408 0.34779896317862757 0 0.076801923089993104 0.33974896164158658 0 0.0785546102867892 0.34893469067558219 0 0.087248136190972408 0.34779896317862757 0 0.080592001142696351 0.35676092687382699 0 0.088604352889948987 0.3592956006147226 0 0.087248136190972408 0.34779896317862757 0 0.096563986772785507 0.35476043998674173 0 0.088604352889948987 0.3592956006147226 0 0.087248136190972408 0.34779896317862757 0 0.093988035157245742 0.37336089834647151 0 0.085928288961728452 0.3737483007788362 0 0.090519151911217358 0.36739148062309868 0 0.085928288961728452 0.3737483007788362 0 0.090519151911217358 0.36739148062309868 0 0.084674586223976944 0.36554515589862951 0 0.096690917100078641 0.36231159242797178 0 0.088604352889948987 0.3592956006147226 0 0.090519151911217358 0.36739148062309868 0 0.088604352889948987 0.3592956006147226 0 0.090519151911217358 0.36739148062309868 0 0.084674586223976944 0.36554515589862951 0 0.080592001142696351 0.35676092687382699 0 0.084674586223976944 0.36554515589862951 0 0.077907006684630672 0.37042981112536871 0 0.080592001142696351 0.35676092687382699 0 0.088604352889948987 0.3592956006147226 0 0.084674586223976944 0.36554515589862951 0 0.085928288961728452 0.3737483007788362 0 0.084674586223976944 0.36554515589862951 0 0.077907006684630672 0.37042981112536871 0 0.078510616705444347 0.37816864488247398 0 0.085928288961728452 0.3737483007788362 0 0.077907006684630672 0.37042981112536871 0 0.062450700161850503 0.37618384912155189 0 0.080592001142696351 0.35676092687382699 0 0.062450700161850503 0.37618384912155189 0 0.080592001142696351 0.35676092687382699 0 0.072198494027249482 0.37380671869315413 0 0.078510616705444347 0.37816864488247398 0 0.077907006684630672 0.37042981112536871 0 0.072198494027249482 0.37380671869315413 0 0.062450700161850503 0.37618384912155189 0 0.080592001142696351 0.35676092687382699 0 0.073628181082452948 0.36233099295570942 0 0.080592001142696351 0.35676092687382699 0 0.077907006684630672 0.37042981112536871 0 0.072198494027249482 0.37380671869315413 0 0.073628181082452948 0.36233099295570942 0 0.058075513044131097 0.37052653656433382 0 0.073628181082452948 0.36233099295570942 0 0.058075513044131097 0.37052653656433382 0 0.062336014267468542 0.35959299855628579 0 0.062450700161850503 0.37618384912155189 0 0.073628181082452948 0.36233099295570942 0 0.058075513044131097 0.37052653656433382 0 0.058075513044131097 0.37052653656433382 0 0.062336014267468542 0.35959299855628579 0 0.051867546232730211 0.36324070312521789 0 0.042522845005809037 0.37872208017295772 0 0.058075513044131097 0.37052653656433382 0 0.042522845005809037 0.37872208017295772 0 0.058075513044131097 0.37052653656433382 0 0.051867546232730211 0.36324070312521789 0 0.051867546232730211 0.36324070312521789 0 0.056408336690397728 0.35253022819375718 0 0.039995022155844849 0.35483167213875499 0 0.056408336690397728 0.35253022819375718 0 0.039995022155844849 0.35483167213875499 0 0.048499290153689513 0.33872725620801891 0 0.063421470585559289 0.34501080574176468 0 0.056408336690397728 0.35253022819375718 0 0.048499290153689513 0.33872725620801891 0 0.062336014267468542 0.35959299855628579 0 0.051867546232730211 0.36324070312521789 0 0.056408336690397728 0.35253022819375718 0 0.042522845005809037 0.37872208017295772 0 0.039995022155844849 0.35483167213875499 0 0.02353520169299585 0.37362814472054379 0 0.042522845005809037 0.37872208017295772 0 0.039995022155844849 0.35483167213875499 0 0.042522845005809037 0.37872208017295772 0 0.051867546232730211 0.36324070312521789 0 0.039995022155844849 0.35483167213875499 0 0.039995022155844849 0.35483167213875499 0 0.02353520169299585 0.37362814472054379 0 0.01045091256259899 0.3581436725760091 0 0.039995022155844849 0.35483167213875499 0 0.01045091256259899 0.3581436725760091 0 0.0222675929958513 0.33086382879242959 0 -0.0086778301900626732 0.37529690039191538 0 0.0075283452960494364 0.38165158931583287 0 0.01045091256259899 0.3581436725760091 0 0.0075283452960494364 0.38165158931583287 0 0.02353520169299585 0.37362814472054379 0 0.01045091256259899 0.3581436725760091 0 -0.0037405759101894749 0.32486350281032239 0 0.0222675929958513 0.33086382879242959 0 0.021299430358089871 0.31112558414410402 0 -0.0037405759101894749 0.32486350281032239 0 0.0032870183029002601 0.34063277615122461 0 0.0222675929958513 0.33086382879242959 0 0.01045091256259899 0.3581436725760091 0 0.0032870183029002601 0.34063277615122461 0 0.0222675929958513 0.33086382879242959 0 0.0222675929958513 0.33086382879242959 0 0.041991979194174259 0.31807108926500849 0 0.021299430358089871 0.31112558414410402 0 0.0222675929958513 0.33086382879242959 0 0.041991979194174259 0.31807108926500849 0 0.0222675929958513 0.33086382879242959 0 0.041991979194174259 0.31807108926500849 0 0.048499290153689513 0.33872725620801891 0 0.039995022155844849 0.35483167213875499 0 0.0222675929958513 0.33086382879242959 0 0.048499290153689513 0.33872725620801891 0 0.063292770552126135 0.33583756265574971 0 0.048499290153689513 0.33872725620801891 0 0.055436910131931402 0.31953494799922982 0 0.063292770552126135 0.33583756265574971 0 0.063421470585559289 0.34501080574176468 0 0.048499290153689513 0.33872725620801891 0 0.041991979194174259 0.31807108926500849 0 0.048499290153689513 0.33872725620801891 0 0.055436910131931402 0.31953494799922982 0 0.041991979194174259 0.31807108926500849 0 0.055436910131931402 0.31953494799922982 0 0.061716365392496857 0.30527834973758677 0 0.067583113670808562 0.32297255061226532 0 0.063292770552126135 0.33583756265574971 0 0.055436910131931402 0.31953494799922982 0 0.055436910131931402 0.31953494799922982 0 0.061053530019529879 0.31528693756382559 0 0.061716365392496857 0.30527834973758677 0 0.067583113670808562 0.32297255061226532 0 0.055436910131931402 0.31953494799922982 0 0.061053530019529879 0.31528693756382559 0 0.061716365392496857 0.30527834973758677 0 0.056231809528790602 0.29488889775206989 0 0.046053138561473403 0.30313869527958609 0 0.041991979194174259 0.31807108926500849 0 0.061716365392496857 0.30527834973758677 0 0.041991979194174259 0.31807108926500849 0 0.061716365392496857 0.30527834973758677 0 0.046053138561473403 0.30313869527958609 0 0.061053530019529879 0.31528693756382559 0 0.061716365392496857 0.30527834973758677 0 0.06351726664236837 0.30868981595858341 0 0.061716365392496857 0.30527834973758677 0 0.056231809528790602 0.29488889775206989 0 0.06877939356858935 0.30069744776055862 0 0.061716365392496857 0.30527834973758677 0 0.056231809528790602 0.29488889775206989 0 0.056231809528790602 0.29488889775206989 0 0.052789017194629979 0.28836717994286598 0 0.075149622807887451 0.28260285332241369 0 0.056231809528790602 0.29488889775206989 0 0.04595136227665967 0.29012985475350139 0 0.056231809528790602 0.29488889775206989 0 0.04595136227665967 0.29012985475350139 0 0.046053138561473403 0.30313869527958609 0 0.056231809528790602 0.29488889775206989 0 0.052789017194629979 0.28836717994286598 0 0.04595136227665967 0.29012985475350139 0 0.052789017194629979 0.28836717994286598 0 0.04595136227665967 0.29012985475350139 0 0.056231809528790602 0.29488889775206989 0 0.052789017194629979 0.28836717994286598 0 0.04595136227665967 0.29012985475350139 0 0.028181610517901929 0.28190384953992231 0 0.04595136227665967 0.29012985475350139 0 0.028181610517901929 0.28190384953992231 0 0.040411961027982328 0.28044030694110078 0 0.04595136227665967 0.29012985475350139 0 0.031091967110119519 0.29396044899606449 0 0.028181610517901929 0.28190384953992231 0 0.052789017194629979 0.28836717994286598 0 0.04595136227665967 0.29012985475350139 0 0.040411961027982328 0.28044030694110078 0 0.04595136227665967 0.29012985475350139 0 0.039319966901854658 0.29826441650469721 0 0.031091967110119519 0.29396044899606449 0 0.04595136227665967 0.29012985475350139 0 0.031091967110119519 0.29396044899606449 0 0.041991979194174259 0.31807108926500849 0 0.034183399659165309 0.30582866698963401 0 0.021299430358089871 0.31112558414410402 0 0.041991979194174259 0.31807108926500849 0 0.046053138561473403 0.30313869527958609 0 0.034183399659165309 0.30582866698963401 0 0.039319966901854658 0.29826441650469721 0 0.046053138561473403 0.30313869527958609 0 0.034183399659165309 0.30582866698963401 0 0.04595136227665967 0.29012985475350139 0 0.039319966901854658 0.29826441650469721 0 0.046053138561473403 0.30313869527958609 0 0.039319966901854658 0.29826441650469721 0 0.034183399659165309 0.30582866698963401 0 0.031091967110119519 0.29396044899606449 0 0.034183399659165309 0.30582866698963401 0 0.021299430358089871 0.31112558414410402 0 0.031091967110119519 0.29396044899606449 0 0.021299430358089871 0.31112558414410402 0 0.031091967110119519 0.29396044899606449 0 0.01619411740766569 0.29095912100708782 0 0.028181610517901929 0.28190384953992231 0 0.01619411740766569 0.29095912100708782 0 0.01041185875914255 0.27367784432634651 0 0.031091967110119519 0.29396044899606449 0 0.028181610517901929 0.28190384953992231 0 0.01619411740766569 0.29095912100708782 0 0.01619411740766569 0.29095912100708782 0 0.0034611098733089872 0.28494369545047238 0 0.01041185875914255 0.27367784432634651 0 0.01619411740766569 0.29095912100708782 0 0.0034611098733089872 0.28494369545047238 0 0.001533996037670159 0.29940650260914209 0 -0.0037405759101894749 0.32486350281032239 0 0.021299430358089871 0.31112558414410402 0 0.001533996037670159 0.29940650260914209 0 0.021299430358089871 0.31112558414410402 0 0.01619411740766569 0.29095912100708782 0 0.001533996037670159 0.29940650260914209 0 -0.00045229697026904348 0.25795292580345919 0 0.0030585758369763671 0.24538293665774921 0 0.015737155004729369 0.25340011108241312 0 -0.00045229697026904348 0.25795292580345919 0 0.015737155004729369 0.25340011108241312 0 -0.00045229697026904348 0.25795292580345919 0 0.01041185875914255 0.27367784432634651 0 0.015737155004729369 0.25340011108241312 0 -0.0068905671122931923 0.27148047605306702 0 0.0034611098733089872 0.28494369545047238 0 0.01041185875914255 0.27367784432634651 0 -0.0068905671122931923 0.27148047605306702 0 -0.00045229697026904348 0.25795292580345919 0 0.01041185875914255 0.27367784432634651 0 0.028181610517901929 0.28190384953992231 0 0.026342878868222459 0.26573818846327069 0 0.034323565625321337 0.27417239577410257 0 0.028181610517901929 0.28190384953992231 0 0.01041185875914255 0.27367784432634651 0 0.026342878868222459 0.26573818846327069 0 0.028181610517901929 0.28190384953992231 0 0.01041185875914255 0.27367784432634651 0 0.031926606979727712 0.24884729636136671 0 0.026342878868222459 0.26573818846327069 0 0.015737155004729369 0.25340011108241312 0 0.031926606979727712 0.24884729636136671 0 0.015737155004729369 0.25340011108241312 0 0.01041185875914255 0.27367784432634651 0 0.026342878868222459 0.26573818846327069 0 0.015737155004729369 0.25340011108241312 0 0.057175485762615101 0.24174678009990461 0 0.031926606979727712 0.24884729636136671 0 0.042357812087178627 0.26860723815211651 0 0.031926606979727712 0.24884729636136671 0 0.042357812087178627 0.26860723815211651 0 0.031926606979727712 0.24884729636136671 0 0.026342878868222459 0.26573818846327069 0 0.042357812087178627 0.26860723815211651 0 0.026342878868222459 0.26573818846327069 0 0.034323565625321337 0.27417239577410257 0 0.042357812087178627 0.26860723815211651 0 0.052789017194629979 0.28836717994286598 0 0.042357812087178627 0.26860723815211651 0 0.040411961027982328 0.28044030694110078 0 0.034323565625321337 0.27417239577410257 0 0.042357812087178627 0.26860723815211651 0 0.040411961027982328 0.28044030694110078 0 0.028181610517901929 0.28190384953992231 0 0.034323565625321337 0.27417239577410257 0 0.040411961027982328 0.28044030694110078 0 0.052789017194629979 0.28836717994286598 0 0.042357812087178627 0.26860723815211651 0 0.063079158848947353 0.2683377938129804 0 0.052789017194629979 0.28836717994286598 0 0.042357812087178627 0.26860723815211651 0 0.057175485762615101 0.24174678009990461 0 0.042357812087178627 0.26860723815211651 0 0.063079158848947353 0.2683377938129804 0 0.057175485762615101 0.24174678009990461 0 0.075709362988111914 0.2549031265023331 0 0.063079158848947353 0.2683377938129804 0 0.075709362988111914 0.2549031265023331 0 0.083377381736377293 0.27137491007719711 0 0.063079158848947353 0.2683377938129804 0 0.075709362988111914 0.2549031265023331 0 0.091865538445326356 0.25786726132117188 0 0.083377381736377293 0.27137491007719711 0 0.075149622807887451 0.28260285332241369 0 0.097510228421144984 0.27683852670196207 0 0.083377381736377293 0.27137491007719711 0 0.075149622807887451 0.28260285332241369 0 0.097510228421144984 0.27683852670196207 0 0.091865538445326356 0.25786726132117188 0 0.083377381736377293 0.27137491007719711 0 0.09713359206231087 0.2735031497187399 0 0.083377381736377293 0.27137491007719711 0 0.097510228421144984 0.27683852670196207 0 0.09713359206231087 0.2735031497187399 0 0.083377381736377293 0.27137491007719711 0 0.063079158848947353 0.2683377938129804 0 0.075149622807887451 0.28260285332241369 0 0.052789017194629979 0.28836717994286598 0 0.063079158848947353 0.2683377938129804 0 0.075149622807887451 0.28260285332241369 0 0.052789017194629979 0.28836717994286598 0 0.075149622807887451 0.28260285332241369 0 0.06877939356858935 0.30069744776055862 0 0.087193438585146776 0.28875456248268577 0 0.056231809528790602 0.29488889775206989 0 0.075149622807887451 0.28260285332241369 0 0.06877939356858935 0.30069744776055862 0 0.075149622807887451 0.28260285332241369 0 0.06877939356858935 0.30069744776055862 0 0.087193438585146776 0.28875456248268577 0 0.06877939356858935 0.30069744776055862 0 0.085358563611757018 0.30837230676046762 0 0.06877939356858935 0.30069744776055862 0 0.078157698810994575 0.31031282368079488 0 0.085358563611757018 0.30837230676046762 0 0.067423264763119314 0.3068420982442831 0 0.06877939356858935 0.30069744776055862 0 0.072815129511188376 0.309747125514023 0 0.068733935009112027 0.31501589369963501 0 0.066708625189063606 0.31111637419607008 0 0.072815129511188376 0.309747125514023 0 0.066708625189063606 0.31111637419607008 0 0.067423264763119314 0.3068420982442831 0 0.072815129511188376 0.309747125514023 0 0.061053530019529879 0.31528693756382559 0 0.066708625189063606 0.31111637419607008 0 0.06351726664236837 0.30868981595858341 0 0.066708625189063606 0.31111637419607008 0 0.06351726664236837 0.30868981595858341 0 0.067423264763119314 0.3068420982442831 0 0.061716365392496857 0.30527834973758677 0 0.06351726664236837 0.30868981595858341 0 0.067423264763119314 0.3068420982442831 0 0.061716365392496857 0.30527834973758677 0 0.06351726664236837 0.30868981595858341 0 0.056231809528790602 0.29488889775206989 0 0.06877939356858935 0.30069744776055862 0 0.061716365392496857 0.30527834973758677 0 0.067423264763119314 0.3068420982442831 0 0.06877939356858935 0.30069744776055862 0 0.061716365392496857 0.30527834973758677 0 0.06877939356858935 0.30069744776055862 0 0.06877939356858935 0.30069744776055862 0 0.072815129511188376 0.309747125514023 0 0.078157698810994575 0.31031282368079488 0 0.074779223938614858 0.31675449251595339 0 0.072815129511188376 0.309747125514023 0 0.078157698810994575 0.31031282368079488 0 0.085358563611757018 0.30837230676046762 0 0.087193438585146776 0.28875456248268577 0 0.099723981038035744 0.29644284623116879 0 0.1019377336549251 0.31604716576037573 0 0.085358563611757018 0.30837230676046762 0 0.06877939356858935 0.30069744776055862 0 0.085358563611757018 0.30837230676046762 0 0.087193438585146776 0.28875456248268577 0 0.081774856175614224 0.31595130960913248 0 0.078157698810994575 0.31031282368079488 0 0.085358563611757018 0.30837230676046762 0 0.075149622807887451 0.28260285332241369 0 0.087193438585146776 0.28875456248268577 0 0.097510228421144984 0.27683852670196207 0 0.099723981038035744 0.29644284623116879 0 0.097510228421144984 0.27683852670196207 0 0.087193438585146776 0.28875456248268577 0 0.099723981038035744 0.29644284623116879 0 0.097510228421144984 0.27683852670196207 0 0.099723981038035744 0.29644284623116879 0 0.1167017247620603 0.29028461299800679 0 0.097510228421144984 0.27683852670196207 0 0.1019377336549251 0.31604716576037573 0 0.099723981038035744 0.29644284623116879 0 0.12272199582340169 0.30731176645537173 0 0.1019377336549251 0.31604716576037573 0 0.099723981038035744 0.29644284623116879 0 0.1019377336549251 0.31604716576037573 0 0.085358563611757018 0.30837230676046762 0 0.099723981038035744 0.29644284623116879 0 0.099723981038035744 0.29644284623116879 0 0.12272199582340169 0.30731176645537173 0 0.1167017247620603 0.29028461299800679 0 0.11514937987204669 0.27229134081490658 0 0.1085619950856153 0.26327486463328242 0 0.13163285518376111 0.26359295959491469 0 0.1167017247620603 0.29028461299800679 0 0.11514937987204669 0.27229134081490658 0 0.12602378406681949 0.28050301364547348 0 0.11514937987204669 0.27229134081490658 0 0.12602378406681949 0.28050301364547348 0 0.13278853132294849 0.26774415492785131 0 0.1167017247620603 0.29028461299800679 0 0.11514937987204669 0.27229134081490658 0 0.097510228421144984 0.27683852670196207 0 0.11514937987204669 0.27229134081490658 0 0.13278853132294849 0.26774415492785131 0 0.1070286098646317 0.24911961171667879 0 0.13163285518376111 0.26359295959491469 0 0.1249830071677395 0.23970666730875029 0 0.1070286098646317 0.24911961171667879 0 0.13163285518376111 0.26359295959491469 0 0.1070286098646317 0.24911961171667879 0 0.1085619950856153 0.26327486463328242 0 0.13163285518376111 0.26359295959491469 0 0.1070286098646317 0.24911961171667879 0 0.091865538445326356 0.25786726132117188 0 0.1085619950856153 0.26327486463328242 0 0.091865538445326356 0.25786726132117188 0 0.1085619950856153 0.26327486463328242 0 0.09713359206231087 0.2735031497187399 0 0.11514937987204669 0.27229134081490658 0 0.097510228421144984 0.27683852670196207 0 0.09713359206231087 0.2735031497187399 0 0.11514937987204669 0.27229134081490658 0 0.097510228421144984 0.27683852670196207 0 0.11514937987204669 0.27229134081490658 0 0.1085619950856153 0.26327486463328242 0 0.09713359206231087 0.2735031497187399 0 0.097510228421144984 0.27683852670196207 0 0.09713359206231087 0.2735031497187399 0 0.1413305601308569 0.27844976726412729 0 0.15017117684334291 0.27449805239404879 0 0.13689163832331441 0.26668641752494648 0 0.15017117684334291 0.27449805239404879 0 0.15210639547942201 0.26276421473600631 0 0.13689163832331441 0.26668641752494648 0 0.15017117684334291 0.27449805239404879 0 0.13689163832331441 0.26668641752494648 0 0.15017117684334291 0.27449805239404879 0 0.15210639547942201 0.26276421473600631 0 0.15017117684334291 0.27449805239404879 0 0.15210639547942201 0.26276421473600631 0 0.16231470423890279 0.27182938107924931 0 0.15459121070718229 0.2476980005371214 0 0.15210639547942201 0.26276421473600631 0 0.13963176771859701 0.25357449417353739 0 0.15459121070718229 0.2476980005371214 0 0.15210639547942201 0.26276421473600631 0 0.15210639547942201 0.26276421473600631 0 0.13963176771859701 0.25357449417353739 0 0.13689163832331441 0.26668641752494648 0 0.15210639547942201 0.26276421473600631 0 0.13689163832331441 0.26668641752494648 0 0.1249830071677395 0.23970666730875029 0 0.13163285518376111 0.26359295959491469 0 0.1249830071677395 0.23970666730875029 0 0.13963176771859701 0.25357449417353739 0 0.13163285518376111 0.26359295959491469 0 0.13963176771859701 0.25357449417353739 0 0.13163285518376111 0.26359295959491469 0 0.13689163832331441 0.26668641752494648 0 0.13163285518376111 0.26359295959491469 0 0.13689163832331441 0.26668641752494648 0 0.12602378406681949 0.28050301364547348 0 0.13278853132294849 0.26774415492785131 0 0.13945550031022269 0.29169194584112962 0 0.13278853132294849 0.26774415492785131 0 0.13945550031022269 0.29169194584112962 0 0.11514937987204669 0.27229134081490658 0 0.13163285518376111 0.26359295959491469 0 0.13278853132294849 0.26774415492785131 0 0.1413305601308569 0.27844976726412729 0 0.13278853132294849 0.26774415492785131 0 0.13945550031022269 0.29169194584112962 0 0.13163285518376111 0.26359295959491469 0 0.13278853132294849 0.26774415492785131 0 0.13278853132294849 0.26774415492785131 0 0.13689163832331441 0.26668641752494648 0 0.13163285518376111 0.26359295959491469 0 0.13278853132294849 0.26774415492785131 0 0.13689163832331441 0.26668641752494648 0 0.1413305601308569 0.27844976726412729 0 0.13278853132294849 0.26774415492785131 0 0.13689163832331441 0.26668641752494648 0 0.1167017247620603 0.29028461299800679 0 0.12602378406681949 0.28050301364547348 0 0.13945550031022269 0.29169194584112962 0 0.12272199582340169 0.30731176645537173 0 0.1167017247620603 0.29028461299800679 0 0.13945550031022269 0.29169194584112962 0 0.12272199582340169 0.30731176645537173 0 0.13945550031022269 0.29169194584112962 0 0.14422933883241029 0.30883960124516202 0 0.12272199582340169 0.30731176645537173 0 0.14422933883241029 0.30883960124516202 0 0.1461224692974944 0.31563973675440848 0 0.14422933883241029 0.30883960124516202 0 0.1473459538544559 0.2916282656326622 0 0.15276103761632859 0.29588267090389359 0 0.14422933883241029 0.30883960124516202 0 0.1473459538544559 0.2916282656326622 0 0.13945550031022269 0.29169194584112962 0 0.14422933883241029 0.30883960124516202 0 0.1473459538544559 0.2916282656326622 0 0.13945550031022269 0.29169194584112962 0 0.14422933883241029 0.30883960124516202 0 0.14422933883241029 0.30883960124516202 0 0.15391615700153899 0.31174452170334482 0 0.1461224692974944 0.31563973675440848 0 0.14422933883241029 0.30883960124516202 0 0.1461224692974944 0.31563973675440848 0 0.14422933883241029 0.30883960124516202 0 0.15276103761632859 0.29588267090389359 0 0.15716272803068559 0.30240232862080418 0 0.14422933883241029 0.30883960124516202 0 0.15391615700153899 0.31174452170334482 0 0.15716272803068559 0.30240232862080418 0 0.1413305601308569 0.27844976726412729 0 0.15017117684334291 0.27449805239404879 0 0.1473459538544559 0.2916282656326622 0 0.15017117684334291 0.27449805239404879 0 0.1473459538544559 0.2916282656326622 0 0.15285381142165441 0.2878038629749855 0 0.15017117684334291 0.27449805239404879 0 0.1473459538544559 0.2916282656326622 0 0.1413305601308569 0.27844976726412729 0 0.13945550031022269 0.29169194584112962 0 0.1473459538544559 0.2916282656326622 0 0.15276103761632859 0.29588267090389359 0 0.15285381142165441 0.2878038629749855 0 0.15822046743145901 0.29156854496698859 0 0.15276103761632859 0.29588267090389359 0 0.15822046743145901 0.29156854496698859 0 0.15716272803068559 0.30240232862080418 0 0.1473459538544559 0.2916282656326622 0 0.15276103761632859 0.29588267090389359 0 0.15285381142165441 0.2878038629749855 0 0.15017117684334291 0.27449805239404879 0 0.15285381142165441 0.2878038629749855 0 0.1562836205825972 0.28429107035667261 0 0.15285381142165441 0.2878038629749855 0 0.1562836205825972 0.28429107035667261 0 0.15822046743145901 0.29156854496698859 0 0.15822046743145901 0.29156854496698859 0 0.1641456262438882 0.28271846578033649 0 0.16920750311224661 0.2984109358035934 0 0.1641456262438882 0.28271846578033649 0 0.17065776422060941 0.28329619183387927 0 0.16920750311224661 0.2984109358035934 0 0.1562836205825972 0.28429107035667261 0 0.15822046743145901 0.29156854496698859 0 0.1641456262438882 0.28271846578033649 0 0.17065776422060941 0.28329619183387927 0 0.16920750311224661 0.2984109358035934 0 0.15391615700153899 0.31174452170334482 0 0.15716272803068559 0.30240232862080418 0 0.16517630284256579 0.31093537389155301 0 0.15716272803068559 0.30240232862080418 0 0.16920750311224661 0.2984109358035934 0 0.16517630284256579 0.31093537389155301 0 0.15822046743145901 0.29156854496698859 0 0.15716272803068559 0.30240232862080418 0 0.16920750311224661 0.2984109358035934 0 0.16920750311224661 0.2984109358035934 0 0.18469693049009839 0.31049400186265291 0 0.1915618103696887 0.29092990925948681 0 0.16920750311224661 0.2984109358035934 0 0.16517630284256579 0.31093537389155301 0 0.18469693049009839 0.31049400186265291 0 0.17065776422060941 0.28329619183387927 0 0.16920750311224661 0.2984109358035934 0 0.1915618103696887 0.29092990925948681 0 0.17210802532897629 0.26818144786416559 0 0.1954510296012367 0.26487229871378293 0 0.1915618103696887 0.29092990925948681 0 0.17210802532897629 0.26818144786416559 0 0.1915618103696887 0.29092990925948681 0 0.17065776422060941 0.28329619183387927 0 0.17210802532897629 0.26818144786416559 0 0.1915618103696887 0.29092990925948681 0 0.1641456262438882 0.28271846578033649 0 0.17065776422060941 0.28329619183387927 0 0.16231470423890279 0.27182938107924931 0 0.17065776422060941 0.28329619183387927 0 0.17210802532897629 0.26818144786416559 0 0.16231470423890279 0.27182938107924931 0 0.17065776422060941 0.28329619183387927 0 0.17210802532897629 0.26818144786416559 0 0.17210802532897629 0.26818144786416559 0 0.16231470423890279 0.27182938107924931 0 0.16469923731717501 0.25951791386705908 0 0.15017117684334291 0.27449805239404879 0 0.1641456262438882 0.28271846578033649 0 0.15017117684334291 0.27449805239404879 0 0.1562836205825972 0.28429107035667261 0 0.1641456262438882 0.28271846578033649 0 0.15017117684334291 0.27449805239404879 0 0.1641456262438882 0.28271846578033649 0 0.16231470423890279 0.27182938107924931 0 0.174290035055923 0.24544035788243229 0 0.17210802532897629 0.26818144786416559 0 0.16796204265425871 0.25867679730755389 0 0.15459121070718229 0.2476980005371214 0 0.15210639547942201 0.26276421473600631 0 0.16469923731717501 0.25951791386705908 0 0.15459121070718229 0.2476980005371214 0 0.16469923731717501 0.25951791386705908 0 0.15459121070718229 0.2476980005371214 0 0.16469923731717501 0.25951791386705908 0 0.1654699318236621 0.25009272222589601 0 0.15210639547942201 0.26276421473600631 0 0.16469923731717501 0.25951791386705908 0 0.15210639547942201 0.26276421473600631 0 0.16231470423890279 0.27182938107924931 0 0.16469923731717501 0.25951791386705908 0 0.17210802532897629 0.26818144786416559 0 0.16469923731717501 0.25951791386705908 0 0.17210802532897629 0.26818144786416559 0 0.16469923731717501 0.25951791386705908 0 0.16796204265425871 0.25867679730755389 0 0.16469923731717501 0.25951791386705908 0 0.16796204265425871 0.25867679730755389 0 0.174290035055923 0.24544035788243229 0 0.16796204265425871 0.25867679730755389 0 0.1654699318236621 0.25009272222589601 0 0.16469923731717501 0.25951791386705908 0 0.16796204265425871 0.25867679730755389 0 0.1654699318236621 0.25009272222589601 0 0.174290035055923 0.24544035788243229 0 0.19116911437402651 0.23984220284583591 0 0.1954510296012367 0.26487229871378293 0 0.174290035055923 0.24544035788243229 0 0.17210802532897629 0.26818144786416559 0 0.174290035055923 0.24544035788243229 0 0.17210802532897629 0.26818144786416559 0 0.1954510296012367 0.26487229871378293 0 0.20875825771649001 0.24791684293498359 0 0.19116911437402651 0.23984220284583591 0 0.1954510296012367 0.26487229871378293 0 0.1954510296012367 0.26487229871378293 0 0.22030560629676121 0.27149770606240892 0 0.2126931172276143 0.29091976815982801 0 0.20875825771649001 0.24791684293498359 0 0.2248599153753294 0.25464974868018769 0 0.22030560629676121 0.27149770606240892 0 0.20875825771649001 0.24791684293498359 0 0.22030560629676121 0.27149770606240892 0 0.20875825771649001 0.24791684293498359 0 0.1954510296012367 0.26487229871378293 0 0.22030560629676121 0.27149770606240892 0 0.2248599153753294 0.25464974868018769 0 0.2323971002540606 0.27039097618124619 0 0.22030560629676121 0.27149770606240892 0 0.24408767522763519 0.24738620800961111 0 0.2248599153753294 0.25464974868018769 0 0.2323971002540606 0.27039097618124619 0 0.2323971002540606 0.27039097618124619 0 0.22030560629676121 0.27149770606240892 0 0.23185295487703239 0.29507856918983399 0 0.2323971002540606 0.27039097618124619 0 0.24481726326944989 0.28301452540910571 0 0.25231182870767649 0.26565671054774792 0 0.24408767522763519 0.24738620800961111 0 0.2323971002540606 0.27039097618124619 0 0.25231182870767649 0.26565671054774792 0 0.24408767522763519 0.24738620800961111 0 0.2323971002540606 0.27039097618124619 0 0.23185295487703239 0.29507856918983399 0 0.2434003034573026 0.31865943231725968 0 0.2584766085760114 0.29794422587681391 0 0.23185295487703239 0.29507856918983399 0 0.2434003034573026 0.31865943231725968 0 0.24481726326944989 0.28301452540910571 0 0.23185295487703239 0.29507856918983399 0 0.2584766085760114 0.29794422587681391 0 0.2323971002540606 0.27039097618124619 0 0.24481726326944989 0.28301452540910571 0 0.23185295487703239 0.29507856918983399 0 0.22030560629676121 0.27149770606240892 0 0.23185295487703239 0.29507856918983399 0 0.22030560629676121 0.27149770606240892 0 0.23185295487703239 0.29507856918983399 0 0.2126931172276143 0.29091976815982801 0 0.23185295487703239 0.29507856918983399 0 0.2259717068105678 0.3094617550786456 0 0.2434003034573026 0.31865943231725968 0 0.23185295487703239 0.29507856918983399 0 0.2259717068105678 0.3094617550786456 0 0.2126931172276143 0.29091976815982801 0 0.2126931172276143 0.29091976815982801 0 0.1915618103696887 0.29092990925948681 0 0.2110155954103991 0.31367837065480991 0 0.2259717068105678 0.3094617550786456 0 0.2126931172276143 0.29091976815982801 0 0.2110155954103991 0.31367837065480991 0 0.1954510296012367 0.26487229871378293 0 0.2126931172276143 0.29091976815982801 0 0.1915618103696887 0.29092990925948681 0 0.1915618103696887 0.29092990925948681 0 0.2110155954103991 0.31367837065480991 0 0.18469693049009839 0.31049400186265291 0 0.1915618103696887 0.29092990925948681 0 0.2110155954103991 0.31367837065480991 0 0.18469693049009839 0.31049400186265291 0 0.2110155954103991 0.31367837065480991 0 0.18615059583754739 0.32736758856947512 0 0.19978515960601689 0.33500682496952111 0 0.2110155954103991 0.31367837065480991 0 0.18615059583754739 0.32736758856947512 0 0.19978515960601689 0.33500682496952111 0 0.17935081779669221 0.35188336889896321 0 0.18615059583754739 0.32736758856947512 0 0.19978515960601689 0.33500682496952111 0 0.21456194289380839 0.3361162946968122 0 0.2110155954103991 0.31367837065480991 0 0.21456194289380839 0.3361162946968122 0 0.2110155954103991 0.31367837065480991 0 0.23046938045110441 0.33642683205013701 0 0.21456194289380839 0.3361162946968122 0 0.22325674002787821 0.34633717375331591 0 0.20675863078908621 0.34858622846666021 0 0.19978515960601689 0.33500682496952111 0 0.21456194289380839 0.3361162946968122 0 0.20675863078908621 0.34858622846666021 0 0.2259717068105678 0.3094617550786456 0 0.2110155954103991 0.31367837065480991 0 0.2330010684391616 0.32332008074323643 0 0.2110155954103991 0.31367837065480991 0 0.2330010684391616 0.32332008074323643 0 0.23046938045110441 0.33642683205013701 0 0.2259717068105678 0.3094617550786456 0 0.2330010684391616 0.32332008074323643 0 0.2434003034573026 0.31865943231725968 0 0.2110155954103991 0.31367837065480991 0 0.23046938045110441 0.33642683205013701 0 0.21456194289380839 0.3361162946968122 0 0.23046938045110441 0.33642683205013701 0 0.22325674002787821 0.34633717375331591 0 0.23046938045110441 0.33642683205013701 0 0.22325674002787821 0.34633717375331591 0 0.24344393384466831 0.33385691108522603 0 0.24409564621427951 0.32007939312167299 0 0.25444107595088311 0.34120581542696748 0 0.24344393384466831 0.33385691108522603 0 0.24362193879533739 0.35180689639839602 0 0.25444107595088311 0.34120581542696748 0 0.24409564621427951 0.32007939312167299 0 0.25444107595088311 0.34120581542696748 0 0.23046938045110441 0.33642683205013701 0 0.24190014017519229 0.32072069280771492 0 0.23046938045110441 0.33642683205013701 0 0.24344393384466831 0.33385691108522603 0 0.24190014017519229 0.32072069280771492 0 0.23046938045110441 0.33642683205013701 0 0.24344393384466831 0.33385691108522603 0 0.24362193879533739 0.35180689639839602 0 0.2330010684391616 0.32332008074323643 0 0.23046938045110441 0.33642683205013701 0 0.24190014017519229 0.32072069280771492 0 0.24344393384466831 0.33385691108522603 0 0.24409564621427951 0.32007939312167299 0 0.24190014017519229 0.32072069280771492 0 0.24409564621427951 0.32007939312167299 0 0.24190014017519229 0.32072069280771492 0 0.2434003034573026 0.31865943231725968 0 0.24409564621427951 0.32007939312167299 0 0.24190014017519229 0.32072069280771492 0 0.2434003034573026 0.31865943231725968 0 0.24190014017519229 0.32072069280771492 0 0.2434003034573026 0.31865943231725968 0 0.24409564621427951 0.32007939312167299 0 0.2330010684391616 0.32332008074323643 0 0.2434003034573026 0.31865943231725968 0 0.24190014017519229 0.32072069280771492 0 0.2330010684391616 0.32332008074323643 0 0.24190014017519229 0.32072069280771492 0 0.24362193879533739 0.35180689639839602 0 0.2314830385436232 0.36047235017888501 0 0.25677449713956552 0.3671869607466593 0 0.2314830385436232 0.36047235017888501 0 0.23247357682054581 0.37647505136151332 0 0.25677449713956552 0.3671869607466593 0 0.23046938045110441 0.33642683205013701 0 0.24362193879533739 0.35180689639839602 0 0.24362193879533739 0.35180689639839602 0 0.22325674002787821 0.34633717375331591 0 0.2314830385436232 0.36047235017888501 0 0.23046938045110441 0.33642683205013701 0 0.24362193879533739 0.35180689639839602 0 0.22325674002787821 0.34633717375331591 0 0.22325674002787821 0.34633717375331591 0 0.2199768366979504 0.35921000277812248 0 0.2314830385436232 0.36047235017888501 0 0.2199768366979504 0.35921000277812248 0 0.2314830385436232 0.36047235017888501 0 0.23247357682054581 0.37647505136151332 0 0.2059121973086189 0.36417921013023818 0 0.23247357682054581 0.37647505136151332 0 0.2199768366979504 0.35921000277812248 0 0.2059121973086189 0.36417921013023818 0 0.23247357682054581 0.37647505136151332 0 0.2059121973086189 0.36417921013023818 0 0.20793047633248141 0.3768383089322857 0 0.23247357682054581 0.37647505136151332 0 0.22325674002787821 0.34633717375331591 0 0.2199768366979504 0.35921000277812248 0 0.20675863078908621 0.34858622846666021 0 0.2199768366979504 0.35921000277812248 0 0.2059121973086189 0.36417921013023818 0 0.20675863078908621 0.34858622846666021 0 0.19978515960601689 0.33500682496952111 0 0.20675863078908621 0.34858622846666021 0 0.17935081779669221 0.35188336889896321 0 0.2059121973086189 0.36417921013023818 0 0.20675863078908621 0.34858622846666021 0 0.17935081779669221 0.35188336889896321 0 0.2059121973086189 0.36417921013023818 0 0.17935081779669221 0.35188336889896321 0 0.2059121973086189 0.36417921013023818 0 0.18643361128087649 0.3654589617298945 0 0.19310454865044069 0.37609917555638789 0 0.2059121973086189 0.36417921013023818 0 0.18643361128087649 0.3654589617298945 0 0.17935081779669221 0.35188336889896321 0 0.2059121973086189 0.36417921013023818 0 0.19310454865044069 0.37609917555638789 0 0.20793047633248141 0.3768383089322857 0 0.18096946422075569 0.37310509349324361 0 0.18643361128087649 0.3654589617298945 0 0.19310454865044069 0.37609917555638789 0 0.18096946422075569 0.37310509349324361 0 0.17305887074715501 0.36208913593408038 0 0.1716533053760318 0.37897624384524248 0 0.18096946422075569 0.37310509349324361 0 0.18643361128087649 0.3654589617298945 0 0.17305887074715501 0.36208913593408038 0 0.18643361128087649 0.3654589617298945 0 0.17305887074715501 0.36208913593408038 0 0.17935081779669221 0.35188336889896321 0 0.17305887074715501 0.36208913593408038 0 0.15955847827432981 0.36475803367264259 0 0.15519594547663221 0.38174669225370078 0 0.17305887074715501 0.36208913593408038 0 0.15519594547663221 0.38174669225370078 0 0.1716533053760318 0.37897624384524248 0 0.17305887074715501 0.36208913593408038 0 0.15519594547663221 0.38174669225370078 0 0.17305887074715501 0.36208913593408038 0 0.15955847827432981 0.36475803367264259 0 0.16593234238826129 0.3585249030653691 0 0.15955847827432981 0.36475803367264259 0 0.15841137558075041 0.35649261633570423 0 0.1538832817724356 0.36107451953833081 0 0.15955847827432981 0.36475803367264259 0 0.15841137558075041 0.35649261633570423 0 0.16593234238826129 0.3585249030653691 0 0.17935081779669221 0.35188336889896321 0 0.15278943828476571 0.33958752766768763 0 0.16143737719263809 0.35000657279540798 0 0.16593234238826129 0.3585249030653691 0 0.17935081779669221 0.35188336889896321 0 0.16143737719263809 0.35000657279540798 0 0.17935081779669221 0.35188336889896321 0 0.15278943828476571 0.33958752766768763 0 0.16143737719263809 0.35000657279540798 0 0.15673848080007219 0.34786378421893888 0 0.15278943828476571 0.33958752766768763 0 0.16143737719263809 0.35000657279540798 0 0.15673848080007219 0.34786378421893888 0 0.1563834365694034 0.35154809504339363 0 0.16143737719263809 0.35000657279540798 0 0.1563834365694034 0.35154809504339363 0 0.15841137558075041 0.35649261633570423 0 0.16143737719263809 0.35000657279540798 0 0.15841137558075041 0.35649261633570423 0 0.16593234238826129 0.3585249030653691 0 0.17305887074715501 0.36208913593408038 0 0.16593234238826129 0.3585249030653691 0 0.17935081779669221 0.35188336889896321 0 0.17935081779669221 0.35188336889896321 0 0.18615059583754739 0.32736758856947512 0 0.16944915175456851 0.32340771574139998 0 0.16517630284256579 0.31093537389155301 0 0.18469693049009839 0.31049400186265291 0 0.16944915175456851 0.32340771574139998 0 0.18469693049009839 0.31049400186265291 0 0.18615059583754739 0.32736758856947512 0 0.16944915175456851 0.32340771574139998 0 0.16944915175456851 0.32340771574139998 0 0.1574907038361868 0.32026297515167879 0 0.15278943828476571 0.33958752766768763 0 0.15391615700153899 0.31174452170334482 0 0.16517630284256579 0.31093537389155301 0 0.1574907038361868 0.32026297515167879 0 0.16517630284256579 0.31093537389155301 0 0.16944915175456851 0.32340771574139998 0 0.1574907038361868 0.32026297515167879 0 0.17935081779669221 0.35188336889896321 0 0.16944915175456851 0.32340771574139998 0 0.15278943828476571 0.33958752766768763 0 0.15278943828476571 0.33958752766768763 0 0.12699927711377751 0.32764870020787812 0 0.1426227428590168 0.34594310822351809 0 0.15278943828476571 0.33958752766768763 0 0.1504292773267176 0.34510242750579312 0 0.1426227428590168 0.34594310822351809 0 0.15278943828476571 0.33958752766768763 0 0.1539803519945443 0.346070460380139 0 0.1504292773267176 0.34510242750579312 0 0.15278943828476571 0.33958752766768763 0 0.1461224692974944 0.31563973675440848 0 0.12699927711377751 0.32764870020787812 0 0.15278943828476571 0.33958752766768763 0 0.1461224692974944 0.31563973675440848 0 0.1574907038361868 0.32026297515167879 0 0.15278943828476571 0.33958752766768763 0 0.1461224692974944 0.31563973675440848 0 0.15391615700153899 0.31174452170334482 0 0.1574907038361868 0.32026297515167879 0 0.1461224692974944 0.31563973675440848 0 0.12272199582340169 0.30731176645537173 0 0.1461224692974944 0.31563973675440848 0 0.12699927711377751 0.32764870020787812 0 0.11904464068305751 0.34247939576895581 0 0.12699927711377751 0.32764870020787812 0 0.1318037841364455 0.35049240264412712 0 0.12699927711377751 0.32764870020787812 0 0.1318037841364455 0.35049240264412712 0 0.1426227428590168 0.34594310822351809 0 0.12699927711377751 0.32764870020787812 0 0.1318037841364455 0.35049240264412712 0 0.15278943828476571 0.33958752766768763 0 0.12699927711377751 0.32764870020787812 0 0.1318037841364455 0.35049240264412712 0 0.1426227428590168 0.34594310822351809 0 0.14386483642728951 0.35404856911198052 0 0.1318037841364455 0.35049240264412712 0 0.14069808444328871 0.36052661773067601 0 0.14386483642728951 0.35404856911198052 0 0.1201977060607657 0.36164614878284479 0 0.1318037841364455 0.35049240264412712 0 0.13660829115911419 0.37333610508037601 0 0.1201977060607657 0.36164614878284479 0 0.1353423981252648 0.37965715708366632 0 0.1201977060607657 0.36164614878284479 0 0.13660829115911419 0.37333610508037601 0 0.1353423981252648 0.37965715708366632 0 0.1228562141210252 0.37132582093148131 0 0.1201977060607657 0.36164614878284479 0 0.1353423981252648 0.37965715708366632 0 0.1318037841364455 0.35049240264412712 0 0.13660829115911419 0.37333610508037601 0 0.14069808444328871 0.36052661773067601 0 0.1318037841364455 0.35049240264412712 0 0.13660829115911419 0.37333610508037601 0 0.13660829115911419 0.37333610508037601 0 0.14069808444328871 0.36052661773067601 0 0.14421546301630789 0.36755559191026999 0 0.14069808444328871 0.36052661773067601 0 0.1470705840239768 0.36092711733208122 0 0.14421546301630789 0.36755559191026999 0 0.15955847827432981 0.36475803367264259 0 0.1508690536807448 0.36862033490867019 0 0.15519594547663221 0.38174669225370078 0 0.1470705840239768 0.36092711733208122 0 0.14421546301630789 0.36755559191026999 0 0.1508690536807448 0.36862033490867019 0 0.13660829115911419 0.37333610508037601 0 0.14421546301630789 0.36755559191026999 0 0.14602018008691639 0.37486475993013429 0 0.14421546301630789 0.36755559191026999 0 0.14602018008691639 0.37486475993013429 0 0.1508690536807448 0.36862033490867019 0 0.15955847827432981 0.36475803367264259 0 0.1508690536807448 0.36862033490867019 0 0.1538832817724356 0.36107451953833081 0 0.1470705840239768 0.36092711733208122 0 0.1508690536807448 0.36862033490867019 0 0.1538832817724356 0.36107451953833081 0 0.15841137558075041 0.35649261633570423 0 0.1538832817724356 0.36107451953833081 0 0.1519795773063293 0.35535112843799121 0 0.1470705840239768 0.36092711733208122 0 0.1538832817724356 0.36107451953833081 0 0.1519795773063293 0.35535112843799121 0 0.1519795773063293 0.35535112843799121 0 0.1529571071606223 0.35095715170734698 0 0.14894135434616629 0.34986744948513981 0 0.1563834365694034 0.35154809504339363 0 0.1519795773063293 0.35535112843799121 0 0.1529571071606223 0.35095715170734698 0 0.1563834365694034 0.35154809504339363 0 0.15841137558075041 0.35649261633570423 0 0.1519795773063293 0.35535112843799121 0 0.15673848080007219 0.34786378421893888 0 0.15278943828476571 0.33958752766768763 0 0.1539803519945443 0.346070460380139 0 0.1563834365694034 0.35154809504339363 0 0.15444964883765039 0.34889185027921799 0 0.1529571071606223 0.35095715170734698 0 0.15673848080007219 0.34786378421893888 0 0.1563834365694034 0.35154809504339363 0 0.15444964883765039 0.34889185027921799 0 0.15444964883765039 0.34889185027921799 0 0.1529571071606223 0.35095715170734698 0 0.15218886766361009 0.34801976004627161 0 0.15673848080007219 0.34786378421893888 0 0.15444964883765039 0.34889185027921799 0 0.1539803519945443 0.346070460380139 0 0.15444964883765039 0.34889185027921799 0 0.1539803519945443 0.346070460380139 0 0.15218886766361009 0.34801976004627161 0 0.1504292773267176 0.34510242750579312 0 0.14894135434616629 0.34986744948513981 0 0.15218886766361009 0.34801976004627161 0 0.1539803519945443 0.346070460380139 0 0.1504292773267176 0.34510242750579312 0 0.15218886766361009 0.34801976004627161 0 0.1529571071606223 0.35095715170734698 0 0.14894135434616629 0.34986744948513981 0 0.15218886766361009 0.34801976004627161 0 0.14894135434616629 0.34986744948513981 0 0.1426227428590168 0.34594310822351809 0 0.14386483642728951 0.35404856911198052 0 0.1504292773267176 0.34510242750579312 0 0.14894135434616629 0.34986744948513981 0 0.1426227428590168 0.34594310822351809 0 0.1519795773063293 0.35535112843799121 0 0.14894135434616629 0.34986744948513981 0 0.14386483642728951 0.35404856911198052 0 0.1470705840239768 0.36092711733208122 0 0.1519795773063293 0.35535112843799121 0 0.14386483642728951 0.35404856911198052 0 0.14069808444328871 0.36052661773067601 0 0.1470705840239768 0.36092711733208122 0 0.14386483642728951 0.35404856911198052 0 0.1545120669518171 0.39905685494955478 0 0.1373330202061093 0.40140424857332141 0 0.14638225966809301 0.41437562946611411 0 0.1417785114138414 0.39651213306251099 0 0.1545120669518171 0.39905685494955478 0 0.15519594547663221 0.38174669225370078 0 0.1417785114138414 0.39651213306251099 0 0.1545120669518171 0.39905685494955478 0 0.1373330202061093 0.40140424857332141 0 0.13660829115911419 0.37333610508037601 0 0.1417785114138414 0.39651213306251099 0 0.14480930372611139 0.381531841195209 0 0.1417785114138414 0.39651213306251099 0 0.15519594547663221 0.38174669225370078 0 0.14602018008691639 0.37486475993013429 0 0.1508690536807448 0.36862033490867019 0 0.15519594547663221 0.38174669225370078 0 0.14602018008691639 0.37486475993013429 0 0.15519594547663221 0.38174669225370078 0 0.14480930372611139 0.381531841195209 0 0.13660829115911419 0.37333610508037601 0 0.14602018008691639 0.37486475993013429 0 0.14480930372611139 0.381531841195209 0 0.1417785114138414 0.39651213306251099 0 0.15519594547663221 0.38174669225370078 0 0.14480930372611139 0.381531841195209 0 0.133642716158303 0.3896580717230429 0 0.1353423981252648 0.37965715708366632 0 0.130380369056077 0.3835655566084073 0 0.13660829115911419 0.37333610508037601 0 0.1417785114138414 0.39651213306251099 0 0.13660829115911419 0.37333610508037601 0 0.1417785114138414 0.39651213306251099 0 0.1353423981252648 0.37965715708366632 0 0.1417785114138414 0.39651213306251099 0 0.133642716158303 0.3896580717230429 0 0.1353423981252648 0.37965715708366632 0 0.1228562141210252 0.37132582093148131 0 0.1353423981252648 0.37965715708366632 0 0.12834497571595049 0.37895238207268178 0 0.1248009215614351 0.38126099366717242 0 0.1228562141210252 0.37132582093148131 0 0.12834497571595049 0.37895238207268178 0 0.1353423981252648 0.37965715708366632 0 0.12834497571595049 0.37895238207268178 0 0.130380369056077 0.3835655566084073 0 0.1248009215614351 0.38126099366717242 0 0.12834497571595049 0.37895238207268178 0 0.130380369056077 0.3835655566084073 0 0.133642716158303 0.3896580717230429 0 0.130380369056077 0.3835655566084073 0 0.12788083109945839 0.38860499240783991 0 0.1248009215614351 0.38126099366717242 0 0.130380369056077 0.3835655566084073 0 0.12788083109945839 0.38860499240783991 0 0.1238054918579997 0.39208600405537319 0 0.12788083109945839 0.38860499240783991 0 0.12953005840455689 0.39549779637852928 0 0.122036774282776 0.39822043035423382 0 0.1238054918579997 0.39208600405537319 0 0.12953005840455689 0.39549779637852928 0 0.133642716158303 0.3896580717230429 0 0.12788083109945839 0.38860499240783991 0 0.12953005840455689 0.39549779637852928 0 0.133642716158303 0.3896580717230429 0 0.12953005840455689 0.39549779637852928 0 0.13547964823768799 0.39568498104787969 0 0.1417785114138414 0.39651213306251099 0 0.133642716158303 0.3896580717230429 0 0.13547964823768799 0.39568498104787969 0 0.12953005840455689 0.39549779637852928 0 0.13547964823768799 0.39568498104787969 0 0.1373330202061093 0.40140424857332141 0 0.1417785114138414 0.39651213306251099 0 0.13547964823768799 0.39568498104787969 0 0.1373330202061093 0.40140424857332141 0 0.1417785114138414 0.39651213306251099 0 0.1373330202061093 0.40140424857332141 0 0.122036774282776 0.39822043035423382 0 0.12953005840455689 0.39549779637852928 0 0.1251947550425104 0.40439573951467739 0 0.12953005840455689 0.39549779637852928 0 0.1373330202061093 0.40140424857332141 0 0.1251947550425104 0.40439573951467739 0 0.1194700949355865 0.4210618048929417 0 0.1373330202061093 0.40140424857332141 0 0.1251947550425104 0.40439573951467739 0 0.1194700949355865 0.4210618048929417 0 0.1373330202061093 0.40140424857332141 0 0.1194700949355865 0.4210618048929417 0 0.1373330202061093 0.40140424857332141 0 0.14638225966809301 0.41437562946611411 0 0.1194700949355865 0.4210618048929417 0 0.1418330014184454 0.43311401494600871 0 0.14638225966809301 0.41437562946611411 0 0.1226530656482125 0.44308759750645899 0 0.1194700949355865 0.4210618048929417 0 0.1418330014184454 0.43311401494600871 0 0.1418330014184454 0.43311401494600871 0 0.16240653167201571 0.42447924313578472 0 0.16297720621760581 0.44304224485657961 0 0.1418330014184454 0.43311401494600871 0 0.14638225966809301 0.41437562946611411 0 0.16240653167201571 0.42447924313578472 0 0.1545120669518171 0.39905685494955478 0 0.14638225966809301 0.41437562946611411 0 0.16386849626205149 0.40774477091638017 0 0.16386849626205149 0.40774477091638017 0 0.16240653167201571 0.42447924313578472 0 0.17573906826204361 0.41688434346112302 0 0.14638225966809301 0.41437562946611411 0 0.16386849626205149 0.40774477091638017 0 0.16240653167201571 0.42447924313578472 0 0.16386849626205149 0.40774477091638017 0 0.17573906826204361 0.41688434346112302 0 0.1759114722096686 0.40275262900861231 0 0.16240653167201571 0.42447924313578472 0 0.18363915820385501 0.43171445516850288 0 0.16297720621760581 0.44304224485657961 0 0.16240653167201571 0.42447924313578472 0 0.18363915820385501 0.43171445516850288 0 0.17573906826204361 0.41688434346112302 0 0.18363915820385501 0.43171445516850288 0 0.17573906826204361 0.41688434346112302 0 0.1892839776604609 0.4076241774890566 0 0.17573906826204361 0.41688434346112302 0 0.1759114722096686 0.40275262900861231 0 0.1892839776604609 0.4076241774890566 0 0.1759114722096686 0.40275262900861231 0 0.18276262560753551 0.38758381345117859 0 0.1892839776604609 0.4076241774890566 0 0.1759114722096686 0.40275262900861231 0 0.16736244110721121 0.39269741561929222 0 0.18276262560753551 0.38758381345117859 0 0.1545120669518171 0.39905685494955478 0 0.15519594547663221 0.38174669225370078 0 0.16736244110721121 0.39269741561929222 0 0.16386849626205149 0.40774477091638017 0 0.1759114722096686 0.40275262900861231 0 0.16736244110721121 0.39269741561929222 0 0.1545120669518171 0.39905685494955478 0 0.16386849626205149 0.40774477091638017 0 0.16736244110721121 0.39269741561929222 0 0.15519594547663221 0.38174669225370078 0 0.16736244110721121 0.39269741561929222 0 0.1716533053760318 0.37897624384524248 0 0.18096946422075569 0.37310509349324361 0 0.1716533053760318 0.37897624384524248 0 0.18276262560753551 0.38758381345117859 0 0.16736244110721121 0.39269741561929222 0 0.1716533053760318 0.37897624384524248 0 0.18276262560753551 0.38758381345117859 0 0.18096946422075569 0.37310509349324361 0 0.18276262560753551 0.38758381345117859 0 0.19310454865044069 0.37609917555638789 0 0.18276262560753551 0.38758381345117859 0 0.19310454865044069 0.37609917555638789 0 0.19583665863792801 0.39107301280863399 0 0.19310454865044069 0.37609917555638789 0 0.19583665863792801 0.39107301280863399 0 0.20793047633248141 0.3768383089322857 0 0.18276262560753551 0.38758381345117859 0 0.19583665863792801 0.39107301280863399 0 0.1892839776604609 0.4076241774890566 0 0.19583665863792801 0.39107301280863399 0 0.20801862543954619 0.39730831062218352 0 0.1892839776604609 0.4076241774890566 0 0.20801862543954619 0.39730831062218352 0 0.23357086543954481 0.40327460245243801 0 0.208106774546614 0.41777831231208151 0 0.20801862543954619 0.39730831062218352 0 0.20793047633248141 0.3768383089322857 0 0.19583665863792801 0.39107301280863399 0 0.20801862543954619 0.39730831062218352 0 0.20793047633248141 0.3768383089322857 0 0.20801862543954619 0.39730831062218352 0 0.20793047633248141 0.3768383089322857 0 0.22039262926428049 0.38739850192277842 0 0.23247357682054581 0.37647505136151332 0 0.22039262926428049 0.38739850192277842 0 0.23357086543954481 0.40327460245243801 0 0.20793047633248141 0.3768383089322857 0 0.23247357682054581 0.37647505136151332 0 0.22039262926428049 0.38739850192277842 0 0.20801862543954619 0.39730831062218352 0 0.22039262926428049 0.38739850192277842 0 0.23357086543954481 0.40327460245243801 0 0.23357086543954481 0.40327460245243801 0 0.25408339161319271 0.40986188697062009 0 0.25903495633247242 0.38877089259278902 0 0.23357086543954481 0.40327460245243801 0 0.25903495633247242 0.38877089259278902 0 0.23247357682054581 0.37647505136151332 0 0.25903495633247242 0.38877089259278902 0 0.25677449713956552 0.3671869607466593 0 0.23247357682054581 0.37647505136151332 0 0.23357086543954481 0.40327460245243801 0 0.25903495633247242 0.38877089259278902 0 0.23247357682054581 0.37647505136151332 0 0.25903495633247242 0.38877089259278902 0 0.24932533014252381 0.42846655246196269 0 0.22779267783281781 0.42273531082743071 0 0.2380726306195573 0.44173963568697661 0 0.24932533014252381 0.42846655246196269 0 0.22779267783281781 0.42273531082743071 0 0.25408339161319271 0.40986188697062009 0 0.23357086543954481 0.40327460245243801 0 0.22779267783281781 0.42273531082743071 0 0.25408339161319271 0.40986188697062009 0 0.23357086543954481 0.40327460245243801 0 0.22779267783281781 0.42273531082743071 0 0.208106774546614 0.41777831231208151 0 0.23357086543954481 0.40327460245243801 0 0.208106774546614 0.41777831231208151 0 0.22779267783281781 0.42273531082743071 0 0.20822479714476649 0.44518554154138851 0 0.2380726306195573 0.44173963568697661 0 0.22779267783281781 0.42273531082743071 0 0.208106774546614 0.41777831231208151 0 0.20822479714476649 0.44518554154138851 0 0.208106774546614 0.41777831231208151 0 0.20822479714476649 0.44518554154138851 0 0.20801862543954619 0.39730831062218352 0 0.208106774546614 0.41777831231208151 0 0.18363915820385501 0.43171445516850288 0 0.208106774546614 0.41777831231208151 0 0.1892839776604609 0.4076241774890566 0 0.20801862543954619 0.39730831062218352 0 0.208106774546614 0.41777831231208151 0 0.1892839776604609 0.4076241774890566 0 0.18363915820385501 0.43171445516850288 0 0.208106774546614 0.41777831231208151 0 0.20822479714476649 0.44518554154138851 0 0.18363915820385501 0.43171445516850288 0 0.208106774546614 0.41777831231208151 0 0.18363915820385501 0.43171445516850288 0 0.20822479714476649 0.44518554154138851 0 0.18719180313125591 0.45369374087437447 0 0.2083428197429219 0.47259277077069539 0 0.18353177886360711 0.47535278601821912 0 0.18719180313125591 0.45369374087437447 0 0.20822479714476649 0.44518554154138851 0 0.2083428197429219 0.47259277077069539 0 0.18719180313125591 0.45369374087437447 0 0.20822479714476649 0.44518554154138851 0 0.2083428197429219 0.47259277077069539 0 0.20822479714476649 0.44518554154138851 0 0.2323758740487826 0.46359611285230368 0 0.2083428197429219 0.47259277077069539 0 0.20822479714476649 0.44518554154138851 0 0.2323758740487826 0.46359611285230368 0 0.2380726306195573 0.44173963568697661 0 0.2323758740487826 0.46359611285230368 0 0.24714112907796831 0.45338177429035259 0 0.25744361575398889 0.46623942981671429 0 0.2323758740487826 0.46359611285230368 0 0.24714112907796831 0.45338177429035259 0 0.2380726306195573 0.44173963568697661 0 0.24714112907796831 0.45338177429035259 0 0.2380726306195573 0.44173963568697661 0 0.25903187889636392 0.44263935422956352 0 0.24932533014252381 0.42846655246196269 0 0.2380726306195573 0.44173963568697661 0 0.25903187889636392 0.44263935422956352 0 0.2383314595681654 0.5 0 0.24307645105495199 0.47978116368728951 0 0.22611748935117981 0.48319400946205809 0 0.2383314595681654 0.5 0 0.24307645105495199 0.47978116368728951 0 0.26376728808802868 0.48291271884290921 0 0.2323758740487826 0.46359611285230368 0 0.24307645105495199 0.47978116368728951 0 0.25744361575398889 0.46623942981671429 0 0.2323758740487826 0.46359611285230368 0 0.22611748935117981 0.48319400946205809 0 0.2083428197429219 0.47259277077069539 0 0.2323758740487826 0.46359611285230368 0 0.24307645105495199 0.47978116368728951 0 0.22611748935117981 0.48319400946205809 0 0.2383314595681654 0.5 0 0.22611748935117981 0.48319400946205809 0 0.20846084234107731 0.50000000000000222 0 0.20846084234107731 0.50000000000000222 0 0.2083428197429219 0.47259277077069539 0 0.1967358146245404 0.48634662226103531 0 0.20846084234107731 0.50000000000000222 0 0.2083428197429219 0.47259277077069539 0 0.22611748935117981 0.48319400946205809 0 0.20846084234107731 0.50000000000000222 0 0.2083428197429219 0.47259277077069539 0 0.2083428197429219 0.47259277077069539 0 0.1967358146245404 0.48634662226103531 0 0.18353177886360711 0.47535278601821912 0 0.1967358146245404 0.48634662226103531 0 0.18501078690800121 0.5 0 0.18353177886360711 0.47535278601821912 0 0.20846084234107731 0.50000000000000222 0 0.1967358146245404 0.48634662226103531 0 0.18501078690800121 0.5 0 0.18501078690800121 0.5 0 0.16716037382035259 0.48320729860838391 0 0.18353177886360711 0.47535278601821912 0 0.18501078690800121 0.5 0 0.161560731474925 0.5 0 0.16716037382035259 0.48320729860838391 0 0.161560731474925 0.5 0 0.16716037382035259 0.48320729860838391 0 0.1476840313703893 0.4804785438703984 0 0.16716037382035259 0.48320729860838391 0 0.1639343657247759 0.46502386354052461 0 0.1476840313703893 0.4804785438703984 0 0.16716037382035259 0.48320729860838391 0 0.18353177886360711 0.47535278601821912 0 0.1639343657247759 0.46502386354052461 0 0.18353177886360711 0.47535278601821912 0 0.18719180313125591 0.45369374087437447 0 0.1639343657247759 0.46502386354052461 0 0.18363915820385501 0.43171445516850288 0 0.18719180313125591 0.45369374087437447 0 0.16297720621760581 0.44304224485657961 0 0.18719180313125591 0.45369374087437447 0 0.16297720621760581 0.44304224485657961 0 0.1639343657247759 0.46502386354052461 0 0.16297720621760581 0.44304224485657961 0 0.1639343657247759 0.46502386354052461 0 0.13891483104521479 0.45824666407131709 0 0.1639343657247759 0.46502386354052461 0 0.13891483104521479 0.45824666407131709 0 0.1476840313703893 0.4804785438703984 0 0.1418330014184454 0.43311401494600871 0 0.16297720621760581 0.44304224485657961 0 0.13891483104521479 0.45824666407131709 0 0.1226530656482125 0.44308759750645899 0 0.1418330014184454 0.43311401494600871 0 0.13891483104521479 0.45824666407131709 0 0.1137750051239922 0.4604795741417082 0 0.13891483104521479 0.45824666407131709 0 0.1259428405829203 0.48023978707085452 0 0.1137750051239922 0.4604795741417082 0 0.1226530656482125 0.44308759750645899 0 0.13891483104521479 0.45824666407131709 0 0.13891483104521479 0.45824666407131709 0 0.1259428405829203 0.48023978707085452 0 0.1476840313703893 0.4804785438703984 0 0.1259428405829203 0.48023978707085452 0 0.13811067604184879 0.50000000000000067 0 0.1476840313703893 0.4804785438703984 0 0.1259428405829203 0.48023978707085452 0 0.13811067604184879 0.50000000000000067 0 0.161560731474925 0.5 0 0.13811067604184879 0.50000000000000067 0 0.1476840313703893 0.4804785438703984 0 0.33200645978123888 0.5 0 0.4039008539447933 0.5 0 0.38124951499701609 0.4734785303135195 0 0.35456119054549018 0.46157568710187941 0 0.33200645978123888 0.5 0 0.38124951499701609 0.4734785303135195 0 0.37345341561318951 0.45407136009255727 0 0.35456119054549018 0.46157568710187941 0 0.38124951499701609 0.4734785303135195 0 0.37345341561318951 0.45407136009255727 0 0.35527813468953351 0.44155734433189919 0 0.37426612281776722 0.43390813374205722 0 0.37345341561318951 0.45407136009255727 0 0.35527813468953351 0.44155734433189919 0 0.35456119054549018 0.46157568710187941 0 0.35527813468953351 0.44155734433189919 0 0.35456119054549018 0.46157568710187941 0 0.33800480915899112 0.44824453579225282 0 0.35527813468953351 0.44155734433189919 0 0.33800480915899112 0.44824453579225282 0 0.33961821023650118 0.43304004345837682 0 0.35456119054549018 0.46157568710187941 0 0.33800480915899112 0.44824453579225282 0 0.35456119054549018 0.46157568710187941 0 0.33257154011350593 0.46710850914328589 0 0.33800480915899112 0.44824453579225282 0 0.33257154011350593 0.46710850914328589 0 0.33800480915899112 0.44824453579225282 0 0.31935128747446712 0.45708532219124981 0 0.33800480915899112 0.44824453579225282 0 0.32144842777249211 0.43491338448262618 0 0.33961821023650118 0.43304004345837682 0 0.33800480915899112 0.44824453579225282 0 0.32144842777249211 0.43491338448262618 0 0.31935128747446712 0.45708532219124981 0 0.30586101247699582 0.44689003922425008 0 0.32144842777249211 0.43491338448262618 0 0.33800480915899112 0.44824453579225282 0 0.31935128747446712 0.45708532219124981 0 0.32144842777249211 0.43491338448262618 0 0.31935128747446712 0.45708532219124981 0 0.31641178350622318 0.47439027206521622 0 0.30456971293168722 0.46375372028620082 0 0.33257154011350593 0.46710850914328589 0 0.31935128747446712 0.45708532219124981 0 0.31641178350622318 0.47439027206521622 0 0.33257154011350593 0.46710850914328589 0 0.33200645978123888 0.5 0 0.31641178350622318 0.47439027206521622 0 0.33200645978123888 0.5 0 0.31641178350622318 0.47439027206521622 0 0.28975762551538231 0.48273231778088699 0 0.35456119054549018 0.46157568710187941 0 0.33257154011350593 0.46710850914328589 0 0.33200645978123888 0.5 0 0.33200645978123888 0.5 0 0.28975762551538231 0.48273231778088699 0 0.27836168249593729 0.5 0 0.31641178350622318 0.47439027206521622 0 0.28975762551538231 0.48273231778088699 0 0.30456971293168722 0.46375372028620082 0 0.28975762551538231 0.48273231778088699 0 0.27579256012895581 0.46819883738428292 0 0.29146685568536751 0.45767065016940062 0 0.28975762551538231 0.48273231778088699 0 0.29146685568536751 0.45767065016940062 0 0.2383314595681654 0.5 0 0.27836168249593729 0.5 0 0.26376728808802868 0.48291271884290921 0 0.28975762551538231 0.48273231778088699 0 0.27836168249593729 0.5 0 0.26376728808802868 0.48291271884290921 0 0.26376728808802868 0.48291271884290921 0 0.25744361575398889 0.46623942981671429 0 0.27579256012895581 0.46819883738428292 0 0.28975762551538231 0.48273231778088699 0 0.26376728808802868 0.48291271884290921 0 0.27579256012895581 0.46819883738428292 0 0.24307645105495199 0.47978116368728951 0 0.26376728808802868 0.48291271884290921 0 0.25744361575398889 0.46623942981671429 0 0.25903187889636392 0.44263935422956352 0 0.25744361575398889 0.46623942981671429 0 0.27530985080467191 0.44942420618731499 0 0.24714112907796831 0.45338177429035259 0 0.25903187889636392 0.44263935422956352 0 0.25744361575398889 0.46623942981671429 0 0.25744361575398889 0.46623942981671429 0 0.27579256012895581 0.46819883738428292 0 0.27530985080467191 0.44942420618731499 0 0.27579256012895581 0.46819883738428292 0 0.27530985080467191 0.44942420618731499 0 0.29146685568536751 0.45767065016940062 0 0.25744361575398889 0.46623942981671429 0 0.27530985080467191 0.44942420618731499 0 0.25903187889636392 0.44263935422956352 0 0.27530985080467191 0.44942420618731499 0 0.27505623100229087 0.4348476740592655 0 0.27530985080467191 0.44942420618731499 0 0.29317608585535382 0.43260898255791452 0 0.27505623100229087 0.4348476740592655 0 0.29146685568536751 0.45767065016940062 0 0.29317608585535382 0.43260898255791452 0 0.29146685568536751 0.45767065016940062 0 0.30586101247699582 0.44689003922425008 0 0.29317608585535382 0.43260898255791452 0 0.27530985080467191 0.44942420618731499 0 0.29317608585535382 0.43260898255791452 0 0.27530985080467191 0.44942420618731499 0 0.29146685568536751 0.45767065016940062 0 0.29317608585535382 0.43260898255791452 0 0.28975762551538231 0.48273231778088699 0 0.29146685568536751 0.45767065016940062 0 0.30456971293168722 0.46375372028620082 0 0.31935128747446712 0.45708532219124981 0 0.30456971293168722 0.46375372028620082 0 0.30586101247699582 0.44689003922425008 0 0.29146685568536751 0.45767065016940062 0 0.30456971293168722 0.46375372028620082 0 0.30586101247699582 0.44689003922425008 0 0.30586101247699582 0.44689003922425008 0 0.30634439312270823 0.43399865985944752 0 0.29317608585535382 0.43260898255791452 0 0.30586101247699582 0.44689003922425008 0 0.30634439312270823 0.43399865985944752 0 0.32144842777249211 0.43491338448262618 0 0.30634439312270823 0.43399865985944752 0 0.30489204638599299 0.4215822331729997 0 0.32144842777249211 0.43491338448262618 0 0.30634439312270823 0.43399865985944752 0 0.30489204638599299 0.4215822331729997 0 0.29317608585535382 0.43260898255791452 0 0.30489204638599299 0.4215822331729997 0 0.29975305932796259 0.41744433537700698 0 0.29317608585535382 0.43260898255791452 0 0.30489204638599299 0.4215822331729997 0 0.29317608585535382 0.43260898255791452 0 0.3118915780135324 0.41323937428140151 0 0.29502947749690772 0.40543354060152631 0 0.3118915780135324 0.41323937428140151 0 0.29502947749690772 0.40543354060152631 0 0.30643336556868711 0.40291455658037362 0 0.3118915780135324 0.41323937428140151 0 0.30113048033892958 0.41268853501446529 0 0.29502947749690772 0.40543354060152631 0 0.3118915780135324 0.41323937428140151 0 0.30435856615922963 0.41588380589548912 0 0.30113048033892958 0.41268853501446529 0 0.3118915780135324 0.41323937428140151 0 0.30643336556868711 0.40291455658037362 0 0.31304947154898299 0.40669669926715551 0 0.3118915780135324 0.41323937428140151 0 0.30489204638599299 0.4215822331729997 0 0.31704646820872218 0.41014281572128303 0 0.30489204638599299 0.4215822331729997 0 0.31704646820872218 0.41014281572128303 0 0.3118915780135324 0.41323937428140151 0 0.30489204638599299 0.4215822331729997 0 0.30435856615922963 0.41588380589548912 0 0.30489204638599299 0.4215822331729997 0 0.29975305932796259 0.41744433537700698 0 0.30435856615922963 0.41588380589548912 0 0.30489204638599299 0.4215822331729997 0 0.29975305932796259 0.41744433537700698 0 0.29975305932796259 0.41744433537700698 0 0.29449886488583898 0.4132136729222724 0 0.29975305932796259 0.41744433537700698 0 0.29461972069701831 0.41144161891690201 0 0.29975305932796259 0.41744433537700698 0 0.30435856615922963 0.41588380589548912 0 0.30113048033892958 0.41268853501446529 0 0.29975305932796259 0.41744433537700698 0 0.30113048033892958 0.41268853501446529 0 0.29461972069701831 0.41144161891690201 0 0.30113048033892958 0.41268853501446529 0 0.29461972069701831 0.41144161891690201 0 0.29502947749690772 0.40543354060152631 0 0.29975305932796259 0.41744433537700698 0 0.29449886488583898 0.4132136729222724 0 0.29317608585535382 0.43260898255791452 0 0.29449886488583898 0.4132136729222724 0 0.28869510622530881 0.41742994381066301 0 0.29317608585535382 0.43260898255791452 0 0.29105124203247501 0.4072687857653895 0 0.29308762653047299 0.40645362269547841 0 0.29461972069701831 0.41144161891690201 0 0.29105124203247501 0.4072687857653895 0 0.29461972069701831 0.41144161891690201 0 0.29105124203247501 0.4072687857653895 0 0.29461972069701831 0.41144161891690201 0 0.29157613572053642 0.41086029969232818 0 0.29105124203247501 0.4072687857653895 0 0.28945550651531449 0.41029675755255129 0 0.29105124203247501 0.4072687857653895 0 0.29157613572053642 0.41086029969232818 0 0.28945550651531449 0.41029675755255129 0 0.29308762653047299 0.40645362269547841 0 0.29461972069701831 0.41144161891690201 0 0.29502947749690772 0.40543354060152631 0 0.29461972069701831 0.41144161891690201 0 0.29502947749690772 0.40543354060152631 0 0.29449886488583898 0.4132136729222724 0 0.29157613572053642 0.41086029969232818 0 0.29975305932796259 0.41744433537700698 0 0.29461972069701831 0.41144161891690201 0 0.29449886488583898 0.4132136729222724 0 0.29461972069701831 0.41144161891690201 0 0.29449886488583898 0.4132136729222724 0 0.29157613572053642 0.41086029969232818 0 0.29461972069701831 0.41144161891690201 0 0.29449886488583898 0.4132136729222724 0 0.29449886488583898 0.4132136729222724 0 0.29157613572053642 0.41086029969232818 0 0.28869510622530881 0.41742994381066301 0 0.29157613572053642 0.41086029969232818 0 0.28945550651531449 0.41029675755255129 0 0.28869510622530881 0.41742994381066301 0 0.28869510622530881 0.41742994381066301 0 0.28274335565410291 0.41318836239633261 0 0.28011726770437861 0.42420925272631138 0 0.28945550651531449 0.41029675755255129 0 0.28274335565410291 0.41318836239633261 0 0.28584645353694782 0.40118251875290162 0 0.28945550651531449 0.41029675755255129 0 0.28869510622530881 0.41742994381066301 0 0.28274335565410291 0.41318836239633261 0 0.29449886488583898 0.4132136729222724 0 0.29317608585535382 0.43260898255791452 0 0.29317608585535382 0.43260898255791452 0 0.27505623100229087 0.4348476740592655 0 0.28011726770437861 0.42420925272631138 0 0.28869510622530881 0.41742994381066301 0 0.29317608585535382 0.43260898255791452 0 0.28011726770437861 0.42420925272631138 0 0.25903187889636392 0.44263935422956352 0 0.27505623100229087 0.4348476740592655 0 0.26764607175068739 0.42535657459522308 0 0.27505623100229087 0.4348476740592655 0 0.26764607175068739 0.42535657459522308 0 0.28011726770437861 0.42420925272631138 0 0.28274335565410291 0.41318836239633261 0 0.28011726770437861 0.42420925272631138 0 0.27182089177589941 0.41102402831496537 0 0.28274335565410291 0.41318836239633261 0 0.27182089177589941 0.41102402831496537 0 0.28584645353694782 0.40118251875290162 0 0.26764607175068739 0.42535657459522308 0 0.28011726770437861 0.42420925272631138 0 0.27182089177589941 0.41102402831496537 0 0.24932533014252381 0.42846655246196269 0 0.26764607175068739 0.42535657459522308 0 0.25408339161319271 0.40986188697062009 0 0.26764607175068739 0.42535657459522308 0 0.27182089177589941 0.41102402831496537 0 0.25408339161319271 0.40986188697062009 0 0.24932533014252381 0.42846655246196269 0 0.25903187889636392 0.44263935422956352 0 0.26764607175068739 0.42535657459522308 0 0.25903495633247242 0.38877089259278902 0 0.2699270554837932 0.38256702509492291 0 0.25677449713956552 0.3671869607466593 0 0.25903495633247242 0.38877089259278902 0 0.2699270554837932 0.38256702509492291 0 0.27182089177589941 0.41102402831496537 0 0.25408339161319271 0.40986188697062009 0 0.25903495633247242 0.38877089259278902 0 0.27182089177589941 0.41102402831496537 0 0.25903495633247242 0.38877089259278902 0 0.28584645353694782 0.40118251875290162 0 0.25903495633247242 0.38877089259278902 0 0.2699270554837932 0.38256702509492291 0 0.28584645353694782 0.40118251875290162 0 0.2699270554837932 0.38256702509492291 0 0.28584645353694782 0.40118251875290162 0 0.25903495633247242 0.38877089259278902 0 0.28584645353694782 0.40118251875290162 0 0.2699270554837932 0.38256702509492291 0 0.28164748035231918 0.3833691337288414 0 0.28584645353694782 0.40118251875290162 0 0.2699270554837932 0.38256702509492291 0 0.27204027827202459 0.37769940366659382 0 0.2704138720414444 0.37159989170313429 0 0.2699270554837932 0.38256702509492291 0 0.27204027827202459 0.37769940366659382 0 0.275107036573007 0.38002428949633388 0 0.27204027827202459 0.37769940366659382 0 0.27658869331385272 0.37658954418192858 0 0.2704138720414444 0.37159989170313429 0 0.27204027827202459 0.37769940366659382 0 0.27658869331385272 0.37658954418192858 0 0.275107036573007 0.38002428949633388 0 0.27658869331385272 0.37658954418192858 0 0.28164748035231918 0.3833691337288414 0 0.28255141910243181 0.36881539236457972 0 0.2699270554837932 0.38256702509492291 0 0.275107036573007 0.38002428949633388 0 0.28164748035231918 0.3833691337288414 0 0.27658869331385272 0.37658954418192858 0 0.275107036573007 0.38002428949633388 0 0.28164748035231918 0.3833691337288414 0 0.28164748035231918 0.3833691337288414 0 0.29547707735069001 0.39887058673173331 0 0.29710586311966519 0.37498843892672162 0 0.28164748035231918 0.3833691337288414 0 0.29710586311966519 0.37498843892672162 0 0.28255141910243181 0.36881539236457972 0 0.29547707735069001 0.39887058673173331 0 0.29710586311966519 0.37498843892672162 0 0.28164748035231918 0.3833691337288414 0 0.28584645353694782 0.40118251875290162 0 0.29547707735069001 0.39887058673173331 0 0.29105124203247501 0.4072687857653895 0 0.28945550651531449 0.41029675755255129 0 0.28584645353694782 0.40118251875290162 0 0.29105124203247501 0.4072687857653895 0 0.28584645353694782 0.40118251875290162 0 0.28584645353694782 0.40118251875290162 0 0.29547707735069001 0.39887058673173331 0 0.29260892758054219 0.40431301531214081 0 0.29547707735069001 0.39887058673173331 0 0.29502947749690772 0.40543354060152631 0 0.29547707735069001 0.39887058673173331 0 0.29260892758054219 0.40431301531214081 0 0.29547707735069001 0.39887058673173331 0 0.29502947749690772 0.40543354060152631 0 0.29260892758054219 0.40431301531214081 0 0.29502947749690772 0.40543354060152631 0 0.29260892758054219 0.40431301531214081 0 0.29308762653047299 0.40645362269547841 0 0.29502947749690772 0.40543354060152631 0 0.29260892758054219 0.40431301531214081 0 0.29105124203247501 0.4072687857653895 0 0.29260892758054219 0.40431301531214081 0 0.29105124203247501 0.4072687857653895 0 0.29308762653047299 0.40645362269547841 0 0.29260892758054219 0.40431301531214081 0 0.28584645353694782 0.40118251875290162 0 0.29260892758054219 0.40431301531214081 0 0.29105124203247501 0.4072687857653895 0 0.28584645353694782 0.40118251875290162 0 0.29260892758054219 0.40431301531214081 0 0.30643336556868711 0.40291455658037362 0 0.30535711333293492 0.38007675863104462 0 0.31565461397772798 0.39987619259500312 0 0.29547707735069001 0.39887058673173331 0 0.30643336556868711 0.40291455658037362 0 0.30535711333293492 0.38007675863104462 0 0.29547707735069001 0.39887058673173331 0 0.29502947749690772 0.40543354060152631 0 0.30643336556868711 0.40291455658037362 0 0.30643336556868711 0.40291455658037362 0 0.31565461397772798 0.39987619259500312 0 0.31304947154898299 0.40669669926715551 0 0.29547707735069001 0.39887058673173331 0 0.30535711333293492 0.38007675863104462 0 0.29710586311966519 0.37498843892672162 0 0.29547707735069001 0.39887058673173331 0 0.30535711333293492 0.38007675863104462 0 0.30535711333293492 0.38007675863104462 0 0.32920089003145142 0.39870339826956619 0 0.30535711333293492 0.38007675863104462 0 0.3267893265351946 0.38056067495598361 0 0.32920089003145142 0.39870339826956619 0 0.30535711333293492 0.38007675863104462 0 0.3267893265351946 0.38056067495598361 0 0.3267589851183767 0.36776821452386338 0 0.3267893265351946 0.38056067495598361 0 0.34096754860442691 0.38762893324019271 0 0.33687080386773549 0.37546358871643137 0 0.3267893265351946 0.38056067495598361 0 0.34096754860442691 0.38762893324019271 0 0.32920089003145142 0.39870339826956619 0 0.34096754860442691 0.38762893324019271 0 0.33687080386773549 0.37546358871643137 0 0.34963810352005931 0.37576464290079881 0 0.32920089003145142 0.39870339826956619 0 0.35173350642461049 0.41630576600580999 0 0.34835836177175988 0.39888788145175103 0 0.34096754860442691 0.38762893324019271 0 0.32920089003145142 0.39870339826956619 0 0.34835836177175988 0.39888788145175103 0 0.34096754860442691 0.38762893324019271 0 0.32920089003145142 0.39870339826956619 0 0.32920089003145142 0.39870339826956619 0 0.31565461397772798 0.39987619259500312 0 0.31704646820872218 0.41014281572128303 0 0.32920089003145142 0.39870339826956619 0 0.31704646820872218 0.41014281572128303 0 0.30535711333293492 0.38007675863104462 0 0.32920089003145142 0.39870339826956619 0 0.31565461397772798 0.39987619259500312 0 0.31565461397772798 0.39987619259500312 0 0.31304947154898299 0.40669669926715551 0 0.31704646820872218 0.41014281572128303 0 0.31704646820872218 0.41014281572128303 0 0.32278595610884098 0.42092809450220853 0 0.33391630719095478 0.41589031279526911 0 0.3118915780135324 0.41323937428140151 0 0.31304947154898299 0.40669669926715551 0 0.31704646820872218 0.41014281572128303 0 0.30489204638599299 0.4215822331729997 0 0.31704646820872218 0.41014281572128303 0 0.32278595610884098 0.42092809450220853 0 0.32920089003145142 0.39870339826956619 0 0.31704646820872218 0.41014281572128303 0 0.33391630719095478 0.41589031279526911 0 0.30489204638599299 0.4215822331729997 0 0.32278595610884098 0.42092809450220853 0 0.32144842777249211 0.43491338448262618 0 0.30489204638599299 0.4215822331729997 0 0.32144842777249211 0.43491338448262618 0 0.32278595610884098 0.42092809450220853 0 0.32144842777249211 0.43491338448262618 0 0.33195537040394368 0.42562451770215881 0 0.32144842777249211 0.43491338448262618 0 0.33195537040394368 0.42562451770215881 0 0.33961821023650118 0.43304004345837682 0 0.33195537040394368 0.42562451770215881 0 0.3420079507109291 0.4233507532723132 0 0.33961821023650118 0.43304004345837682 0 0.3420079507109291 0.4233507532723132 0 0.33961821023650118 0.43304004345837682 0 0.34852962537784599 0.42921190182690577 0 0.3420079507109291 0.4233507532723132 0 0.33391630719095478 0.41589031279526911 0 0.35173350642461049 0.41630576600580999 0 0.32920089003145142 0.39870339826956619 0 0.33391630719095478 0.41589031279526911 0 0.35173350642461049 0.41630576600580999 0 0.32920089003145142 0.39870339826956619 0 0.35173350642461049 0.41630576600580999 0 0.32278595610884098 0.42092809450220853 0 0.33195537040394368 0.42562451770215881 0 0.33391630719095478 0.41589031279526911 0 0.33195537040394368 0.42562451770215881 0 0.3420079507109291 0.4233507532723132 0 0.33391630719095478 0.41589031279526911 0 0.35173350642461049 0.41630576600580999 0 0.34835836177175988 0.39888788145175103 0 0.35745458191178708 0.40603946031775118 0 0.35173350642461049 0.41630576600580999 0 0.35841268919250319 0.41662087790198288 0 0.35745458191178708 0.40603946031775118 0 0.35527813468953351 0.44155734433189919 0 0.33961821023650118 0.43304004345837682 0 0.34852962537784599 0.42921190182690577 0 0.3420079507109291 0.4233507532723132 0 0.35173350642461049 0.41630576600580999 0 0.34852962537784599 0.42921190182690577 0 0.35173350642461049 0.41630576600580999 0 0.34852962537784599 0.42921190182690577 0 0.35851356907694942 0.43084974830926542 0 0.35527813468953351 0.44155734433189919 0 0.34852962537784599 0.42921190182690577 0 0.35851356907694942 0.43084974830926542 0 0.35173350642461049 0.41630576600580999 0 0.35851356907694942 0.43084974830926542 0 0.37426612281776722 0.43390813374205722 0 0.35173350642461049 0.41630576600580999 0 0.37426612281776722 0.43390813374205722 0 0.35527813468953351 0.44155734433189919 0 0.35851356907694942 0.43084974830926542 0 0.37426612281776722 0.43390813374205722 0 0.37426612281776722 0.43390813374205722 0 0.36624280198345521 0.41316031018620869 0 0.38206111242543861 0.42111915346048762 0 0.35173350642461049 0.41630576600580999 0 0.35841268919250319 0.41662087790198288 0 0.37426612281776722 0.43390813374205722 0 0.35841268919250319 0.41662087790198288 0 0.36624280198345521 0.41316031018620869 0 0.37644478834369538 0.39990109160760751 0 0.35841268919250319 0.41662087790198288 0 0.37644478834369538 0.39990109160760751 0 0.35841268919250319 0.41662087790198288 0 0.37426612281776722 0.43390813374205722 0 0.36624280198345521 0.41316031018620869 0 0.35841268919250319 0.41662087790198288 0 0.35745458191178708 0.40603946031775118 0 0.37644478834369538 0.39990109160760751 0 0.36402527354992209 0.38418730784978777 0 0.35820055409578272 0.39634389975250278 0 0.37644478834369538 0.39990109160760751 0 0.35745458191178708 0.40603946031775118 0 0.35820055409578272 0.39634389975250278 0 0.37644478834369538 0.39990109160760751 0 0.36402527354992209 0.38418730784978777 0 0.38026122572135079 0.3855812713300395 0 0.37644478834369538 0.39990109160760751 0 0.36402527354992209 0.38418730784978777 0 0.35259308956250079 0.38830583112468331 0 0.35820055409578272 0.39634389975250278 0 0.36402527354992209 0.38418730784978777 0 0.34963810352005931 0.37576464290079881 0 0.3617772970429175 0.3664881626226118 0 0.36402527354992209 0.38418730784978777 0 0.35259308956250079 0.38830583112468331 0 0.34963810352005931 0.37576464290079881 0 0.34096754860442691 0.38762893324019271 0 0.35259308956250079 0.38830583112468331 0 0.34963810352005931 0.37576464290079881 0 0.34096754860442691 0.38762893324019271 0 0.35259308956250079 0.38830583112468331 0 0.34835836177175988 0.39888788145175103 0 0.34835836177175988 0.39888788145175103 0 0.35745458191178708 0.40603946031775118 0 0.35820055409578272 0.39634389975250278 0 0.35259308956250079 0.38830583112468331 0 0.34835836177175988 0.39888788145175103 0 0.35820055409578272 0.39634389975250278 0 0.35291116921171761 0.34997118265257909 0 0.35207353371078182 0.36095744046386541 0 0.36596009824664688 0.35336137002200152 0 0.35291116921171761 0.34997118265257909 0 0.34425042465606531 0.34551988485033502 0 0.34257800558338891 0.35528885569764779 0 0.35291116921171761 0.34997118265257909 0 0.34425042465606531 0.34551988485033502 0 0.34725201247428938 0.33650543463957772 0 0.35291116921171761 0.34997118265257909 0 0.35207353371078182 0.36095744046386541 0 0.34257800558338891 0.35528885569764779 0 0.35207353371078182 0.36095744046386541 0 0.34257800558338891 0.35528885569764779 0 0.34020005556062022 0.36559547796131853 0 0.34963810352005931 0.37576464290079881 0 0.35207353371078182 0.36095744046386541 0 0.34020005556062022 0.36559547796131853 0 0.34963810352005931 0.37576464290079881 0 0.35207353371078182 0.36095744046386541 0 0.3617772970429175 0.3664881626226118 0 0.35207353371078182 0.36095744046386541 0 0.3617772970429175 0.3664881626226118 0 0.36596009824664688 0.35336137002200152 0 0.3617772970429175 0.3664881626226118 0 0.36596009824664688 0.35336137002200152 0 0.37951797562987188 0.36297222726640688 0 0.36402527354992209 0.38418730784978777 0 0.3617772970429175 0.3664881626226118 0 0.37951797562987188 0.36297222726640688 0 0.36596009824664688 0.35336137002200152 0 0.37683016966330413 0.35167770670410359 0 0.37951797562987188 0.36297222726640688 0 0.36596009824664688 0.35336137002200152 0 0.37326990258408232 0.34203288027681339 0 0.36040848805977538 0.33956218043777903 0 0.35291116921171761 0.34997118265257909 0 0.36596009824664688 0.35336137002200152 0 0.36040848805977538 0.33956218043777903 0 0.36596009824664688 0.35336137002200152 0 0.37326990258408232 0.34203288027681339 0 0.37683016966330413 0.35167770670410359 0 0.37326990258408232 0.34203288027681339 0 0.36040848805977538 0.33956218043777903 0 0.36424310144416511 0.32213284182668722 0 0.37326990258408232 0.34203288027681339 0 0.36424310144416511 0.32213284182668722 0 0.38263009593359038 0.33378942036267573 0 0.36424310144416511 0.32213284182668722 0 0.36084094352288848 0.31005712518645329 0 0.38845870662102688 0.31402938643627948 0 0.36424310144416511 0.32213284182668722 0 0.33832641730666507 0.32419843889697691 0 0.36084094352288848 0.31005712518645329 0 0.36424310144416511 0.32213284182668722 0 0.34725201247428938 0.33650543463957772 0 0.33832641730666507 0.32419843889697691 0 0.33832641730666507 0.32419843889697691 0 0.33322318042475019 0.30608486393662709 0 0.36084094352288848 0.31005712518645329 0 0.36424310144416511 0.32213284182668722 0 0.33832641730666507 0.32419843889697691 0 0.36040848805977538 0.33956218043777903 0 0.36424310144416511 0.32213284182668722 0 0.34725201247428938 0.33650543463957772 0 0.35291116921171761 0.34997118265257909 0 0.36040848805977538 0.33956218043777903 0 0.34725201247428938 0.33650543463957772 0 0.34425042465606531 0.34551988485033502 0 0.33948507646798259 0.33620079982269829 0 0.33468329446119433 0.34611894491369333 0 0.34425042465606531 0.34551988485033502 0 0.34725201247428938 0.33650543463957772 0 0.33948507646798259 0.33620079982269829 0 0.33948507646798259 0.33620079982269829 0 0.33260759119213867 0.32841395582659932 0 0.33468329446119433 0.34611894491369333 0 0.33260759119213867 0.32841395582659932 0 0.3189918521702384 0.35425036366256529 0 0.33468329446119433 0.34611894491369333 0 0.34725201247428938 0.33650543463957772 0 0.33948507646798259 0.33620079982269829 0 0.33832641730666507 0.32419843889697691 0 0.33948507646798259 0.33620079982269829 0 0.33260759119213867 0.32841395582659932 0 0.33832641730666507 0.32419843889697691 0 0.33832641730666507 0.32419843889697691 0 0.31834133699144418 0.31155866740680349 0 0.33322318042475019 0.30608486393662709 0 0.33832641730666507 0.32419843889697691 0 0.31240973316916509 0.32626403596726722 0 0.31834133699144418 0.31155866740680349 0 0.33832641730666507 0.32419843889697691 0 0.31240973316916509 0.32626403596726722 0 0.33260759119213867 0.32841395582659932 0 0.33832641730666507 0.32419843889697691 0 0.31240973316916509 0.32626403596726722 0 0.33260759119213867 0.32841395582659932 0 0.3189918521702384 0.35425036366256529 0 0.33260759119213867 0.32841395582659932 0 0.31565305212153622 0.33577695972960381 0 0.3189918521702384 0.35425036366256529 0 0.33260759119213867 0.32841395582659932 0 0.31565305212153622 0.33577695972960381 0 0.31240973316916509 0.32626403596726722 0 0.31565305212153622 0.33577695972960381 0 0.31240973316916509 0.32626403596726722 0 0.31565305212153622 0.33577695972960381 0 0.3189918521702384 0.35425036366256529 0 0.31012961018097368 0.34454798623135058 0 0.3189918521702384 0.35425036366256529 0 0.33468329446119433 0.34611894491369333 0 0.33264243857876369 0.35780437135181759 0 0.33468329446119433 0.34611894491369333 0 0.33264243857876369 0.35780437135181759 0 0.34257800558338891 0.35528885569764779 0 0.34425042465606531 0.34551988485033502 0 0.33468329446119433 0.34611894491369333 0 0.34257800558338891 0.35528885569764779 0 0.33687080386773549 0.37546358871643137 0 0.34963810352005931 0.37576464290079881 0 0.34020005556062022 0.36559547796131853 0 0.33264243857876369 0.35780437135181759 0 0.34257800558338891 0.35528885569764779 0 0.34020005556062022 0.36559547796131853 0 0.33264243857876369 0.35780437135181759 0 0.34020005556062022 0.36559547796131853 0 0.3267589851183767 0.36776821452386338 0 0.33687080386773549 0.37546358871643137 0 0.34020005556062022 0.36559547796131853 0 0.3267589851183767 0.36776821452386338 0 0.3267893265351946 0.38056067495598361 0 0.33687080386773549 0.37546358871643137 0 0.3267589851183767 0.36776821452386338 0 0.30535711333293492 0.38007675863104462 0 0.3189918521702384 0.35425036366256529 0 0.3267589851183767 0.36776821452386338 0 0.3189918521702384 0.35425036366256529 0 0.33264243857876369 0.35780437135181759 0 0.3267589851183767 0.36776821452386338 0 0.3189918521702384 0.35425036366256529 0 0.29710586311966519 0.37498843892672162 0 0.29873464888864021 0.35110629112170988 0 0.29710586311966519 0.37498843892672162 0 0.29873464888864021 0.35110629112170988 0 0.30535711333293492 0.38007675863104462 0 0.3189918521702384 0.35425036366256529 0 0.29710586311966519 0.37498843892672162 0 0.30535711333293492 0.38007675863104462 0 0.3189918521702384 0.35425036366256529 0 0.3189918521702384 0.35425036366256529 0 0.31012961018097368 0.34454798623135058 0 0.29873464888864021 0.35110629112170988 0 0.31012961018097368 0.34454798623135058 0 0.29873464888864021 0.35110629112170988 0 0.30713888754348029 0.33705833041152361 0 0.29873464888864021 0.35110629112170988 0 0.28036599096640957 0.35376788439104112 0 0.28722229448336278 0.34080874887309248 0 0.29873464888864021 0.35110629112170988 0 0.28255141910243181 0.36881539236457972 0 0.28036599096640957 0.35376788439104112 0 0.29710586311966519 0.37498843892672162 0 0.29873464888864021 0.35110629112170988 0 0.28255141910243181 0.36881539236457972 0 0.27658869331385272 0.37658954418192858 0 0.28255141910243181 0.36881539236457972 0 0.2704138720414444 0.37159989170313429 0 0.28255141910243181 0.36881539236457972 0 0.2704138720414444 0.37159989170313429 0 0.27315299171431079 0.36181997400462312 0 0.2699270554837932 0.38256702509492291 0 0.2704138720414444 0.37159989170313429 0 0.25677449713956552 0.3671869607466593 0 0.2704138720414444 0.37159989170313429 0 0.27315299171431079 0.36181997400462312 0 0.26478650568748691 0.36233223773226181 0 0.28255141910243181 0.36881539236457972 0 0.27315299171431079 0.36181997400462312 0 0.28036599096640957 0.35376788439104112 0 0.27315299171431079 0.36181997400462312 0 0.28036599096640957 0.35376788439104112 0 0.26764717077378142 0.3525844638320984 0 0.28036599096640957 0.35376788439104112 0 0.27375856649630792 0.343328531160357 0 0.28722229448336278 0.34080874887309248 0 0.28036599096640957 0.35376788439104112 0 0.26764717077378142 0.3525844638320984 0 0.27375856649630792 0.343328531160357 0 0.26764717077378142 0.3525844638320984 0 0.26537266581322888 0.34244303911966462 0 0.27375856649630792 0.343328531160357 0 0.27315299171431079 0.36181997400462312 0 0.26764717077378142 0.3525844638320984 0 0.26478650568748691 0.36233223773226181 0 0.26478650568748691 0.36233223773226181 0 0.25444107595088311 0.34120581542696748 0 0.26764717077378142 0.3525844638320984 0 0.26478650568748691 0.36233223773226181 0 0.25444107595088311 0.34120581542696748 0 0.25490600439331818 0.35563297757607121 0 0.26478650568748691 0.36233223773226181 0 0.25444107595088311 0.34120581542696748 0 0.26764717077378142 0.3525844638320984 0 0.25444107595088311 0.34120581542696748 0 0.26537266581322888 0.34244303911966462 0 0.24362193879533739 0.35180689639839602 0 0.25490600439331818 0.35563297757607121 0 0.25444107595088311 0.34120581542696748 0 0.24362193879533739 0.35180689639839602 0 0.25490600439331818 0.35563297757607121 0 0.25677449713956552 0.3671869607466593 0 0.24362193879533739 0.35180689639839602 0 0.25677449713956552 0.3671869607466593 0 0.2699270554837932 0.38256702509492291 0 0.25677449713956552 0.3671869607466593 0 0.25490600439331818 0.35563297757607121 0 0.25677449713956552 0.3671869607466593 0 0.26478650568748691 0.36233223773226181 0 0.2704138720414444 0.37159989170313429 0 0.25677449713956552 0.3671869607466593 0 0.26478650568748691 0.36233223773226181 0 0.24409564621427951 0.32007939312167299 0 0.2633985401261637 0.31444108487519912 0 0.2633985401261637 0.31444108487519912 0 0.25689477808081729 0.32709490987076878 0 0.26564385003194302 0.33265334605923552 0 0.2434003034573026 0.31865943231725968 0 0.24409564621427951 0.32007939312167299 0 0.2633985401261637 0.31444108487519912 0 0.24409564621427951 0.32007939312167299 0 0.2633985401261637 0.31444108487519912 0 0.25689477808081729 0.32709490987076878 0 0.24409564621427951 0.32007939312167299 0 0.25689477808081729 0.32709490987076878 0 0.25444107595088311 0.34120581542696748 0 0.25444107595088311 0.34120581542696748 0 0.26537266581322888 0.34244303911966462 0 0.26564385003194302 0.33265334605923552 0 0.25689477808081729 0.32709490987076878 0 0.25444107595088311 0.34120581542696748 0 0.26564385003194302 0.33265334605923552 0 0.26564385003194302 0.33265334605923552 0 0.27375856649630792 0.343328531160357 0 0.28288883140784132 0.32861689437565639 0 0.26537266581322888 0.34244303911966462 0 0.26564385003194302 0.33265334605923552 0 0.27375856649630792 0.343328531160357 0 0.2633985401261637 0.31444108487519912 0 0.28288883140784132 0.32861689437565639 0 0.28270143403804782 0.30880277662872507 0 0.2633985401261637 0.31444108487519912 0 0.26564385003194302 0.33265334605923552 0 0.28288883140784132 0.32861689437565639 0 0.30036343465761189 0.32722414331669819 0 0.30200432794993198 0.30316446838225158 0 0.28270143403804782 0.30880277662872507 0 0.28288883140784132 0.32861689437565639 0 0.30036343465761189 0.32722414331669819 0 0.28288883140784132 0.32861689437565639 0 0.30036343465761189 0.32722414331669819 0 0.28270143403804782 0.30880277662872507 0 0.28722229448336278 0.34080874887309248 0 0.28288883140784132 0.32861689437565639 0 0.30036343465761189 0.32722414331669819 0 0.29873464888864021 0.35110629112170988 0 0.28722229448336278 0.34080874887309248 0 0.30036343465761189 0.32722414331669819 0 0.27375856649630792 0.343328531160357 0 0.28722229448336278 0.34080874887309248 0 0.28288883140784132 0.32861689437565639 0 0.29873464888864021 0.35110629112170988 0 0.30036343465761189 0.32722414331669819 0 0.29873464888864021 0.35110629112170988 0 0.30713888754348029 0.33705833041152361 0 0.30036343465761189 0.32722414331669819 0 0.31565305212153622 0.33577695972960381 0 0.30713888754348029 0.33705833041152361 0 0.31240973316916509 0.32626403596726722 0 0.30713888754348029 0.33705833041152361 0 0.30036343465761189 0.32722414331669819 0 0.31240973316916509 0.32626403596726722 0 0.31565305212153622 0.33577695972960381 0 0.31012961018097368 0.34454798623135058 0 0.30713888754348029 0.33705833041152361 0 0.31240973316916509 0.32626403596726722 0 0.30560541732661178 0.30211260268680112 0 0.31834133699144418 0.31155866740680349 0 0.30036343465761189 0.32722414331669819 0 0.31240973316916509 0.32626403596726722 0 0.30200432794993198 0.30316446838225158 0 0.30036343465761189 0.32722414331669819 0 0.30200432794993198 0.30316446838225158 0 0.31240973316916509 0.32626403596726722 0 0.30560541732661178 0.30211260268680112 0 0.30036343465761189 0.32722414331669819 0 0.31240973316916509 0.32626403596726722 0 0.31240973316916509 0.32626403596726722 0 0.30560541732661178 0.30211260268680112 0 0.30200432794993198 0.30316446838225158 0 0.30560541732661178 0.30211260268680112 0 0.30410185710303989 0.30189634570785268 0 0.30410185710303989 0.30189634570785268 0 0.30211035052260471 0.30160990743296101 0 0.30200432794993198 0.30316446838225158 0 0.30560541732661178 0.30211260268680112 0 0.30200432794993198 0.30316446838225158 0 0.30410185710303989 0.30189634570785268 0 0.30211035052260471 0.30160990743296101 0 0.30560541732661178 0.30211260268680112 0 0.30410185710303989 0.30189634570785268 0 0.30200432794993198 0.30316446838225158 0 0.30211035052260471 0.30160990743296101 0 0.30200432794993198 0.30316446838225158 0 0.30410185710303989 0.30189634570785268 0 0.30242604344626117 0.29698104511888002 0 0.30211035052260471 0.30160990743296101 0 0.30242604344626117 0.29698104511888002 0 0.30560541732661178 0.30211260268680112 0 0.30410185710303989 0.30189634570785268 0 0.30242604344626117 0.29698104511888002 0 0.30410185710303989 0.30189634570785268 0 0.30211035052260471 0.30160990743296101 0 0.30242604344626117 0.29698104511888002 0 0.30211035052260471 0.30160990743296101 0 0.30242604344626117 0.29698104511888002 0 0.29500862157009938 0.30058846617341489 0 0.30211035052260471 0.30160990743296101 0 0.29500862157009938 0.30058846617341489 0 0.30211035052260471 0.30160990743296101 0 0.30200432794993198 0.30316446838225158 0 0.29500862157009938 0.30058846617341489 0 0.30242604344626117 0.29698104511888002 0 0.30391666313851617 0.27512476390030183 0 0.30242604344626117 0.29698104511888002 0 0.29552763112984481 0.27674742905740118 0 0.30391666313851617 0.27512476390030183 0 0.30242604344626117 0.29698104511888002 0 0.3112514413175817 0.29026934197235099 0 0.30391666313851617 0.27512476390030183 0 0.30242604344626117 0.29698104511888002 0 0.29552763112984481 0.27674742905740118 0 0.30560541732661178 0.30211260268680112 0 0.30242604344626117 0.29698104511888002 0 0.3112514413175817 0.29026934197235099 0 0.30242604344626117 0.29698104511888002 0 0.29076513543691768 0.28939852083497331 0 0.29552763112984481 0.27674742905740118 0 0.29076513543691768 0.28939852083497331 0 0.29500862157009938 0.30058846617341489 0 0.28413524928310913 0.29922467439641609 0 0.30242604344626117 0.29698104511888002 0 0.29076513543691768 0.28939852083497331 0 0.29500862157009938 0.30058846617341489 0 0.29076513543691768 0.28939852083497331 0 0.28413524928310913 0.29922467439641609 0 0.27626512682778948 0.29313810373083149 0 0.30200432794993198 0.30316446838225158 0 0.29500862157009938 0.30058846617341489 0 0.28270143403804782 0.30880277662872507 0 0.30200432794993198 0.30316446838225158 0 0.28270143403804782 0.30880277662872507 0 0.29500862157009938 0.30058846617341489 0 0.28413524928310913 0.29922467439641609 0 0.28270143403804782 0.30880277662872507 0 0.2633985401261637 0.31444108487519912 0 0.28270143403804782 0.30880277662872507 0 0.27272750336506618 0.30258947742020531 0 0.27626512682778948 0.29313810373083149 0 0.2584766085760114 0.29794422587681391 0 0.2633985401261637 0.31444108487519912 0 0.28270143403804782 0.30880277662872507 0 0.27272750336506618 0.30258947742020531 0 0.28413524928310913 0.29922467439641609 0 0.28270143403804782 0.30880277662872507 0 0.27272750336506618 0.30258947742020531 0 0.28413524928310913 0.29922467439641609 0 0.27272750336506618 0.30258947742020531 0 0.27626512682778948 0.29313810373083149 0 0.27626512682778948 0.29313810373083149 0 0.2584766085760114 0.29794422587681391 0 0.27355291369472051 0.27722901943636852 0 0.29076513543691768 0.28939852083497331 0 0.27626512682778948 0.29313810373083149 0 0.27355291369472051 0.27722901943636852 0 0.2584766085760114 0.29794422587681391 0 0.27355291369472051 0.27722901943636852 0 0.24481726326944989 0.28301452540910571 0 0.2584766085760114 0.29794422587681391 0 0.27355291369472051 0.27722901943636852 0 0.2633985401261637 0.31444108487519912 0 0.27272750336506618 0.30258947742020531 0 0.2584766085760114 0.29794422587681391 0 0.2434003034573026 0.31865943231725968 0 0.2633985401261637 0.31444108487519912 0 0.2584766085760114 0.29794422587681391 0 0.2434003034573026 0.31865943231725968 0 0.2584766085760114 0.29794422587681391 0 0.25231182870767649 0.26565671054774792 0 0.27355291369472051 0.27722901943636852 0 0.26670419109251631 0.25026282370240799 0 0.24408767522763519 0.24738620800961111 0 0.25231182870767649 0.26565671054774792 0 0.26670419109251631 0.25026282370240799 0 0.24481726326944989 0.28301452540910571 0 0.25231182870767649 0.26565671054774792 0 0.27355291369472051 0.27722901943636852 0 0.27355291369472051 0.27722901943636852 0 0.28862921881342862 0.25651381299592252 0 0.27355291369472051 0.27722901943636852 0 0.26670419109251631 0.25026282370240799 0 0.28862921881342862 0.25651381299592252 0 0.28862921881342862 0.25651381299592252 0 0.29776356066822751 0.24396300722953371 0 0.27355291369472051 0.27722901943636852 0 0.28862921881342862 0.25651381299592252 0 0.29552763112984481 0.27674742905740118 0 0.28862921881342862 0.25651381299592252 0 0.29552763112984481 0.27674742905740118 0 0.2978556946594782 0.26499916065428741 0 0.29076513543691768 0.28939852083497331 0 0.27355291369472051 0.27722901943636852 0 0.29552763112984481 0.27674742905740118 0 0.28862921881342862 0.25651381299592252 0 0.29552763112984481 0.27674742905740118 0 0.29552763112984481 0.27674742905740118 0 0.30391666313851617 0.27512476390030183 0 0.2978556946594782 0.26499916065428741 0 0.28862921881342862 0.25651381299592252 0 0.30540728283077301 0.25326848268172381 0 0.29776356066822751 0.24396300722953371 0 0.28862921881342862 0.25651381299592252 0 0.30540728283077301 0.25326848268172381 0 0.2978556946594782 0.26499916065428741 0 0.30391666313851617 0.27512476390030183 0 0.30540728283077301 0.25326848268172381 0 0.32407224861068928 0.25845906939160002 0 0.30391666313851617 0.27512476390030183 0 0.30540728283077301 0.25326848268172381 0 0.2978556946594782 0.26499916065428741 0 0.30391666313851617 0.27512476390030183 0 0.30540728283077301 0.25326848268172381 0 0.32407224861068928 0.25845906939160002 0 0.34621985135880412 0.25716369420118629 0 0.33602305800246068 0.24156532362903541 0 0.32407224861068928 0.25845906939160002 0 0.33573897500213212 0.27118907792075031 0 0.34621985135880412 0.25716369420118629 0 0.33573897500213212 0.27118907792075031 0 0.34621985135880412 0.25716369420118629 0 0.34889669758406239 0.27330177451323312 0 0.33573897500213212 0.27118907792075031 0 0.33760291196371039 0.28866313535018251 0 0.34889669758406239 0.27330177451323312 0 0.33573897500213212 0.27118907792075031 0 0.32249822532155947 0.27974924819773228 0 0.33760291196371039 0.28866313535018251 0 0.30391666313851617 0.27512476390030183 0 0.32407224861068928 0.25845906939160002 0 0.32249822532155947 0.27974924819773228 0 0.32407224861068928 0.25845906939160002 0 0.33573897500213212 0.27118907792075031 0 0.32249822532155947 0.27974924819773228 0 0.32249822532155947 0.27974924819773228 0 0.32181085735496129 0.29737904995804021 0 0.33760291196371039 0.28866313535018251 0 0.3112514413175817 0.29026934197235099 0 0.32249822532155947 0.27974924819773228 0 0.32181085735496129 0.29737904995804021 0 0.30560541732661178 0.30211260268680112 0 0.3112514413175817 0.29026934197235099 0 0.32181085735496129 0.29737904995804021 0 0.3112514413175817 0.29026934197235099 0 0.30391666313851617 0.27512476390030183 0 0.32249822532155947 0.27974924819773228 0 0.30560541732661178 0.30211260268680112 0 0.31834133699144418 0.31155866740680349 0 0.33322318042475019 0.30608486393662709 0 0.30560541732661178 0.30211260268680112 0 0.32181085735496129 0.29737904995804021 0 0.30560541732661178 0.30211260268680112 0 0.33322318042475019 0.30608486393662709 0 0.30560541732661178 0.30211260268680112 0 0.32181085735496129 0.29737904995804021 0 0.33322318042475019 0.30608486393662709 0 0.33322318042475019 0.30608486393662709 0 0.33760291196371039 0.28866313535018251 0 0.3474292253766908 0.2983281498519389 0 0.32181085735496129 0.29737904995804021 0 0.33322318042475019 0.30608486393662709 0 0.33760291196371039 0.28866313535018251 0 0.33760291196371039 0.28866313535018251 0 0.35804986559541407 0.28850747493449269 0 0.3474292253766908 0.2983281498519389 0 0.33760291196371039 0.28866313535018251 0 0.35804986559541407 0.28850747493449269 0 0.34889669758406239 0.27330177451323312 0 0.35804986559541407 0.28850747493449269 0 0.3474292253766908 0.2983281498519389 0 0.36084094352288848 0.31005712518645329 0 0.33322318042475019 0.30608486393662709 0 0.36084094352288848 0.31005712518645329 0 0.33322318042475019 0.30608486393662709 0 0.3474292253766908 0.2983281498519389 0 0.36084094352288848 0.31005712518645329 0 0.36084094352288848 0.31005712518645329 0 0.38845870662102688 0.31402938643627948 0 0.35804986559541407 0.28850747493449269 0 0.36084094352288848 0.31005712518645329 0 0.37817763409623367 0.29851885642209008 0 0.35804986559541407 0.28850747493449269 0 0.38514994837266681 0.27949120296068991 0 0.37817763409623367 0.29851885642209008 0 0.35804986559541407 0.28850747493449269 0 0.366871884000251 0.26098549015955369 0 0.35804986559541407 0.28850747493449269 0 0.366871884000251 0.26098549015955369 0 0.38514994837266681 0.27949120296068991 0 0.366871884000251 0.26098549015955369 0 0.34621985135880412 0.25716369420118629 0 0.35506734431001008 0.24099040477674649 0 0.366871884000251 0.26098549015955369 0 0.34621985135880412 0.25716369420118629 0 0.34889669758406239 0.27330177451323312 0 0.35804986559541407 0.28850747493449269 0 0.366871884000251 0.26098549015955369 0 0.34889669758406239 0.27330177451323312 0 0.366871884000251 0.26098549015955369 0 0.38514994837266681 0.27949120296068991 0 0.39942768190676292 0.24984404265893251 0 0.38514994837266681 0.27949120296068991 0 0.40682783676557799 0.2776054933960036 0 0.39942768190676292 0.24984404265893251 0 0.38514994837266681 0.27949120296068991 0 0.37817763409623367 0.29851885642209008 0 0.40412646323741058 0.30309139953484648 0 0.37817763409623367 0.29851885642209008 0 0.40412646323741058 0.30309139953484648 0 0.38845870662102688 0.31402938643627948 0 0.36084094352288848 0.31005712518645329 0 0.37817763409623367 0.29851885642209008 0 0.38845870662102688 0.31402938643627948 0 0.40412646323741058 0.30309139953484648 0 0.41637697488267622 0.31801079343502842 0 0.38845870662102688 0.31402938643627948 0 0.38514994837266681 0.27949120296068991 0 0.40412646323741058 0.30309139953484648 0 0.40682783676557799 0.2776054933960036 0 0.40412646323741058 0.30309139953484648 0 0.41976921814555818 0.29211768668413912 0 0.40682783676557799 0.2776054933960036 0 0.41976921814555818 0.29211768668413912 0 0.41637697488267622 0.31801079343502842 0 0.41976921814555818 0.29211768668413912 0 0.42513350018684931 0.31727978930714562 0 0.41637697488267622 0.31801079343502842 0 0.40412646323741058 0.30309139953484648 0 0.41976921814555818 0.29211768668413912 0 0.41637697488267622 0.31801079343502842 0 0.41976921814555818 0.29211768668413912 0 0.43247574774766739 0.30605345857332189 0 0.43955569476185158 0.29408144821631971 0 0.41976921814555818 0.29211768668413912 0 0.43247574774766739 0.30605345857332189 0 0.42513350018684931 0.31727978930714562 0 0.43247574774766739 0.30605345857332189 0 0.44627146073815099 0.30463227626881562 0 0.43185811500265409 0.32027152080346688 0 0.41976921814555818 0.29211768668413912 0 0.4433505344106517 0.28015863804748209 0 0.43955569476185158 0.29408144821631971 0 0.42316146140843852 0.26622457993324949 0 0.43782475921338132 0.26100542001485322 0 0.4433505344106517 0.28015863804748209 0 0.41976921814555818 0.29211768668413912 0 0.42316146140843852 0.26622457993324949 0 0.4433505344106517 0.28015863804748209 0 0.42316146140843852 0.26622457993324949 0 0.4433505344106517 0.28015863804748209 0 0.41976921814555818 0.29211768668413912 0 0.42316146140843852 0.26622457993324949 0 0.40682783676557799 0.2776054933960036 0 0.41976921814555818 0.29211768668413912 0 0.42316146140843852 0.26622457993324949 0 0.42316146140843852 0.26622457993324949 0 0.39942768190676292 0.24984404265893251 0 0.4257854623107804 0.24619549292105969 0 0.42316146140843852 0.26622457993324949 0 0.39942768190676292 0.24984404265893251 0 0.42316146140843852 0.26622457993324949 0 0.40682783676557799 0.2776054933960036 0 0.39942768190676292 0.24984404265893251 0 0.42316146140843852 0.26622457993324949 0 0.43782475921338132 0.26100542001485322 0 0.4257854623107804 0.24619549292105969 0 0.42316146140843852 0.26622457993324949 0 0.4257854623107804 0.24619549292105969 0 0.43782475921338132 0.26100542001485322 0 0.4257854623107804 0.24619549292105969 0 0.44026912624384251 0.2482901158784577 0 0.43782475921338132 0.26100542001485322 0 0.44720764468000263 0.25651678075340001 0 0.44026912624384251 0.2482901158784577 0 0.43782475921338132 0.26100542001485322 0 0.44720764468000263 0.25651678075340001 0 0.44902255210496889 0.26682979311814548 0 0.44720764468000263 0.25651678075340001 0 0.44902255210496889 0.26682979311814548 0 0.45778275784582179 0.26230725949089512 0 0.44720764468000263 0.25651678075340001 0 0.45675440256914851 0.25143546716135329 0 0.44980473776379493 0.24892982199632099 0 0.44720764468000263 0.25651678075340001 0 0.44980473776379493 0.24892982199632099 0 0.44026912624384251 0.2482901158784577 0 0.43782475921338132 0.26100542001485322 0 0.4433505344106517 0.28015863804748209 0 0.44902255210496889 0.26682979311814548 0 0.4433505344106517 0.28015863804748209 0 0.44902255210496889 0.26682979311814548 0 0.45894706437498739 0.27416086728409772 0 0.4433505344106517 0.28015863804748209 0 0.45894706437498739 0.27416086728409772 0 0.4606848064736479 0.28899303173416419 0 0.45894706437498739 0.27416086728409772 0 0.46974488900411798 0.26199038117111378 0 0.47494507228911281 0.28286898070546113 0 0.44902255210496889 0.26682979311814548 0 0.45894706437498739 0.27416086728409772 0 0.45778275784582179 0.26230725949089512 0 0.45894706437498739 0.27416086728409772 0 0.45778275784582179 0.26230725949089512 0 0.46974488900411798 0.26199038117111378 0 0.46974488900411798 0.26199038117111378 0 0.46454470571912321 0.24111178163676639 0 0.46259686318363369 0.25465534831908893 0 0.46974488900411798 0.26199038117111378 0 0.46454470571912321 0.24111178163676639 0 0.44720764468000263 0.25651678075340001 0 0.45675440256914851 0.25143546716135329 0 0.45778275784582179 0.26230725949089512 0 0.45675440256914851 0.25143546716135329 0 0.45778275784582179 0.26230725949089512 0 0.46259686318363369 0.25465534831908893 0 0.45675440256914851 0.25143546716135329 0 0.46259686318363369 0.25465534831908893 0 0.46017941216138591 0.24818184617103509 0 0.45778275784582179 0.26230725949089512 0 0.46259686318363369 0.25465534831908893 0 0.46974488900411798 0.26199038117111378 0 0.47479710248874951 0.26890477833712312 0 0.46726549252889987 0.2445719445248026 0 0.47538932675441631 0.2532173092492252 0 0.47479710248874951 0.26890477833712312 0 0.46726549252889987 0.2445719445248026 0 0.46974488900411798 0.26199038117111378 0 0.47479710248874951 0.26890477833712312 0 0.46726549252889987 0.2445719445248026 0 0.47538932675441631 0.2532173092492252 0 0.48100701709425808 0.26189953057779752 0 0.47479710248874951 0.26890477833712312 0 0.48132079222896762 0.25226252207308519 0 0.48100701709425808 0.26189953057779752 0 0.48538962345466652 0.25796436056032712 0 0.47538932675441631 0.2532173092492252 0 0.48132079222896762 0.25226252207308519 0 0.48100701709425808 0.26189953057779752 0 0.47538932675441631 0.2532173092492252 0 0.48132079222896762 0.25226252207308519 0 0.47701305774490371 0.24550023363278131 0 0.46974488900411798 0.26199038117111378 0 0.47494507228911281 0.28286898070546113 0 0.46974488900411798 0.26199038117111378 0 0.47479710248874951 0.26890477833712312 0 0.47494507228911281 0.28286898070546113 0 0.47479710248874951 0.26890477833712312 0 0.48655566379543541 0.27225507611025868 0 0.47494507228911281 0.28286898070546113 0 0.48100701709425808 0.26189953057779752 0 0.47479710248874951 0.26890477833712312 0 0.48655566379543541 0.27225507611025868 0 0.48100701709425808 0.26189953057779752 0 0.48655566379543541 0.27225507611025868 0 0.48984428608057201 0.26411807849854702 0 0.48655566379543541 0.27225507611025868 0 0.5 0.28533779439364171 0 0.47494507228911281 0.28286898070546113 0 0.48655566379543541 0.27225507611025868 0 0.5 0.26993687424651358 0 0.48984428608057201 0.26411807849854702 0 0.48655566379543541 0.27225507611025868 0 0.5 0.26993687424651358 0 0.5 0.28533779439364171 0 0.5 0.26993687424651358 0 0.49999999999999989 0.25453595409938551 0 0.48984428608057201 0.26411807849854702 0 0.49999999999999989 0.25453595409938551 0 0.48773754792976343 0.25092288794538409 0 0.48538962345466652 0.25796436056032712 0 0.48132079222896762 0.25226252207308519 0 0.48773754792976343 0.25092288794538409 0 0.48538962345466652 0.25796436056032712 0 0.48100701709425808 0.26189953057779752 0 0.48984428608057201 0.26411807849854702 0 0.48538962345466652 0.25796436056032712 0 0.49999999999999989 0.25453595409938551 0 0.48984428608057201 0.26411807849854702 0 0.48538962345466652 0.25796436056032712 0 0.5 0.30770507926382878 0 0.5 0.28533779439364171 0 0.48014525557410859 0.30374758023980819 0 0.5 0.28533779439364171 0 0.48014525557410859 0.30374758023980819 0 0.5 0.28533779439364171 0 0.47494507228911281 0.28286898070546113 0 0.48014525557410859 0.30374758023980819 0 0.47494507228911281 0.28286898070546113 0 0.48014525557410859 0.30374758023980819 0 0.47494507228911281 0.28286898070546113 0 0.46991973683371779 0.29527846766527982 0 0.48014525557410859 0.30374758023980819 0 0.48014525557410859 0.30374758023980819 0 0.48018541932267361 0.31017214473682442 0 0.4641401515156065 0.31858788902658403 0 0.48014525557410859 0.30374758023980819 0 0.46281698015095829 0.30414558436525069 0 0.4641401515156065 0.31858788902658403 0 0.48014525557410859 0.30374758023980819 0 0.4641401515156065 0.31858788902658403 0 0.46991973683371779 0.29527846766527982 0 0.48014525557410859 0.30374758023980819 0 0.46281698015095829 0.30414558436525069 0 0.46281698015095829 0.30414558436525069 0 0.4606848064736479 0.28899303173416419 0 0.44627146073815099 0.30463227626881562 0 0.46281698015095829 0.30414558436525069 0 0.44627146073815099 0.30463227626881562 0 0.45506119924111488 0.3127850777465806 0 0.46281698015095829 0.30414558436525069 0 0.45506119924111488 0.3127850777465806 0 0.4641401515156065 0.31858788902658403 0 0.45894706437498739 0.27416086728409772 0 0.47494507228911281 0.28286898070546113 0 0.4606848064736479 0.28899303173416419 0 0.4606848064736479 0.28899303173416419 0 0.44627146073815099 0.30463227626881562 0 0.47494507228911281 0.28286898070546113 0 0.46991973683371779 0.29527846766527982 0 0.4606848064736479 0.28899303173416419 0 0.46991973683371779 0.29527846766527982 0 0.46281698015095829 0.30414558436525069 0 0.4606848064736479 0.28899303173416419 0 0.4433505344106517 0.28015863804748209 0 0.4606848064736479 0.28899303173416419 0 0.43955569476185158 0.29408144821631971 0 0.4606848064736479 0.28899303173416419 0 0.43955569476185158 0.29408144821631971 0 0.44627146073815099 0.30463227626881562 0 0.44627146073815099 0.30463227626881562 0 0.43185811500265409 0.32027152080346688 0 0.43247574774766739 0.30605345857332189 0 0.43955569476185158 0.29408144821631971 0 0.44627146073815099 0.30463227626881562 0 0.4546736380097815 0.32355307614209627 0 0.43185811500265409 0.32027152080346688 0 0.4546736380097815 0.32355307614209627 0 0.42966475374499757 0.3366702380041065 0 0.43185811500265409 0.32027152080346688 0 0.44627146073815099 0.30463227626881562 0 0.45506119924111488 0.3127850777465806 0 0.43185811500265409 0.32027152080346688 0 0.45506119924111488 0.3127850777465806 0 0.4546736380097815 0.32355307614209627 0 0.43185811500265409 0.32027152080346688 0 0.44438709883839322 0.33690338389245561 0 0.4546736380097815 0.32355307614209627 0 0.42966475374499757 0.3366702380041065 0 0.4546736380097815 0.32355307614209627 0 0.42966475374499757 0.3366702380041065 0 0.44254598302420439 0.34352493140565799 0 0.44438709883839322 0.33690338389245561 0 0.43054108579727229 0.34974173272448078 0 0.44254598302420439 0.34352493140565799 0 0.44438709883839322 0.33690338389245561 0 0.44884064098751342 0.34170410685590558 0 0.44438709883839322 0.33690338389245561 0 0.4546736380097815 0.32355307614209627 0 0.45823311187951399 0.32406503506043027 0 0.44438709883839322 0.33690338389245561 0 0.45410512783539209 0.33661709793377548 0 0.45823311187951399 0.32406503506043027 0 0.44438709883839322 0.33690338389245561 0 0.45823311187951399 0.32406503506043027 0 0.44884064098751342 0.34170410685590558 0 0.45410512783539209 0.33661709793377548 0 0.45590779031980339 0.34544894341479537 0 0.44438709883839322 0.33690338389245561 0 0.44884064098751342 0.34170410685590558 0 0.45410512783539209 0.33661709793377548 0 0.45410512783539209 0.33661709793377548 0 0.46315699715173653 0.33496402044529022 0 0.45590779031980339 0.34544894341479537 0 0.45410512783539209 0.33661709793377548 0 0.46315699715173653 0.33496402044529022 0 0.45823311187951399 0.32406503506043027 0 0.46315699715173653 0.33496402044529022 0 0.46790288107544548 0.34436232095110891 0 0.45590779031980339 0.34544894341479537 0 0.45506119924111488 0.3127850777465806 0 0.4546736380097815 0.32355307614209627 0 0.4641401515156065 0.31858788902658403 0 0.4546736380097815 0.32355307614209627 0 0.4641401515156065 0.31858788902658403 0 0.4546736380097815 0.32355307614209627 0 0.45823311187951399 0.32406503506043027 0 0.4641401515156065 0.31858788902658403 0 0.4546736380097815 0.32355307614209627 0 0.45823311187951399 0.32406503506043027 0 0.45823311187951399 0.32406503506043027 0 0.4641401515156065 0.31858788902658403 0 0.45823311187951399 0.32406503506043027 0 0.48620782471429541 0.32808863636998559 0 0.45823311187951399 0.32406503506043027 0 0.4641401515156065 0.31858788902658403 0 0.48620782471429541 0.32808863636998559 0 0.48014525557410859 0.30374758023980819 0 0.48018541932267361 0.31017214473682442 0 0.48620782471429541 0.32808863636998559 0 0.48018541932267361 0.31017214473682442 0 0.4641401515156065 0.31858788902658403 0 0.48014525557410859 0.30374758023980819 0 0.48620782471429541 0.32808863636998559 0 0.48018541932267361 0.31017214473682442 0 0.4641401515156065 0.31858788902658403 0 0.48620782471429541 0.32808863636998559 0 0.48620782471429541 0.32808863636998559 0 0.47738700017243901 0.35182235150128077 0 0.46790288107544548 0.34436232095110891 0 0.46315699715173653 0.33496402044529022 0 0.48620782471429541 0.32808863636998559 0 0.46790288107544548 0.34436232095110891 0 0.46315699715173653 0.33496402044529022 0 0.45823311187951399 0.32406503506043027 0 0.48620782471429541 0.32808863636998559 0 0.48620782471429541 0.32808863636998559 0 0.49310391235714851 0.35577624743253422 0 0.50000000000000178 0.33007236413401608 0 0.48620782471429541 0.32808863636998559 0 0.49310391235714851 0.35577624743253422 0 0.50000000000000178 0.33007236413401608 0 0.48620782471429541 0.32808863636998559 0 0.5 0.30770507926382878 0 0.50000000000000178 0.33007236413401608 0 0.48620782471429541 0.32808863636998559 0 0.5 0.30770507926382878 0 0.48014525557410859 0.30374758023980819 0 0.48620782471429541 0.32808863636998559 0 0.49310391235714851 0.35577624743253422 0 0.47816411347766591 0.37070502160307278 0 0.50000000000000111 0.38346385849508291 0 0.49310391235714851 0.35577624743253422 0 0.50000000000000111 0.38346385849508291 0 0.5 0.35676811131454939 0 0.49310391235714851 0.35577624743253422 0 0.50000000000000111 0.38346385849508291 0 0.48620782471429541 0.32808863636998559 0 0.49310391235714851 0.35577624743253422 0 0.47738700017243901 0.35182235150128077 0 0.50000000000000178 0.33007236413401608 0 0.5 0.35676811131454939 0 0.49310391235714851 0.35577624743253422 0 0.47738700017243901 0.35182235150128077 0 0.46155626923763993 0.3601795311497023 0 0.46790288107544548 0.34436232095110891 0 0.47738700017243901 0.35182235150128077 0 0.47816411347766591 0.37070502160307278 0 0.46155626923763993 0.3601795311497023 0 0.49310391235714851 0.35577624743253422 0 0.47738700017243901 0.35182235150128077 0 0.47816411347766591 0.37070502160307278 0 0.47816411347766591 0.37070502160307278 0 0.46155626923763993 0.3601795311497023 0 0.45910646009339717 0.37744990054943878 0 0.46155626923763993 0.3601795311497023 0 0.4464888538825672 0.36811918888300871 0 0.45910646009339717 0.37744990054943878 0 0.46155626923763993 0.3601795311497023 0 0.46790288107544548 0.34436232095110891 0 0.45590779031980339 0.34544894341479537 0 0.46155626923763993 0.3601795311497023 0 0.45590779031980339 0.34544894341479537 0 0.44878706735912399 0.35555404080643832 0 0.44884064098751342 0.34170410685590558 0 0.45590779031980339 0.34544894341479537 0 0.44754489204847481 0.3474801050076522 0 0.44754489204847481 0.3474801050076522 0 0.44878706735912399 0.35555404080643832 0 0.44164297855172852 0.35116850255546389 0 0.45590779031980339 0.34544894341479537 0 0.44754489204847481 0.3474801050076522 0 0.44878706735912399 0.35555404080643832 0 0.44254598302420439 0.34352493140565799 0 0.44884064098751342 0.34170410685590558 0 0.44754489204847481 0.3474801050076522 0 0.44878706735912399 0.35555404080643832 0 0.43888363666310498 0.35841133919602691 0 0.44164297855172852 0.35116850255546389 0 0.44254598302420439 0.34352493140565799 0 0.44164297855172852 0.35116850255546389 0 0.43054108579727229 0.34974173272448078 0 0.44254598302420439 0.34352493140565799 0 0.44754489204847481 0.3474801050076522 0 0.44164297855172852 0.35116850255546389 0 0.46155626923763993 0.3601795311497023 0 0.44878706735912399 0.35555404080643832 0 0.4464888538825672 0.36811918888300871 0 0.44878706735912399 0.35555404080643832 0 0.43888363666310498 0.35841133919602691 0 0.4464888538825672 0.36811918888300871 0 0.43888363666310498 0.35841133919602691 0 0.4464888538825672 0.36811918888300871 0 0.43230135428116528 0.3672808749987464 0 0.4464888538825672 0.36811918888300871 0 0.43230135428116528 0.3672808749987464 0 0.43577254145544769 0.38178321786044789 0 0.43230135428116528 0.3672808749987464 0 0.42154452093759809 0.37451287216370788 0 0.43577254145544769 0.38178321786044789 0 0.43230135428116528 0.3672808749987464 0 0.42422398691552898 0.36449924972644793 0 0.43054108579727229 0.34974173272448078 0 0.42422398691552898 0.36449924972644793 0 0.4125089866460801 0.36646151901885649 0 0.43054108579727229 0.34974173272448078 0 0.43230135428116528 0.3672808749987464 0 0.42422398691552898 0.36449924972644793 0 0.42154452093759809 0.37451287216370788 0 0.42422398691552898 0.36449924972644793 0 0.42154452093759809 0.37451287216370788 0 0.4125089866460801 0.36646151901885649 0 0.42154452093759809 0.37451287216370788 0 0.4125089866460801 0.36646151901885649 0 0.41086155648359562 0.37752148151286491 0 0.4125089866460801 0.36646151901885649 0 0.40836914838148891 0.36122359109958302 0 0.40043600463791418 0.37111035276115939 0 0.40926043311551258 0.35461325708906188 0 0.42966475374499757 0.3366702380041065 0 0.40465586948021381 0.3497873998661169 0 0.40836914838148891 0.36122359109958302 0 0.43054108579727229 0.34974173272448078 0 0.40836914838148891 0.36122359109958302 0 0.40926043311551258 0.35461325708906188 0 0.43054108579727229 0.34974173272448078 0 0.4125089866460801 0.36646151901885649 0 0.40836914838148891 0.36122359109958302 0 0.43054108579727229 0.34974173272448078 0 0.4125089866460801 0.36646151901885649 0 0.43054108579727229 0.34974173272448078 0 0.41346636980407597 0.34022753974993669 0 0.40465586948021381 0.3497873998661169 0 0.40836914838148891 0.36122359109958302 0 0.40926043311551258 0.35461325708906188 0 0.40448110926935232 0.35678568193523208 0 0.40926043311551258 0.35461325708906188 0 0.43054108579727229 0.34974173272448078 0 0.42966475374499757 0.3366702380041065 0 0.43888363666310498 0.35841133919602691 0 0.43230135428116528 0.3672808749987464 0 0.43054108579727229 0.34974173272448078 0 0.43888363666310498 0.35841133919602691 0 0.44164297855172852 0.35116850255546389 0 0.43054108579727229 0.34974173272448078 0 0.44254598302420439 0.34352493140565799 0 0.43054108579727229 0.34974173272448078 0 0.44438709883839322 0.33690338389245561 0 0.43054108579727229 0.34974173272448078 0 0.43185811500265409 0.32027152080346688 0 0.41346636980407597 0.34022753974993669 0 0.44438709883839322 0.33690338389245561 0 0.43054108579727229 0.34974173272448078 0 0.42966475374499757 0.3366702380041065 0 0.42966475374499757 0.3366702380041065 0 0.43185811500265409 0.32027152080346688 0 0.41346636980407597 0.34022753974993669 0 0.43247574774766739 0.30605345857332189 0 0.43185811500265409 0.32027152080346688 0 0.42513350018684931 0.31727978930714562 0 0.43185811500265409 0.32027152080346688 0 0.42513350018684931 0.31727978930714562 0 0.41637697488267622 0.31801079343502842 0 0.43185811500265409 0.32027152080346688 0 0.41637697488267622 0.31801079343502842 0 0.43185811500265409 0.32027152080346688 0 0.41637697488267622 0.31801079343502842 0 0.41346636980407597 0.34022753974993669 0 0.42513350018684931 0.31727978930714562 0 0.41637697488267622 0.31801079343502842 0 0.41637697488267622 0.31801079343502842 0 0.4088771157742952 0.32842239552446362 0 0.41346636980407597 0.34022753974993669 0 0.42966475374499757 0.3366702380041065 0 0.41346636980407597 0.34022753974993669 0 0.40465586948021381 0.3497873998661169 0 0.42966475374499757 0.3366702380041065 0 0.40465586948021381 0.3497873998661169 0 0.41637697488267622 0.31801079343502842 0 0.41346636980407597 0.34022753974993669 0 0.4088771157742952 0.32842239552446362 0 0.41346636980407597 0.34022753974993669 0 0.39823112816246431 0.33708556887781788 0 0.4088771157742952 0.32842239552446362 0 0.39823112816246431 0.33708556887781788 0 0.39015978558166509 0.32006724475639747 0 0.41346636980407597 0.34022753974993669 0 0.39823112816246431 0.33708556887781788 0 0.40465586948021381 0.3497873998661169 0 0.41637697488267622 0.31801079343502842 0 0.4088771157742952 0.32842239552446362 0 0.39015978558166509 0.32006724475639747 0 0.41637697488267622 0.31801079343502842 0 0.39015978558166509 0.32006724475639747 0 0.41637697488267622 0.31801079343502842 0 0.39015978558166509 0.32006724475639747 0 0.38845870662102688 0.31402938643627948 0 0.41637697488267622 0.31801079343502842 0 0.38845870662102688 0.31402938643627948 0 0.36424310144416511 0.32213284182668722 0 0.39015978558166509 0.32006724475639747 0 0.36424310144416511 0.32213284182668722 0 0.39015978558166509 0.32006724475639747 0 0.38845870662102688 0.31402938643627948 0 0.36424310144416511 0.32213284182668722 0 0.39015978558166509 0.32006724475639747 0 0.38263009593359038 0.33378942036267573 0 0.39823112816246431 0.33708556887781788 0 0.39015978558166509 0.32006724475639747 0 0.38263009593359038 0.33378942036267573 0 0.39823112816246431 0.33708556887781788 0 0.38263009593359038 0.33378942036267573 0 0.38724656189557538 0.34762856607566239 0 0.37326990258408232 0.34203288027681339 0 0.38263009593359038 0.33378942036267573 0 0.38724656189557538 0.34762856607566239 0 0.37326990258408232 0.34203288027681339 0 0.38724656189557538 0.34762856607566239 0 0.37683016966330413 0.35167770670410359 0 0.38724656189557538 0.34762856607566239 0 0.37951797562987188 0.36297222726640688 0 0.40465586948021381 0.3497873998661169 0 0.38724656189557538 0.34762856607566239 0 0.37683016966330413 0.35167770670410359 0 0.37951797562987188 0.36297222726640688 0 0.37951797562987188 0.36297222726640688 0 0.38619721096570547 0.37270544947468542 0 0.39621927890253522 0.36088883121980492 0 0.36402527354992209 0.38418730784978777 0 0.37951797562987188 0.36297222726640688 0 0.38619721096570547 0.37270544947468542 0 0.4125089866460801 0.36646151901885649 0 0.39447688749488768 0.38318130531323202 0 0.40836914838148891 0.36122359109958302 0 0.38619721096570547 0.37270544947468542 0 0.40043600463791418 0.37111035276115939 0 0.40836914838148891 0.36122359109958302 0 0.38619721096570547 0.37270544947468542 0 0.39621927890253522 0.36088883121980492 0 0.40836914838148891 0.36122359109958302 0 0.38619721096570547 0.37270544947468542 0 0.4125089866460801 0.36646151901885649 0 0.40043600463791418 0.37111035276115939 0 0.39447688749488768 0.38318130531323202 0 0.40836914838148891 0.36122359109958302 0 0.39621927890253522 0.36088883121980492 0 0.40448110926935232 0.35678568193523208 0 0.39823112816246431 0.33708556887781788 0 0.38724656189557538 0.34762856607566239 0 0.40465586948021381 0.3497873998661169 0 0.39621927890253522 0.36088883121980492 0 0.40448110926935232 0.35678568193523208 0 0.40465586948021381 0.3497873998661169 0 0.37951797562987188 0.36297222726640688 0 0.39621927890253522 0.36088883121980492 0 0.40465586948021381 0.3497873998661169 0 0.37951797562987188 0.36297222726640688 0 0.40465586948021381 0.3497873998661169 0 0.40926043311551258 0.35461325708906188 0 0.40448110926935232 0.35678568193523208 0 0.40465586948021381 0.3497873998661169 0 0.39447688749488768 0.38318130531323202 0 0.39483871320347702 0.4071019992473493 0 0.40691651399442003 0.39431430560618358 0 0.4125089866460801 0.36646151901885649 0 0.39447688749488768 0.38318130531323202 0 0.41086155648359562 0.37752148151286491 0 0.39447688749488768 0.38318130531323202 0 0.40691651399442003 0.39431430560618358 0 0.41491583085581651 0.38593022955566342 0 0.38619721096570547 0.37270544947468542 0 0.40043600463791418 0.37111035276115939 0 0.39447688749488768 0.38318130531323202 0 0.39447688749488768 0.38318130531323202 0 0.38026122572135079 0.3855812713300395 0 0.37644478834369538 0.39990109160760751 0 0.36402527354992209 0.38418730784978777 0 0.38619721096570547 0.37270544947468542 0 0.38026122572135079 0.3855812713300395 0 0.36402527354992209 0.38418730784978777 0 0.38619721096570547 0.37270544947468542 0 0.38619721096570547 0.37270544947468542 0 0.39447688749488768 0.38318130531323202 0 0.38026122572135079 0.3855812713300395 0 0.39447688749488768 0.38318130531323202 0 0.37644478834369538 0.39990109160760751 0 0.39447688749488768 0.38318130531323202 0 0.37644478834369538 0.39990109160760751 0 0.39483871320347702 0.4071019992473493 0 0.38206111242543861 0.42111915346048762 0 0.39291195859231648 0.42909145477573529 0 0.39483871320347702 0.4071019992473493 0 0.36624280198345521 0.41316031018620869 0 0.39483871320347702 0.4071019992473493 0 0.36624280198345521 0.41316031018620869 0 0.37644478834369538 0.39990109160760751 0 0.39483871320347702 0.4071019992473493 0 0.36624280198345521 0.41316031018620869 0 0.38206111242543861 0.42111915346048762 0 0.39483871320347702 0.4071019992473493 0 0.37426612281776722 0.43390813374205722 0 0.38206111242543861 0.42111915346048762 0 0.39291195859231648 0.42909145477573529 0 0.39291195859231648 0.42909145477573529 0 0.39483871320347702 0.4071019992473493 0 0.41659510530397598 0.43181748595047798 0 0.39291195859231648 0.42909145477573529 0 0.41659510530397598 0.43181748595047798 0 0.39679873921092379 0.4515105014783044 0 0.41659510530397598 0.43181748595047798 0 0.44223276457332439 0.41808795715326652 0 0.44795077244779752 0.44624555400270371 0 0.39483871320347702 0.4071019992473493 0 0.41659510530397598 0.43181748595047798 0 0.42343462442349888 0.40104368830848991 0 0.41659510530397598 0.43181748595047798 0 0.42343462442349888 0.40104368830848991 0 0.44223276457332439 0.41808795715326652 0 0.42343462442349888 0.40104368830848991 0 0.43577254145544769 0.38178321786044789 0 0.45203053564352053 0.39498537736963052 0 0.39483871320347702 0.4071019992473493 0 0.42343462442349888 0.40104368830848991 0 0.40691651399442003 0.39431430560618358 0 0.39483871320347702 0.4071019992473493 0 0.42343462442349888 0.40104368830848991 0 0.42343462442349888 0.40104368830848991 0 0.40691651399442003 0.39431430560618358 0 0.41491583085581651 0.38593022955566342 0 0.39447688749488768 0.38318130531323202 0 0.41086155648359562 0.37752148151286491 0 0.41491583085581651 0.38593022955566342 0 0.42154452093759809 0.37451287216370788 0 0.41086155648359562 0.37752148151286491 0 0.41491583085581651 0.38593022955566342 0 0.42154452093759809 0.37451287216370788 0 0.41491583085581651 0.38593022955566342 0 0.43577254145544769 0.38178321786044789 0 0.42343462442349888 0.40104368830848991 0 0.41491583085581651 0.38593022955566342 0 0.43577254145544769 0.38178321786044789 0 0.50000000000000111 0.38346385849508291 0 0.47115278504782893 0.41634768013503037 0 0.5 0.44985682577498209 0 0.43577254145544769 0.38178321786044789 0 0.45203053564352053 0.39498537736963052 0 0.45910646009339717 0.37744990054943878 0 0.4464888538825672 0.36811918888300871 0 0.43577254145544769 0.38178321786044789 0 0.45910646009339717 0.37744990054943878 0 0.42343462442349888 0.40104368830848991 0 0.45203053564352053 0.39498537736963052 0 0.44223276457332439 0.41808795715326652 0 0.42343462442349888 0.40104368830848991 0 0.45203053564352053 0.39498537736963052 0 0.45203053564352053 0.39498537736963052 0 0.48062644686354222 0.38892706643077107 0 0.47115278504782893 0.41634768013503037 0 0.45203053564352053 0.39498537736963052 0 0.48062644686354222 0.38892706643077107 0 0.45203053564352053 0.39498537736963052 0 0.45910646009339717 0.37744990054943878 0 0.48062644686354222 0.38892706643077107 0 0.47816411347766591 0.37070502160307278 0 0.45910646009339717 0.37744990054943878 0 0.48062644686354222 0.38892706643077107 0 0.48062644686354222 0.38892706643077107 0 0.50000000000000111 0.38346385849508291 0 0.47115278504782893 0.41634768013503037 0 0.47816411347766591 0.37070502160307278 0 0.48062644686354222 0.38892706643077107 0 0.50000000000000111 0.38346385849508291 0 0.47115278504782893 0.41634768013503037 0 0.44795077244779752 0.44624555400270371 0 0.5 0.44985682577498209 0 0.47115278504782893 0.41634768013503037 0 0.44223276457332439 0.41808795715326652 0 0.44795077244779752 0.44624555400270371 0 0.45203053564352053 0.39498537736963052 0 0.47115278504782893 0.41634768013503037 0 0.44223276457332439 0.41808795715326652 0 0.44795077244779752 0.44624555400270371 0 0.5 0.44985682577498209 0 0.45432384463304731 0.47181982544328699 0 0.44795077244779752 0.44624555400270371 0 0.45432384463304731 0.47181982544328699 0 0.41976759677264541 0.46299674743874941 0 0.5 0.5 0 0.45432384463304731 0.47181982544328699 0 0.4039008539447933 0.5 0 0.5 0.44985682577498209 0 0.5 0.5 0 0.45432384463304731 0.47181982544328699 0 0.45432384463304731 0.47181982544328699 0 0.41976759677264541 0.46299674743874941 0 0.4039008539447933 0.5 0 0.41659510530397598 0.43181748595047798 0 0.44795077244779752 0.44624555400270371 0 0.41976759677264541 0.46299674743874941 0 0.41659510530397598 0.43181748595047798 0 0.41976759677264541 0.46299674743874941 0 0.39679873921092379 0.4515105014783044 0 0.41976759677264541 0.46299674743874941 0 0.39679873921092379 0.4515105014783044 0 0.38124951499701609 0.4734785303135195 0 0.37426612281776722 0.43390813374205722 0 0.39679873921092379 0.4515105014783044 0 0.37345341561318951 0.45407136009255727 0 0.37426612281776722 0.43390813374205722 0 0.39679873921092379 0.4515105014783044 0 0.37426612281776722 0.43390813374205722 0 0.39291195859231648 0.42909145477573529 0 0.39679873921092379 0.4515105014783044 0 0.37345341561318951 0.45407136009255727 0 0.39679873921092379 0.4515105014783044 0 0.38124951499701609 0.4734785303135195 0 0.41976759677264541 0.46299674743874941 0 0.4039008539447933 0.5 0 0.38124951499701609 0.4734785303135195 0 0.33267184659450738 0.076895445692967912 0 0.33384818513785952 0.095220671081154562 0 0.35358280794182778 0.081134118762519997 0 0.33267184659450738 0.076895445692967912 0 0.32548261985150279 0.067359467524783917 0 0.3362917714796716 0.06065716441287583 0 0.33267184659450738 0.076895445692967912 0 0.34851501510280047 0.067687362164181281 0 0.3362917714796716 0.06065716441287583 0 0.33267184659450738 0.076895445692967912 0 0.32548261985150279 0.067359467524783917 0 0.31341431229701289 0.075466738345394593 0 0.32548261985150279 0.067359467524783917 0 0.31341431229701289 0.075466738345394593 0 0.32027454076834638 0.053691579612965813 0 0.33267184659450738 0.076895445692967912 0 0.31341431229701289 0.075466738345394593 0 0.31611760134168382 0.090350323099841451 0 0.33267184659450738 0.076895445692967912 0 0.31611760134168382 0.090350323099841451 0 0.33384818513785952 0.095220671081154562 0 0.31611760134168382 0.090350323099841451 0 0.31824238186382442 0.10596634075124969 0 0.33384818513785952 0.095220671081154562 0 0.31824238186382442 0.10596634075124969 0 0.33179207943910011 0.1164240708363329 0 0.33384818513785952 0.095220671081154562 0 0.31824238186382442 0.10596634075124969 0 0.33179207943910011 0.1164240708363329 0 0.30795405624806621 0.1196451118560683 0 0.33179207943910011 0.1164240708363329 0 0.30795405624806621 0.1196451118560683 0 0.33179207943910011 0.1164240708363329 0 0.30795405624806621 0.1196451118560683 0 0.33548825912762259 0.13096913504343041 0 0.33179207943910011 0.1164240708363329 0 0.35157714643851551 0.1141437321368203 0 0.33548825912762259 0.13096913504343041 0 0.33179207943910011 0.1164240708363329 0 0.33384818513785952 0.095220671081154562 0 0.3484473056242175 0.099720290806598971 0 0.35157714643851551 0.1141437321368203 0 0.36391875564503579 0.093797237318286847 0 0.3484473056242175 0.099720290806598971 0 0.35157714643851551 0.1141437321368203 0 0.36391875564503579 0.093797237318286847 0 0.33179207943910011 0.1164240708363329 0 0.3484473056242175 0.099720290806598971 0 0.35157714643851551 0.1141437321368203 0 0.35157714643851551 0.1141437321368203 0 0.35036421010623209 0.1315926994818985 0 0.3627730460680359 0.12672541473946861 0 0.35157714643851551 0.1141437321368203 0 0.36764800366116113 0.1133136025492217 0 0.3627730460680359 0.12672541473946861 0 0.36764800366116113 0.1133136025492217 0 0.3627730460680359 0.12672541473946861 0 0.37865315121162502 0.12651792307034379 0 0.36764800366116113 0.1133136025492217 0 0.36391875564503579 0.093797237318286847 0 0.38131791894259309 0.1053837054811891 0 0.35157714643851551 0.1141437321368203 0 0.36764800366116113 0.1133136025492217 0 0.36391875564503579 0.093797237318286847 0 0.36391875564503579 0.093797237318286847 0 0.37626036485155617 0.073450742499753335 0 0.36391875564503579 0.093797237318286847 0 0.35358280794182778 0.081134118762519997 0 0.37626036485155617 0.073450742499753335 0 0.3484473056242175 0.099720290806598971 0 0.36391875564503579 0.093797237318286847 0 0.35358280794182778 0.081134118762519997 0 0.33384818513785952 0.095220671081154562 0 0.3484473056242175 0.099720290806598971 0 0.35358280794182778 0.081134118762519997 0 0.33267184659450738 0.076895445692967912 0 0.35358280794182778 0.081134118762519997 0 0.34851501510280047 0.067687362164181281 0 0.35358280794182778 0.081134118762519997 0 0.34851501510280047 0.067687362164181281 0 0.36249353249464039 0.062726138694476727 0 0.35358280794182778 0.081134118762519997 0 0.36249353249464039 0.062726138694476727 0 0.37626036485155617 0.073450742499753335 0 0.36249353249464039 0.062726138694476727 0 0.37626036485155617 0.073450742499753335 0 0.37499939369354562 0.05304484752901701 0 0.36249353249464039 0.062726138694476727 0 0.36380932314816672 0.047130461707631743 0 0.37499939369354562 0.05304484752901701 0 0.36380932314816672 0.047130461707631743 0 0.37149400158627133 0.040771782732311551 0 0.37499939369354562 0.05304484752901701 0 0.36380932314816672 0.047130461707631743 0 0.37149400158627133 0.040771782732311551 0 0.35632905552962613 0.028539258666194341 0 0.35632905552962613 0.028539258666194341 0 0.37972153351231391 0.034948967731108539 0 0.37149400158627133 0.040771782732311551 0 0.35632905552962613 0.028539258666194341 0 0.37972153351231391 0.034948967731108539 0 0.35070289367735308 0.0515811313361665 0 0.35632905552962613 0.028539258666194341 0 0.33677866430921333 0.042746402371639132 0 0.36380932314816672 0.047130461707631743 0 0.35070289367735308 0.0515811313361665 0 0.35632905552962613 0.028539258666194341 0 0.34851501510280047 0.067687362164181281 0 0.35070289367735308 0.0515811313361665 0 0.3362917714796716 0.06065716441287583 0 0.34851501510280047 0.067687362164181281 0 0.36249353249464039 0.062726138694476727 0 0.35070289367735308 0.0515811313361665 0 0.36249353249464039 0.062726138694476727 0 0.36380932314816672 0.047130461707631743 0 0.35070289367735308 0.0515811313361665 0 0.36607496410772972 0.0099128258503241584 0 0.36363341023265389 -0.0063806336983604772 0 0.35417251228579488 -2.242005975592893e-05 0 0.36607496410772972 0.0099128258503241584 0 0.37710365768939269 0.003497131652723405 0 0.36363341023265389 -0.0063806336983604772 0 0.36607496410772972 0.0099128258503241584 0 0.3649654001187026 0.020183039261816259 0 0.35274829662482121 0.015921790885601011 0 0.37254899247150169 0.026414696685793361 0 0.35632905552962613 0.028539258666194341 0 0.37972153351231391 0.034948967731108539 0 0.3649654001187026 0.020183039261816259 0 0.37254899247150169 0.026414696685793361 0 0.35632905552962613 0.028539258666194341 0 0.3649654001187026 0.020183039261816259 0 0.37254899247150169 0.026414696685793361 0 0.37712569185983408 0.020126624221168409 0 0.36607496410772972 0.0099128258503241584 0 0.3649654001187026 0.020183039261816259 0 0.37712569185983408 0.020126624221168409 0 0.35632905552962613 0.028539258666194341 0 0.35274829662482121 0.015921790885601011 0 0.33293657754693851 0.02212954960128018 0 0.35632905552962613 0.028539258666194341 0 0.33293657754693851 0.02212954960128018 0 0.3649654001187026 0.020183039261816259 0 0.35632905552962613 0.028539258666194341 0 0.35274829662482121 0.015921790885601011 0 0.36607496410772972 0.0099128258503241584 0 0.34157602306932849 0.0064507546968392846 0 0.35417251228579488 -2.242005975592893e-05 0 0.36607496410772972 0.0099128258503241584 0 0.35274829662482121 0.015921790885601011 0 0.34157602306932849 0.0064507546968392846 0 0.36607496410772972 0.0099128258503241584 0 0.34157602306932849 0.0064507546968392846 0 0.34157602306932849 0.0064507546968392846 0 0.33293657754693851 0.02212954960128018 0 0.32620267418635412 0.0059866388145550734 0 0.35274829662482121 0.015921790885601011 0 0.34157602306932849 0.0064507546968392846 0 0.33293657754693851 0.02212954960128018 0 0.34157602306932849 0.0064507546968392846 0 0.32620267418635412 0.0059866388145550734 0 0.33353947209339507 -0.0030874404116698678 0 0.35632905552962613 0.028539258666194341 0 0.33293657754693851 0.02212954960128018 0 0.33677866430921333 0.042746402371639132 0 0.33293657754693851 0.02212954960128018 0 0.32303445209427878 0.03735823743790824 0 0.30954409956425089 0.015719840536366041 0 0.33293657754693851 0.02212954960128018 0 0.30954409956425089 0.015719840536366041 0 0.31512547078870717 0.00058050222945548585 0 0.32620267418635412 0.0059866388145550734 0 0.30954409956425089 0.015719840536366041 0 0.33293657754693851 0.02212954960128018 0 0.32620267418635412 0.0059866388145550734 0 0.30954409956425089 0.015719840536366041 0 0.31512547078870717 0.00058050222945548585 0 0.32620267418635412 0.0059866388145550734 0 0.32480757643857888 -0.004030676734553703 0 0.35070289367735308 0.0515811313361665 0 0.3362917714796716 0.06065716441287583 0 0.33677866430921333 0.042746402371639132 0 0.3362917714796716 0.06065716441287583 0 0.33677866430921333 0.042746402371639132 0 0.32027454076834638 0.053691579612965813 0 0.33293657754693851 0.02212954960128018 0 0.33677866430921333 0.042746402371639132 0 0.32303445209427878 0.03735823743790824 0 0.33677866430921333 0.042746402371639132 0 0.32303445209427878 0.03735823743790824 0 0.32027454076834638 0.053691579612965813 0 0.32303445209427878 0.03735823743790824 0 0.32027454076834638 0.053691579612965813 0 0.30650578394631578 0.044892701649794267 0 0.32303445209427878 0.03735823743790824 0 0.30650578394631578 0.044892701649794267 0 0.30954409956425089 0.015719840536366041 0 0.32548261985150279 0.067359467524783917 0 0.3362917714796716 0.06065716441287583 0 0.32027454076834638 0.053691579612965813 0 0.32027454076834638 0.053691579612965813 0 0.30650578394631578 0.044892701649794267 0 0.30277264571709428 0.065087370313758802 0 0.30650578394631578 0.044892701649794267 0 0.29349156052568548 0.056670541144285817 0 0.30277264571709428 0.065087370313758802 0 0.30650578394631578 0.044892701649794267 0 0.2904689778777293 0.045125700538597768 0 0.29168111751751918 0.02888460418978318 0 0.2904689778777293 0.045125700538597768 0 0.29168111751751918 0.02888460418978318 0 0.2758834114161548 0.038455266642768562 0 0.30650578394631578 0.044892701649794267 0 0.2904689778777293 0.045125700538597768 0 0.29349156052568548 0.056670541144285817 0 0.2904689778777293 0.045125700538597768 0 0.29349156052568548 0.056670541144285817 0 0.27986167859138522 0.057155606573707142 0 0.2904689778777293 0.045125700538597768 0 0.27986167859138522 0.057155606573707142 0 0.2758834114161548 0.038455266642768562 0 0.29349156052568548 0.056670541144285817 0 0.27986167859138522 0.057155606573707142 0 0.28784871649590288 0.071091326645571079 0 0.30954409956425089 0.015719840536366041 0 0.28615162158156338 0.0093101314714518976 0 0.30954409956425089 0.015719840536366041 0 0.28615162158156338 0.0093101314714518976 0 0.30337497077494741 -0.0042580161424043677 0 0.31512547078870717 0.00058050222945548585 0 0.30954409956425089 0.015719840536366041 0 0.30337497077494741 -0.0042580161424043677 0 0.30650578394631578 0.044892701649794267 0 0.30954409956425089 0.015719840536366041 0 0.29168111751751918 0.02888460418978318 0 0.29168111751751918 0.02888460418978318 0 0.28615162158156338 0.0093101314714518976 0 0.26878828125423959 0.020092460074794309 0 0.30954409956425089 0.015719840536366041 0 0.29168111751751918 0.02888460418978318 0 0.28615162158156338 0.0093101314714518976 0 0.28615162158156338 0.0093101314714518976 0 0.26247114447865921 0.001459212755205932 0 0.2747839227137826 -0.0090145145465851083 0 0.28615162158156338 0.0093101314714518976 0 0.26878828125423959 0.020092460074794309 0 0.26247114447865921 0.001459212755205932 0 0.26878828125423959 0.020092460074794309 0 0.2758834114161548 0.038455266642768562 0 0.2541752168156497 0.033283058422897631 0 0.29168111751751918 0.02888460418978318 0 0.26878828125423959 0.020092460074794309 0 0.2758834114161548 0.038455266642768562 0 0.26878828125423959 0.020092460074794309 0 0.25291095945433317 0.015933972917932249 0 0.2541752168156497 0.033283058422897631 0 0.26878828125423959 0.020092460074794309 0 0.25291095945433317 0.015933972917932249 0 0.26247114447865921 0.001459212755205932 0 0.2493448423645083 0.0014051681544095839 0 0.25291095945433317 0.015933972917932249 0 0.26247114447865921 0.001459212755205932 0 0.27986167859138522 0.057155606573707142 0 0.26251257909950781 0.044843322471642022 0 0.26215654578266823 0.058364645047413011 0 0.27986167859138522 0.057155606573707142 0 0.2758834114161548 0.038455266642768562 0 0.26251257909950781 0.044843322471642022 0 0.24524984186232679 0.043358196906864918 0 0.2541752168156497 0.033283058422897631 0 0.26251257909950781 0.044843322471642022 0 0.2758834114161548 0.038455266642768562 0 0.2541752168156497 0.033283058422897631 0 0.2758834114161548 0.038455266642768562 0 0.2541752168156497 0.033283058422897631 0 0.26251257909950781 0.044843322471642022 0 0.24702940652874461 0.056345053222077328 0 0.24524984186232679 0.043358196906864918 0 0.26251257909950781 0.044843322471642022 0 0.24702940652874461 0.056345053222077328 0 0.26251257909950781 0.044843322471642022 0 0.26215654578266823 0.058364645047413011 0 0.24702940652874461 0.056345053222077328 0 0.26215654578266823 0.058364645047413011 0 0.25413798255185233 0.06612457479804941 0 0.24508406686404721 0.074042699616066798 0 0.25413798255185233 0.06612457479804941 0 0.26285540556637749 0.074858989928479017 0 0.26215654578266823 0.058364645047413011 0 0.25413798255185233 0.06612457479804941 0 0.26285540556637749 0.074858989928479017 0 0.24584913254136981 0.092562373283250871 0 0.24508406686404721 0.074042699616066798 0 0.26285540556637749 0.074858989928479017 0 0.24584913254136981 0.092562373283250871 0 0.26285540556637749 0.074858989928479017 0 0.26567973009487911 0.092884148373097372 0 0.24584913254136981 0.092562373283250871 0 0.26285540556637749 0.074858989928479017 0 0.27179655706942912 0.082792594367445196 0 0.27040739986602091 0.070920083602711181 0 0.28292295199336859 0.087161759687164039 0 0.26285540556637749 0.074858989928479017 0 0.26567973009487911 0.092884148373097372 0 0.27179655706942912 0.082792594367445196 0 0.26567973009487911 0.092884148373097372 0 0.27179655706942912 0.082792594367445196 0 0.28292295199336859 0.087161759687164039 0 0.27040739986602091 0.070920083602711181 0 0.28292295199336859 0.087161759687164039 0 0.27986167859138522 0.057155606573707142 0 0.27040739986602091 0.070920083602711181 0 0.28784871649590288 0.071091326645571079 0 0.27040739986602091 0.070920083602711181 0 0.28784871649590288 0.071091326645571079 0 0.28292295199336859 0.087161759687164039 0 0.27986167859138522 0.057155606573707142 0 0.26215654578266823 0.058364645047413011 0 0.26285540556637749 0.074858989928479017 0 0.27986167859138522 0.057155606573707142 0 0.26285540556637749 0.074858989928479017 0 0.27040739986602091 0.070920083602711181 0 0.27986167859138522 0.057155606573707142 0 0.26285540556637749 0.074858989928479017 0 0.26285540556637749 0.074858989928479017 0 0.27179655706942912 0.082792594367445196 0 0.27040739986602091 0.070920083602711181 0 0.28784871649590288 0.071091326645571079 0 0.29911647637469918 0.084557520677064277 0 0.30277264571709428 0.065087370313758802 0 0.29349156052568548 0.056670541144285817 0 0.28784871649590288 0.071091326645571079 0 0.30277264571709428 0.065087370313758802 0 0.28292295199336859 0.087161759687164039 0 0.29911647637469918 0.084557520677064277 0 0.29543850412071643 0.1034034357716169 0 0.28784871649590288 0.071091326645571079 0 0.28292295199336859 0.087161759687164039 0 0.29911647637469918 0.084557520677064277 0 0.31611760134168382 0.090350323099841451 0 0.29911647637469918 0.084557520677064277 0 0.29543850412071643 0.1034034357716169 0 0.31341431229701289 0.075466738345394593 0 0.31611760134168382 0.090350323099841451 0 0.29911647637469918 0.084557520677064277 0 0.31341431229701289 0.075466738345394593 0 0.32027454076834638 0.053691579612965813 0 0.30277264571709428 0.065087370313758802 0 0.31341431229701289 0.075466738345394593 0 0.29911647637469918 0.084557520677064277 0 0.30277264571709428 0.065087370313758802 0 0.31824238186382442 0.10596634075124969 0 0.30795405624806621 0.1196451118560683 0 0.29543850412071643 0.1034034357716169 0 0.30795405624806621 0.1196451118560683 0 0.28755656751022812 0.1224012610299153 0 0.30795405624806621 0.1196451118560683 0 0.29543850412071643 0.1034034357716169 0 0.30795405624806621 0.1196451118560683 0 0.29543850412071643 0.1034034357716169 0 0.28755656751022812 0.1224012610299153 0 0.31611760134168382 0.090350323099841451 0 0.31824238186382442 0.10596634075124969 0 0.29543850412071643 0.1034034357716169 0 0.28292295199336859 0.087161759687164039 0 0.29543850412071643 0.1034034357716169 0 0.27757149853761809 0.1071246269212299 0 0.28292295199336859 0.087161759687164039 0 0.29543850412071643 0.1034034357716169 0 0.29543850412071643 0.1034034357716169 0 0.28755656751022812 0.1224012610299153 0 0.27757149853761809 0.1071246269212299 0 0.27757149853761809 0.1071246269212299 0 0.25477011833646362 0.1103263086023575 0 0.26715907877239031 0.1251574102037635 0 0.28755656751022812 0.1224012610299153 0 0.27757149853761809 0.1071246269212299 0 0.26715907877239031 0.1251574102037635 0 0.28755656751022812 0.1224012610299153 0 0.26715907877239031 0.1251574102037635 0 0.26567973009487911 0.092884148373097372 0 0.28292295199336859 0.087161759687164039 0 0.27757149853761809 0.1071246269212299 0 0.26567973009487911 0.092884148373097372 0 0.27757149853761809 0.1071246269212299 0 0.25477011833646362 0.1103263086023575 0 0.24584913254136981 0.092562373283250871 0 0.26567973009487911 0.092884148373097372 0 0.25477011833646362 0.1103263086023575 0 0.24676159003455239 0.12791355937761181 0 0.25477011833646362 0.1103263086023575 0 0.26715907877239031 0.1251574102037635 0 0.24676159003455239 0.12791355937761181 0 0.26715907877239031 0.1251574102037635 0 0.25050055172898211 0.1470204461234195 0 0.24676159003455239 0.12791355937761181 0 0.26715907877239031 0.1251574102037635 0 0.27973574073040353 0.14012950961255341 0 0.26715907877239031 0.1251574102037635 0 0.26693214027285761 0.15164580292090249 0 0.28755656751022812 0.1224012610299153 0 0.27973574073040353 0.14012950961255341 0 0.26715907877239031 0.1251574102037635 0 0.27973574073040353 0.14012950961255341 0 0.26693214027285761 0.15164580292090249 0 0.28558814460545578 0.16572139005079961 0 0.26693214027285761 0.15164580292090249 0 0.25050055172898211 0.1470204461234195 0 0.26390442975729111 0.16651128438396251 0 0.26715907877239031 0.1251574102037635 0 0.26693214027285761 0.15164580292090249 0 0.25050055172898211 0.1470204461234195 0 0.24853663986256111 0.1686506312757925 0 0.25050055172898211 0.1470204461234195 0 0.26390442975729111 0.16651128438396251 0 0.24499458573427471 0.18380406373560509 0 0.24853663986256111 0.1686506312757925 0 0.25881269507918508 0.18723983767290139 0 0.24853663986256111 0.1686506312757925 0 0.25881269507918508 0.18723983767290139 0 0.26688666654816529 0.18899137691729209 0 0.24853663986256111 0.1686506312757925 0 0.26390442975729111 0.16651128438396251 0 0.26688666654816529 0.18899137691729209 0 0.24853663986256111 0.1686506312757925 0 0.26688666654816529 0.18899137691729209 0 0.27359422921988191 0.17523213197826509 0 0.28558814460545578 0.16572139005079961 0 0.27298240200963331 0.19052702935457599 0 0.26390442975729111 0.16651128438396251 0 0.27359422921988191 0.17523213197826509 0 0.26688666654816529 0.18899137691729209 0 0.28558814460545578 0.16572139005079961 0 0.27298240200963331 0.19052702935457599 0 0.28558814460545578 0.16572139005079961 0 0.27298240200963331 0.19052702935457599 0 0.27704414610519129 0.18962688550264081 0 0.27359422921988191 0.17523213197826509 0 0.26688666654816529 0.18899137691729209 0 0.27298240200963331 0.19052702935457599 0 0.26390442975729111 0.16651128438396251 0 0.27359422921988191 0.17523213197826509 0 0.28558814460545578 0.16572139005079961 0 0.26693214027285761 0.15164580292090249 0 0.26390442975729111 0.16651128438396251 0 0.28558814460545578 0.16572139005079961 0 0.28558814460545578 0.16572139005079961 0 0.29387123780829377 0.18265757391415199 0 0.30002612940851581 0.16496503100331389 0 0.28558814460545578 0.16572139005079961 0 0.30002612940851581 0.16496503100331389 0 0.29819388720127987 0.140915750747024 0 0.28558814460545578 0.16572139005079961 0 0.29387123780829377 0.18265757391415199 0 0.27704414610519129 0.18962688550264081 0 0.29387123780829377 0.18265757391415199 0 0.27704414610519129 0.18962688550264081 0 0.29387123780829377 0.18265757391415199 0 0.29364686351599367 0.1859474725088136 0 0.27704414610519129 0.18962688550264081 0 0.29387123780829377 0.18265757391415199 0 0.31069832951139692 0.17568826232566451 0 0.29387123780829377 0.18265757391415199 0 0.31069832951139692 0.17568826232566451 0 0.30002612940851581 0.16496503100331389 0 0.29387123780829377 0.18265757391415199 0 0.29364686351599367 0.1859474725088136 0 0.31024958092679639 0.18226805951498931 0 0.29364686351599367 0.1859474725088136 0 0.31024958092679639 0.18226805951498931 0 0.29387123780829377 0.18265757391415199 0 0.31069832951139692 0.17568826232566451 0 0.31024958092679639 0.18226805951498931 0 0.31069832951139692 0.17568826232566451 0 0.31024958092679639 0.18226805951498931 0 0.31069832951139692 0.17568826232566451 0 0.31177904791615191 0.15984217797892949 0 0.30002612940851581 0.16496503100331389 0 0.31069832951139692 0.17568826232566451 0 0.31177904791615191 0.15984217797892949 0 0.31177904791615191 0.15984217797892949 0 0.30002612940851581 0.16496503100331389 0 0.29819388720127987 0.140915750747024 0 0.31177904791615191 0.15984217797892949 0 0.29819388720127987 0.140915750747024 0 0.32479114848122198 0.14149493481813169 0 0.30795405624806621 0.1196451118560683 0 0.29819388720127987 0.140915750747024 0 0.32479114848122198 0.14149493481813169 0 0.30795405624806621 0.1196451118560683 0 0.28755656751022812 0.1224012610299153 0 0.29819388720127987 0.140915750747024 0 0.28755656751022812 0.1224012610299153 0 0.27973574073040353 0.14012950961255341 0 0.29819388720127987 0.140915750747024 0 0.27973574073040353 0.14012950961255341 0 0.28558814460545578 0.16572139005079961 0 0.29819388720127987 0.140915750747024 0 0.28558814460545578 0.16572139005079961 0 0.29819388720127987 0.140915750747024 0 0.26670419109251631 0.25026282370240799 0 0.25577825020120981 0.22438143983797609 0 0.28024438099156712 0.23192038751720881 0 0.26670419109251631 0.25026282370240799 0 0.28862921881342862 0.25651381299592252 0 0.28024438099156712 0.23192038751720881 0 0.24408767522763519 0.24738620800961111 0 0.26670419109251631 0.25026282370240799 0 0.25577825020120981 0.22438143983797609 0 0.25577825020120981 0.22438143983797609 0 0.28024438099156712 0.23192038751720881 0 0.27641339061321879 0.21557909907581749 0 0.27641339061321879 0.21557909907581749 0 0.26746882517478771 0.20137667166634279 0 0.28806304543853017 0.20349606395814779 0 0.25577825020120981 0.22438143983797609 0 0.27641339061321879 0.21557909907581749 0 0.26746882517478771 0.20137667166634279 0 0.25577825020120981 0.22438143983797609 0 0.26746882517478771 0.20137667166634279 0 0.24125430032536929 0.21638328371995821 0 0.25577825020120981 0.22438143983797609 0 0.26746882517478771 0.20137667166634279 0 0.24286991913566969 0.19325292944681119 0 0.25881269507918508 0.18723983767290139 0 0.2553921061020899 0.19442530466253319 0 0.2553921061020899 0.19442530466253319 0 0.27298240200963331 0.19052702935457599 0 0.2378018101945456 0.19832357997048591 0 0.25782179071692268 0.19758824843624931 0 0.26746882517478771 0.20137667166634279 0 0.2378018101945456 0.19832357997048591 0 0.25782179071692268 0.19758824843624931 0 0.2553921061020899 0.19442530466253319 0 0.25782179071692268 0.19758824843624931 0 0.2553921061020899 0.19442530466253319 0 0.27298240200963331 0.19052702935457599 0 0.2378018101945456 0.19832357997048591 0 0.26746882517478771 0.20137667166634279 0 0.2553921061020899 0.19442530466253319 0 0.26688666654816529 0.18899137691729209 0 0.27298240200963331 0.19052702935457599 0 0.25782179071692268 0.19758824843624931 0 0.27298240200963331 0.19052702935457599 0 0.25881269507918508 0.18723983767290139 0 0.2553921061020899 0.19442530466253319 0 0.26688666654816529 0.18899137691729209 0 0.26746882517478771 0.20137667166634279 0 0.28806304543853017 0.20349606395814779 0 0.27298240200963331 0.19052702935457599 0 0.26746882517478771 0.20137667166634279 0 0.28806304543853017 0.20349606395814779 0 0.27298240200963331 0.19052702935457599 0 0.26746882517478771 0.20137667166634279 0 0.25782179071692268 0.19758824843624931 0 0.27298240200963331 0.19052702935457599 0 0.26746882517478771 0.20137667166634279 0 0.27298240200963331 0.19052702935457599 0 0.27704414610519129 0.18962688550264081 0 0.28806304543853017 0.20349606395814779 0 0.27298240200963331 0.19052702935457599 0 0.27704414610519129 0.18962688550264081 0 0.29364686351599367 0.1859474725088136 0 0.27704414610519129 0.18962688550264081 0 0.28806304543853017 0.20349606395814779 0 0.29364686351599367 0.1859474725088136 0 0.27704414610519129 0.18962688550264081 0 0.29364686351599367 0.1859474725088136 0 0.3086572657022727 0.20561545624995189 0 0.28806304543853017 0.20349606395814779 0 0.29364686351599367 0.1859474725088136 0 0.31024958092679639 0.18226805951498931 0 0.3086572657022727 0.20561545624995189 0 0.31024958092679639 0.18226805951498931 0 0.3086572657022727 0.20561545624995189 0 0.3086572657022727 0.20561545624995189 0 0.30689790252302718 0.23141220146314551 0 0.3086572657022727 0.20561545624995189 0 0.28806304543853017 0.20349606395814779 0 0.3086572657022727 0.20561545624995189 0 0.30689790252302718 0.23141220146314551 0 0.31643390397348697 0.21830950573582331 0 0.27641339061321879 0.21557909907581749 0 0.28806304543853017 0.20349606395814779 0 0.29313610972852522 0.22018778493578589 0 0.3086572657022727 0.20561545624995189 0 0.28806304543853017 0.20349606395814779 0 0.29313610972852522 0.22018778493578589 0 0.28024438099156712 0.23192038751720881 0 0.27641339061321879 0.21557909907581749 0 0.29313610972852522 0.22018778493578589 0 0.28024438099156712 0.23192038751720881 0 0.29451048847783629 0.23187084528641819 0 0.29313610972852522 0.22018778493578589 0 0.3086572657022727 0.20561545624995189 0 0.29313610972852522 0.22018778493578589 0 0.30689790252302718 0.23141220146314551 0 0.30689790252302718 0.23141220146314551 0 0.31643390397348697 0.21830950573582331 0 0.29451048847783629 0.23187084528641819 0 0.29313610972852522 0.22018778493578589 0 0.30689790252302718 0.23141220146314551 0 0.30540728283077301 0.25326848268172381 0 0.30689790252302718 0.23141220146314551 0 0.3198884195097737 0.23687589857564961 0 0.30689790252302718 0.23141220146314551 0 0.29776356066822751 0.24396300722953371 0 0.29451048847783629 0.23187084528641819 0 0.30689790252302718 0.23141220146314551 0 0.29776356066822751 0.24396300722953371 0 0.30540728283077301 0.25326848268172381 0 0.30689790252302718 0.23141220146314551 0 0.29776356066822751 0.24396300722953371 0 0.30540728283077301 0.25326848268172381 0 0.30689790252302718 0.23141220146314551 0 0.28024438099156712 0.23192038751720881 0 0.29451048847783629 0.23187084528641819 0 0.29776356066822751 0.24396300722953371 0 0.28862921881342862 0.25651381299592252 0 0.28024438099156712 0.23192038751720881 0 0.28862921881342862 0.25651381299592252 0 0.28024438099156712 0.23192038751720881 0 0.29776356066822751 0.24396300722953371 0 0.32407224861068928 0.25845906939160002 0 0.33602305800246068 0.24156532362903541 0 0.3198884195097737 0.23687589857564961 0 0.30540728283077301 0.25326848268172381 0 0.32407224861068928 0.25845906939160002 0 0.3198884195097737 0.23687589857564961 0 0.3198884195097737 0.23687589857564961 0 0.33091995500720089 0.22028473832584769 0 0.31643390397348697 0.21830950573582331 0 0.30689790252302718 0.23141220146314551 0 0.3198884195097737 0.23687589857564961 0 0.31643390397348697 0.21830950573582331 0 0.33602305800246068 0.24156532362903541 0 0.3198884195097737 0.23687589857564961 0 0.33091995500720089 0.22028473832584769 0 0.33091995500720089 0.22028473832584769 0 0.3400215363664818 0.20884321591418961 0 0.34408505339426848 0.22834519858783861 0 0.33602305800246068 0.24156532362903541 0 0.33091995500720089 0.22028473832584769 0 0.34408505339426848 0.22834519858783861 0 0.3400215363664818 0.20884321591418961 0 0.32433940103437719 0.20722933608207109 0 0.3400215363664818 0.20884321591418961 0 0.32433940103437719 0.20722933608207109 0 0.33104212449429238 0.20264582156899011 0 0.33091995500720089 0.22028473832584769 0 0.3400215363664818 0.20884321591418961 0 0.32433940103437719 0.20722933608207109 0 0.3400215363664818 0.20884321591418961 0 0.33104212449429238 0.20264582156899011 0 0.3086572657022727 0.20561545624995189 0 0.31643390397348697 0.21830950573582331 0 0.32433940103437719 0.20722933608207109 0 0.3086572657022727 0.20561545624995189 0 0.32433940103437719 0.20722933608207109 0 0.3086572657022727 0.20561545624995189 0 0.32433940103437719 0.20722933608207109 0 0.32343250252217542 0.1997477387295846 0 0.33091995500720089 0.22028473832584769 0 0.31643390397348697 0.21830950573582331 0 0.32433940103437719 0.20722933608207109 0 0.32433940103437719 0.20722933608207109 0 0.32343250252217542 0.1997477387295846 0 0.33104212449429238 0.20264582156899011 0 0.31024958092679639 0.18226805951498931 0 0.3086572657022727 0.20561545624995189 0 0.32113399189084502 0.19116728119210921 0 0.3086572657022727 0.20561545624995189 0 0.32343250252217542 0.1997477387295846 0 0.32113399189084502 0.19116728119210921 0 0.32343250252217542 0.1997477387295846 0 0.32113399189084502 0.19116728119210921 0 0.33198972948908961 0.1920807985548009 0 0.32343250252217542 0.1997477387295846 0 0.33198972948908961 0.1920807985548009 0 0.33104212449429238 0.20264582156899011 0 0.33198972948908961 0.1920807985548009 0 0.33104212449429238 0.20264582156899011 0 0.34158052900810509 0.19714246077915221 0 0.3400215363664818 0.20884321591418961 0 0.33104212449429238 0.20264582156899011 0 0.34158052900810509 0.19714246077915221 0 0.33198972948908961 0.1920807985548009 0 0.34158052900810509 0.19714246077915221 0 0.34206504335435911 0.18622136715287549 0 0.34158052900810509 0.19714246077915221 0 0.3531173648859956 0.19133988765458759 0 0.34206504335435911 0.18622136715287549 0 0.34158052900810509 0.19714246077915221 0 0.35118823991497139 0.2019243174539809 0 0.3531173648859956 0.19133988765458759 0 0.3400215363664818 0.20884321591418961 0 0.34158052900810509 0.19714246077915221 0 0.35118823991497139 0.2019243174539809 0 0.35118823991497139 0.2019243174539809 0 0.3531173648859956 0.19133988765458759 0 0.36100653206352112 0.19951821008446641 0 0.36861665430242579 0.20611717183294859 0 0.37100233338211719 0.18719640054689909 0 0.37702259364788843 0.19725177040780559 0 0.3531173648859956 0.19133988765458759 0 0.36100653206352112 0.19951821008446641 0 0.37100233338211719 0.18719640054689909 0 0.36861665430242579 0.20611717183294859 0 0.37100233338211719 0.18719640054689909 0 0.36100653206352112 0.19951821008446641 0 0.36861665430242579 0.20611717183294859 0 0.37100233338211719 0.18719640054689909 0 0.36110806783209531 0.21101327293391581 0 0.38219459929770883 0.21318332995364189 0 0.36110806783209531 0.21101327293391581 0 0.37086573214651242 0.21973202206850681 0 0.38219459929770883 0.21318332995364189 0 0.36861665430242579 0.20611717183294859 0 0.36110806783209531 0.21101327293391581 0 0.38219459929770883 0.21318332995364189 0 0.36100653206352112 0.19951821008446641 0 0.36861665430242579 0.20611717183294859 0 0.36110806783209531 0.21101327293391581 0 0.36110806783209531 0.21101327293391581 0 0.35785771938578531 0.22115336064940139 0 0.37086573214651242 0.21973202206850681 0 0.3400215363664818 0.20884321591418961 0 0.36110806783209531 0.21101327293391581 0 0.3400215363664818 0.20884321591418961 0 0.36110806783209531 0.21101327293391581 0 0.35785771938578531 0.22115336064940139 0 0.3400215363664818 0.20884321591418961 0 0.35785771938578531 0.22115336064940139 0 0.3400215363664818 0.20884321591418961 0 0.35118823991497139 0.2019243174539809 0 0.36110806783209531 0.21101327293391581 0 0.35118823991497139 0.2019243174539809 0 0.36100653206352112 0.19951821008446641 0 0.36110806783209531 0.21101327293391581 0 0.3400215363664818 0.20884321591418961 0 0.34408505339426848 0.22834519858783861 0 0.35785771938578531 0.22115336064940139 0 0.34408505339426848 0.22834519858783861 0 0.35785771938578531 0.22115336064940139 0 0.35506734431001008 0.24099040477674649 0 0.35785771938578531 0.22115336064940139 0 0.37086573214651242 0.21973202206850681 0 0.37569390240508799 0.23346350538461449 0 0.35785771938578531 0.22115336064940139 0 0.37569390240508799 0.23346350538461449 0 0.35785771938578531 0.22115336064940139 0 0.35506734431001008 0.24099040477674649 0 0.37569390240508799 0.23346350538461449 0 0.366871884000251 0.26098549015955369 0 0.37569390240508799 0.23346350538461449 0 0.366871884000251 0.26098549015955369 0 0.35506734431001008 0.24099040477674649 0 0.37569390240508799 0.23346350538461449 0 0.33602305800246068 0.24156532362903541 0 0.34408505339426848 0.22834519858783861 0 0.35506734431001008 0.24099040477674649 0 0.34621985135880412 0.25716369420118629 0 0.33602305800246068 0.24156532362903541 0 0.35506734431001008 0.24099040477674649 0 0.34267070828927437 0.14760520769186661 0 0.32479114848122198 0.14149493481813169 0 0.32855581780897619 0.1565730003787931 0 0.34267070828927437 0.14760520769186661 0 0.32855581780897619 0.1565730003787931 0 0.33879267973502292 0.16405236682813751 0 0.34267070828927437 0.14760520769186661 0 0.33548825912762259 0.13096913504343041 0 0.35036421010623209 0.1315926994818985 0 0.34267070828927437 0.14760520769186661 0 0.33548825912762259 0.13096913504343041 0 0.32479114848122198 0.14149493481813169 0 0.30795405624806621 0.1196451118560683 0 0.32479114848122198 0.14149493481813169 0 0.30795405624806621 0.1196451118560683 0 0.33548825912762259 0.13096913504343041 0 0.32479114848122198 0.14149493481813169 0 0.31177904791615191 0.15984217797892949 0 0.32479114848122198 0.14149493481813169 0 0.32855581780897619 0.1565730003787931 0 0.31069832951139692 0.17568826232566451 0 0.31177904791615191 0.15984217797892949 0 0.32474550462320961 0.1698703145769003 0 0.31177904791615191 0.15984217797892949 0 0.32474550462320961 0.1698703145769003 0 0.32855581780897619 0.1565730003787931 0 0.31024958092679639 0.18226805951498931 0 0.32113399189084502 0.19116728119210921 0 0.33129572477180019 0.17760391609694109 0 0.31024958092679639 0.18226805951498931 0 0.32474550462320961 0.1698703145769003 0 0.33129572477180019 0.17760391609694109 0 0.31024958092679639 0.18226805951498931 0 0.33129572477180019 0.17760391609694109 0 0.31069832951139692 0.17568826232566451 0 0.31024958092679639 0.18226805951498931 0 0.32474550462320961 0.1698703145769003 0 0.31069832951139692 0.17568826232566451 0 0.32474550462320961 0.1698703145769003 0 0.33129572477180019 0.17760391609694109 0 0.34206504335435911 0.18622136715287549 0 0.35234186861680472 0.17293977267889571 0 0.33129572477180019 0.17760391609694109 0 0.35234186861680472 0.17293977267889571 0 0.33198972948908961 0.1920807985548009 0 0.33129572477180019 0.17760391609694109 0 0.34206504335435911 0.18622136715287549 0 0.32113399189084502 0.19116728119210921 0 0.33198972948908961 0.1920807985548009 0 0.33129572477180019 0.17760391609694109 0 0.33129572477180019 0.17760391609694109 0 0.33879267973502292 0.16405236682813751 0 0.35234186861680472 0.17293977267889571 0 0.32474550462320961 0.1698703145769003 0 0.32855581780897619 0.1565730003787931 0 0.33879267973502292 0.16405236682813751 0 0.32474550462320961 0.1698703145769003 0 0.33879267973502292 0.16405236682813751 0 0.32474550462320961 0.1698703145769003 0 0.33129572477180019 0.17760391609694109 0 0.33879267973502292 0.16405236682813751 0 0.34267070828927437 0.14760520769186661 0 0.33879267973502292 0.16405236682813751 0 0.35068377849926219 0.16065843584034711 0 0.33879267973502292 0.16405236682813751 0 0.35068377849926219 0.16065843584034711 0 0.35234186861680472 0.17293977267889571 0 0.35068377849926219 0.16065843584034711 0 0.36380235711786002 0.15860959337706351 0 0.35703435534156802 0.15262492932747479 0 0.35068377849926219 0.16065843584034711 0 0.35234186861680472 0.17293977267889571 0 0.36380235711786002 0.15860959337706351 0 0.3531173648859956 0.19133988765458759 0 0.34206504335435911 0.18622136715287549 0 0.35234186861680472 0.17293977267889571 0 0.3531173648859956 0.19133988765458759 0 0.35234186861680472 0.17293977267889571 0 0.37100233338211719 0.18719640054689909 0 0.37100233338211719 0.18719640054689909 0 0.37338801246180892 0.1682756292608496 0 0.35234186861680472 0.17293977267889571 0 0.37100233338211719 0.18719640054689909 0 0.37338801246180892 0.1682756292608496 0 0.37338801246180892 0.1682756292608496 0 0.37598838348065883 0.147652140659499 0 0.36380235711786002 0.15860959337706351 0 0.37338801246180892 0.1682756292608496 0 0.37598838348065883 0.147652140659499 0 0.35234186861680472 0.17293977267889571 0 0.37338801246180892 0.1682756292608496 0 0.35234186861680472 0.17293977267889571 0 0.36380235711786002 0.15860959337706351 0 0.37338801246180892 0.1682756292608496 0 0.36380235711786002 0.15860959337706351 0 0.36575527557501142 0.14812777850814959 0 0.37598838348065883 0.147652140659499 0 0.36575527557501142 0.14812777850814959 0 0.37011735806513207 0.13885874591995279 0 0.37598838348065883 0.147652140659499 0 0.37011735806513207 0.13885874591995279 0 0.37598838348065883 0.147652140659499 0 0.36575527557501142 0.14812777850814959 0 0.35811915890754231 0.1409224626114684 0 0.37011735806513207 0.13885874591995279 0 0.36575527557501142 0.14812777850814959 0 0.35703435534156802 0.15262492932747479 0 0.35811915890754231 0.1409224626114684 0 0.36380235711786002 0.15860959337706351 0 0.36575527557501142 0.14812777850814959 0 0.35703435534156802 0.15262492932747479 0 0.34267070828927437 0.14760520769186661 0 0.35703435534156802 0.15262492932747479 0 0.35811915890754231 0.1409224626114684 0 0.34267070828927437 0.14760520769186661 0 0.35068377849926219 0.16065843584034711 0 0.35703435534156802 0.15262492932747479 0 0.35157714643851551 0.1141437321368203 0 0.33548825912762259 0.13096913504343041 0 0.35036421010623209 0.1315926994818985 0 0.34267070828927437 0.14760520769186661 0 0.35811915890754231 0.1409224626114684 0 0.35036421010623209 0.1315926994818985 0 0.35811915890754231 0.1409224626114684 0 0.35036421010623209 0.1315926994818985 0 0.3627730460680359 0.12672541473946861 0 0.37011735806513207 0.13885874591995279 0 0.37865315121162502 0.12651792307034379 0 0.37598838348065883 0.147652140659499 0 0.3627730460680359 0.12672541473946861 0 0.37011735806513207 0.13885874591995279 0 0.37865315121162502 0.12651792307034379 0 0.35811915890754231 0.1409224626114684 0 0.3627730460680359 0.12672541473946861 0 0.37011735806513207 0.13885874591995279 0 0.37865315121162502 0.12651792307034379 0 0.38552611998295361 0.1374526198718069 0 0.39441739984549901 0.1241302862483445 0 0.37865315121162502 0.12651792307034379 0 0.38552611998295361 0.1374526198718069 0 0.37598838348065883 0.147652140659499 0 0.37865315121162502 0.12651792307034379 0 0.37598838348065883 0.147652140659499 0 0.40692520790138581 0.1375159079987914 0 0.41375939183803889 0.12438751577121231 0 0.39441739984549901 0.1241302862483445 0 0.38552611998295361 0.1374526198718069 0 0.39528656874141049 0.1393503008590129 0 0.39441739984549901 0.1241302862483445 0 0.39528656874141049 0.1393503008590129 0 0.40692520790138581 0.1375159079987914 0 0.39441739984549901 0.1241302862483445 0 0.40167710695360992 0.14951627890174121 0 0.38917733403563831 0.14825117602850449 0 0.3876479635813378 0.16511540866910429 0 0.39528656874141049 0.1393503008590129 0 0.40167710695360992 0.14951627890174121 0 0.40692520790138581 0.1375159079987914 0 0.39528656874141049 0.1393503008590129 0 0.40167710695360992 0.14951627890174121 0 0.38917733403563831 0.14825117602850449 0 0.38917733403563831 0.14825117602850449 0 0.37598838348065883 0.147652140659499 0 0.3876479635813378 0.16511540866910429 0 0.38552611998295361 0.1374526198718069 0 0.38917733403563831 0.14825117602850449 0 0.37598838348065883 0.147652140659499 0 0.38552611998295361 0.1374526198718069 0 0.39528656874141049 0.1393503008590129 0 0.38917733403563831 0.14825117602850449 0 0.37598838348065883 0.147652140659499 0 0.3876479635813378 0.16511540866910429 0 0.37338801246180892 0.1682756292608496 0 0.37598838348065883 0.147652140659499 0 0.3876479635813378 0.16511540866910429 0 0.37338801246180892 0.1682756292608496 0 0.3876479635813378 0.16511540866910429 0 0.38274094156957489 0.1817451985455423 0 0.37338801246180892 0.1682756292608496 0 0.3876479635813378 0.16511540866910429 0 0.37100233338211719 0.18719640054689909 0 0.37338801246180892 0.1682756292608496 0 0.38274094156957489 0.1817451985455423 0 0.3876479635813378 0.16511540866910429 0 0.38274094156957489 0.1817451985455423 0 0.39926908452155829 0.1825210740360185 0 0.38274094156957489 0.1817451985455423 0 0.39926908452155829 0.1825210740360185 0 0.38764867084536248 0.19616830377624239 0 0.3876479635813378 0.16511540866910429 0 0.39926908452155829 0.1825210740360185 0 0.3876479635813378 0.16511540866910429 0 0.39926908452155829 0.1825210740360185 0 0.4127568475293118 0.15955090066883321 0 0.40167710695360992 0.14951627890174121 0 0.3876479635813378 0.16511540866910429 0 0.4127568475293118 0.15955090066883321 0 0.3876479635813378 0.16511540866910429 0 0.4127568475293118 0.15955090066883321 0 0.39926908452155829 0.1825210740360185 0 0.4127568475293118 0.15955090066883321 0 0.41733915970324392 0.18303868081007471 0 0.4127568475293118 0.15955090066883321 0 0.41733915970324392 0.18303868081007471 0 0.43471364205589857 0.17804639708199901 0 0.43471364205589857 0.17804639708199901 0 0.43786573147728608 0.15398639266856359 0 0.4127568475293118 0.15955090066883321 0 0.43471364205589857 0.17804639708199901 0 0.43786573147728608 0.15398639266856359 0 0.4127568475293118 0.15955090066883321 0 0.43786573147728608 0.15398639266856359 0 0.4127568475293118 0.15955090066883321 0 0.42773951025102319 0.1458876489584397 0 0.43786573147728608 0.15398639266856359 0 0.42773951025102319 0.1458876489584397 0 0.43948005490385461 0.14166420773802921 0 0.43786573147728608 0.15398639266856359 0 0.42975146326382302 0.13212867936583519 0 0.44152649671145788 0.12992187075840789 0 0.43543067731870683 0.1163956131204143 0 0.42773951025102319 0.1458876489584397 0 0.42975146326382302 0.13212867936583519 0 0.43948005490385461 0.14166420773802921 0 0.42975146326382302 0.13212867936583519 0 0.44152649671145788 0.12992187075840789 0 0.43948005490385461 0.14166420773802921 0 0.42773951025102319 0.1458876489584397 0 0.42975146326382302 0.13212867936583519 0 0.41884345408084078 0.14210806435093981 0 0.42975146326382302 0.13212867936583519 0 0.41884345408084078 0.14210806435093981 0 0.41375939183803889 0.12438751577121231 0 0.40692520790138581 0.1375159079987914 0 0.41884345408084078 0.14210806435093981 0 0.41375939183803889 0.12438751577121231 0 0.4127568475293118 0.15955090066883321 0 0.42773951025102319 0.1458876489584397 0 0.41884345408084078 0.14210806435093981 0 0.40167710695360992 0.14951627890174121 0 0.40692520790138581 0.1375159079987914 0 0.41884345408084078 0.14210806435093981 0 0.40167710695360992 0.14951627890174121 0 0.4127568475293118 0.15955090066883321 0 0.41884345408084078 0.14210806435093981 0 0.366871884000251 0.26098549015955369 0 0.39942768190676292 0.24984404265893251 0 0.37569390240508799 0.23346350538461449 0 0.39942768190676292 0.24984404265893251 0 0.39351642974102852 0.2290656983796466 0 0.40791300224572641 0.23357974653930419 0 0.39942768190676292 0.24984404265893251 0 0.37569390240508799 0.23346350538461449 0 0.39942768190676292 0.24984404265893251 0 0.37569390240508799 0.23346350538461449 0 0.39351642974102852 0.2290656983796466 0 0.37569390240508799 0.23346350538461449 0 0.38219459929770883 0.21318332995364189 0 0.37086573214651242 0.21973202206850681 0 0.37569390240508799 0.23346350538461449 0 0.38219459929770883 0.21318332995364189 0 0.37569390240508799 0.23346350538461449 0 0.39351642974102852 0.2290656983796466 0 0.38219459929770883 0.21318332995364189 0 0.39351642974102852 0.2290656983796466 0 0.40235296284985578 0.21525786736174141 0 0.38219459929770883 0.21318332995364189 0 0.39351642974102852 0.2290656983796466 0 0.40235296284985578 0.21525786736174141 0 0.40791300224572641 0.23357974653930419 0 0.40235296284985578 0.21525786736174141 0 0.39577160961367652 0.20613406012363941 0 0.38219459929770883 0.21318332995364189 0 0.40235296284985578 0.21525786736174141 0 0.38219459929770883 0.21318332995364189 0 0.40235296284985578 0.21525786736174141 0 0.39577160961367652 0.20613406012363941 0 0.41089020546177851 0.19992673940293279 0 0.36861665430242579 0.20611717183294859 0 0.38219459929770883 0.21318332995364189 0 0.37702259364788843 0.19725177040780559 0 0.38219459929770883 0.21318332995364189 0 0.38764867084536248 0.19616830377624239 0 0.39577160961367652 0.20613406012363941 0 0.38219459929770883 0.21318332995364189 0 0.38764867084536248 0.19616830377624239 0 0.38219459929770883 0.21318332995364189 0 0.38764867084536248 0.19616830377624239 0 0.37702259364788843 0.19725177040780559 0 0.37100233338211719 0.18719640054689909 0 0.38274094156957489 0.1817451985455423 0 0.37702259364788843 0.19725177040780559 0 0.38274094156957489 0.1817451985455423 0 0.38764867084536248 0.19616830377624239 0 0.37702259364788843 0.19725177040780559 0 0.39926908452155829 0.1825210740360185 0 0.41089020546177851 0.19992673940293279 0 0.39926908452155829 0.1825210740360185 0 0.38764867084536248 0.19616830377624239 0 0.41089020546177851 0.19992673940293279 0 0.39577160961367652 0.20613406012363941 0 0.38764867084536248 0.19616830377624239 0 0.41089020546177851 0.19992673940293279 0 0.39926908452155829 0.1825210740360185 0 0.41733915970324392 0.18303868081007471 0 0.41089020546177851 0.19992673940293279 0 0.41733915970324392 0.18303868081007471 0 0.41089020546177851 0.19992673940293279 0 0.43156155263451018 0.20210640149543441 0 0.41733915970324392 0.18303868081007471 0 0.43471364205589857 0.17804639708199901 0 0.43156155263451018 0.20210640149543441 0 0.43471364205589857 0.17804639708199901 0 0.43156155263451018 0.20210640149543441 0 0.43156155263451018 0.20210640149543441 0 0.42480142661983911 0.2175680835518973 0 0.42840946321312051 0.22616640590886961 0 0.43156155263451018 0.20210640149543441 0 0.42840946321312051 0.22616640590886961 0 0.44436461221646167 0.20999508604729539 0 0.43156155263451018 0.20210640149543441 0 0.42840946321312051 0.22616640590886961 0 0.43156155263451018 0.20210640149543441 0 0.42480142661983911 0.2175680835518973 0 0.4225113264020024 0.21733240476984469 0 0.42480142661983911 0.2175680835518973 0 0.4225113264020024 0.21733240476984469 0 0.41089020546177851 0.19992673940293279 0 0.43156155263451018 0.20210640149543441 0 0.4225113264020024 0.21733240476984469 0 0.40235296284985578 0.21525786736174141 0 0.4225113264020024 0.21733240476984469 0 0.41089020546177851 0.19992673940293279 0 0.4225113264020024 0.21733240476984469 0 0.40235296284985578 0.21525786736174141 0 0.41089020546177851 0.19992673940293279 0 0.4225113264020024 0.21733240476984469 0 0.40235296284985578 0.21525786736174141 0 0.40791300224572641 0.23357974653930419 0 0.41739444340429749 0.2277063835001634 0 0.40235296284985578 0.21525786736174141 0 0.4225113264020024 0.21733240476984469 0 0.41739444340429749 0.2277063835001634 0 0.4225113264020024 0.21733240476984469 0 0.42840946321312051 0.22616640590886961 0 0.42480142661983911 0.2175680835518973 0 0.4225113264020024 0.21733240476984469 0 0.42840946321312051 0.22616640590886961 0 0.4225113264020024 0.21733240476984469 0 0.41739444340429749 0.2277063835001634 0 0.42840946321312051 0.22616640590886961 0 0.41739444340429749 0.2277063835001634 0 0.42840946321312051 0.22616640590886961 0 0.4257854623107804 0.24619549292105969 0 0.42840946321312051 0.22616640590886961 0 0.43536105216878368 0.2365782269159023 0 0.44368062793731677 0.22349698264731471 0 0.42840946321312051 0.22616640590886961 0 0.43536105216878368 0.2365782269159023 0 0.42840946321312051 0.22616640590886961 0 0.43536105216878368 0.2365782269159023 0 0.4257854623107804 0.24619549292105969 0 0.42840946321312051 0.22616640590886961 0 0.4257854623107804 0.24619549292105969 0 0.43536105216878368 0.2365782269159023 0 0.4257854623107804 0.24619549292105969 0 0.44026912624384251 0.2482901158784577 0 0.40791300224572641 0.23357974653930419 0 0.41739444340429749 0.2277063835001634 0 0.4257854623107804 0.24619549292105969 0 0.39942768190676292 0.24984404265893251 0 0.40791300224572641 0.23357974653930419 0 0.4257854623107804 0.24619549292105969 0 0.46726549252889987 0.2445719445248026 0 0.46454470571912321 0.24111178163676639 0 0.45973388256905029 0.22023911071248209 0 0.46974488900411798 0.26199038117111378 0 0.46726549252889987 0.2445719445248026 0 0.46454470571912321 0.24111178163676639 0 0.46259686318363369 0.25465534831908893 0 0.46454470571912321 0.24111178163676639 0 0.46017941216138591 0.24818184617103509 0 0.46454470571912321 0.24111178163676639 0 0.45599289621143579 0.24380603632437331 0 0.45411179728733608 0.23319590634983331 0 0.46454470571912321 0.24111178163676639 0 0.45599289621143579 0.24380603632437331 0 0.46017941216138591 0.24818184617103509 0 0.45675440256914851 0.25143546716135329 0 0.45599289621143579 0.24380603632437331 0 0.46017941216138591 0.24818184617103509 0 0.45675440256914851 0.25143546716135329 0 0.45599289621143579 0.24380603632437331 0 0.44980473776379493 0.24892982199632099 0 0.44980473776379493 0.24892982199632099 0 0.44026912624384251 0.2482901158784577 0 0.44889748720277189 0.2412936916596255 0 0.45599289621143579 0.24380603632437331 0 0.44980473776379493 0.24892982199632099 0 0.44889748720277189 0.2412936916596255 0 0.43536105216878368 0.2365782269159023 0 0.44889748720277189 0.2412936916596255 0 0.44479975205276812 0.23334101624467121 0 0.43536105216878368 0.2365782269159023 0 0.44026912624384251 0.2482901158784577 0 0.44889748720277189 0.2412936916596255 0 0.45599289621143579 0.24380603632437331 0 0.44889748720277189 0.2412936916596255 0 0.45411179728733608 0.23319590634983331 0 0.44889748720277189 0.2412936916596255 0 0.44479975205276812 0.23334101624467121 0 0.45411179728733608 0.23319590634983331 0 0.44368062793731677 0.22349698264731471 0 0.45973388256905029 0.22023911071248209 0 0.45411179728733608 0.23319590634983331 0 0.42840946321312051 0.22616640590886961 0 0.44368062793731677 0.22349698264731471 0 0.44436461221646167 0.20999508604729539 0 0.44479975205276812 0.23334101624467121 0 0.44368062793731677 0.22349698264731471 0 0.45411179728733608 0.23319590634983331 0 0.43536105216878368 0.2365782269159023 0 0.44479975205276812 0.23334101624467121 0 0.44368062793731677 0.22349698264731471 0 0.46726549252889987 0.2445719445248026 0 0.45973388256905029 0.22023911071248209 0 0.46454470571912321 0.24111178163676639 0 0.45973388256905029 0.22023911071248209 0 0.45411179728733608 0.23319590634983331 0 0.46726549252889987 0.2445719445248026 0 0.45973388256905029 0.22023911071248209 0 0.47193941891911578 0.2377486676429052 0 0.45973388256905029 0.22023911071248209 0 0.46852982483255501 0.20530530186961091 0 0.45220227260920082 0.19590627690016171 0 0.45973388256905029 0.22023911071248209 0 0.45220227260920082 0.19590627690016171 0 0.45973388256905029 0.22023911071248209 0 0.46852982483255501 0.20530530186961091 0 0.47352033382411912 0.21868285927332179 0 0.45973388256905029 0.22023911071248209 0 0.44436461221646167 0.20999508604729539 0 0.45220227260920082 0.19590627690016171 0 0.44368062793731677 0.22349698264731471 0 0.45973388256905029 0.22023911071248209 0 0.44436461221646167 0.20999508604729539 0 0.43156155263451018 0.20210640149543441 0 0.44436461221646167 0.20999508604729539 0 0.45220227260920082 0.19590627690016171 0 0.43471364205589857 0.17804639708199901 0 0.43156155263451018 0.20210640149543441 0 0.45220227260920082 0.19590627690016171 0 0.46852982483255501 0.20530530186961091 0 0.45220227260920082 0.19590627690016171 0 0.46615988056152152 0.1908274089020511 0 0.45220227260920082 0.19590627690016171 0 0.46615988056152152 0.1908274089020511 0 0.45879405197766071 0.18012278015188449 0 0.46615988056152152 0.1908274089020511 0 0.47919108664458759 0.1934113314950143 0 0.47208216674360381 0.1793913540935842 0 0.46852982483255501 0.20530530186961091 0 0.46615988056152152 0.1908274089020511 0 0.47919108664458759 0.1934113314950143 0 0.49732382361072702 0.19594215850747609 0 0.5 0.20603080702203139 0 0.5 0.18177823348335431 0 0.47919108664458759 0.1934113314950143 0 0.48932966766976382 0.190557790266463 0 0.48602222898774727 0.18066595386055709 0 0.48932966766976382 0.190557790266463 0 0.49732382361072702 0.19594215850747609 0 0.5 0.18177823348335431 0 0.47919108664458759 0.1934113314950143 0 0.48932966766976382 0.190557790266463 0 0.48930364138476679 0.20497541544067369 0 0.48932966766976382 0.190557790266463 0 0.49732382361072702 0.19594215850747609 0 0.48930364138476679 0.20497541544067369 0 0.49732382361072702 0.19594215850747609 0 0.4986619118053634 0.2252390563034308 0 0.49732382361072702 0.19594215850747609 0 0.48930364138476679 0.20497541544067369 0 0.49294118880886167 0.21361032414149361 0 0.49732382361072702 0.19594215850747609 0 0.49294118880886167 0.21361032414149361 0 0.4986619118053634 0.2252390563034308 0 0.49732382361072702 0.19594215850747609 0 0.5 0.20603080702203139 0 0.4986619118053634 0.2252390563034308 0 0.49294118880886167 0.21361032414149361 0 0.4882051255917661 0.21731409025307019 0 0.49121144165168529 0.2245809002028174 0 0.48930364138476679 0.20497541544067369 0 0.49294118880886167 0.21361032414149361 0 0.4882051255917661 0.21731409025307019 0 0.48930364138476679 0.20497541544067369 0 0.4882051255917661 0.21731409025307019 0 0.48047445222170998 0.2112122776065905 0 0.48047445222170998 0.2112122776065905 0 0.47352033382411912 0.21868285927332179 0 0.48360765434923447 0.2251174109592198 0 0.47919108664458759 0.1934113314950143 0 0.48930364138476679 0.20497541544067369 0 0.48047445222170998 0.2112122776065905 0 0.46852982483255501 0.20530530186961091 0 0.47919108664458759 0.1934113314950143 0 0.48047445222170998 0.2112122776065905 0 0.4882051255917661 0.21731409025307019 0 0.48047445222170998 0.2112122776065905 0 0.48360765434923447 0.2251174109592198 0 0.46852982483255501 0.20530530186961091 0 0.48047445222170998 0.2112122776065905 0 0.47352033382411912 0.21868285927332179 0 0.45973388256905029 0.22023911071248209 0 0.47525585514804553 0.2315401952187057 0 0.47193941891911578 0.2377486676429052 0 0.45973388256905029 0.22023911071248209 0 0.47352033382411912 0.21868285927332179 0 0.47525585514804553 0.2315401952187057 0 0.47525585514804553 0.2315401952187057 0 0.48360765434923447 0.2251174109592198 0 0.48351437565578659 0.2346310373346146 0 0.47352033382411912 0.21868285927332179 0 0.47525585514804553 0.2315401952187057 0 0.48360765434923447 0.2251174109592198 0 0.4882051255917661 0.21731409025307019 0 0.48360765434923447 0.2251174109592198 0 0.49121144165168529 0.2245809002028174 0 0.5 0.20603080702203139 0 0.5 0.23028338056070841 0 0.4986619118053634 0.2252390563034308 0 0.49294118880886167 0.21361032414149361 0 0.49121144165168529 0.2245809002028174 0 0.4986619118053634 0.2252390563034308 0 0.49121144165168529 0.2245809002028174 0 0.49030853195584928 0.2347586362683092 0 0.49504547135322452 0.2347786367184857 0 0.49121144165168529 0.2245809002028174 0 0.4986619118053634 0.2252390563034308 0 0.49504547135322452 0.2347786367184857 0 0.48360765434923447 0.2251174109592198 0 0.49030853195584928 0.2347586362683092 0 0.48351437565578659 0.2346310373346146 0 0.48360765434923447 0.2251174109592198 0 0.49121144165168529 0.2245809002028174 0 0.49030853195584928 0.2347586362683092 0 0.49999999999999989 0.25453595409938551 0 0.49030853195584928 0.2347586362683092 0 0.49504547135322452 0.2347786367184857 0 0.49999999999999989 0.25453595409938551 0 0.49030853195584928 0.2347586362683092 0 0.48822360492280598 0.24279884890547179 0 0.49999999999999989 0.25453595409938551 0 0.4986619118053634 0.2252390563034308 0 0.49504547135322452 0.2347786367184857 0 0.49999999999999989 0.25453595409938551 0 0.4986619118053634 0.2252390563034308 0 0.49999999999999989 0.25453595409938551 0 0.5 0.23028338056070841 0 0.4986619118053634 0.2252390563034308 0 0.49030853195584928 0.2347586362683092 0 0.48822360492280598 0.24279884890547179 0 0.48351437565578659 0.2346310373346146 0 0.48773754792976343 0.25092288794538409 0 0.48822360492280598 0.24279884890547179 0 0.48284900161305599 0.2462726230721155 0 0.49999999999999989 0.25453595409938551 0 0.48773754792976343 0.25092288794538409 0 0.48822360492280598 0.24279884890547179 0 0.48822360492280598 0.24279884890547179 0 0.48284900161305599 0.2462726230721155 0 0.47995000523883902 0.239878622803855 0 0.48132079222896762 0.25226252207308519 0 0.48773754792976343 0.25092288794538409 0 0.48284900161305599 0.2462726230721155 0 0.48132079222896762 0.25226252207308519 0 0.48284900161305599 0.2462726230721155 0 0.47701305774490371 0.24550023363278131 0 0.48284900161305599 0.2462726230721155 0 0.47701305774490371 0.24550023363278131 0 0.47995000523883902 0.239878622803855 0 0.47525585514804553 0.2315401952187057 0 0.48351437565578659 0.2346310373346146 0 0.47995000523883902 0.239878622803855 0 0.48822360492280598 0.24279884890547179 0 0.48351437565578659 0.2346310373346146 0 0.47995000523883902 0.239878622803855 0 0.47701305774490371 0.24550023363278131 0 0.47995000523883902 0.239878622803855 0 0.47193941891911578 0.2377486676429052 0 0.47525585514804553 0.2315401952187057 0 0.47995000523883902 0.239878622803855 0 0.47193941891911578 0.2377486676429052 0 0.47538932675441631 0.2532173092492252 0 0.46726549252889987 0.2445719445248026 0 0.47290182398683389 0.24525953876242859 0 0.47538932675441631 0.2532173092492252 0 0.47701305774490371 0.24550023363278131 0 0.47290182398683389 0.24525953876242859 0 0.46726549252889987 0.2445719445248026 0 0.47193941891911578 0.2377486676429052 0 0.47290182398683389 0.24525953876242859 0 0.47701305774490371 0.24550023363278131 0 0.47193941891911578 0.2377486676429052 0 0.47290182398683389 0.24525953876242859 0 0.46608637210412851 0.1477322723792539 0 0.43786573147728608 0.15398639266856359 0 0.46016646906495112 0.16395371122315031 0 0.46608637210412851 0.1477322723792539 0 0.45286292290921282 0.13859746743760179 0 0.47496103211525731 0.1237634329267102 0 0.45286292290921282 0.13859746743760179 0 0.47496103211525731 0.1237634329267102 0 0.45225301510521332 0.1233337151903597 0 0.45286292290921282 0.13859746743760179 0 0.44152649671145788 0.12992187075840789 0 0.45225301510521332 0.1233337151903597 0 0.45286292290921282 0.13859746743760179 0 0.44152649671145788 0.12992187075840789 0 0.43948005490385461 0.14166420773802921 0 0.46608637210412851 0.1477322723792539 0 0.45286292290921282 0.13859746743760179 0 0.43786573147728608 0.15398639266856359 0 0.46608637210412851 0.1477322723792539 0 0.43786573147728608 0.15398639266856359 0 0.43948005490385461 0.14166420773802921 0 0.43786573147728608 0.15398639266856359 0 0.45286292290921282 0.13859746743760179 0 0.43948005490385461 0.14166420773802921 0 0.43786573147728608 0.15398639266856359 0 0.43786573147728608 0.15398639266856359 0 0.44467066264935118 0.1715734430878412 0 0.46016646906495112 0.16395371122315031 0 0.43471364205589857 0.17804639708199901 0 0.43786573147728608 0.15398639266856359 0 0.44467066264935118 0.1715734430878412 0 0.45220227260920082 0.19590627690016171 0 0.44467066264935118 0.1715734430878412 0 0.45879405197766071 0.18012278015188449 0 0.45220227260920082 0.19590627690016171 0 0.44467066264935118 0.1715734430878412 0 0.43471364205589857 0.17804639708199901 0 0.45220227260920082 0.19590627690016171 0 0.44467066264935118 0.1715734430878412 0 0.45879405197766071 0.18012278015188449 0 0.46016646906495112 0.16395371122315031 0 0.47208216674360381 0.1793913540935842 0 0.46615988056152152 0.1908274089020511 0 0.45879405197766071 0.18012278015188449 0 0.47208216674360381 0.1793913540935842 0 0.44467066264935118 0.1715734430878412 0 0.45879405197766071 0.18012278015188449 0 0.46016646906495112 0.16395371122315031 0 0.46016646906495112 0.16395371122315031 0 0.48085855815761291 0.1694582099979117 0 0.48428522806642083 0.15406703508246189 0 0.46016646906495112 0.16395371122315031 0 0.48085855815761291 0.1694582099979117 0 0.47208216674360381 0.1793913540935842 0 0.48085855815761291 0.1694582099979117 0 0.47208216674360381 0.1793913540935842 0 0.48602222898774727 0.18066595386055709 0 0.47919108664458759 0.1934113314950143 0 0.47208216674360381 0.1793913540935842 0 0.48602222898774727 0.18066595386055709 0 0.48932966766976382 0.190557790266463 0 0.48602222898774727 0.18066595386055709 0 0.5 0.18177823348335431 0 0.48085855815761291 0.1694582099979117 0 0.48602222898774727 0.18066595386055709 0 0.49143708201915959 0.16897517975305609 0 0.48602222898774727 0.18066595386055709 0 0.5 0.18177823348335431 0 0.49143708201915959 0.16897517975305609 0 0.5 0.18177823348335431 0 0.49143708201915959 0.16897517975305609 0 0.49999999999999928 0.15752565994467729 0 0.49143708201915959 0.16897517975305609 0 0.49999999999999928 0.15752565994467729 0 0.48428522806642083 0.15406703508246189 0 0.48085855815761291 0.1694582099979117 0 0.49143708201915959 0.16897517975305609 0 0.48428522806642083 0.15406703508246189 0 0.49999999999999928 0.15752565994467729 0 0.500000000000003 0.14669110421028861 0 0.49594489535160508 0.142977927739637 0 0.49999999999999928 0.15752565994467729 0 0.49594489535160508 0.142977927739637 0 0.48428522806642083 0.15406703508246189 0 0.49999999999999928 0.15752565994467729 0 0.49594489535160508 0.142977927739637 0 0.49545587105339439 0.1412235477300019 0 0.50000000000001943 0.1402165001077316 0 0.500000000000003 0.14669110421028861 0 0.49594489535160508 0.142977927739637 0 0.50000000000001943 0.1402165001077316 0 0.49594489535160508 0.142977927739637 0 0.49545587105339439 0.1412235477300019 0 0.50000000000001943 0.1402165001077316 0 0.500000000000003 0.14669110421028861 0 0.49594489535160508 0.142977927739637 0 0.49594489535160508 0.142977927739637 0 0.49545587105339439 0.1412235477300019 0 0.49594489535160508 0.142977927739637 0 0.49545587105339439 0.1412235477300019 0 0.48428522806642083 0.15406703508246189 0 0.46608637210412851 0.1477322723792539 0 0.49545587105339439 0.1412235477300019 0 0.46608637210412851 0.1477322723792539 0 0.49545587105339439 0.1412235477300019 0 0.48428522806642083 0.15406703508246189 0 0.46608637210412851 0.1477322723792539 0 0.46016646906495112 0.16395371122315031 0 0.48428522806642083 0.15406703508246189 0 0.46608637210412851 0.1477322723792539 0 0.49545587105339439 0.1412235477300019 0 0.47496103211525731 0.1237634329267102 0 0.49545587105339439 0.1412235477300019 0 0.48950694225452568 0.1198817007058849 0 0.49545587105339439 0.1412235477300019 0 0.48950694225452568 0.1198817007058849 0 0.47496103211525731 0.1237634329267102 0 0.50000000000001943 0.1402165001077316 0 0.5 0.11691690982984899 0 0.48950694225452568 0.1198817007058849 0 0.49545587105339439 0.1412235477300019 0 0.47496103211525731 0.1237634329267102 0 0.49545587105339439 0.1412235477300019 0 0.50000000000001943 0.1402165001077316 0 0.48950694225452568 0.1198817007058849 0 0.5 0.11691690982984899 0 0.48950694225452568 0.1198817007058849 0 0.48355801345565658 0.098539853681768069 0 0.5 0.11691690982984899 0 0.48355801345565658 0.098539853681768069 0 0.49999999999999678 0.093617319551966477 0 0.48950694225452568 0.1198817007058849 0 0.48355801345565658 0.098539853681768069 0 0.48950694225452568 0.1198817007058849 0 0.48355801345565658 0.098539853681768069 0 0.47181400165122311 0.1079645297031 0 0.48355801345565658 0.098539853681768069 0 0.47181400165122311 0.1079645297031 0 0.46050918560987603 0.087657255853108115 0 0.48950694225452568 0.1198817007058849 0 0.47181400165122311 0.1079645297031 0 0.47496103211525731 0.1237634329267102 0 0.48877805342801522 0.081304272218018059 0 0.49251870228534339 0.054939023700027033 0 0.48877805342801522 0.081304272218018059 0 0.48169639673645109 0.063812882530478579 0 0.49251870228534339 0.054939023700027033 0 0.5 0.070765121329986136 0 0.48877805342801522 0.081304272218018059 0 0.49251870228534339 0.054939023700027033 0 0.48355801345565658 0.098539853681768069 0 0.49999999999999678 0.093617319551966477 0 0.47760908465679108 0.077198006657650226 0 0.48877805342801522 0.081304272218018059 0 0.49999999999999678 0.093617319551966477 0 0.47760908465679108 0.077198006657650226 0 0.49999999999999678 0.093617319551966477 0 0.47760908465679108 0.077198006657650226 0 0.5 0.070765121329986136 0 0.48877805342801522 0.081304272218018059 0 0.49999999999999678 0.093617319551966477 0 0.48355801345565658 0.098539853681768069 0 0.47760908465679108 0.077198006657650226 0 0.48355801345565658 0.098539853681768069 0 0.47760908465679108 0.077198006657650226 0 0.46050918560987603 0.087657255853108115 0 0.48877805342801522 0.081304272218018059 0 0.47760908465679108 0.077198006657650226 0 0.48169639673645109 0.063812882530478579 0 0.47760908465679108 0.077198006657650226 0 0.46134587053020237 0.065272152027816527 0 0.47127437321721882 0.054472160197545777 0 0.47760908465679108 0.077198006657650226 0 0.48169639673645109 0.063812882530478579 0 0.47127437321721882 0.054472160197545777 0 0.47760908465679108 0.077198006657650226 0 0.47127437321721882 0.054472160197545777 0 0.47760908465679108 0.077198006657650226 0 0.46134587053020237 0.065272152027816527 0 0.46134587053020237 0.065272152027816527 0 0.46050918560987603 0.087657255853108115 0 0.43793580024771062 0.069792658475256536 0 0.47760908465679108 0.077198006657650226 0 0.46134587053020237 0.065272152027816527 0 0.46050918560987603 0.087657255853108115 0 0.46050918560987603 0.087657255853108115 0 0.43793580024771062 0.069792658475256536 0 0.43626907088382838 0.088333994600240412 0 0.46134587053020237 0.065272152027816527 0 0.43793580024771062 0.069792658475256536 0 0.445082656403611 0.053346297397986589 0 0.47181400165122311 0.1079645297031 0 0.47496103211525731 0.1237634329267102 0 0.45561505149954279 0.1060487137634753 0 0.47496103211525731 0.1237634329267102 0 0.45561505149954279 0.1060487137634753 0 0.45225301510521332 0.1233337151903597 0 0.47496103211525731 0.1237634329267102 0 0.45561505149954279 0.1060487137634753 0 0.47181400165122311 0.1079645297031 0 0.46050918560987603 0.087657255853108115 0 0.45561505149954279 0.1060487137634753 0 0.45561505149954279 0.1060487137634753 0 0.43543067731870683 0.1163956131204143 0 0.43626907088382838 0.088333994600240412 0 0.46050918560987603 0.087657255853108115 0 0.45561505149954279 0.1060487137634753 0 0.43626907088382838 0.088333994600240412 0 0.45561505149954279 0.1060487137634753 0 0.43626907088382838 0.088333994600240412 0 0.45561505149954279 0.1060487137634753 0 0.45225301510521332 0.1233337151903597 0 0.43543067731870683 0.1163956131204143 0 0.44152649671145788 0.12992187075840789 0 0.45225301510521332 0.1233337151903597 0 0.43543067731870683 0.1163956131204143 0 0.42975146326382302 0.13212867936583519 0 0.43543067731870683 0.1163956131204143 0 0.41375939183803889 0.12438751577121231 0 0.43543067731870683 0.1163956131204143 0 0.41375939183803889 0.12438751577121231 0 0.41828248892561121 0.10848341864898189 0 0.41375939183803889 0.12438751577121231 0 0.41828248892561121 0.10848341864898189 0 0.39927486010465291 0.1068834890384424 0 0.41828248892561121 0.10848341864898189 0 0.43626907088382838 0.088333994600240412 0 0.40769915086434849 0.093258842843597867 0 0.41828248892561121 0.10848341864898189 0 0.40769915086434849 0.093258842843597867 0 0.39927486010465291 0.1068834890384424 0 0.43543067731870683 0.1163956131204143 0 0.41828248892561121 0.10848341864898189 0 0.43626907088382838 0.088333994600240412 0 0.43626907088382838 0.088333994600240412 0 0.41692309026811369 0.070619275437005857 0 0.43793580024771062 0.069792658475256536 0 0.41692309026811369 0.070619275437005857 0 0.42287126627256427 0.056019859102580762 0 0.43793580024771062 0.069792658475256536 0 0.43626907088382838 0.088333994600240412 0 0.41692309026811369 0.070619275437005857 0 0.41692309026811369 0.070619275437005857 0 0.40024884245072551 0.077024578204752142 0 0.40516434694894982 0.059852034440063859 0 0.41692309026811369 0.070619275437005857 0 0.42287126627256427 0.056019859102580762 0 0.41692309026811369 0.070619275437005857 0 0.40516434694894982 0.059852034440063859 0 0.43626907088382838 0.088333994600240412 0 0.41692309026811369 0.070619275437005857 0 0.40769915086434849 0.093258842843597867 0 0.41692309026811369 0.070619275437005857 0 0.40769915086434849 0.093258842843597867 0 0.40024884245072551 0.077024578204752142 0 0.41692309026811369 0.070619275437005857 0 0.40769915086434849 0.093258842843597867 0 0.40769915086434849 0.093258842843597867 0 0.40024884245072551 0.077024578204752142 0 0.38862569706320471 0.087872898062501897 0 0.39216517552804042 0.068956747809525959 0 0.40024884245072551 0.077024578204752142 0 0.38862569706320471 0.087872898062501897 0 0.39216517552804042 0.068956747809525959 0 0.40024884245072551 0.077024578204752142 0 0.40516434694894982 0.059852034440063859 0 0.37626036485155617 0.073450742499753335 0 0.38860197405807662 0.053104247681219748 0 0.39216517552804042 0.068956747809525959 0 0.37626036485155617 0.073450742499753335 0 0.38862569706320471 0.087872898062501897 0 0.39216517552804042 0.068956747809525959 0 0.37626036485155617 0.073450742499753335 0 0.38860197405807662 0.053104247681219748 0 0.36391875564503579 0.093797237318286847 0 0.37626036485155617 0.073450742499753335 0 0.38862569706320471 0.087872898062501897 0 0.38862569706320471 0.087872898062501897 0 0.38131791894259309 0.1053837054811891 0 0.39927486010465291 0.1068834890384424 0 0.36391875564503579 0.093797237318286847 0 0.38862569706320471 0.087872898062501897 0 0.38131791894259309 0.1053837054811891 0 0.36764800366116113 0.1133136025492217 0 0.37865315121162502 0.12651792307034379 0 0.38131791894259309 0.1053837054811891 0 0.37865315121162502 0.12651792307034379 0 0.38131791894259309 0.1053837054811891 0 0.39441739984549901 0.1241302862483445 0 0.37865315121162502 0.12651792307034379 0 0.38131791894259309 0.1053837054811891 0 0.41375939183803889 0.12438751577121231 0 0.39441739984549901 0.1241302862483445 0 0.39927486010465291 0.1068834890384424 0 0.38131791894259309 0.1053837054811891 0 0.39441739984549901 0.1241302862483445 0 0.39927486010465291 0.1068834890384424 0 0.40769915086434849 0.093258842843597867 0 0.38862569706320471 0.087872898062501897 0 0.39927486010465291 0.1068834890384424 0 0.39535693027036539 0.026786665551015679 0 0.400943583264597 0.032757752862686243 0 0.41117132256702787 0.028479033492419061 0 0.390573905146131 0.01337489700380801 0 0.41117132256702787 0.028479033492419061 0 0.390573905146131 0.01337489700380801 0 0.41192653303325338 0.01639234649043092 0 0.41117132256702787 0.028479033492419061 0 0.39535693027036539 0.026786665551015679 0 0.390573905146131 0.01337489700380801 0 0.41117132256702787 0.028479033492419061 0 0.39535693027036539 0.026786665551015679 0 0.39020271017826902 0.032595772455314469 0 0.400943583264597 0.032757752862686243 0 0.400943583264597 0.032757752862686243 0 0.41117132256702787 0.028479033492419061 0 0.390573905146131 0.01337489700380801 0 0.41192653303325338 0.01639234649043092 0 0.39308329438013551 0.0024870490543335609 0 0.41192653303325338 0.01639234649043092 0 0.40244716601505548 -0.0036088655860909711 0 0.39308329438013551 0.0024870490543335609 0 0.390573905146131 0.01337489700380801 0 0.41192653303325338 0.01639234649043092 0 0.36607496410772972 0.0099128258503241584 0 0.390573905146131 0.01337489700380801 0 0.390573905146131 0.01337489700380801 0 0.37710365768939269 0.003497131652723405 0 0.39308329438013551 0.0024870490543335609 0 0.390573905146131 0.01337489700380801 0 0.37710365768939269 0.003497131652723405 0 0.36607496410772972 0.0099128258503241584 0 0.390573905146131 0.01337489700380801 0 0.37710365768939269 0.003497131652723405 0 0.36607496410772972 0.0099128258503241584 0 0.390573905146131 0.01337489700380801 0 0.37712569185983408 0.020126624221168409 0 0.390573905146131 0.01337489700380801 0 0.37712569185983408 0.020126624221168409 0 0.3838931301958014 0.02672587194085204 0 0.39535693027036539 0.026786665551015679 0 0.390573905146131 0.01337489700380801 0 0.3838931301958014 0.02672587194085204 0 0.39535693027036539 0.026786665551015679 0 0.3838931301958014 0.02672587194085204 0 0.39020271017826902 0.032595772455314469 0 0.3838931301958014 0.02672587194085204 0 0.39020271017826902 0.032595772455314469 0 0.38410701898352212 0.0336164975387203 0 0.37254899247150169 0.026414696685793361 0 0.37712569185983408 0.020126624221168409 0 0.3838931301958014 0.02672587194085204 0 0.37254899247150169 0.026414696685793361 0 0.3838931301958014 0.02672587194085204 0 0.37972153351231391 0.034948967731108539 0 0.37149400158627133 0.040771782732311551 0 0.37972153351231391 0.034948967731108539 0 0.38261070204770409 0.04019537802760613 0 0.3838931301958014 0.02672587194085204 0 0.37972153351231391 0.034948967731108539 0 0.38410701898352212 0.0336164975387203 0 0.37972153351231391 0.034948967731108539 0 0.38261070204770409 0.04019537802760613 0 0.38410701898352212 0.0336164975387203 0 0.37149400158627133 0.040771782732311551 0 0.38261070204770409 0.04019537802760613 0 0.37499939369354562 0.05304484752901701 0 0.38261070204770409 0.04019537802760613 0 0.39020271017826902 0.032595772455314469 0 0.38410701898352212 0.0336164975387203 0 0.37626036485155617 0.073450742499753335 0 0.37499939369354562 0.05304484752901701 0 0.38860197405807662 0.053104247681219748 0 0.38261070204770409 0.04019537802760613 0 0.37499939369354562 0.05304484752901701 0 0.38860197405807662 0.053104247681219748 0 0.38860197405807662 0.053104247681219748 0 0.40155648788187848 0.047555465280726412 0 0.40516434694894982 0.059852034440063859 0 0.39216517552804042 0.068956747809525959 0 0.38860197405807662 0.053104247681219748 0 0.40516434694894982 0.059852034440063859 0 0.40155648788187848 0.047555465280726412 0 0.40516434694894982 0.059852034440063859 0 0.41151604725589042 0.04450782613893578 0 0.38261070204770409 0.04019537802760613 0 0.39020271017826902 0.032595772455314469 0 0.400943583264597 0.032757752862686243 0 0.38261070204770409 0.04019537802760613 0 0.400943583264597 0.032757752862686243 0 0.38860197405807662 0.053104247681219748 0 0.40155648788187848 0.047555465280726412 0 0.400943583264597 0.032757752862686243 0 0.38261070204770409 0.04019537802760613 0 0.38860197405807662 0.053104247681219748 0 0.400943583264597 0.032757752862686243 0 0.38860197405807662 0.053104247681219748 0 0.400943583264597 0.032757752862686243 0 0.40155648788187848 0.047555465280726412 0 0.400943583264597 0.032757752862686243 0 0.41151604725589042 0.04450782613893578 0 0.41151604725589042 0.04450782613893578 0 0.42881944227701912 0.041420442768157331 0 0.41117132256702787 0.028479033492419061 0 0.400943583264597 0.032757752862686243 0 0.41151604725589042 0.04450782613893578 0 0.41117132256702787 0.028479033492419061 0 0.42881944227701912 0.041420442768157331 0 0.41117132256702787 0.028479033492419061 0 0.40516434694894982 0.059852034440063859 0 0.41151604725589042 0.04450782613893578 0 0.42287126627256427 0.056019859102580762 0 0.41151604725589042 0.04450782613893578 0 0.42287126627256427 0.056019859102580762 0 0.42881944227701912 0.041420442768157331 0 0.41692309026811369 0.070619275437005857 0 0.40516434694894982 0.059852034440063859 0 0.42287126627256427 0.056019859102580762 0 0.42287126627256427 0.056019859102580762 0 0.42881944227701912 0.041420442768157331 0 0.445082656403611 0.053346297397986589 0 0.42881944227701912 0.041420442768157331 0 0.445082656403611 0.053346297397986589 0 0.43793580024771062 0.069792658475256536 0 0.42287126627256427 0.056019859102580762 0 0.445082656403611 0.053346297397986589 0 0.42287126627256427 0.056019859102580762 0 0.42881944227701912 0.041420442768157331 0 0.42881944227701912 0.041420442768157331 0 0.43754172449963652 0.020012160723533502 0 0.44459218374597059 0.035365679903493402 0 0.43327916092037588 0.019409795977053449 0 0.41192653303325338 0.01639234649043092 0 0.43327916092037588 0.019409795977053449 0 0.41117132256702787 0.028479033492419061 0 0.42881944227701912 0.041420442768157331 0 0.43327916092037588 0.019409795977053449 0 0.41117132256702787 0.028479033492419061 0 0.42881944227701912 0.041420442768157331 0 0.43327916092037588 0.019409795977053449 0 0.43754172449963652 0.020012160723533502 0 0.42881944227701912 0.041420442768157331 0 0.43754172449963652 0.020012160723533502 0 0.43327916092037588 0.019409795977053449 0 0.43519481438892982 0.01153357006427971 0 0.438691795214877 0.017189385947991791 0 0.43327916092037588 0.019409795977053449 0 0.438691795214877 0.017189385947991791 0 0.43754172449963652 0.020012160723533502 0 0.43327916092037588 0.019409795977053449 0 0.438691795214877 0.017189385947991791 0 0.43327916092037588 0.019409795977053449 0 0.43754172449963652 0.020012160723533502 0 0.43327916092037588 0.019409795977053449 0 0.41192653303325338 0.01639234649043092 0 0.41117132256702787 0.028479033492419061 0 0.41192653303325338 0.01639234649043092 0 0.41533659158712111 0.0025510864320527028 0 0.40244716601505548 -0.0036088655860909711 0 0.41192653303325338 0.01639234649043092 0 0.41533659158712111 0.0025510864320527028 0 0.42624227931779829 0.0065726109829769754 0 0.41533659158712111 0.0025510864320527028 0 0.42624227931779829 0.0065726109829769754 0 0.42288990595833748 -0.0071977917862458777 0 0.43327916092037588 0.019409795977053449 0 0.41192653303325338 0.01639234649043092 0 0.42624227931779829 0.0065726109829769754 0 0.43327916092037588 0.019409795977053449 0 0.42624227931779829 0.0065726109829769754 0 0.43519481438892982 0.01153357006427971 0 0.42624227931779829 0.0065726109829769754 0 0.43667305753146168 0.0031874598282999899 0 0.43149767093985347 -0.0047712603921836244 0 0.42624227931779829 0.0065726109829769754 0 0.43519481438892982 0.01153357006427971 0 0.43667305753146168 0.0031874598282999899 0 0.44633791244094601 0.00027686967771180341 0 0.44108777896013562 0.011308597585076401 0 0.45860495033808069 0.0090204672773349492 0 0.44108777896013562 0.011308597585076401 0 0.438691795214877 0.017189385947991791 0 0.45860495033808069 0.0090204672773349492 0 0.43667305753146168 0.0031874598282999899 0 0.44633791244094601 0.00027686967771180341 0 0.44108777896013562 0.011308597585076401 0 0.438691795214877 0.017189385947991791 0 0.45860495033808069 0.0090204672773349492 0 0.43519481438892982 0.01153357006427971 0 0.43667305753146168 0.0031874598282999899 0 0.44108777896013562 0.011308597585076401 0 0.43519481438892982 0.01153357006427971 0 0.44108777896013562 0.011308597585076401 0 0.438691795214877 0.017189385947991791 0 0.44108777896013562 0.011308597585076401 0 0.438691795214877 0.017189385947991791 0 0.438691795214877 0.017189385947991791 0 0.43754172449963652 0.020012160723533502 0 0.4556209703075354 0.02256703178062083 0 0.43754172449963652 0.020012160723533502 0 0.4556209703075354 0.02256703178062083 0 0.438691795214877 0.017189385947991791 0 0.4556209703075354 0.02256703178062083 0 0.45860495033808069 0.0090204672773349492 0 0.43754172449963652 0.020012160723533502 0 0.4556209703075354 0.02256703178062083 0 0.44459218374597059 0.035365679903493402 0 0.438691795214877 0.017189385947991791 0 0.43754172449963652 0.020012160723533502 0 0.4556209703075354 0.02256703178062083 0 0.44459218374597059 0.035365679903493402 0 0.45527948969076443 0.033535023826329551 0 0.4556209703075354 0.02256703178062083 0 0.45860495033808069 0.0090204672773349492 0 0.46493966177765012 0.031746313737440288 0 0.45860495033808069 0.0090204672773349492 0 0.46493966177765012 0.031746313737440288 0 0.45860495033808069 0.0090204672773349492 0 0.46493966177765012 0.031746313737440288 0 0.47692543316178432 0.02210131387803985 0 0.4556209703075354 0.02256703178062083 0 0.45527948969076443 0.033535023826329551 0 0.46493966177765012 0.031746313737440288 0 0.46388414289190288 0.0068547986852786798 0 0.45860495033808069 0.0090204672773349492 0 0.47692543316178432 0.02210131387803985 0 0.46388414289190288 0.0068547986852786798 0 0.45860495033808069 0.0090204672773349492 0 0.46567425139328511 -0.010385612516943419 0 0.46388414289190288 0.0068547986852786798 0 0.45860495033808069 0.0090204672773349492 0 0.42881944227701912 0.041420442768157331 0 0.445082656403611 0.053346297397986589 0 0.44459218374597059 0.035365679903493402 0 0.445082656403611 0.053346297397986589 0 0.44459218374597059 0.035365679903493402 0 0.45697999240722342 0.045513327663088958 0 0.44459218374597059 0.035365679903493402 0 0.45527948969076443 0.033535023826329551 0 0.45697999240722342 0.045513327663088958 0 0.46493966177765012 0.031746313737440288 0 0.47127437321721882 0.054472160197545777 0 0.46493966177765012 0.031746313737440288 0 0.45697999240722342 0.045513327663088958 0 0.47127437321721882 0.054472160197545777 0 0.45527948969076443 0.033535023826329551 0 0.46493966177765012 0.031746313737440288 0 0.45697999240722342 0.045513327663088958 0 0.46134587053020237 0.065272152027816527 0 0.445082656403611 0.053346297397986589 0 0.45697999240722342 0.045513327663088958 0 0.46134587053020237 0.065272152027816527 0 0.445082656403611 0.053346297397986589 0 0.46134587053020237 0.065272152027816527 0 0.45697999240722342 0.045513327663088958 0 0.47127437321721882 0.054472160197545777 0 0.48169639673645109 0.063812882530478579 0 0.47127437321721882 0.054472160197545777 0 0.48280267675422328 0.052783815769943031 0 0.48280267675422328 0.052783815769943031 0 0.4824802295582778 0.042109183718532728 0 0.48702378776118899 0.047097063590441947 0 0.47127437321721882 0.054472160197545777 0 0.48280267675422328 0.052783815769943031 0 0.4824802295582778 0.042109183718532728 0 0.47127437321721882 0.054472160197545777 0 0.4824802295582778 0.042109183718532728 0 0.475952201034607 0.035122049665789572 0 0.46493966177765012 0.031746313737440288 0 0.47127437321721882 0.054472160197545777 0 0.475952201034607 0.035122049665789572 0 0.4824802295582778 0.042109183718532728 0 0.475952201034607 0.035122049665789572 0 0.48543063850723522 0.030775885952790519 0 0.49078359534059379 0.037811848616920482 0 0.48702378776118899 0.047097063590441947 0 0.49251870228534339 0.054939023700027033 0 0.49251870228534339 0.054939023700027033 0 0.49625935114267172 0.028573775182036031 0 0.5 0.047912923108005767 0 0.49251870228534339 0.054939023700027033 0 0.49625935114267172 0.028573775182036031 0 0.49078359534059379 0.037811848616920482 0 0.49251870228534339 0.054939023700027033 0 0.49625935114267172 0.028573775182036031 0 0.5 0.047912923108005767 0 0.5 0.025060724886025398 0 0.49625935114267172 0.028573775182036031 0 0.49078359534059379 0.037811848616920482 0 0.48543063850723522 0.030775885952790519 0 0.49625935114267172 0.028573775182036031 0 0.4824802295582778 0.042109183718532728 0 0.49078359534059379 0.037811848616920482 0 0.48543063850723522 0.030775885952790519 0 0.4824802295582778 0.042109183718532728 0 0.49078359534059379 0.037811848616920482 0 0.48702378776118899 0.047097063590441947 0 0.5 0.070765121329986136 0 0.5 0.047912923108005767 0 0.49251870228534339 0.054939023700027033 0 0.48280267675422328 0.052783815769943031 0 0.48702378776118899 0.047097063590441947 0 0.49251870228534339 0.054939023700027033 0 0.48169639673645109 0.063812882530478579 0 0.48280267675422328 0.052783815769943031 0 0.49251870228534339 0.054939023700027033 0 0.47692543316178432 0.02210131387803985 0 0.49029432417556779 0.01427948689964427 0 0.48130793305892078 -0.0029006766824825718 0 0.47692543316178432 0.02210131387803985 0 0.48130793305892078 -0.0029006766824825718 0 0.46388414289190288 0.0068547986852786798 0 0.47692543316178432 0.02210131387803985 0 0.48130793305892078 -0.0029006766824825718 0 0.46493966177765012 0.031746313737440288 0 0.475952201034607 0.035122049665789572 0 0.47692543316178432 0.02210131387803985 0 0.475952201034607 0.035122049665789572 0 0.47692543316178432 0.02210131387803985 0 0.48543063850723522 0.030775885952790519 0 0.47692543316178432 0.02210131387803985 0 0.48543063850723522 0.030775885952790519 0 0.488099024875434 0.023574168854118421 0 0.5 0.025060724886025398 0 0.49625935114267172 0.028573775182036031 0 0.5 0.0022085266640450201 0 0.47692543316178432 0.02210131387803985 0 0.488099024875434 0.023574168854118421 0 0.49029432417556779 0.01427948689964427 0 0.488099024875434 0.023574168854118421 0 0.49625935114267172 0.028573775182036031 0 0.49029432417556779 0.01427948689964427 0 0.48543063850723522 0.030775885952790519 0 0.488099024875434 0.023574168854118421 0 0.49625935114267172 0.028573775182036031 0 0.49625935114267172 0.028573775182036031 0 0.5 0.0022085266640450201 0 0.49625935114267172 0.028573775182036031 0 0.5 0.0022085266640450201 0 0.49029432417556779 0.01427948689964427 0 0.5 0.0022085266640450201 0 0.49029432417556779 0.01427948689964427 0 0.48130793305892078 -0.0029006766824825718 0 0.49174959150374448 -0.01388793055666071 0 0.48130793305892078 -0.0029006766824825718 0 0.48569043295605729 -0.027902667243005001 0 0.5 0.0022085266640450201 0 0.49174959150374448 -0.01388793055666071 0 0.5 -0.026956904965200309 0 0.5 0.0022085266640450201 0 0.49174959150374448 -0.01388793055666071 0 0.48130793305892078 -0.0029006766824825718 0 0.46388414289190288 0.0068547986852786798 0 0.48130793305892078 -0.0029006766824825718 0 0.46567425139328511 -0.010385612516943419 0 0.48130793305892078 -0.0029006766824825718 0 0.48569043295605729 -0.027902667243005001 0 0.48130793305892078 -0.0029006766824825718 0 0.48569043295605729 -0.027902667243005001 0 0.46567425139328511 -0.010385612516943419 0 0.48569043295605729 -0.027902667243005001 0 0.46567425139328511 -0.010385612516943419 0 0.46871527720295292 -0.027105183537962142 0 0.49174959150374448 -0.01388793055666071 0 0.48569043295605729 -0.027902667243005001 0 0.5 -0.026956904965200309 0 0.5 -0.026956904965200309 0 0.49394084145231282 -0.040971641651544592 0 0.5 -0.056122336594445647 0 0.48569043295605729 -0.027902667243005001 0 0.5 -0.026956904965200309 0 0.49394084145231282 -0.040971641651544592 0 0.48569043295605729 -0.027902667243005001 0 0.49007293285319392 -0.052904657803527412 0 0.47787198311450763 -0.040916309906423663 0 0.48569043295605729 -0.027902667243005001 0 0.49394084145231282 -0.040971641651544592 0 0.49007293285319392 -0.052904657803527412 0 0.48569043295605729 -0.027902667243005001 0 0.49007293285319392 -0.052904657803527412 0 0.49007293285319392 -0.052904657803527412 0 0.47874273394923739 -0.053168074528556639 0 0.48750614451212648 -0.069915460075944902 0 0.5 -0.056122336594445647 0 0.49007293285319392 -0.052904657803527412 0 0.48750614451212648 -0.069915460075944902 0 0.49394084145231282 -0.040971641651544592 0 0.5 -0.056122336594445647 0 0.49007293285319392 -0.052904657803527412 0 0.47090240877918288 -0.061725774671168201 0 0.47874273394923739 -0.053168074528556639 0 0.48750614451212648 -0.069915460075944902 0 0.47090240877918288 -0.061725774671168201 0 0.47874273394923739 -0.053168074528556639 0 0.46581704864370699 -0.044322754901527157 0 0.49007293285319392 -0.052904657803527412 0 0.47874273394923739 -0.053168074528556639 0 0.47787198311450763 -0.040916309906423663 0 0.48569043295605729 -0.027902667243005001 0 0.47787198311450763 -0.040916309906423663 0 0.46871527720295292 -0.027105183537962142 0 0.47787198311450763 -0.040916309906423663 0 0.46581704864370699 -0.044322754901527157 0 0.46871527720295292 -0.027105183537962142 0 0.47874273394923739 -0.053168074528556639 0 0.47787198311450763 -0.040916309906423663 0 0.46581704864370699 -0.044322754901527157 0 0.46581704864370699 -0.044322754901527157 0 0.44287941649791951 -0.047395057086161867 0 0.45074218341800038 -0.019187294904413541 0 0.47090240877918288 -0.061725774671168201 0 0.46581704864370699 -0.044322754901527157 0 0.45624070547997858 -0.061493536532244167 0 0.46581704864370699 -0.044322754901527157 0 0.45624070547997858 -0.061493536532244167 0 0.44287941649791951 -0.047395057086161867 0 0.45624070547997858 -0.061493536532244167 0 0.44287941649791951 -0.047395057086161867 0 0.43891688931090611 -0.072953945589123992 0 0.44287941649791951 -0.047395057086161867 0 0.45074218341800038 -0.019187294904413541 0 0.44287941649791951 -0.047395057086161867 0 0.45074218341800038 -0.019187294904413541 0 0.43205841039335108 -0.01946916187857933 0 0.44633791244094601 0.00027686967771180341 0 0.45860495033808069 0.0090204672773349492 0 0.45074218341800038 -0.019187294904413541 0 0.44633791244094601 0.00027686967771180341 0 0.45074218341800038 -0.019187294904413541 0 0.43962470149831839 -0.0069494191073698822 0 0.45074218341800038 -0.019187294904413541 0 0.43962470149831839 -0.0069494191073698822 0 0.43205841039335108 -0.01946916187857933 0 0.43667305753146168 0.0031874598282999899 0 0.44633791244094601 0.00027686967771180341 0 0.43962470149831839 -0.0069494191073698822 0 0.45860495033808069 0.0090204672773349492 0 0.45074218341800038 -0.019187294904413541 0 0.45860495033808069 0.0090204672773349492 0 0.45074218341800038 -0.019187294904413541 0 0.46567425139328511 -0.010385612516943419 0 0.45074218341800038 -0.019187294904413541 0 0.46567425139328511 -0.010385612516943419 0 0.46871527720295292 -0.027105183537962142 0 0.46581704864370699 -0.044322754901527157 0 0.45074218341800038 -0.019187294904413541 0 0.46871527720295292 -0.027105183537962142 0 0.5 -0.1144531998529362 0 0.48012745672256091 -0.092929717469344988 0 0.46804565854765939 -0.1104610470666058 0 0.5 -0.1144531998529362 0 0.46804565854765939 -0.1104610470666058 0 0.47607643507557301 -0.1343078895027166 0 0.5 -0.1144531998529362 0 0.48012745672256091 -0.092929717469344988 0 0.5 -0.085287768223690996 0 0.48012745672256091 -0.092929717469344988 0 0.48750614451212648 -0.069915460075944902 0 0.46451583267344643 -0.078452336520569863 0 0.48012745672256091 -0.092929717469344988 0 0.5 -0.085287768223690996 0 0.48750614451212648 -0.069915460075944902 0 0.5 -0.056122336594445647 0 0.5 -0.085287768223690996 0 0.48750614451212648 -0.069915460075944902 0 0.47090240877918288 -0.061725774671168201 0 0.48750614451212648 -0.069915460075944902 0 0.46451583267344643 -0.078452336520569863 0 0.47090240877918288 -0.061725774671168201 0 0.45624070547997858 -0.061493536532244167 0 0.46451583267344643 -0.078452336520569863 0 0.45624070547997858 -0.061493536532244167 0 0.43891688931090611 -0.072953945589123992 0 0.46451583267344643 -0.078452336520569863 0 0.43891688931090611 -0.072953945589123992 0 0.46451583267344643 -0.078452336520569863 0 0.45338062257323419 -0.095233620711193914 0 0.43891688931090611 -0.072953945589123992 0 0.45338062257323419 -0.095233620711193914 0 0.43222727096090607 -0.094678797624654309 0 0.48012745672256091 -0.092929717469344988 0 0.46451583267344643 -0.078452336520569863 0 0.45338062257323419 -0.095233620711193914 0 0.45338062257323419 -0.095233620711193914 0 0.4452764924180585 -0.1113947647207716 0 0.46804565854765939 -0.1104610470666058 0 0.48012745672256091 -0.092929717469344988 0 0.45338062257323419 -0.095233620711193914 0 0.46804565854765939 -0.1104610470666058 0 0.45338062257323419 -0.095233620711193914 0 0.4452764924180585 -0.1113947647207716 0 0.43222727096090607 -0.094678797624654309 0 0.4452764924180585 -0.1113947647207716 0 0.42813095842663718 -0.1192876667367317 0 0.44147628164703068 -0.12865680021492301 0 0.4452764924180585 -0.1113947647207716 0 0.45739486048555339 -0.1241621835697562 0 0.44147628164703068 -0.12865680021492301 0 0.45739486048555339 -0.1241621835697562 0 0.46804565854765939 -0.1104610470666058 0 0.47607643507557301 -0.1343078895027166 0 0.4452764924180585 -0.1113947647207716 0 0.45739486048555339 -0.1241621835697562 0 0.46804565854765939 -0.1104610470666058 0 0.41398607359570228 -0.1088181494040668 0 0.39574487623049842 -0.1229575011834792 0 0.41365082035528511 -0.13001629491493211 0 0.42813095842663718 -0.1192876667367317 0 0.41398607359570228 -0.1088181494040668 0 0.41365082035528511 -0.13001629491493211 0 0.42813095842663718 -0.1192876667367317 0 0.43222727096090607 -0.094678797624654309 0 0.41398607359570228 -0.1088181494040668 0 0.43222727096090607 -0.094678797624654309 0 0.41398607359570228 -0.1088181494040668 0 0.4452764924180585 -0.1113947647207716 0 0.42813095842663718 -0.1192876667367317 0 0.43222727096090607 -0.094678797624654309 0 0.41398607359570228 -0.1088181494040668 0 0.41616493578370378 -0.086423550985677222 0 0.39751976066023192 -0.08929351726903359 0 0.43222727096090607 -0.094678797624654309 0 0.41398607359570228 -0.1088181494040668 0 0.41616493578370378 -0.086423550985677222 0 0.43891688931090611 -0.072953945589123992 0 0.43222727096090607 -0.094678797624654309 0 0.41616493578370378 -0.086423550985677222 0 0.43891688931090611 -0.072953945589123992 0 0.41616493578370378 -0.086423550985677222 0 0.41525646327647708 -0.068386855442458941 0 0.43891688931090611 -0.072953945589123992 0 0.41525646327647708 -0.068386855442458941 0 0.42842354772955049 -0.06116037655145929 0 0.41616493578370378 -0.086423550985677222 0 0.41525646327647708 -0.068386855442458941 0 0.39820292050708062 -0.071677822085052217 0 0.41525646327647708 -0.068386855442458941 0 0.39820292050708062 -0.071677822085052217 0 0.39980538128575133 -0.05316686688594497 0 0.39820292050708062 -0.071677822085052217 0 0.38498324899674208 -0.060461766525164107 0 0.3726997503476317 -0.082586626489910026 0 0.38498324899674208 -0.060461766525164107 0 0.3726997503476317 -0.082586626489910026 0 0.39820292050708062 -0.071677822085052217 0 0.39751976066023192 -0.08929351726903359 0 0.3726997503476317 -0.082586626489910026 0 0.39751976066023192 -0.08929351726903359 0 0.38288209631585601 -0.1045375850891366 0 0.3726997503476317 -0.082586626489910026 0 0.41616493578370378 -0.086423550985677222 0 0.39820292050708062 -0.071677822085052217 0 0.39751976066023192 -0.08929351726903359 0 0.41398607359570228 -0.1088181494040668 0 0.39751976066023192 -0.08929351726903359 0 0.38288209631585601 -0.1045375850891366 0 0.38288209631585601 -0.1045375850891366 0 0.39574487623049842 -0.1229575011834792 0 0.37176373857123329 -0.11942482032851259 0 0.41398607359570228 -0.1088181494040668 0 0.38288209631585601 -0.1045375850891366 0 0.39574487623049842 -0.1229575011834792 0 0.41398607359570228 -0.1088181494040668 0 0.39574487623049842 -0.1229575011834792 0 0.41853119971070352 -0.022056189205187319 0 0.42314572373549508 -0.035741632867193313 0 0.41290988486212099 -0.03273738775267989 0 0.41853119971070352 -0.022056189205187319 0 0.41290988486212099 -0.03273738775267989 0 0.40514002913257691 -0.024155665911247098 0 0.41853119971070352 -0.022056189205187319 0 0.41168608468335921 -0.01284787659286582 0 0.40514002913257691 -0.024155665911247098 0 0.41533659158712111 0.0025510864320527028 0 0.41168608468335921 -0.01284787659286582 0 0.40244716601505548 -0.0036088655860909711 0 0.41533659158712111 0.0025510864320527028 0 0.41168608468335921 -0.01284787659286582 0 0.42288990595833748 -0.0071977917862458777 0 0.41853119971070352 -0.022056189205187319 0 0.41168608468335921 -0.01284787659286582 0 0.42288990595833748 -0.0071977917862458777 0 0.42288990595833748 -0.0071977917862458777 0 0.43149767093985347 -0.0047712603921836244 0 0.43205841039335108 -0.01946916187857933 0 0.42624227931779829 0.0065726109829769754 0 0.42288990595833748 -0.0071977917862458777 0 0.43149767093985347 -0.0047712603921836244 0 0.43667305753146168 0.0031874598282999899 0 0.43962470149831839 -0.0069494191073698822 0 0.43149767093985347 -0.0047712603921836244 0 0.43962470149831839 -0.0069494191073698822 0 0.43149767093985347 -0.0047712603921836244 0 0.43205841039335108 -0.01946916187857933 0 0.41853119971070352 -0.022056189205187319 0 0.43205841039335108 -0.01946916187857933 0 0.42314572373549508 -0.035741632867193313 0 0.41853119971070352 -0.022056189205187319 0 0.42288990595833748 -0.0071977917862458777 0 0.43205841039335108 -0.01946916187857933 0 0.44287941649791951 -0.047395057086161867 0 0.42314572373549508 -0.035741632867193313 0 0.42009297052849481 -0.051375827068360538 0 0.44287941649791951 -0.047395057086161867 0 0.43205841039335108 -0.01946916187857933 0 0.42314572373549508 -0.035741632867193313 0 0.44287941649791951 -0.047395057086161867 0 0.42842354772955049 -0.06116037655145929 0 0.42009297052849481 -0.051375827068360538 0 0.44287941649791951 -0.047395057086161867 0 0.43891688931090611 -0.072953945589123992 0 0.42842354772955049 -0.06116037655145929 0 0.42009297052849481 -0.051375827068360538 0 0.41275570250635779 -0.042300936024956673 0 0.39980538128575133 -0.05316686688594497 0 0.41525646327647708 -0.068386855442458941 0 0.42009297052849481 -0.051375827068360538 0 0.39980538128575133 -0.05316686688594497 0 0.41525646327647708 -0.068386855442458941 0 0.42842354772955049 -0.06116037655145929 0 0.42009297052849481 -0.051375827068360538 0 0.42314572373549508 -0.035741632867193313 0 0.42009297052849481 -0.051375827068360538 0 0.41275570250635779 -0.042300936024956673 0 0.42314572373549508 -0.035741632867193313 0 0.41275570250635779 -0.042300936024956673 0 0.41290988486212099 -0.03273738775267989 0 0.41275570250635779 -0.042300936024956673 0 0.41290988486212099 -0.03273738775267989 0 0.40357795276756331 -0.039354340403851468 0 0.41290988486212099 -0.03273738775267989 0 0.40357795276756331 -0.039354340403851468 0 0.40514002913257691 -0.024155665911247098 0 0.40357795276756331 -0.039354340403851468 0 0.39726674764585429 -0.038336906560419173 0 0.40514002913257691 -0.024155665911247098 0 0.39726674764585429 -0.038336906560419173 0 0.40514002913257691 -0.024155665911247098 0 0.40357795276756331 -0.039354340403851468 0 0.39726674764585429 -0.038336906560419173 0 0.40357795276756331 -0.039354340403851468 0 0.39726674764585429 -0.038336906560419173 0 0.39980538128575133 -0.05316686688594497 0 0.41275570250635779 -0.042300936024956673 0 0.40357795276756331 -0.039354340403851468 0 0.39980538128575133 -0.05316686688594497 0 0.39820292050708062 -0.071677822085052217 0 0.39980538128575133 -0.05316686688594497 0 0.38498324899674208 -0.060461766525164107 0 0.39726674764585429 -0.038336906560419173 0 0.38498324899674208 -0.060461766525164107 0 0.39726674764585429 -0.038336906560419173 0 0.39980538128575133 -0.05316686688594497 0 0.38498324899674208 -0.060461766525164107 0 0.39726674764585429 -0.038336906560419173 0 0.38498324899674208 -0.060461766525164107 0 0.37764392033772082 -0.046233699327783401 0 0.38498324899674208 -0.060461766525164107 0 0.37764392033772082 -0.046233699327783401 0 0.37270161624372983 -0.054125161526179473 0 0.39726674764585429 -0.038336906560419173 0 0.36828100296303973 -0.03366409415001017 0 0.39726674764585429 -0.038336906560419173 0 0.37764392033772082 -0.046233699327783401 0 0.36828100296303973 -0.03366409415001017 0 0.39726674764585429 -0.038336906560419173 0 0.38229009779069428 -0.026785576992642168 0 0.36828100296303973 -0.03366409415001017 0 0.38229009779069428 -0.026785576992642168 0 0.38362922915759678 -0.017631601723860239 0 0.37048424229434018 -0.019624212758315999 0 0.38229009779069428 -0.026785576992642168 0 0.38362922915759678 -0.017631601723860239 0 0.39178926689264038 -0.024671069770605271 0 0.39726674764585429 -0.038336906560419173 0 0.38229009779069428 -0.026785576992642168 0 0.39178926689264038 -0.024671069770605271 0 0.39726674764585429 -0.038336906560419173 0 0.39178926689264038 -0.024671069770605271 0 0.40514002913257691 -0.024155665911247098 0 0.38362922915759678 -0.017631601723860239 0 0.39178926689264038 -0.024671069770605271 0 0.39707153218419411 -0.01503990759201764 0 0.39178926689264038 -0.024671069770605271 0 0.40514002913257691 -0.024155665911247098 0 0.39707153218419411 -0.01503990759201764 0 0.41168608468335921 -0.01284787659286582 0 0.40514002913257691 -0.024155665911247098 0 0.39707153218419411 -0.01503990759201764 0 0.41168608468335921 -0.01284787659286582 0 0.40244716601505548 -0.0036088655860909711 0 0.39707153218419411 -0.01503990759201764 0 0.40244716601505548 -0.0036088655860909711 0 0.39707153218419411 -0.01503990759201764 0 0.38773741722393612 -0.0073243659674364792 0 0.39308329438013551 0.0024870490543335609 0 0.40244716601505548 -0.0036088655860909711 0 0.38773741722393612 -0.0073243659674364792 0 0.39308329438013551 0.0024870490543335609 0 0.37710365768939269 0.003497131652723405 0 0.38773741722393612 -0.0073243659674364792 0 0.38362922915759678 -0.017631601723860239 0 0.39707153218419411 -0.01503990759201764 0 0.38773741722393612 -0.0073243659674364792 0 0.38362922915759678 -0.017631601723860239 0 0.38773741722393612 -0.0073243659674364792 0 0.3763160554926579 -0.0091826099015701705 0 0.38362922915759678 -0.017631601723860239 0 0.3763160554926579 -0.0091826099015701705 0 0.37048424229434018 -0.019624212758315999 0 0.37710365768939269 0.003497131652723405 0 0.38773741722393612 -0.0073243659674364792 0 0.3763160554926579 -0.0091826099015701705 0 0.37710365768939269 0.003497131652723405 0 0.3763160554926579 -0.0091826099015701705 0 0.36363341023265389 -0.0063806336983604772 0 0.37710365768939269 0.003497131652723405 0 0.36363341023265389 -0.0063806336983604772 0 0.3763160554926579 -0.0091826099015701705 0 0.36363341023265389 -0.0063806336983604772 0 0.37048424229434018 -0.019624212758315999 0 0.36363341023265389 -0.0063806336983604772 0 0.37048424229434018 -0.019624212758315999 0 0.35741991310074539 -0.01974656988682276 0 0.38229009779069428 -0.026785576992642168 0 0.37048424229434018 -0.019624212758315999 0 0.36828100296303973 -0.03366409415001017 0 0.37048424229434018 -0.019624212758315999 0 0.35741991310074539 -0.01974656988682276 0 0.36828100296303973 -0.03366409415001017 0 0.35741991310074539 -0.01974656988682276 0 0.33929525828022522 -0.028991281739600489 0 0.36828100296303973 -0.03366409415001017 0 0.35741991310074539 -0.01974656988682276 0 0.34540565173346771 -0.010072627087826681 0 0.33929525828022522 -0.028991281739600489 0 0.36363341023265389 -0.0063806336983604772 0 0.34540565173346771 -0.010072627087826681 0 0.35417251228579488 -2.242005975592893e-05 0 0.36363341023265389 -0.0063806336983604772 0 0.35741991310074539 -0.01974656988682276 0 0.34540565173346771 -0.010072627087826681 0 0.34157602306932849 0.0064507546968392846 0 0.34540565173346771 -0.010072627087826681 0 0.35417251228579488 -2.242005975592893e-05 0 0.34157602306932849 0.0064507546968392846 0 0.34540565173346771 -0.010072627087826681 0 0.33353947209339507 -0.0030874404116698678 0 0.34540565173346771 -0.010072627087826681 0 0.33353947209339507 -0.0030874404116698678 0 0.3297054350392461 -0.01377129174736331 0 0.33353947209339507 -0.0030874404116698678 0 0.3297054350392461 -0.01377129174736331 0 0.32480757643857888 -0.004030676734553703 0 0.32620267418635412 0.0059866388145550734 0 0.33353947209339507 -0.0030874404116698678 0 0.32480757643857888 -0.004030676734553703 0 0.34540565173346771 -0.010072627087826681 0 0.3297054350392461 -0.01377129174736331 0 0.33929525828022522 -0.028991281739600489 0 0.33929525828022522 -0.028991281739600489 0 0.31466763110507701 -0.019874507028862381 0 0.31030951359741082 -0.024318469329190819 0 0.33929525828022522 -0.028991281739600489 0 0.31714240342858657 -0.03714591201677854 0 0.31030951359741082 -0.024318469329190819 0 0.33929525828022522 -0.028991281739600489 0 0.31030951359741082 -0.024318469329190819 0 0.3297054350392461 -0.01377129174736331 0 0.33929525828022522 -0.028991281739600489 0 0.31466763110507701 -0.019874507028862381 0 0.3297054350392461 -0.01377129174736331 0 0.31466763110507701 -0.019874507028862381 0 0.31609136354687423 -0.009694482536455315 0 0.31466763110507701 -0.019874507028862381 0 0.31609136354687423 -0.009694482536455315 0 0.3116231186474025 -0.015362582559457671 0 0.31512547078870717 0.00058050222945548585 0 0.31609136354687423 -0.009694482536455315 0 0.32480757643857888 -0.004030676734553703 0 0.3297054350392461 -0.01377129174736331 0 0.31609136354687423 -0.009694482536455315 0 0.32480757643857888 -0.004030676734553703 0 0.32343709612320348 -0.059197949277534467 0 0.32611693611674569 -0.044094006065882541 0 0.31095537048005573 -0.048756250082915037 0 0.33929525828022522 -0.028991281739600489 0 0.31714240342858657 -0.03714591201677854 0 0.32611693611674569 -0.044094006065882541 0 0.31714240342858657 -0.03714591201677854 0 0.32611693611674569 -0.044094006065882541 0 0.31095537048005573 -0.048756250082915037 0 0.33929525828022522 -0.028991281739600489 0 0.32611693611674569 -0.044094006065882541 0 0.34631771891971852 -0.045631895720798142 0 0.32343709612320348 -0.059197949277534467 0 0.34631771891971852 -0.045631895720798142 0 0.34033375761373169 -0.062673526927725334 0 0.32343709612320348 -0.059197949277534467 0 0.32611693611674569 -0.044094006065882541 0 0.34631771891971852 -0.045631895720798142 0 0.34631771891971852 -0.045631895720798142 0 0.36435943119468223 -0.044782422182726232 0 0.34033375761373169 -0.062673526927725334 0 0.36435943119468223 -0.044782422182726232 0 0.36381986444577391 -0.065022758069044173 0 0.34033375761373169 -0.062673526927725334 0 0.36435943119468223 -0.044782422182726232 0 0.34033375761373169 -0.062673526927725334 0 0.33929525828022522 -0.028991281739600489 0 0.36828100296303973 -0.03366409415001017 0 0.33929525828022522 -0.028991281739600489 0 0.34631771891971852 -0.045631895720798142 0 0.36828100296303973 -0.03366409415001017 0 0.34631771891971852 -0.045631895720798142 0 0.36435943119468223 -0.044782422182726232 0 0.36828100296303973 -0.03366409415001017 0 0.37764392033772082 -0.046233699327783401 0 0.36435943119468223 -0.044782422182726232 0 0.36828100296303973 -0.03366409415001017 0 0.38498324899674208 -0.060461766525164107 0 0.37270161624372983 -0.054125161526179473 0 0.36381986444577391 -0.065022758069044173 0 0.36435943119468223 -0.044782422182726232 0 0.37270161624372983 -0.054125161526179473 0 0.36381986444577391 -0.065022758069044173 0 0.37764392033772082 -0.046233699327783401 0 0.36435943119468223 -0.044782422182726232 0 0.37270161624372983 -0.054125161526179473 0 0.36381986444577391 -0.065022758069044173 0 0.3726997503476317 -0.082586626489910026 0 0.34686135580753569 -0.083799667955024915 0 0.38498324899674208 -0.060461766525164107 0 0.36381986444577391 -0.065022758069044173 0 0.3726997503476317 -0.082586626489910026 0 0.3726997503476317 -0.082586626489910026 0 0.34686135580753569 -0.083799667955024915 0 0.36041625169852132 -0.1047114864546559 0 0.3726997503476317 -0.082586626489910026 0 0.36041625169852132 -0.1047114864546559 0 0.36381986444577391 -0.065022758069044173 0 0.34686135580753569 -0.083799667955024915 0 0.34033375761373169 -0.062673526927725334 0 0.36041625169852132 -0.1047114864546559 0 0.32759042670677441 -0.10723897811608959 0 0.34813275304941088 -0.12683634641940189 0 0.34686135580753569 -0.083799667955024915 0 0.36041625169852132 -0.1047114864546559 0 0.32759042670677441 -0.10723897811608959 0 0.37176373857123329 -0.11942482032851259 0 0.36041625169852132 -0.1047114864546559 0 0.34813275304941088 -0.12683634641940189 0 0.38288209631585601 -0.1045375850891366 0 0.37176373857123329 -0.11942482032851259 0 0.36041625169852132 -0.1047114864546559 0 0.38288209631585601 -0.1045375850891366 0 0.3726997503476317 -0.082586626489910026 0 0.36041625169852132 -0.1047114864546559 0 0.36041625169852132 -0.1047114864546559 0 0.34813275304941088 -0.12683634641940189 0 0.32759042670677441 -0.10723897811608959 0 0.32190627618415202 -0.13209161434923619 0 0.34813275304941088 -0.12683634641940189 0 0.32759042670677441 -0.10723897811608959 0 0.31630808403278132 -0.080564631672724443 0 0.30986568973299572 -0.10230617971324089 0 0.32759042670677441 -0.10723897811608959 0 0.30180115013913672 -0.11839843949832141 0 0.30986568973299572 -0.10230617971324089 0 0.32759042670677441 -0.10723897811608959 0 0.30180115013913672 -0.11839843949832141 0 0.32190627618415202 -0.13209161434923619 0 0.34033375761373169 -0.062673526927725334 0 0.31630808403278132 -0.080564631672724443 0 0.34686135580753569 -0.083799667955024915 0 0.34033375761373169 -0.062673526927725334 0 0.31630808403278132 -0.080564631672724443 0 0.34686135580753569 -0.083799667955024915 0 0.32759042670677441 -0.10723897811608959 0 0.31630808403278132 -0.080564631672724443 0 0.32343709612320348 -0.059197949277534467 0 0.31630808403278132 -0.080564631672724443 0 0.30190679680618759 -0.062954305206289876 0 0.32343709612320348 -0.059197949277534467 0 0.34033375761373169 -0.062673526927725334 0 0.31630808403278132 -0.080564631672724443 0 0.31630808403278132 -0.080564631672724443 0 0.30190679680618759 -0.062954305206289876 0 0.29526415216686391 -0.077733265537233309 0 0.31630808403278132 -0.080564631672724443 0 0.29526415216686391 -0.077733265537233309 0 0.29228241045183079 -0.098455736417723635 0 0.31630808403278132 -0.080564631672724443 0 0.29228241045183079 -0.098455736417723635 0 0.29228241045183079 -0.098455736417723635 0 0.27565548671188822 -0.099199295577507646 0 0.27795886726355978 -0.078688056432714634 0 0.29526415216686391 -0.077733265537233309 0 0.29228241045183079 -0.098455736417723635 0 0.27795886726355978 -0.078688056432714634 0 0.2878646022799598 -0.068003597956713985 0 0.29526415216686391 -0.077733265537233309 0 0.27795886726355978 -0.078688056432714634 0 0.30190679680618759 -0.062954305206289876 0 0.2878646022799598 -0.068003597956713985 0 0.29526415216686391 -0.077733265537233309 0 0.30190679680618759 -0.062954305206289876 0 0.2878646022799598 -0.068003597956713985 0 0.29096334322066092 -0.059849280225790842 0 0.31630808403278132 -0.080564631672724443 0 0.30986568973299572 -0.10230617971324089 0 0.29228241045183079 -0.098455736417723635 0 0.30180115013913672 -0.11839843949832141 0 0.30986568973299572 -0.10230617971324089 0 0.29228241045183079 -0.098455736417723635 0 0.29228241045183079 -0.098455736417723635 0 0.28640006426846121 -0.1165936289646068 0 0.27565548671188822 -0.099199295577507646 0 0.30180115013913672 -0.11839843949832141 0 0.29228241045183079 -0.098455736417723635 0 0.28640006426846121 -0.1165936289646068 0 0.28640006426846121 -0.1165936289646068 0 0.27291969858375847 -0.1158337021530771 0 0.2844487176724903 -0.132698300767601 0 0.30180115013913672 -0.11839843949832141 0 0.28640006426846121 -0.1165936289646068 0 0.2844487176724903 -0.132698300767601 0 0.28640006426846121 -0.1165936289646068 0 0.27291969858375847 -0.1158337021530771 0 0.27565548671188822 -0.099199295577507646 0 0.27291969858375847 -0.1158337021530771 0 0.26294714442546979 -0.1139595911161231 0 0.2652510066121806 -0.12646247351016579 0 0.27291969858375847 -0.1158337021530771 0 0.26752161929283969 -0.10680061804155409 0 0.26294714442546979 -0.1139595911161231 0 0.27565548671188822 -0.099199295577507646 0 0.26752161929283969 -0.10680061804155409 0 0.25856414745024231 -0.09820988331950839 0 0.27291969858375847 -0.1158337021530771 0 0.27565548671188822 -0.099199295577507646 0 0.26752161929283969 -0.10680061804155409 0 0.26752161929283969 -0.10680061804155409 0 0.25856414745024231 -0.09820988331950839 0 0.26294714442546979 -0.1139595911161231 0 0.25856414745024231 -0.09820988331950839 0 0.24145071203087429 -0.115435474970793 0 0.25856414745024231 -0.09820988331950839 0 0.25351509400142769 -0.092934925890948539 0 0.2450942160685709 -0.1019414555228059 0 0.25856414745024231 -0.09820988331950839 0 0.26294714442546979 -0.1139595911161231 0 0.25153217278082501 -0.1231612647483309 0 0.25856414745024231 -0.09820988331950839 0 0.25153217278082501 -0.1231612647483309 0 0.25856414745024231 -0.09820988331950839 0 0.25153217278082501 -0.1231612647483309 0 0.24145071203087429 -0.115435474970793 0 0.26294714442546979 -0.1139595911161231 0 0.25153217278082501 -0.1231612647483309 0 0.2652510066121806 -0.12646247351016579 0 0.26691935270070127 -0.068563315616831669 0 0.27795886726355978 -0.078688056432714634 0 0.26274175007547179 -0.083386599468169981 0 0.26691935270070127 -0.068563315616831669 0 0.26766162421336692 -0.065929532005972513 0 0.27779514406935069 -0.057473296418519157 0 0.26691935270070127 -0.068563315616831669 0 0.27779514406935069 -0.057473296418519157 0 0.26691935270070127 -0.068563315616831669 0 0.26766162421336692 -0.065929532005972513 0 0.2878646022799598 -0.068003597956713985 0 0.27763449157839282 -0.068182066606194719 0 0.27779514406935069 -0.057473296418519157 0 0.26691935270070127 -0.068563315616831669 0 0.27763449157839282 -0.068182066606194719 0 0.27779514406935069 -0.057473296418519157 0 0.2878646022799598 -0.068003597956713985 0 0.27763449157839282 -0.068182066606194719 0 0.27795886726355978 -0.078688056432714634 0 0.26691935270070127 -0.068563315616831669 0 0.27763449157839282 -0.068182066606194719 0 0.27795886726355978 -0.078688056432714634 0 0.27565548671188822 -0.099199295577507646 0 0.25856414745024231 -0.09820988331950839 0 0.27795886726355978 -0.078688056432714634 0 0.25856414745024231 -0.09820988331950839 0 0.27795886726355978 -0.078688056432714634 0 0.26274175007547179 -0.083386599468169981 0 0.25856414745024231 -0.09820988331950839 0 0.27795886726355978 -0.078688056432714634 0 0.26691935270070127 -0.068563315616831669 0 0.24766026241142591 -0.088201765253309902 0 0.26691935270070127 -0.068563315616831669 0 0.2507869405063915 -0.080011144606320195 0 0.24766026241142591 -0.088201765253309902 0 0.26691935270070127 -0.068563315616831669 0 0.26274175007547179 -0.083386599468169981 0 0.24766026241142591 -0.088201765253309902 0 0.25856414745024231 -0.09820988331950839 0 0.26274175007547179 -0.083386599468169981 0 0.25351509400142769 -0.092934925890948539 0 0.25856414745024231 -0.09820988331950839 0 0.26274175007547179 -0.083386599468169981 0 0.26274175007547179 -0.083386599468169981 0 0.25351509400142769 -0.092934925890948539 0 0.24766026241142591 -0.088201765253309902 0 0.26766162421336692 -0.065929532005972513 0 0.2507869405063915 -0.080011144606320195 0 0.2507869405063915 -0.080011144606320195 0 0.25534731233013808 -0.07034474537456252 0 0.24612108748217501 -0.07017583377114911 0 0.26691935270070127 -0.068563315616831669 0 0.26766162421336692 -0.065929532005972513 0 0.2507869405063915 -0.080011144606320195 0 0.26766162421336692 -0.065929532005972513 0 0.2507869405063915 -0.080011144606320195 0 0.25534731233013808 -0.07034474537456252 0 0.26691935270070127 -0.068563315616831669 0 0.26274175007547179 -0.083386599468169981 0 0.26766162421336692 -0.065929532005972513 0 0.2568195971186199 -0.065262471114809317 0 0.26198788130909229 -0.061393504898518567 0 0.26766162421336692 -0.065929532005972513 0 0.25534731233013808 -0.07034474537456252 0 0.2568195971186199 -0.065262471114809317 0 0.2568195971186199 -0.065262471114809317 0 0.25519944218403839 -0.055937302381494691 0 0.24612108748217501 -0.07017583377114911 0 0.25534731233013808 -0.07034474537456252 0 0.2568195971186199 -0.065262471114809317 0 0.24612108748217501 -0.07017583377114911 0 0.25519944218403839 -0.055937302381494691 0 0.26093456313060992 -0.045667279242595872 0 0.24341039940362891 -0.042173740244686897 0 0.25519944218403839 -0.055937302381494691 0 0.26407052281547783 -0.05495742300306157 0 0.26093456313060992 -0.045667279242595872 0 0.25519944218403839 -0.055937302381494691 0 0.26198788130909229 -0.061393504898518567 0 0.26407052281547783 -0.05495742300306157 0 0.26766162421336692 -0.065929532005972513 0 0.26198788130909229 -0.061393504898518567 0 0.26407052281547783 -0.05495742300306157 0 0.2568195971186199 -0.065262471114809317 0 0.25519944218403839 -0.055937302381494691 0 0.26198788130909229 -0.061393504898518567 0 0.27303477035907092 -0.046864130713030042 0 0.27779514406935069 -0.057473296418519157 0 0.282202678641152 -0.039158045764984488 0 0.26766162421336692 -0.065929532005972513 0 0.27779514406935069 -0.057473296418519157 0 0.26766162421336692 -0.065929532005972513 0 0.27303477035907092 -0.046864130713030042 0 0.27779514406935069 -0.057473296418519157 0 0.26766162421336692 -0.065929532005972513 0 0.27303477035907092 -0.046864130713030042 0 0.26766162421336692 -0.065929532005972513 0 0.26407052281547783 -0.05495742300306157 0 0.27303477035907092 -0.046864130713030042 0 0.26407052281547783 -0.05495742300306157 0 0.27303477035907092 -0.046864130713030042 0 0.26093456313060992 -0.045667279242595872 0 0.27303477035907092 -0.046864130713030042 0 0.26159288306101852 -0.033226044156959719 0 0.27840791650477342 -0.027798729420087182 0 0.27303477035907092 -0.046864130713030042 0 0.27840791650477342 -0.027798729420087182 0 0.27303477035907092 -0.046864130713030042 0 0.27840791650477342 -0.027798729420087182 0 0.282202678641152 -0.039158045764984488 0 0.26159288306101852 -0.033226044156959719 0 0.26093456313060992 -0.045667279242595872 0 0.24341039940362891 -0.042173740244686897 0 0.26159288306101852 -0.033226044156959719 0 0.25218648869958882 -0.02329869203001355 0 0.24341039940362891 -0.042173740244686897 0 0.27303477035907092 -0.046864130713030042 0 0.26159288306101852 -0.033226044156959719 0 0.26093456313060992 -0.045667279242595872 0 0.26159288306101852 -0.033226044156959719 0 0.25218648869958882 -0.02329869203001355 0 0.26256900734020372 -0.017077137779551749 0 0.25218648869958882 -0.02329869203001355 0 0.26256900734020372 -0.017077137779551749 0 0.25266044236801027 -0.0098448912506446801 0 0.26247114447865921 0.001459212755205932 0 0.26256900734020372 -0.017077137779551749 0 0.25266044236801027 -0.0098448912506446801 0 0.2493448423645083 0.0014051681544095839 0 0.26247114447865921 0.001459212755205932 0 0.25266044236801027 -0.0098448912506446801 0 0.26247114447865921 0.001459212755205932 0 0.26256900734020372 -0.017077137779551749 0 0.2747839227137826 -0.0090145145465851083 0 0.26256900734020372 -0.017077137779551749 0 0.2747839227137826 -0.0090145145465851083 0 0.27840791650477342 -0.027798729420087182 0 0.26159288306101852 -0.033226044156959719 0 0.26256900734020372 -0.017077137779551749 0 0.27840791650477342 -0.027798729420087182 0 0.2747839227137826 -0.0090145145465851083 0 0.27840791650477342 -0.027798729420087182 0 0.28978263567342488 -0.014579256425138829 0 0.27840791650477342 -0.027798729420087182 0 0.29217571453890279 -0.027695673222337919 0 0.28732968278939941 -0.034175843925274882 0 0.27840791650477342 -0.027798729420087182 0 0.29217571453890279 -0.027695673222337919 0 0.28978263567342488 -0.014579256425138829 0 0.28978263567342488 -0.014579256425138829 0 0.29732126590702512 -0.021271161780988469 0 0.30190108750609063 -0.01623135261771547 0 0.29217571453890279 -0.027695673222337919 0 0.28978263567342488 -0.014579256425138829 0 0.29732126590702512 -0.021271161780988469 0 0.28615162158156338 0.0093101314714518976 0 0.28978263567342488 -0.014579256425138829 0 0.30337497077494741 -0.0042580161424043677 0 0.28615162158156338 0.0093101314714518976 0 0.2747839227137826 -0.0090145145465851083 0 0.28978263567342488 -0.014579256425138829 0 0.28978263567342488 -0.014579256425138829 0 0.30337497077494741 -0.0042580161424043677 0 0.30190108750609063 -0.01623135261771547 0 0.30337497077494741 -0.0042580161424043677 0 0.30735379005787589 -0.013097293085114399 0 0.30190108750609063 -0.01623135261771547 0 0.31609136354687423 -0.009694482536455315 0 0.30735379005787589 -0.013097293085114399 0 0.3116231186474025 -0.015362582559457671 0 0.31609136354687423 -0.009694482536455315 0 0.30337497077494741 -0.0042580161424043677 0 0.30735379005787589 -0.013097293085114399 0 0.31512547078870717 0.00058050222945548585 0 0.31609136354687423 -0.009694482536455315 0 0.30337497077494741 -0.0042580161424043677 0 0.29217571453890279 -0.027695673222337919 0 0.30480841746649667 -0.023431633729392241 0 0.29405232883338073 -0.040895882873854941 0 0.31030951359741082 -0.024318469329190819 0 0.30480841746649667 -0.023431633729392241 0 0.29405232883338073 -0.040895882873854941 0 0.29217571453890279 -0.027695673222337919 0 0.29732126590702512 -0.021271161780988469 0 0.30480841746649667 -0.023431633729392241 0 0.29732126590702512 -0.021271161780988469 0 0.30190108750609063 -0.01623135261771547 0 0.30480841746649667 -0.023431633729392241 0 0.30837968987978293 -0.018784047587398579 0 0.31030951359741082 -0.024318469329190819 0 0.30480841746649667 -0.023431633729392241 0 0.30190108750609063 -0.01623135261771547 0 0.30837968987978293 -0.018784047587398579 0 0.30480841746649667 -0.023431633729392241 0 0.30735379005787589 -0.013097293085114399 0 0.30190108750609063 -0.01623135261771547 0 0.30837968987978293 -0.018784047587398579 0 0.31466763110507701 -0.019874507028862381 0 0.3116231186474025 -0.015362582559457671 0 0.30837968987978293 -0.018784047587398579 0 0.30735379005787589 -0.013097293085114399 0 0.3116231186474025 -0.015362582559457671 0 0.30837968987978293 -0.018784047587398579 0 0.31466763110507701 -0.019874507028862381 0 0.30837968987978293 -0.018784047587398579 0 0.31030951359741082 -0.024318469329190819 0 0.31466763110507701 -0.019874507028862381 0 0.31030951359741082 -0.024318469329190819 0 0.31030951359741082 -0.024318469329190819 0 0.30480841746649667 -0.023431633729392241 0 0.31714240342858657 -0.03714591201677854 0 0.31030951359741082 -0.024318469329190819 0 0.30081276751917507 -0.038265513799923413 0 0.31714240342858657 -0.03714591201677854 0 0.30081276751917507 -0.038265513799923413 0 0.31095537048005573 -0.048756250082915037 0 0.31030951359741082 -0.024318469329190819 0 0.29405232883338073 -0.040895882873854941 0 0.31030951359741082 -0.024318469329190819 0 0.30081276751917507 -0.038265513799923413 0 0.29405232883338073 -0.040895882873854941 0 0.30081276751917507 -0.038265513799923413 0 0.31095537048005573 -0.048756250082915037 0 0.29628682972714532 -0.050965921321640392 0 0.32343709612320348 -0.059197949277534467 0 0.30190679680618759 -0.062954305206289876 0 0.31095537048005573 -0.048756250082915037 0 0.30190679680618759 -0.062954305206289876 0 0.31095537048005573 -0.048756250082915037 0 0.29628682972714532 -0.050965921321640392 0 0.27779514406935069 -0.057473296418519157 0 0.30081276751917507 -0.038265513799923413 0 0.29628682972714532 -0.050965921321640392 0 0.27779514406935069 -0.057473296418519157 0 0.29628682972714532 -0.050965921321640392 0 0.29096334322066092 -0.059849280225790842 0 0.27779514406935069 -0.057473296418519157 0 0.29405232883338073 -0.040895882873854941 0 0.27779514406935069 -0.057473296418519157 0 0.30081276751917507 -0.038265513799923413 0 0.30190679680618759 -0.062954305206289876 0 0.29628682972714532 -0.050965921321640392 0 0.29096334322066092 -0.059849280225790842 0 0.2878646022799598 -0.068003597956713985 0 0.27779514406935069 -0.057473296418519157 0 0.29096334322066092 -0.059849280225790842 0 0.27779514406935069 -0.057473296418519157 0 0.30081276751917507 -0.038265513799923413 0 0.29405232883338073 -0.040895882873854941 0 0.27779514406935069 -0.057473296418519157 0 0.282202678641152 -0.039158045764984488 0 0.29405232883338073 -0.040895882873854941 0 0.27840791650477342 -0.027798729420087182 0 0.282202678641152 -0.039158045764984488 0 0.28732968278939941 -0.034175843925274882 0 0.282202678641152 -0.039158045764984488 0 0.28732968278939941 -0.034175843925274882 0 0.29405232883338073 -0.040895882873854941 0 0.29217571453890279 -0.027695673222337919 0 0.28732968278939941 -0.034175843925274882 0 0.29405232883338073 -0.040895882873854941 0 0.29331088388336191 -0.20931171352909561 0 0.29887174770419239 -0.22106065421200291 0 0.28515207586010632 -0.21948821104020219 0 0.29331088388336191 -0.20931171352909561 0 0.28515207586010632 -0.21948821104020219 0 0.28014769655213528 -0.20737696554410809 0 0.29331088388336191 -0.20931171352909561 0 0.28834124173505088 -0.19660959650808929 0 0.28014769655213528 -0.20737696554410809 0 0.28834124173505088 -0.19660959650808929 0 0.30074859166323981 -0.20092677328064859 0 0.2920430052790563 -0.1838750507551967 0 0.28834124173505088 -0.19660959650808929 0 0.27484127229590688 -0.19244307126796761 0 0.2920430052790563 -0.1838750507551967 0 0.29331088388336191 -0.20931171352909561 0 0.28834124173505088 -0.19660959650808929 0 0.30074859166323981 -0.20092677328064859 0 0.2920430052790563 -0.1838750507551967 0 0.31322876172737912 -0.19730153279921669 0 0.2920430052790563 -0.1838750507551967 0 0.31840763461248678 -0.18784582215467119 0 0.31322876172737912 -0.19730153279921669 0 0.30074859166323981 -0.20092677328064859 0 0.2920430052790563 -0.1838750507551967 0 0.31322876172737912 -0.19730153279921669 0 0.30074859166323981 -0.20092677328064859 0 0.31099893568115078 -0.20702180958830629 0 0.31322876172737912 -0.19730153279921669 0 0.30074859166323981 -0.20092677328064859 0 0.31099893568115078 -0.20702180958830629 0 0.30503717959288379 -0.21260969868301899 0 0.29331088388336191 -0.20931171352909561 0 0.30074859166323981 -0.20092677328064859 0 0.30503717959288379 -0.21260969868301899 0 0.29331088388336191 -0.20931171352909561 0 0.30503717959288379 -0.21260969868301899 0 0.29887174770419239 -0.22106065421200291 0 0.30503717959288379 -0.21260969868301899 0 0.31105455155379202 -0.2231281946363014 0 0.31355257800714748 -0.21485662151682541 0 0.31099893568115078 -0.20702180958830629 0 0.30503717959288379 -0.21260969868301899 0 0.31355257800714748 -0.21485662151682541 0 0.30503717959288379 -0.21260969868301899 0 0.31105455155379202 -0.2231281946363014 0 0.29887174770419239 -0.22106065421200291 0 0.31105455155379202 -0.2231281946363014 0 0.30454955593001998 -0.22725882366378439 0 0.29887174770419239 -0.22106065421200291 0 0.31121543495535181 -0.23329758286515639 0 0.30454955593001998 -0.22725882366378439 0 0.30277671732808509 -0.2350375159148459 0 0.31105455155379202 -0.2231281946363014 0 0.31121543495535181 -0.23329758286515639 0 0.30454955593001998 -0.22725882366378439 0 0.30454955593001998 -0.22725882366378439 0 0.29887174770419239 -0.22106065421200291 0 0.29197064423340069 -0.23186034538152961 0 0.30454955593001998 -0.22725882366378439 0 0.30277671732808509 -0.2350375159148459 0 0.29197064423340069 -0.23186034538152961 0 0.31171633291391748 -0.24863279325672349 0 0.3073088138215721 -0.24138197400375119 0 0.31754365971678239 -0.24086523520110811 0 0.31171633291391748 -0.24863279325672349 0 0.3073088138215721 -0.24138197400375119 0 0.30257819211255149 -0.2488094059651956 0 0.31121543495535181 -0.23329758286515639 0 0.3073088138215721 -0.24138197400375119 0 0.31754365971678239 -0.24086523520110811 0 0.31121543495535181 -0.23329758286515639 0 0.3073088138215721 -0.24138197400375119 0 0.30277671732808509 -0.2350375159148459 0 0.3073088138215721 -0.24138197400375119 0 0.30277671732808509 -0.2350375159148459 0 0.29802254590274457 -0.2416493108194778 0 0.30277671732808509 -0.2350375159148459 0 0.29802254590274457 -0.2416493108194778 0 0.29197064423340069 -0.23186034538152961 0 0.3073088138215721 -0.24138197400375119 0 0.29802254590274457 -0.2416493108194778 0 0.30257819211255149 -0.2488094059651956 0 0.29802254590274457 -0.2416493108194778 0 0.30257819211255149 -0.2488094059651956 0 0.29306254118803782 -0.25228332337818887 0 0.29802254590274457 -0.2416493108194778 0 0.29004021961214688 -0.24323071364367899 0 0.29306254118803782 -0.25228332337818887 0 0.29004021961214688 -0.24323071364367899 0 0.29306254118803782 -0.25228332337818887 0 0.28532918300569421 -0.250754221665133 0 0.29802254590274457 -0.2416493108194778 0 0.29004021961214688 -0.24323071364367899 0 0.29197064423340069 -0.23186034538152961 0 0.29004021961214688 -0.24323071364367899 0 0.28229909464342567 -0.2399092901251523 0 0.29197064423340069 -0.23186034538152961 0 0.29004021961214688 -0.24323071364367899 0 0.28229909464342567 -0.2399092901251523 0 0.28532918300569421 -0.250754221665133 0 0.28229909464342567 -0.2399092901251523 0 0.27843768703777472 -0.2475622186980867 0 0.28532918300569421 -0.250754221665133 0 0.29887174770419239 -0.22106065421200291 0 0.29197064423340069 -0.23186034538152961 0 0.28515207586010632 -0.21948821104020219 0 0.28229909464342567 -0.2399092901251523 0 0.29197064423340069 -0.23186034538152961 0 0.2777805590491419 -0.23036410234404259 0 0.29197064423340069 -0.23186034538152961 0 0.28515207586010632 -0.21948821104020219 0 0.2777805590491419 -0.23036410234404259 0 0.28515207586010632 -0.21948821104020219 0 0.2777805590491419 -0.23036410234404259 0 0.27178613191934969 -0.21994087477657359 0 0.2777805590491419 -0.23036410234404259 0 0.27217449878338029 -0.24097755078122149 0 0.26536275071732163 -0.23148656440032789 0 0.2777805590491419 -0.23036410234404259 0 0.27178613191934969 -0.21994087477657359 0 0.26536275071732163 -0.23148656440032789 0 0.27843768703777472 -0.2475622186980867 0 0.27217449878338029 -0.24097755078122149 0 0.27257391460034369 -0.25057512247541558 0 0.28229909464342567 -0.2399092901251523 0 0.27843768703777472 -0.2475622186980867 0 0.27217449878338029 -0.24097755078122149 0 0.28229909464342567 -0.2399092901251523 0 0.2777805590491419 -0.23036410234404259 0 0.27217449878338029 -0.24097755078122149 0 0.27217449878338029 -0.24097755078122149 0 0.2621540253298455 -0.2441497914235741 0 0.26536275071732163 -0.23148656440032789 0 0.2621540253298455 -0.2441497914235741 0 0.26615335269546458 -0.25329157539057823 0 0.27257391460034369 -0.25057512247541558 0 0.27217449878338029 -0.24097755078122149 0 0.2621540253298455 -0.2441497914235741 0 0.27257391460034369 -0.25057512247541558 0 0.2621540253298455 -0.2441497914235741 0 0.26536275071732163 -0.23148656440032789 0 0.24911566892364639 -0.23415028430013829 0 0.2621540253298455 -0.2441497914235741 0 0.26615335269546458 -0.25329157539057823 0 0.25918022024245729 -0.25235144889406369 0 0.2621540253298455 -0.2441497914235741 0 0.25143426659746332 -0.24778919941374641 0 0.24911566892364639 -0.23415028430013829 0 0.2621540253298455 -0.2441497914235741 0 0.25143426659746332 -0.24778919941374641 0 0.25918022024245729 -0.25235144889406369 0 0.26536275071732163 -0.23148656440032789 0 0.25700776576854178 -0.21995061100086691 0 0.24911566892364639 -0.23415028430013829 0 0.27178613191934969 -0.21994087477657359 0 0.26536275071732163 -0.23148656440032789 0 0.25700776576854178 -0.21995061100086691 0 0.25700776576854178 -0.21995061100086691 0 0.26487396951590331 -0.20574301196623601 0 0.2497333894385155 -0.20700878973220599 0 0.27178613191934969 -0.21994087477657359 0 0.25700776576854178 -0.21995061100086691 0 0.26487396951590331 -0.20574301196623601 0 0.27178613191934969 -0.21994087477657359 0 0.26487396951590331 -0.20574301196623601 0 0.28014769655213528 -0.20737696554410809 0 0.28515207586010632 -0.21948821104020219 0 0.27178613191934969 -0.21994087477657359 0 0.28014769655213528 -0.20737696554410809 0 0.28834124173505088 -0.19660959650808929 0 0.28014769655213528 -0.20737696554410809 0 0.27484127229590688 -0.19244307126796761 0 0.26487396951590331 -0.20574301196623601 0 0.28014769655213528 -0.20737696554410809 0 0.27484127229590688 -0.19244307126796761 0 0.26487396951590331 -0.20574301196623601 0 0.27484127229590688 -0.19244307126796761 0 0.25303826176319699 -0.18852534679998401 0 0.26487396951590331 -0.20574301196623601 0 0.25303826176319699 -0.18852534679998401 0 0.2497333894385155 -0.20700878973220599 0 0.25303826176319699 -0.18852534679998401 0 0.25356566987203982 -0.1641341326189521 0 0.2708572488307337 -0.1704485687111767 0 0.25356566987203982 -0.1641341326189521 0 0.2708572488307337 -0.1704485687111767 0 0.26493850272201253 -0.14040612252354739 0 0.27484127229590688 -0.19244307126796761 0 0.25303826176319699 -0.18852534679998401 0 0.2708572488307337 -0.1704485687111767 0 0.27484127229590688 -0.19244307126796761 0 0.2708572488307337 -0.1704485687111767 0 0.2920430052790563 -0.1838750507551967 0 0.25153217278082501 -0.1231612647483309 0 0.26493850272201253 -0.14040612252354739 0 0.24450019811140869 -0.1481126461771537 0 0.25153217278082501 -0.1231612647483309 0 0.26493850272201253 -0.14040612252354739 0 0.2652510066121806 -0.12646247351016579 0 0.25356566987203982 -0.1641341326189521 0 0.26493850272201253 -0.14040612252354739 0 0.24450019811140869 -0.1481126461771537 0 0.2708572488307337 -0.1704485687111767 0 0.26493850272201253 -0.14040612252354739 0 0.28431410134584018 -0.15439327907768771 0 0.26493850272201253 -0.14040612252354739 0 0.2844487176724903 -0.132698300767601 0 0.28431410134584018 -0.15439327907768771 0 0.27291969858375847 -0.1158337021530771 0 0.2652510066121806 -0.12646247351016579 0 0.2844487176724903 -0.132698300767601 0 0.26493850272201253 -0.14040612252354739 0 0.2652510066121806 -0.12646247351016579 0 0.2844487176724903 -0.132698300767601 0 0.30180115013913672 -0.11839843949832141 0 0.2844487176724903 -0.132698300767601 0 0.30199625311348721 -0.1422786627129311 0 0.2844487176724903 -0.132698300767601 0 0.28431410134584018 -0.15439327907768771 0 0.30199625311348721 -0.1422786627129311 0 0.28431410134584018 -0.15439327907768771 0 0.30199625311348721 -0.1422786627129311 0 0.30240075104926989 -0.16496362946610779 0 0.30199625311348721 -0.1422786627129311 0 0.30240075104926989 -0.16496362946610779 0 0.31872513415600379 -0.15291708679814101 0 0.30180115013913672 -0.11839843949832141 0 0.30199625311348721 -0.1422786627129311 0 0.32190627618415202 -0.13209161434923619 0 0.2708572488307337 -0.1704485687111767 0 0.2920430052790563 -0.1838750507551967 0 0.28431410134584018 -0.15439327907768771 0 0.2920430052790563 -0.1838750507551967 0 0.30240075104926989 -0.16496362946610779 0 0.2708572488307337 -0.1704485687111767 0 0.28431410134584018 -0.15439327907768771 0 0.2920430052790563 -0.1838750507551967 0 0.2920430052790563 -0.1838750507551967 0 0.30240075104926989 -0.16496362946610779 0 0.31840763461248678 -0.18784582215467119 0 0.30240075104926989 -0.16496362946610779 0 0.31840763461248678 -0.18784582215467119 0 0.30240075104926989 -0.16496362946610779 0 0.31990122230996321 -0.16852342819576441 0 0.31840763461248678 -0.18784582215467119 0 0.31990122230996321 -0.16852342819576441 0 0.3323914685016448 -0.17673217087969079 0 0.31840763461248678 -0.18784582215467119 0 0.30240075104926989 -0.16496362946610779 0 0.31990122230996321 -0.16852342819576441 0 0.31872513415600379 -0.15291708679814101 0 0.31990122230996321 -0.16852342819576441 0 0.32919973509637968 -0.16194880535971931 0 0.31872513415600379 -0.15291708679814101 0 0.31990122230996321 -0.16852342819576441 0 0.32919973509637968 -0.16194880535971931 0 0.3323914685016448 -0.17673217087969079 0 0.32919973509637968 -0.16194880535971931 0 0.33694656718277127 -0.14769638070508739 0 0.34607163497656002 -0.16293860024123 0 0.32919973509637968 -0.16194880535971931 0 0.3323914685016448 -0.17673217087969079 0 0.34607163497656002 -0.16293860024123 0 0.3323914685016448 -0.17673217087969079 0 0.33563722719746308 -0.19283290757193181 0 0.31840763461248678 -0.18784582215467119 0 0.3323914685016448 -0.17673217087969079 0 0.34853632245014748 -0.18191246218255019 0 0.33563722719746308 -0.19283290757193181 0 0.3323914685016448 -0.17673217087969079 0 0.34853632245014748 -0.18191246218255019 0 0.34607163497656002 -0.16293860024123 0 0.32190627618415202 -0.13209161434923619 0 0.31872513415600379 -0.15291708679814101 0 0.33694656718277127 -0.14769638070508739 0 0.30199625311348721 -0.1422786627129311 0 0.32190627618415202 -0.13209161434923619 0 0.31872513415600379 -0.15291708679814101 0 0.32919973509637968 -0.16194880535971931 0 0.31872513415600379 -0.15291708679814101 0 0.33694656718277127 -0.14769638070508739 0 0.32190627618415202 -0.13209161434923619 0 0.33694656718277127 -0.14769638070508739 0 0.34813275304941088 -0.12683634641940189 0 0.33694656718277127 -0.14769638070508739 0 0.34813275304941088 -0.12683634641940189 0 0.35926248150009071 -0.1512362047423042 0 0.33694656718277127 -0.14769638070508739 0 0.35926248150009071 -0.1512362047423042 0 0.34607163497656002 -0.16293860024123 0 0.35926248150009071 -0.1512362047423042 0 0.37750367886529451 -0.1370968529628917 0 0.35926248150009071 -0.1512362047423042 0 0.37750367886529451 -0.1370968529628917 0 0.38537476729177261 -0.15653513032935271 0 0.34813275304941088 -0.12683634641940189 0 0.35926248150009071 -0.1512362047423042 0 0.37750367886529451 -0.1370968529628917 0 0.37176373857123329 -0.11942482032851259 0 0.34813275304941088 -0.12683634641940189 0 0.37750367886529451 -0.1370968529628917 0 0.34853632245014748 -0.18191246218255019 0 0.35825182515559117 -0.1710118249309151 0 0.34607163497656002 -0.16293860024123 0 0.34853632245014748 -0.18191246218255019 0 0.35825182515559117 -0.1710118249309151 0 0.36432826761952952 -0.18842858058566689 0 0.35926248150009071 -0.1512362047423042 0 0.35825182515559117 -0.1710118249309151 0 0.34607163497656002 -0.16293860024123 0 0.35926248150009071 -0.1512362047423042 0 0.37306041923162858 -0.1705432769028242 0 0.38537476729177261 -0.15653513032935271 0 0.35926248150009071 -0.1512362047423042 0 0.35825182515559117 -0.1710118249309151 0 0.37306041923162858 -0.1705432769028242 0 0.37306041923162858 -0.1705432769028242 0 0.36432826761952952 -0.18842858058566689 0 0.38007612447193678 -0.1846224197402484 0 0.35825182515559117 -0.1710118249309151 0 0.37306041923162858 -0.1705432769028242 0 0.36432826761952952 -0.18842858058566689 0 0.36432826761952952 -0.18842858058566689 0 0.3784299025274146 -0.20667504682091231 0 0.38007612447193678 -0.1846224197402484 0 0.36432826761952952 -0.18842858058566689 0 0.36087865113359252 -0.20786759708761501 0 0.3784299025274146 -0.20667504682091231 0 0.36508799535087288 -0.21871258985512149 0 0.37614146811372728 -0.224739690117124 0 0.3784299025274146 -0.20667504682091231 0 0.36087865113359252 -0.20786759708761501 0 0.36508799535087288 -0.21871258985512149 0 0.3784299025274146 -0.20667504682091231 0 0.36087865113359252 -0.20786759708761501 0 0.36508799535087288 -0.21871258985512149 0 0.35602876744926859 -0.2166115045192826 0 0.34617452081619671 -0.21136445421004399 0 0.33441451817570261 -0.21072801484323539 0 0.35119472046778999 -0.22136247509105991 0 0.36087865113359252 -0.20786759708761501 0 0.35602876744926859 -0.2166115045192826 0 0.34617452081619671 -0.21136445421004399 0 0.36087865113359252 -0.20786759708761501 0 0.34617452081619671 -0.21136445421004399 0 0.35049168179494489 -0.1973537072092498 0 0.34617452081619671 -0.21136445421004399 0 0.35049168179494489 -0.1973537072092498 0 0.34167948699607709 -0.20306977095861509 0 0.35602876744926859 -0.2166115045192826 0 0.34617452081619671 -0.21136445421004399 0 0.35119472046778999 -0.22136247509105991 0 0.34617452081619671 -0.21136445421004399 0 0.35119472046778999 -0.22136247509105991 0 0.36432826761952952 -0.18842858058566689 0 0.36087865113359252 -0.20786759708761501 0 0.35049168179494489 -0.1973537072092498 0 0.34853632245014748 -0.18191246218255019 0 0.36432826761952952 -0.18842858058566689 0 0.35049168179494489 -0.1973537072092498 0 0.34853632245014748 -0.18191246218255019 0 0.35049168179494489 -0.1973537072092498 0 0.33563722719746308 -0.19283290757193181 0 0.33563722719746308 -0.19283290757193181 0 0.33441451817570261 -0.21072801484323539 0 0.31840763461248678 -0.18784582215467119 0 0.33563722719746308 -0.19283290757193181 0 0.34167948699607709 -0.20306977095861509 0 0.33441451817570261 -0.21072801484323539 0 0.35049168179494489 -0.1973537072092498 0 0.33563722719746308 -0.19283290757193181 0 0.34167948699607709 -0.20306977095861509 0 0.34617452081619671 -0.21136445421004399 0 0.34167948699607709 -0.20306977095861509 0 0.33441451817570261 -0.21072801484323539 0 0.33441451817570261 -0.21072801484323539 0 0.35119472046778999 -0.22136247509105991 0 0.33441451817570261 -0.21072801484323539 0 0.32633997765142042 -0.21667043940763911 0 0.33027316922206729 -0.22443033811082161 0 0.33441451817570261 -0.21072801484323539 0 0.32009271706686349 -0.21087265879195299 0 0.31322876172737912 -0.19730153279921669 0 0.33441451817570261 -0.21072801484323539 0 0.31322876172737912 -0.19730153279921669 0 0.33441451817570261 -0.21072801484323539 0 0.32633997765142042 -0.21667043940763911 0 0.32009271706686349 -0.21087265879195299 0 0.32633997765142042 -0.21667043940763911 0 0.32009271706686349 -0.21087265879195299 0 0.32057950614104702 -0.22065074588454719 0 0.31355257800714748 -0.21485662151682541 0 0.32009271706686349 -0.21087265879195299 0 0.32057950614104702 -0.22065074588454719 0 0.31099893568115078 -0.20702180958830629 0 0.31355257800714748 -0.21485662151682541 0 0.32009271706686349 -0.21087265879195299 0 0.31099893568115078 -0.20702180958830629 0 0.32009271706686349 -0.21087265879195299 0 0.31322876172737912 -0.19730153279921669 0 0.33441451817570261 -0.21072801484323539 0 0.31840763461248678 -0.18784582215467119 0 0.31322876172737912 -0.19730153279921669 0 0.33441451817570261 -0.21072801484323539 0 0.31840763461248678 -0.18784582215467119 0 0.31754365971678239 -0.24086523520110811 0 0.32039547017796061 -0.23037535430840519 0 0.3317064994787231 -0.2398800291524967 0 0.31754365971678239 -0.24086523520110811 0 0.3317064994787231 -0.2398800291524967 0 0.3217750035898081 -0.25007614838849962 0 0.31171633291391748 -0.24863279325672349 0 0.31754365971678239 -0.24086523520110811 0 0.3217750035898081 -0.25007614838849962 0 0.31121543495535181 -0.23329758286515639 0 0.31754365971678239 -0.24086523520110811 0 0.32039547017796061 -0.23037535430840519 0 0.31105455155379202 -0.2231281946363014 0 0.31121543495535181 -0.23329758286515639 0 0.32039547017796061 -0.23037535430840519 0 0.31105455155379202 -0.2231281946363014 0 0.32057950614104702 -0.22065074588454719 0 0.32039547017796061 -0.23037535430840519 0 0.31105455155379202 -0.2231281946363014 0 0.31355257800714748 -0.21485662151682541 0 0.32057950614104702 -0.22065074588454719 0 0.32633997765142042 -0.21667043940763911 0 0.32057950614104702 -0.22065074588454719 0 0.33027316922206729 -0.22443033811082161 0 0.32057950614104702 -0.22065074588454719 0 0.32039547017796061 -0.23037535430840519 0 0.33027316922206729 -0.22443033811082161 0 0.32039547017796061 -0.23037535430840519 0 0.33027316922206729 -0.22443033811082161 0 0.3317064994787231 -0.2398800291524967 0 0.33027316922206729 -0.22443033811082161 0 0.3317064994787231 -0.2398800291524967 0 0.34651485399509929 -0.22802571146995329 0 0.33441451817570261 -0.21072801484323539 0 0.34651485399509929 -0.22802571146995329 0 0.33441451817570261 -0.21072801484323539 0 0.33027316922206729 -0.22443033811082161 0 0.34651485399509929 -0.22802571146995329 0 0.3317064994787231 -0.2398800291524967 0 0.3452577849176578 -0.24172230784699791 0 0.34651485399509929 -0.22802571146995329 0 0.3317064994787231 -0.2398800291524967 0 0.3217750035898081 -0.25007614838849962 0 0.33126718172301212 -0.25366948099773839 0 0.3317064994787231 -0.2398800291524967 0 0.33126718172301212 -0.25366948099773839 0 0.34419459638231392 -0.25366008266887002 0 0.3317064994787231 -0.2398800291524967 0 0.3452577849176578 -0.24172230784699791 0 0.34419459638231392 -0.25366008266887002 0 0.35861518981449497 -0.24532340809667191 0 0.34651485399509929 -0.22802571146995329 0 0.36127359061118253 -0.24143513377878889 0 0.3452577849176578 -0.24172230784699791 0 0.35861518981449497 -0.24532340809667191 0 0.34651485399509929 -0.22802571146995329 0 0.35861518981449497 -0.24532340809667191 0 0.34651485399509929 -0.22802571146995329 0 0.3452577849176578 -0.24172230784699791 0 0.35861518981449497 -0.24532340809667191 0 0.34419459638231392 -0.25366008266887002 0 0.33441451817570261 -0.21072801484323539 0 0.35119472046778999 -0.22136247509105991 0 0.34651485399509929 -0.22802571146995329 0 0.35119472046778999 -0.22136247509105991 0 0.34651485399509929 -0.22802571146995329 0 0.36127359061118253 -0.24143513377878889 0 0.35119472046778999 -0.22136247509105991 0 0.35479322931245938 -0.2236430315822123 0 0.36127359061118253 -0.24143513377878889 0 0.35119472046778999 -0.22136247509105991 0 0.36127359061118253 -0.24143513377878889 0 0.36508799535087288 -0.21871258985512149 0 0.35602876744926859 -0.2166115045192826 0 0.35479322931245938 -0.2236430315822123 0 0.35602876744926859 -0.2166115045192826 0 0.35119472046778999 -0.22136247509105991 0 0.35479322931245938 -0.2236430315822123 0 0.35119472046778999 -0.22136247509105991 0 0.35479322931245938 -0.2236430315822123 0 0.35479322931245938 -0.2236430315822123 0 0.36649825140928199 -0.2304550654528765 0 0.36127359061118253 -0.24143513377878889 0 0.36649825140928199 -0.2304550654528765 0 0.3820492709095592 -0.24281061363593651 0 0.37614146811372728 -0.224739690117124 0 0.36508799535087288 -0.21871258985512149 0 0.35479322931245938 -0.2236430315822123 0 0.36649825140928199 -0.2304550654528765 0 0.36508799535087288 -0.21871258985512149 0 0.36649825140928199 -0.2304550654528765 0 0.37614146811372728 -0.224739690117124 0 0.36127359061118253 -0.24143513377878889 0 0.3820492709095592 -0.24281061363593651 0 0.37071552563388932 -0.26262110472339117 0 0.35861518981449497 -0.24532340809667191 0 0.36127359061118253 -0.24143513377878889 0 0.37071552563388932 -0.26262110472339117 0 0.36649825140928199 -0.2304550654528765 0 0.36127359061118253 -0.24143513377878889 0 0.3820492709095592 -0.24281061363593651 0 0.3820492709095592 -0.24281061363593651 0 0.3984531923859202 -0.24653197416604361 0 0.38641154119971438 -0.25679816832471858 0 0.3820492709095592 -0.24281061363593651 0 0.3984531923859202 -0.24653197416604361 0 0.39274608106454129 -0.2241134348053555 0 0.39274608106454129 -0.2241134348053555 0 0.41273237230190862 -0.21818036514766781 0 0.40692604267754001 -0.23242378937465269 0 0.3984531923859202 -0.24653197416604361 0 0.39274608106454129 -0.2241134348053555 0 0.40692604267754001 -0.23242378937465269 0 0.3820492709095592 -0.24281061363593651 0 0.39274608106454129 -0.2241134348053555 0 0.37614146811372728 -0.224739690117124 0 0.3820492709095592 -0.24281061363593651 0 0.39274608106454129 -0.2241134348053555 0 0.39274608106454129 -0.2241134348053555 0 0.37614146811372728 -0.224739690117124 0 0.3784299025274146 -0.20667504682091231 0 0.3784299025274146 -0.20667504682091231 0 0.39086987833369308 -0.1912809018473304 0 0.38007612447193678 -0.1846224197402484 0 0.3784299025274146 -0.20667504682091231 0 0.39086987833369308 -0.1912809018473304 0 0.40115317280910512 -0.20595521866736261 0 0.3784299025274146 -0.20667504682091231 0 0.39086987833369308 -0.1912809018473304 0 0.39086987833369308 -0.1912809018473304 0 0.40349030761654292 -0.19273736218574089 0 0.40115317280910512 -0.20595521866736261 0 0.39274608106454129 -0.2241134348053555 0 0.40115317280910512 -0.20595521866736261 0 0.41273237230190862 -0.21818036514766781 0 0.39274608106454129 -0.2241134348053555 0 0.3784299025274146 -0.20667504682091231 0 0.40115317280910512 -0.20595521866736261 0 0.40115317280910512 -0.20595521866736261 0 0.41273237230190862 -0.21818036514766781 0 0.41862832518340248 -0.19782657135452261 0 0.41273237230190862 -0.21818036514766781 0 0.41862832518340248 -0.19782657135452261 0 0.43394679622683652 -0.21976638583529559 0 0.40349030761654292 -0.19273736218574089 0 0.40115317280910512 -0.20595521866736261 0 0.41862832518340248 -0.19782657135452261 0 0.40349030761654292 -0.19273736218574089 0 0.41862832518340248 -0.19782657135452261 0 0.403309854139971 -0.175886756873748 0 0.41862832518340248 -0.19782657135452261 0 0.43369739360351223 -0.18878747953518979 0 0.43776233027957229 -0.20343135501351869 0 0.41862832518340248 -0.19782657135452261 0 0.43369739360351223 -0.18878747953518979 0 0.42186688992577459 -0.1792477739875204 0 0.41862832518340248 -0.19782657135452261 0 0.43394679622683652 -0.21976638583529559 0 0.43776233027957229 -0.20343135501351869 0 0.41862832518340248 -0.19782657135452261 0 0.43394679622683652 -0.21976638583529559 0 0.41273237230190862 -0.21818036514766781 0 0.43394679622683652 -0.21976638583529559 0 0.42216397888650242 -0.22882163945603781 0 0.43394679622683652 -0.21976638583529559 0 0.42216397888650242 -0.22882163945603781 0 0.43083787932319523 -0.23673089349361279 0 0.43083787932319523 -0.23673089349361279 0 0.42882835196177949 -0.24982670302930521 0 0.44926526727026661 -0.24170620031607129 0 0.43083787932319523 -0.23673089349361279 0 0.42882835196177949 -0.24982670302930521 0 0.41619641073388552 -0.24252594825669821 0 0.42216397888650242 -0.22882163945603781 0 0.43083787932319523 -0.23673089349361279 0 0.41619641073388552 -0.24252594825669821 0 0.42216397888650242 -0.22882163945603781 0 0.41619641073388552 -0.24252594825669821 0 0.40692604267754001 -0.23242378937465269 0 0.3984531923859202 -0.24653197416604361 0 0.41619641073388552 -0.24252594825669821 0 0.40692604267754001 -0.23242378937465269 0 0.41273237230190862 -0.21818036514766781 0 0.42216397888650242 -0.22882163945603781 0 0.40692604267754001 -0.23242378937465269 0 0.39574487623049842 -0.1229575011834792 0 0.39824483335091609 -0.14163394893900469 0 0.41365082035528511 -0.13001629491493211 0 0.39574487623049842 -0.1229575011834792 0 0.37750367886529451 -0.1370968529628917 0 0.39574487623049842 -0.1229575011834792 0 0.37176373857123329 -0.11942482032851259 0 0.37750367886529451 -0.1370968529628917 0 0.39574487623049842 -0.1229575011834792 0 0.37750367886529451 -0.1370968529628917 0 0.39824483335091609 -0.14163394893900469 0 0.37750367886529451 -0.1370968529628917 0 0.39824483335091609 -0.14163394893900469 0 0.38537476729177261 -0.15653513032935271 0 0.39824483335091609 -0.14163394893900469 0 0.40272045212014201 -0.15535989879615711 0 0.38537476729177261 -0.15653513032935271 0 0.39824483335091609 -0.14163394893900469 0 0.40272045212014201 -0.15535989879615711 0 0.41284430025344038 -0.14547897723259789 0 0.40272045212014201 -0.15535989879615711 0 0.39849989270123393 -0.1689977102237091 0 0.38537476729177261 -0.15653513032935271 0 0.39849989270123393 -0.1689977102237091 0 0.403309854139971 -0.175886756873748 0 0.41603199664232471 -0.1601434379874733 0 0.40272045212014201 -0.15535989879615711 0 0.39849989270123393 -0.1689977102237091 0 0.41603199664232471 -0.1601434379874733 0 0.37306041923162858 -0.1705432769028242 0 0.38537476729177261 -0.15653513032935271 0 0.38569455111426287 -0.17194682753867671 0 0.39849989270123393 -0.1689977102237091 0 0.38537476729177261 -0.15653513032935271 0 0.38569455111426287 -0.17194682753867671 0 0.38569455111426287 -0.17194682753867671 0 0.38007612447193678 -0.1846224197402484 0 0.39146155187474252 -0.17903560049724901 0 0.37306041923162858 -0.1705432769028242 0 0.38569455111426287 -0.17194682753867671 0 0.38007612447193678 -0.1846224197402484 0 0.39086987833369308 -0.1912809018473304 0 0.38007612447193678 -0.1846224197402484 0 0.39146155187474252 -0.17903560049724901 0 0.39086987833369308 -0.1912809018473304 0 0.39146155187474252 -0.17903560049724901 0 0.403309854139971 -0.175886756873748 0 0.39086987833369308 -0.1912809018473304 0 0.40349030761654292 -0.19273736218574089 0 0.403309854139971 -0.175886756873748 0 0.39086987833369308 -0.1912809018473304 0 0.403309854139971 -0.175886756873748 0 0.39849989270123393 -0.1689977102237091 0 0.39146155187474252 -0.17903560049724901 0 0.403309854139971 -0.175886756873748 0 0.39849989270123393 -0.1689977102237091 0 0.38569455111426287 -0.17194682753867671 0 0.39146155187474252 -0.17903560049724901 0 0.39849989270123393 -0.1689977102237091 0 0.403309854139971 -0.175886756873748 0 0.41862832518340248 -0.19782657135452261 0 0.403309854139971 -0.175886756873748 0 0.41862832518340248 -0.19782657135452261 0 0.403309854139971 -0.175886756873748 0 0.42186688992577459 -0.1792477739875204 0 0.42186688992577459 -0.1792477739875204 0 0.43015853405805909 -0.16292202611878709 0 0.44025944986511401 -0.17507959068151269 0 0.43369739360351223 -0.18878747953518979 0 0.42186688992577459 -0.1792477739875204 0 0.44025944986511401 -0.17507959068151269 0 0.42186688992577459 -0.1792477739875204 0 0.43015853405805909 -0.16292202611878709 0 0.41603199664232471 -0.1601434379874733 0 0.403309854139971 -0.175886756873748 0 0.41603199664232471 -0.1601434379874733 0 0.403309854139971 -0.175886756873748 0 0.42186688992577459 -0.1792477739875204 0 0.41603199664232471 -0.1601434379874733 0 0.41603199664232471 -0.1601434379874733 0 0.41284430025344038 -0.14547897723259789 0 0.42875413914467769 -0.1444001191011981 0 0.40272045212014201 -0.15535989879615711 0 0.41603199664232471 -0.1601434379874733 0 0.41284430025344038 -0.14547897723259789 0 0.43015853405805909 -0.16292202611878709 0 0.41603199664232471 -0.1601434379874733 0 0.42875413914467769 -0.1444001191011981 0 0.43015853405805909 -0.16292202611878709 0 0.42875413914467769 -0.1444001191011981 0 0.44388019471240431 -0.15573920883623091 0 0.41603199664232471 -0.1601434379874733 0 0.42875413914467769 -0.1444001191011981 0 0.42813095842663718 -0.1192876667367317 0 0.42875413914467769 -0.1444001191011981 0 0.44147628164703068 -0.12865680021492301 0 0.42813095842663718 -0.1192876667367317 0 0.42875413914467769 -0.1444001191011981 0 0.41365082035528511 -0.13001629491493211 0 0.42875413914467769 -0.1444001191011981 0 0.44147628164703068 -0.12865680021492301 0 0.41284430025344038 -0.14547897723259789 0 0.42875413914467769 -0.1444001191011981 0 0.41365082035528511 -0.13001629491493211 0 0.39824483335091609 -0.14163394893900469 0 0.41284430025344038 -0.14547897723259789 0 0.41365082035528511 -0.13001629491493211 0 0.45739486048555339 -0.1241621835697562 0 0.45720158592988658 -0.13911429803909331 0 0.47607643507557301 -0.1343078895027166 0 0.45739486048555339 -0.1241621835697562 0 0.45720158592988658 -0.13911429803909331 0 0.44147628164703068 -0.12865680021492301 0 0.42875413914467769 -0.1444001191011981 0 0.44147628164703068 -0.12865680021492301 0 0.44388019471240431 -0.15573920883623091 0 0.45720158592988658 -0.13911429803909331 0 0.44147628164703068 -0.12865680021492301 0 0.44388019471240431 -0.15573920883623091 0 0.45720158592988658 -0.13911429803909331 0 0.4648710792849402 -0.1544667716237359 0 0.47607643507557301 -0.1343078895027166 0 0.45720158592988658 -0.13911429803909331 0 0.44388019471240431 -0.15573920883623091 0 0.4648710792849402 -0.1544667716237359 0 0.44388019471240431 -0.15573920883623091 0 0.4648710792849402 -0.1544667716237359 0 0.45374286727964969 -0.16914144966906211 0 0.4648710792849402 -0.1544667716237359 0 0.45374286727964969 -0.16914144966906211 0 0.47470896063271723 -0.1710786284943609 0 0.44388019471240431 -0.15573920883623091 0 0.45374286727964969 -0.16914144966906211 0 0.44025944986511401 -0.17507959068151269 0 0.43015853405805909 -0.16292202611878709 0 0.44388019471240431 -0.15573920883623091 0 0.44025944986511401 -0.17507959068151269 0 0.45374286727964969 -0.16914144966906211 0 0.44025944986511401 -0.17507959068151269 0 0.44730288942760238 -0.18673381286217969 0 0.43369739360351223 -0.18878747953518979 0 0.44025944986511401 -0.17507959068151269 0 0.44730288942760238 -0.18673381286217969 0 0.45374286727964969 -0.16914144966906211 0 0.44730288942760238 -0.18673381286217969 0 0.46253772935385629 -0.18096153701874079 0 0.45374286727964969 -0.16914144966906211 0 0.46253772935385629 -0.18096153701874079 0 0.47470896063271723 -0.1710786284943609 0 0.48532843790591751 -0.1843530902598895 0 0.47470896063271723 -0.1710786284943609 0 0.47294768736498188 -0.18927902277519629 0 0.46253772935385629 -0.18096153701874079 0 0.47470896063271723 -0.1710786284943609 0 0.47294768736498188 -0.18927902277519629 0 0.48532843790591751 -0.1843530902598895 0 0.49678407372358602 -0.1661346050231885 0 0.47470896063271723 -0.1710786284943609 0 0.48532843790591751 -0.1843530902598895 0 0.5 -0.17278406311142649 0 0.49999999999999623 -0.2019494947406717 0 0.48532843790591751 -0.1843530902598895 0 0.49678407372358602 -0.1661346050231885 0 0.48532843790591751 -0.1843530902598895 0 0.5 -0.17278406311142649 0 0.49678407372358602 -0.1661346050231885 0 0.49678407372358602 -0.1661346050231885 0 0.47470896063271723 -0.1710786284943609 0 0.48370603539271362 -0.15371919604394441 0 0.5 -0.17278406311142649 0 0.49678407372358602 -0.1661346050231885 0 0.5 -0.14361863148218129 0 0.4648710792849402 -0.1544667716237359 0 0.47470896063271723 -0.1710786284943609 0 0.48370603539271362 -0.15371919604394441 0 0.4648710792849402 -0.1544667716237359 0 0.48370603539271362 -0.15371919604394441 0 0.47607643507557301 -0.1343078895027166 0 0.49678407372358602 -0.1661346050231885 0 0.48370603539271362 -0.15371919604394441 0 0.5 -0.14361863148218129 0 0.48370603539271362 -0.15371919604394441 0 0.5 -0.14361863148218129 0 0.47607643507557301 -0.1343078895027166 0 0.5 -0.1144531998529362 0 0.5 -0.14361863148218129 0 0.47607643507557301 -0.1343078895027166 0 0.45730537611314848 -0.23145276510449919 0 0.46156903467925708 -0.22213888790633041 0 0.44926526727026661 -0.24170620031607129 0 0.45730537611314848 -0.23145276510449919 0 0.46156903467925708 -0.22213888790633041 0 0.47865268805657463 -0.23959667890161479 0 0.46156903467925708 -0.22213888790633041 0 0.44926526727026661 -0.24170620031607129 0 0.45730537611314848 -0.23145276510449919 0 0.46711403772747939 -0.2475058013995779 0 0.44926526727026661 -0.24170620031607129 0 0.45730537611314848 -0.23145276510449919 0 0.46711403772747939 -0.2475058013995779 0 0.47865268805657463 -0.23959667890161479 0 0.45730537611314848 -0.23145276510449919 0 0.47865268805657463 -0.23959667890161479 0 0.43394679622683652 -0.21976638583529559 0 0.43083787932319523 -0.23673089349361279 0 0.44926526727026661 -0.24170620031607129 0 0.46156903467925708 -0.22213888790633041 0 0.44926526727026661 -0.24170620031607129 0 0.44795262972070699 -0.2242214133780745 0 0.43394679622683652 -0.21976638583529559 0 0.44926526727026661 -0.24170620031607129 0 0.44795262972070699 -0.2242214133780745 0 0.43394679622683652 -0.21976638583529559 0 0.44926526727026661 -0.24170620031607129 0 0.46156903467925708 -0.22213888790633041 0 0.44795262972070699 -0.2242214133780745 0 0.44702942070646923 -0.2132741794546017 0 0.43394679622683652 -0.21976638583529559 0 0.44795262972070699 -0.2242214133780745 0 0.44702942070646923 -0.2132741794546017 0 0.43776233027957229 -0.20343135501351869 0 0.45581756618391039 -0.203001465255054 0 0.43394679622683652 -0.21976638583529559 0 0.43776233027957229 -0.20343135501351869 0 0.44702942070646923 -0.2132741794546017 0 0.43776233027957229 -0.20343135501351869 0 0.44702942070646923 -0.2132741794546017 0 0.45581756618391039 -0.203001465255054 0 0.43369739360351223 -0.18878747953518979 0 0.44730288942760238 -0.18673381286217969 0 0.43776233027957229 -0.20343135501351869 0 0.44730288942760238 -0.18673381286217969 0 0.43776233027957229 -0.20343135501351869 0 0.45581756618391039 -0.203001465255054 0 0.46253772935385629 -0.18096153701874079 0 0.45581756618391039 -0.203001465255054 0 0.47294768736498188 -0.18927902277519629 0 0.45581756618391039 -0.203001465255054 0 0.47387280208824872 -0.20257157549659019 0 0.45581756618391039 -0.203001465255054 0 0.47294768736498188 -0.18927902277519629 0 0.47387280208824872 -0.20257157549659019 0 0.44730288942760238 -0.18673381286217969 0 0.46253772935385629 -0.18096153701874079 0 0.45581756618391039 -0.203001465255054 0 0.46156903467925708 -0.22213888790633041 0 0.44702942070646923 -0.2132741794546017 0 0.45581756618391039 -0.203001465255054 0 0.46156903467925708 -0.22213888790633041 0 0.47387280208824872 -0.20257157549659019 0 0.46156903467925708 -0.22213888790633041 0 0.45581756618391039 -0.203001465255054 0 0.47387280208824872 -0.20257157549659019 0 0.46156903467925708 -0.22213888790633041 0 0.47387280208824872 -0.20257157549659019 0 0.48069328552816881 -0.22051215099352919 0 0.48532843790591751 -0.1843530902598895 0 0.47294768736498188 -0.18927902277519629 0 0.47387280208824872 -0.20257157549659019 0 0.48532843790591751 -0.1843530902598895 0 0.47387280208824872 -0.20257157549659019 0 0.48532843790591751 -0.1843530902598895 0 0.47387280208824872 -0.20257157549659019 0 0.49999999999999623 -0.2019494947406717 0 0.47387280208824872 -0.20257157549659019 0 0.49999999999999623 -0.2019494947406717 0 0.49999999999999623 -0.2019494947406717 0 0.5 -0.2248450437197011 0 0.48069328552816881 -0.22051215099352919 0 0.47387280208824872 -0.20257157549659019 0 0.49999999999999623 -0.2019494947406717 0 0.48069328552816881 -0.22051215099352919 0 0.5 -0.2248450437197011 0 0.48069328552816881 -0.22051215099352919 0 0.47865268805657463 -0.23959667890161479 0 0.46156903467925708 -0.22213888790633041 0 0.48069328552816881 -0.22051215099352919 0 0.47865268805657463 -0.23959667890161479 0 0.46711403772747939 -0.2475058013995779 0 0.47865268805657463 -0.23959667890161479 0 0.48281854697140941 -0.25754419441568788 0 0.47865268805657463 -0.23959667890161479 0 0.50000000000000067 -0.24774059269873061 0 0.48281854697140941 -0.25754419441568788 0 0.5 -0.2248450437197011 0 0.47865268805657463 -0.23959667890161479 0 0.50000000000000067 -0.24774059269873061 0 0.47865268805657463 -0.23959667890161479 0 0.50000000000000067 -0.24774059269873061 0 0.50000000000000067 -0.24774059269873061 0 0.5 -0.26995066305429821 0 0.48281854697140941 -0.25754419441568788 0 0.5 -0.26995066305429821 0 0.48641676284833468 -0.27514651899227111 0 0.5 -0.29216073340986592 0 0.5 -0.26995066305429821 0 0.48641676284833468 -0.27514651899227111 0 0.48281854697140941 -0.25754419441568788 0 0.48641676284833468 -0.27514651899227111 0 0.46617684484684491 -0.26592773479919068 0 0.48308842242341948 -0.2901492692823131 0 0.46617684484684491 -0.26592773479919068 0 0.48308842242341948 -0.2901492692823131 0 0.48641676284833468 -0.27514651899227111 0 0.48281854697140941 -0.25754419441568788 0 0.46617684484684491 -0.26592773479919068 0 0.46711403772747939 -0.2475058013995779 0 0.48281854697140941 -0.25754419441568788 0 0.46617684484684491 -0.26592773479919068 0 0.44926526727026661 -0.24170620031607129 0 0.46617684484684491 -0.26592773479919068 0 0.46711403772747939 -0.2475058013995779 0 0.44926526727026661 -0.24170620031607129 0 0.46617684484684491 -0.26592773479919068 0 0.46617684484684491 -0.26592773479919068 0 0.44983089263267872 -0.27666000170915922 0 0.45252124851754499 -0.25407613170069998 0 0.44926526727026661 -0.24170620031607129 0 0.46617684484684491 -0.26592773479919068 0 0.45252124851754499 -0.25407613170069998 0 0.46617684484684491 -0.26592773479919068 0 0.44983089263267872 -0.27666000170915922 0 0.46230679701862221 -0.2883484818865471 0 0.44983089263267872 -0.27666000170915922 0 0.43775671327270022 -0.28667381953986509 0 0.43572568610501639 -0.26323889073118889 0 0.44926526727026661 -0.24170620031607129 0 0.43572568610501639 -0.26323889073118889 0 0.42882835196177949 -0.24982670302930521 0 0.44926526727026661 -0.24170620031607129 0 0.43572568610501639 -0.26323889073118889 0 0.44926526727026661 -0.24170620031607129 0 0.45252124851754499 -0.25407613170069998 0 0.43572568610501639 -0.26323889073118889 0 0.44983089263267872 -0.27666000170915922 0 0.45252124851754499 -0.25407613170069998 0 0.43572568610501639 -0.26323889073118889 0 0.44983089263267872 -0.27666000170915922 0 0.45252124851754499 -0.25407613170069998 0 0.44714053674781229 -0.29924387171761829 0 0.44445018086294591 -0.32182774172607742 0 0.44714053674781229 -0.29924387171761829 0 0.46529728844235552 -0.30976153192445433 0 0.44445018086294591 -0.32182774172607742 0 0.44714053674781229 -0.29924387171761829 0 0.44445018086294591 -0.32182774172607742 0 0.42857222772561959 -0.30356306012446532 0 0.44983089263267872 -0.27666000170915922 0 0.44714053674781229 -0.29924387171761829 0 0.46230679701862221 -0.2883484818865471 0 0.44983089263267872 -0.27666000170915922 0 0.44714053674781229 -0.29924387171761829 0 0.43775671327270022 -0.28667381953986509 0 0.44714053674781229 -0.29924387171761829 0 0.43775671327270022 -0.28667381953986509 0 0.42857222772561959 -0.30356306012446532 0 0.44983089263267872 -0.27666000170915922 0 0.44714053674781229 -0.29924387171761829 0 0.44714053674781229 -0.29924387171761829 0 0.46230679701862221 -0.2883484818865471 0 0.46529728844235552 -0.30976153192445433 0 0.48308842242341948 -0.2901492692823131 0 0.49999999999999639 -0.31437080376543358 0 0.48274931713347852 -0.32254127424091322 0 0.46529728844235552 -0.30976153192445433 0 0.48308842242341948 -0.2901492692823131 0 0.48274931713347852 -0.32254127424091322 0 0.46230679701862221 -0.2883484818865471 0 0.46529728844235552 -0.30976153192445433 0 0.48308842242341948 -0.2901492692823131 0 0.46617684484684491 -0.26592773479919068 0 0.46230679701862221 -0.2883484818865471 0 0.48308842242341948 -0.2901492692823131 0 0.48641676284833468 -0.27514651899227111 0 0.48308842242341948 -0.2901492692823131 0 0.5 -0.29216073340986592 0 0.48308842242341948 -0.2901492692823131 0 0.49999999999999639 -0.31437080376543358 0 0.48308842242341948 -0.2901492692823131 0 0.5 -0.29216073340986592 0 0.49999999999999639 -0.31437080376543358 0 0.49999999999999639 -0.31437080376543358 0 0.5 -0.34058573875134479 0 0.48274931713347852 -0.32254127424091322 0 0.5 -0.34058573875134479 0 0.4704834314455465 -0.33502218976662068 0 0.48274931713347852 -0.32254127424091322 0 0.5 -0.34058573875134479 0 0.4704834314455465 -0.33502218976662068 0 0.47781589323190848 -0.35364955210125593 0 0.46529728844235552 -0.30976153192445433 0 0.4704834314455465 -0.33502218976662068 0 0.48274931713347852 -0.32254127424091322 0 0.5 -0.34058573875134479 0 0.5 -0.36680067373725611 0 0.47781589323190848 -0.35364955210125593 0 0.5 -0.36680067373725611 0 0.47781589323190848 -0.35364955210125593 0 0.47171746294589889 -0.37294654367295899 0 0.47171746294589889 -0.37294654367295899 0 0.4557578746926006 -0.36168816175616342 0 0.45212310359672803 -0.37606068830839251 0 0.47781589323190848 -0.35364955210125593 0 0.47171746294589889 -0.37294654367295899 0 0.4557578746926006 -0.36168816175616342 0 0.4704834314455465 -0.33502218976662068 0 0.47781589323190848 -0.35364955210125593 0 0.45731837744969878 -0.34611466571287341 0 0.47781589323190848 -0.35364955210125593 0 0.4557578746926006 -0.36168816175616342 0 0.45731837744969878 -0.34611466571287341 0 0.4557578746926006 -0.36168816175616342 0 0.45731837744969878 -0.34611466571287341 0 0.44175982497807881 -0.34441161173453633 0 0.44175982497807881 -0.34441161173453633 0 0.4387523897169473 -0.36965716656180791 0 0.4557578746926006 -0.36168816175616342 0 0.44175982497807881 -0.34441161173453633 0 0.4387523897169473 -0.36965716656180791 0 0.4557578746926006 -0.36168816175616342 0 0.44175982497807881 -0.34441161173453633 0 0.4557578746926006 -0.36168816175616342 0 0.4387523897169473 -0.36965716656180791 0 0.45212310359672803 -0.37606068830839251 0 0.46529728844235552 -0.30976153192445433 0 0.4704834314455465 -0.33502218976662068 0 0.44445018086294591 -0.32182774172607742 0 0.4704834314455465 -0.33502218976662068 0 0.45731837744969878 -0.34611466571287341 0 0.44445018086294591 -0.32182774172607742 0 0.45731837744969878 -0.34611466571287341 0 0.44175982497807881 -0.34441161173453633 0 0.44445018086294591 -0.32182774172607742 0 0.44175982497807881 -0.34441161173453633 0 0.44445018086294591 -0.32182774172607742 0 0.44445018086294591 -0.32182774172607742 0 0.42466605129105511 -0.32331428445073562 0 0.42857222772561959 -0.30356306012446532 0 0.44175982497807881 -0.34441161173453633 0 0.44445018086294591 -0.32182774172607742 0 0.42466605129105511 -0.32331428445073562 0 0.44175982497807881 -0.34441161173453633 0 0.41225325835188531 -0.33447413704329609 0 0.41573699828640409 -0.35062560929512909 0 0.44175982497807881 -0.34441161173453633 0 0.42466605129105511 -0.32331428445073562 0 0.41225325835188531 -0.33447413704329609 0 0.44175982497807881 -0.34441161173453633 0 0.42466605129105511 -0.32331428445073562 0 0.42466605129105511 -0.32331428445073562 0 0.41225325835188531 -0.33447413704329609 0 0.40560324937088149 -0.32005930681439798 0 0.42466605129105511 -0.32331428445073562 0 0.40560324937088149 -0.32005930681439798 0 0.4075722776040322 -0.30221695716693397 0 0.42466605129105511 -0.32331428445073562 0 0.4075722776040322 -0.30221695716693397 0 0.4387523897169473 -0.36965716656180791 0 0.41573699828640409 -0.35062560929512909 0 0.4136921838755433 -0.37806964234205009 0 0.44175982497807881 -0.34441161173453633 0 0.4387523897169473 -0.36965716656180791 0 0.41573699828640409 -0.35062560929512909 0 0.41573699828640409 -0.35062560929512909 0 0.3997804777363112 -0.37272453228292768 0 0.4136921838755433 -0.37806964234205009 0 0.41573699828640409 -0.35062560929512909 0 0.4136921838755433 -0.37806964234205009 0 0.3997804777363112 -0.37272453228292768 0 0.3904439796985647 -0.3611083550442819 0 0.38567782509003601 -0.37754334516443561 0 0.41573699828640409 -0.35062560929512909 0 0.3997804777363112 -0.37272453228292768 0 0.3904439796985647 -0.3611083550442819 0 0.41573699828640409 -0.35062560929512909 0 0.3904439796985647 -0.3611083550442819 0 0.39048799803147838 -0.34305842679751769 0 0.3904439796985647 -0.3611083550442819 0 0.39048799803147838 -0.34305842679751769 0 0.37047776436842661 -0.35838974597582057 0 0.39048799803147838 -0.34305842679751769 0 0.37212002878019962 -0.34174343944434288 0 0.37047776436842661 -0.35838974597582057 0 0.3904439796985647 -0.3611083550442819 0 0.3787916495420417 -0.3686996929003083 0 0.38567782509003601 -0.37754334516443561 0 0.3904439796985647 -0.3611083550442819 0 0.3787916495420417 -0.3686996929003083 0 0.37047776436842661 -0.35838974597582057 0 0.3787916495420417 -0.3686996929003083 0 0.38567782509003601 -0.37754334516443561 0 0.36856702901113952 -0.37775732541669488 0 0.3904439796985647 -0.3611083550442819 0 0.37047776436842661 -0.35838974597582057 0 0.40560324937088149 -0.32005930681439798 0 0.39464518880614058 -0.32729161333284151 0 0.38887947080129459 -0.31299954207818298 0 0.41225325835188531 -0.33447413704329609 0 0.40560324937088149 -0.32005930681439798 0 0.39464518880614058 -0.32729161333284151 0 0.41225325835188531 -0.33447413704329609 0 0.39464518880614058 -0.32729161333284151 0 0.39048799803147838 -0.34305842679751769 0 0.41225325835188531 -0.33447413704329609 0 0.41573699828640409 -0.35062560929512909 0 0.39048799803147838 -0.34305842679751769 0 0.39464518880614058 -0.32729161333284151 0 0.39048799803147838 -0.34305842679751769 0 0.37773876792872862 -0.32777608744691228 0 0.39048799803147838 -0.34305842679751769 0 0.37773876792872862 -0.32777608744691228 0 0.37212002878019962 -0.34174343944434288 0 0.39464518880614058 -0.32729161333284151 0 0.38887947080129459 -0.31299954207818298 0 0.37773876792872862 -0.32777608744691228 0 0.38887947080129459 -0.31299954207818298 0 0.37773876792872862 -0.32777608744691228 0 0.36533705678267792 -0.31728902237790901 0 0.38887947080129459 -0.31299954207818298 0 0.37553059104105319 -0.30600852212472363 0 0.38938544207023429 -0.29355040802071941 0 0.38887947080129459 -0.31299954207818298 0 0.37553059104105319 -0.30600852212472363 0 0.36533705678267792 -0.31728902237790901 0 0.37553059104105319 -0.30600852212472363 0 0.38938544207023429 -0.29355040802071941 0 0.37692367512760472 -0.29471076959990938 0 0.38887947080129459 -0.31299954207818298 0 0.38938544207023429 -0.29355040802071941 0 0.4075722776040322 -0.30221695716693397 0 0.40560324937088149 -0.32005930681439798 0 0.38887947080129459 -0.31299954207818298 0 0.4075722776040322 -0.30221695716693397 0 0.38938544207023429 -0.29355040802071941 0 0.40346922649133982 -0.28092124053129602 0 0.39151670986022008 -0.27655455415211161 0 0.38938544207023429 -0.29355040802071941 0 0.40346922649133982 -0.28092124053129602 0 0.4075722776040322 -0.30221695716693397 0 0.38938544207023429 -0.29355040802071941 0 0.38160021115960668 -0.28191678606111131 0 0.39151670986022008 -0.27655455415211161 0 0.38938544207023429 -0.29355040802071941 0 0.37692367512760472 -0.29471076959990938 0 0.38160021115960668 -0.28191678606111131 0 0.37692367512760472 -0.29471076959990938 0 0.38160021115960668 -0.28191678606111131 0 0.36864604209967411 -0.28580195190526653 0 0.38160021115960668 -0.28191678606111131 0 0.37302989084798022 -0.26672386484123639 0 0.37183639427018822 -0.27721741139498479 0 0.38160021115960668 -0.28191678606111131 0 0.37302989084798022 -0.26672386484123639 0 0.38461730899149088 -0.26805123045309792 0 0.37071552563388932 -0.26262110472339117 0 0.37302989084798022 -0.26672386484123639 0 0.38160021115960668 -0.28191678606111131 0 0.38461730899149088 -0.26805123045309792 0 0.37302989084798022 -0.26672386484123639 0 0.38461730899149088 -0.26805123045309792 0 0.39558547295702418 -0.26508923090199732 0 0.39151670986022008 -0.27655455415211161 0 0.38160021115960668 -0.28191678606111131 0 0.38461730899149088 -0.26805123045309792 0 0.39151670986022008 -0.27655455415211161 0 0.3820492709095592 -0.24281061363593651 0 0.38641154119971438 -0.25679816832471858 0 0.37071552563388932 -0.26262110472339117 0 0.38461730899149088 -0.26805123045309792 0 0.38641154119971438 -0.25679816832471858 0 0.37071552563388932 -0.26262110472339117 0 0.3820492709095592 -0.24281061363593651 0 0.37071552563388932 -0.26262110472339117 0 0.38461730899149088 -0.26805123045309792 0 0.38641154119971438 -0.25679816832471858 0 0.39558547295702418 -0.26508923090199732 0 0.3984531923859202 -0.24653197416604361 0 0.38641154119971438 -0.25679816832471858 0 0.39558547295702418 -0.26508923090199732 0 0.3984531923859202 -0.24653197416604361 0 0.39558547295702418 -0.26508923090199732 0 0.41488138079531928 -0.26245261976511619 0 0.39558547295702418 -0.26508923090199732 0 0.40346922649133982 -0.28092124053129602 0 0.41488138079531928 -0.26245261976511619 0 0.39558547295702418 -0.26508923090199732 0 0.40346922649133982 -0.28092124053129602 0 0.39151670986022008 -0.27655455415211161 0 0.40346922649133982 -0.28092124053129602 0 0.41488138079531928 -0.26245261976511619 0 0.42218610493976783 -0.28477158114630741 0 0.3984531923859202 -0.24653197416604361 0 0.41619641073388552 -0.24252594825669821 0 0.41488138079531928 -0.26245261976511619 0 0.42882835196177949 -0.24982670302930521 0 0.41619641073388552 -0.24252594825669821 0 0.41488138079531928 -0.26245261976511619 0 0.42882835196177949 -0.24982670302930521 0 0.41488138079531928 -0.26245261976511619 0 0.43572568610501639 -0.26323889073118889 0 0.43775671327270022 -0.28667381953986509 0 0.43572568610501639 -0.26323889073118889 0 0.42218610493976783 -0.28477158114630741 0 0.41488138079531928 -0.26245261976511619 0 0.43572568610501639 -0.26323889073118889 0 0.42218610493976783 -0.28477158114630741 0 0.43572568610501639 -0.26323889073118889 0 0.42218610493976783 -0.28477158114630741 0 0.43775671327270022 -0.28667381953986509 0 0.42218610493976783 -0.28477158114630741 0 0.42857222772561959 -0.30356306012446532 0 0.42466605129105511 -0.32331428445073562 0 0.42857222772561959 -0.30356306012446532 0 0.4075722776040322 -0.30221695716693397 0 0.40346922649133982 -0.28092124053129602 0 0.42218610493976783 -0.28477158114630741 0 0.4075722776040322 -0.30221695716693397 0 0.42218610493976783 -0.28477158114630741 0 0.42857222772561959 -0.30356306012446532 0 0.4075722776040322 -0.30221695716693397 0 0.44868023108569471 -0.5 0 0.44002948392070079 -0.4849855340735596 0 0.42830531416260431 -0.49774537173131422 0 0.44868023108569471 -0.5 0 0.44002948392070079 -0.4849855340735596 0 0.459563856351134 -0.48372993762208327 0 0.44002948392070079 -0.4849855340735596 0 0.459563856351134 -0.48372993762208327 0 0.45491647038434219 -0.45830987676244228 0 0.44002948392070079 -0.4849855340735596 0 0.45491647038434219 -0.45830987676244228 0 0.43205440916269039 -0.46960152301749708 0 0.459563856351134 -0.48372993762208327 0 0.47625825717337539 -0.47350911525369471 0 0.45491647038434219 -0.45830987676244228 0 0.44868023108569471 -0.5 0 0.459563856351134 -0.48372993762208327 0 0.47473798274075518 -0.50000000000000022 0 0.459563856351134 -0.48372993762208327 0 0.47473798274075518 -0.50000000000000022 0 0.47625825717337539 -0.47350911525369471 0 0.47473798274075518 -0.50000000000000022 0 0.47625825717337539 -0.47350911525369471 0 0.47473798274075518 -0.50000000000000022 0 0.48144370404419362 -0.48621772376607142 0 0.47625825717337539 -0.47350911525369471 0 0.5 -0.5 0 0.48708415889486562 -0.4713617798105913 0 0.50000000000000111 -0.44218069236402419 0 0.47473798274075518 -0.50000000000000022 0 0.48144370404419362 -0.48621772376607142 0 0.48769441736777841 -0.49999999999999972 0 0.48144370404419362 -0.48621772376607142 0 0.48769441736777841 -0.49999999999999972 0 0.48708415889486562 -0.4713617798105913 0 0.48769441736777841 -0.49999999999999972 0 0.5 -0.5 0 0.48708415889486562 -0.4713617798105913 0 0.48769441736777841 -0.49999999999999972 0 0.48708415889486562 -0.4713617798105913 0 0.48144370404419362 -0.48621772376607142 0 0.48708415889486562 -0.4713617798105913 0 0.47625825717337539 -0.47350911525369471 0 0.48708415889486562 -0.4713617798105913 0 0.48647390042196248 -0.44272355962118271 0 0.47777853160599482 -0.44701823050738909 0 0.47625825717337539 -0.47350911525369471 0 0.47777853160599482 -0.44701823050738909 0 0.45491647038434219 -0.45830987676244228 0 0.48708415889486562 -0.4713617798105913 0 0.47625825717337539 -0.47350911525369471 0 0.47777853160599482 -0.44701823050738909 0 0.47625825717337539 -0.47350911525369471 0 0.47777853160599482 -0.44701823050738909 0 0.48708415889486562 -0.4713617798105913 0 0.48647390042196248 -0.44272355962118271 0 0.48708415889486562 -0.4713617798105913 0 0.50000000000000111 -0.44218069236402419 0 0.48647390042196248 -0.44272355962118271 0 0.49391258766702351 -0.43904956784245353 0 0.50000000000000111 -0.44218069236402419 0 0.48647390042196248 -0.44272355962118271 0 0.49391258766702351 -0.43904956784245353 0 0.50000000000000178 -0.43604297512947771 0 0.49391258766702351 -0.43904956784245353 0 0.50000000000000111 -0.44218069236402419 0 0.50000000000000178 -0.43604297512947771 0 0.49391258766702351 -0.43904956784245353 0 0.50000000000000111 -0.44218069236402419 0 0.49391258766702351 -0.43904956784245353 0 0.48647390042196248 -0.44272355962118271 0 0.48631230663102237 -0.4351402834008879 0 0.49391258766702351 -0.43904956784245353 0 0.48647390042196248 -0.44272355962118271 0 0.48647390042196248 -0.44272355962118271 0 0.48631230663102237 -0.4351402834008879 0 0.47777853160599482 -0.44701823050738909 0 0.47840639939046919 -0.43607759192430201 0 0.48647390042196248 -0.44272355962118271 0 0.47777853160599482 -0.44701823050738909 0 0.48647390042196248 -0.44272355962118271 0 0.47777853160599482 -0.44701823050738909 0 0.47840639939046919 -0.43607759192430201 0 0.48647390042196248 -0.44272355962118271 0 0.47840639939046919 -0.43607759192430201 0 0.48631230663102237 -0.4351402834008879 0 0.47777853160599482 -0.44701823050738909 0 0.4715690221927562 -0.43916497512178088 0 0.47840639939046919 -0.43607759192430201 0 0.47777853160599482 -0.44701823050738909 0 0.4715690221927562 -0.43916497512178088 0 0.4630961187845421 -0.44068729207420659 0 0.47777853160599482 -0.44701823050738909 0 0.4630961187845421 -0.44068729207420659 0 0.45491647038434219 -0.45830987676244228 0 0.4630961187845421 -0.44068729207420659 0 0.45491647038434219 -0.45830987676244228 0 0.44919895533507892 -0.44201832798099722 0 0.47777853160599482 -0.44701823050738909 0 0.45491647038434219 -0.45830987676244228 0 0.45491647038434219 -0.45830987676244228 0 0.43205440916269039 -0.46960152301749708 0 0.45491647038434219 -0.45830987676244228 0 0.43766953690229032 -0.44989076846206438 0 0.43205440916269039 -0.46960152301749708 0 0.45491647038434219 -0.45830987676244228 0 0.43766953690229032 -0.44989076846206438 0 0.44919895533507892 -0.44201832798099722 0 0.43766953690229032 -0.44989076846206438 0 0.44919895533507892 -0.44201832798099722 0 0.43394206859376949 -0.4310640831691932 0 0.44919895533507892 -0.44201832798099722 0 0.45042440777306442 -0.42811145648347831 0 0.43394206859376949 -0.4310640831691932 0 0.45042440777306442 -0.42811145648347831 0 0.43394206859376949 -0.4310640831691932 0 0.45042440777306442 -0.42811145648347831 0 0.4373342400135094 -0.4216448962593069 0 0.43394206859376949 -0.4310640831691932 0 0.45042440777306442 -0.42811145648347831 0 0.44761005193023168 -0.41523337187506032 0 0.4373342400135094 -0.4216448962593069 0 0.44761005193023168 -0.41523337187506032 0 0.43356943710036089 -0.41012181221965971 0 0.4373342400135094 -0.4216448962593069 0 0.44761005193023168 -0.41523337187506032 0 0.4450352857129749 -0.40233672689887878 0 0.43356943710036089 -0.41012181221965971 0 0.44761005193023168 -0.41523337187506032 0 0.45723069093290242 -0.40447366446258343 0 0.4450352857129749 -0.40233672689887878 0 0.44761005193023168 -0.41523337187506032 0 0.46690674695235929 -0.42515882979776298 0 0.44761005193023168 -0.41523337187506032 0 0.4638999426488461 -0.41379004728473662 0 0.46690674695235929 -0.42515882979776298 0 0.44761005193023168 -0.41523337187506032 0 0.4638999426488461 -0.41379004728473662 0 0.45723069093290242 -0.40447366446258343 0 0.4638999426488461 -0.41379004728473662 0 0.47224029543514312 -0.40437218864178132 0 0.45723069093290242 -0.40447366446258343 0 0.4630961187845421 -0.44068729207420659 0 0.45042440777306442 -0.42811145648347831 0 0.46690674695235929 -0.42515882979776298 0 0.45042440777306442 -0.42811145648347831 0 0.44761005193023168 -0.41523337187506032 0 0.46690674695235929 -0.42515882979776298 0 0.45042440777306442 -0.42811145648347831 0 0.46690674695235929 -0.42515882979776298 0 0.4630961187845421 -0.44068729207420659 0 0.44919895533507892 -0.44201832798099722 0 0.45042440777306442 -0.42811145648347831 0 0.4715690221927562 -0.43916497512178088 0 0.4630961187845421 -0.44068729207420659 0 0.46690674695235929 -0.42515882979776298 0 0.46690674695235929 -0.42515882979776298 0 0.48631230663102237 -0.4351402834008879 0 0.48622144689706198 -0.43087641623143602 0 0.46690674695235929 -0.42515882979776298 0 0.47840639939046919 -0.43607759192430201 0 0.48631230663102237 -0.4351402834008879 0 0.46690674695235929 -0.42515882979776298 0 0.48345337347618039 -0.42219468675342131 0 0.46690674695235929 -0.42515882979776298 0 0.48345337347618039 -0.42219468675342131 0 0.48622144689706198 -0.43087641623143602 0 0.4715690221927562 -0.43916497512178088 0 0.46690674695235929 -0.42515882979776298 0 0.47840639939046919 -0.43607759192430201 0 0.46690674695235929 -0.42515882979776298 0 0.48631230663102237 -0.4351402834008879 0 0.49391258766702351 -0.43904956784245353 0 0.48631230663102237 -0.4351402834008879 0 0.49307954661469761 -0.43101624654474002 0 0.50000000000000178 -0.43604297512947771 0 0.49307954661469761 -0.43101624654474002 0 0.50000000000000155 -0.41923054370907897 0 0.48345337347618039 -0.42219468675342131 0 0.49307954661469761 -0.43101624654474002 0 0.50000000000000155 -0.41923054370907897 0 0.49391258766702351 -0.43904956784245353 0 0.48631230663102237 -0.4351402834008879 0 0.48631230663102237 -0.4351402834008879 0 0.48622144689706198 -0.43087641623143602 0 0.49307954661469761 -0.43101624654474002 0 0.48631230663102237 -0.4351402834008879 0 0.48622144689706198 -0.43087641623143602 0 0.48345337347618039 -0.42219468675342131 0 0.48622144689706198 -0.43087641623143602 0 0.49307954661469761 -0.43101624654474002 0 0.49391258766702351 -0.43904956784245353 0 0.50000000000000178 -0.43604297512947771 0 0.49307954661469761 -0.43101624654474002 0 0.48345337347618039 -0.42219468675342131 0 0.50000000000000155 -0.41923054370907897 0 0.48345337347618039 -0.42219468675342131 0 0.50000000000000155 -0.41923054370907897 0 0.48740936196646262 -0.4058667311476738 0 0.4638999426488461 -0.41379004728473662 0 0.48345337347618039 -0.42219468675342131 0 0.47224029543514312 -0.40437218864178132 0 0.4638999426488461 -0.41379004728473662 0 0.46690674695235929 -0.42515882979776298 0 0.48345337347618039 -0.42219468675342131 0 0.48345337347618039 -0.42219468675342131 0 0.47224029543514312 -0.40437218864178132 0 0.48740936196646262 -0.4058667311476738 0 0.47224029543514312 -0.40437218864178132 0 0.48145409561187108 -0.38987454020502299 0 0.45841384320912459 -0.38948483355280072 0 0.47224029543514312 -0.40437218864178132 0 0.48740936196646262 -0.4058667311476738 0 0.48145409561187108 -0.38987454020502299 0 0.5 -0.39301560872316749 0 0.48740936196646262 -0.4058667311476738 0 0.48145409561187108 -0.38987454020502299 0 0.50000000000000155 -0.41923054370907897 0 0.5 -0.39301560872316749 0 0.48740936196646262 -0.4058667311476738 0 0.5 -0.36680067373725611 0 0.5 -0.39301560872316749 0 0.48145409561187108 -0.38987454020502299 0 0.5 -0.36680067373725611 0 0.47171746294589889 -0.37294654367295899 0 0.48145409561187108 -0.38987454020502299 0 0.47171746294589889 -0.37294654367295899 0 0.48145409561187108 -0.38987454020502299 0 0.45841384320912459 -0.38948483355280072 0 0.47171746294589889 -0.37294654367295899 0 0.45841384320912459 -0.38948483355280072 0 0.45212310359672803 -0.37606068830839251 0 0.47224029543514312 -0.40437218864178132 0 0.45841384320912459 -0.38948483355280072 0 0.45723069093290242 -0.40447366446258343 0 0.45841384320912459 -0.38948483355280072 0 0.45723069093290242 -0.40447366446258343 0 0.4450352857129749 -0.40233672689887878 0 0.45841384320912459 -0.38948483355280072 0 0.4450352857129749 -0.40233672689887878 0 0.43577355749771252 -0.3903091738255749 0 0.4450352857129749 -0.40233672689887878 0 0.43577355749771252 -0.3903091738255749 0 0.43356943710036089 -0.41012181221965971 0 0.45841384320912459 -0.38948483355280072 0 0.45212310359672803 -0.37606068830839251 0 0.43577355749771252 -0.3903091738255749 0 0.4387523897169473 -0.36965716656180791 0 0.45212310359672803 -0.37606068830839251 0 0.43577355749771252 -0.3903091738255749 0 0.4387523897169473 -0.36965716656180791 0 0.43577355749771252 -0.3903091738255749 0 0.4136921838755433 -0.37806964234205009 0 0.43577355749771252 -0.3903091738255749 0 0.41164736946468239 -0.4055136753889711 0 0.43356943710036089 -0.41012181221965971 0 0.43577355749771252 -0.3903091738255749 0 0.41164736946468239 -0.4055136753889711 0 0.4136921838755433 -0.37806964234205009 0 0.41164736946468239 -0.4055136753889711 0 0.4136921838755433 -0.37806964234205009 0 0.41164736946468239 -0.4055136753889711 0 0.4136921838755433 -0.37806964234205009 0 0.39793271168052757 -0.38811045895137081 0 0.3997804777363112 -0.37272453228292768 0 0.4136921838755433 -0.37806964234205009 0 0.39793271168052757 -0.38811045895137081 0 0.3997804777363112 -0.37272453228292768 0 0.39793271168052757 -0.38811045895137081 0 0.38567782509003601 -0.37754334516443561 0 0.38567782509003601 -0.37754334516443561 0 0.37724742248087351 -0.39243473334181461 0 0.36856702901113952 -0.37775732541669488 0 0.39793271168052757 -0.38811045895137081 0 0.38567782509003601 -0.37754334516443561 0 0.37724742248087351 -0.39243473334181461 0 0.39793271168052757 -0.38811045895137081 0 0.39058060610506251 -0.40196083036783681 0 0.37724742248087351 -0.39243473334181461 0 0.39058060610506251 -0.40196083036783681 0 0.37724742248087351 -0.39243473334181461 0 0.37348399658679049 -0.40356263891038968 0 0.37724742248087351 -0.39243473334181461 0 0.37348399658679049 -0.40356263891038968 0 0.41164736946468239 -0.4055136753889711 0 0.39793271168052757 -0.38811045895137081 0 0.39058060610506251 -0.40196083036783681 0 0.41164736946468239 -0.4055136753889711 0 0.39103417174808858 -0.42011042392368808 0 0.40960255505382159 -0.4329577084358921 0 0.41164736946468239 -0.4055136753889711 0 0.39058060610506251 -0.40196083036783681 0 0.39103417174808858 -0.42011042392368808 0 0.39103417174808858 -0.42011042392368808 0 0.37348399658679049 -0.40356263891038968 0 0.39103417174808858 -0.42011042392368808 0 0.36751225385736458 -0.42122021768120671 0 0.37348399658679049 -0.40356263891038968 0 0.39058060610506251 -0.40196083036783681 0 0.39103417174808858 -0.42011042392368808 0 0.37348399658679049 -0.40356263891038968 0 0.39103417174808858 -0.42011042392368808 0 0.37752559140814967 -0.43416594673828263 0 0.39322769801200669 -0.43635457023483198 0 0.39103417174808858 -0.42011042392368808 0 0.37752559140814967 -0.43416594673828263 0 0.36751225385736458 -0.42122021768120671 0 0.39103417174808858 -0.42011042392368808 0 0.40858434690938711 -0.43665820893698643 0 0.39103417174808858 -0.42011042392368808 0 0.39322769801200669 -0.43635457023483198 0 0.40858434690938711 -0.43665820893698643 0 0.39103417174808858 -0.42011042392368808 0 0.40858434690938711 -0.43665820893698643 0 0.40960255505382159 -0.4329577084358921 0 0.41555285970348183 -0.43658529193282097 0 0.42112523467012042 -0.42369375754914312 0 0.42245045414466842 -0.44010689885003412 0 0.40858434690938711 -0.43665820893698643 0 0.40960255505382159 -0.4329577084358921 0 0.41555285970348183 -0.43658529193282097 0 0.40960255505382159 -0.4329577084358921 0 0.41555285970348183 -0.43658529193282097 0 0.42112523467012042 -0.42369375754914312 0 0.41164736946468239 -0.4055136753889711 0 0.40960255505382159 -0.4329577084358921 0 0.41164736946468239 -0.4055136753889711 0 0.40960255505382159 -0.4329577084358921 0 0.42112523467012042 -0.42369375754914312 0 0.41164736946468239 -0.4055136753889711 0 0.42112523467012042 -0.42369375754914312 0 0.43356943710036089 -0.41012181221965971 0 0.42112523467012042 -0.42369375754914312 0 0.43356943710036089 -0.41012181221965971 0 0.4373342400135094 -0.4216448962593069 0 0.42112523467012042 -0.42369375754914312 0 0.43394206859376949 -0.4310640831691932 0 0.42245045414466842 -0.44010689885003412 0 0.42112523467012042 -0.42369375754914312 0 0.4373342400135094 -0.4216448962593069 0 0.43394206859376949 -0.4310640831691932 0 0.43766953690229032 -0.44989076846206438 0 0.43394206859376949 -0.4310640831691932 0 0.42245045414466842 -0.44010689885003412 0 0.43766953690229032 -0.44989076846206438 0 0.42383627980348199 -0.45259112358297071 0 0.42245045414466842 -0.44010689885003412 0 0.42383627980348199 -0.45259112358297071 0 0.41142419380641321 -0.46093662474821828 0 0.43205440916269039 -0.46960152301749708 0 0.43766953690229032 -0.44989076846206438 0 0.42383627980348199 -0.45259112358297071 0 0.43205440916269039 -0.46960152301749708 0 0.42383627980348199 -0.45259112358297071 0 0.41142419380641321 -0.46093662474821828 0 0.41205675324178781 -0.44804217009661429 0 0.41142419380641321 -0.46093662474821828 0 0.41205675324178781 -0.44804217009661429 0 0.39793545250585949 -0.45053462253599319 0 0.42383627980348199 -0.45259112358297071 0 0.42245045414466842 -0.44010689885003412 0 0.41205675324178781 -0.44804217009661429 0 0.41555285970348183 -0.43658529193282097 0 0.42245045414466842 -0.44010689885003412 0 0.41249753394321947 -0.44109372980131162 0 0.42245045414466842 -0.44010689885003412 0 0.41205675324178781 -0.44804217009661429 0 0.41249753394321947 -0.44109372980131162 0 0.41205675324178781 -0.44804217009661429 0 0.41249753394321947 -0.44109372980131162 0 0.40384325571677238 -0.44407607919010211 0 0.40858434690938711 -0.43665820893698643 0 0.41249753394321947 -0.44109372980131162 0 0.40384325571677238 -0.44407607919010211 0 0.40858434690938711 -0.43665820893698643 0 0.41555285970348183 -0.43658529193282097 0 0.41249753394321947 -0.44109372980131162 0 0.39322769801200669 -0.43635457023483198 0 0.40858434690938711 -0.43665820893698643 0 0.40384325571677238 -0.44407607919010211 0 0.41205675324178781 -0.44804217009661429 0 0.40384325571677238 -0.44407607919010211 0 0.39793545250585949 -0.45053462253599319 0 0.39322769801200669 -0.43635457023483198 0 0.40384325571677238 -0.44407607919010211 0 0.39793545250585949 -0.45053462253599319 0 0.37752559140814967 -0.43416594673828263 0 0.39322769801200669 -0.43635457023483198 0 0.37742445673235248 -0.45288292072553349 0 0.39322769801200669 -0.43635457023483198 0 0.39793545250585949 -0.45053462253599319 0 0.37742445673235248 -0.45288292072553349 0 0.37742445673235248 -0.45288292072553349 0 0.39330840233669601 -0.46688804499904202 0 0.39793545250585949 -0.45053462253599319 0 0.37742445673235248 -0.45288292072553349 0 0.39330840233669601 -0.46688804499904202 0 0.37742445673235248 -0.45288292072553349 0 0.39330840233669601 -0.46688804499904202 0 0.37548563579558941 -0.47691317827672558 0 0.41142419380641321 -0.46093662474821828 0 0.39793545250585949 -0.45053462253599319 0 0.39330840233669601 -0.46688804499904202 0 0.41142419380641321 -0.46093662474821828 0 0.39330840233669601 -0.46688804499904202 0 0.40919234794103843 -0.48089316927255138 0 0.39330840233669601 -0.46688804499904202 0 0.38984966203077559 -0.49044658463627572 0 0.40919234794103843 -0.48089316927255138 0 0.39330840233669601 -0.46688804499904202 0 0.40919234794103843 -0.48089316927255138 0 0.39330840233669601 -0.46688804499904202 0 0.37548563579558941 -0.47691317827672558 0 0.38984966203077559 -0.49044658463627572 0 0.38984966203077559 -0.49044658463627572 0 0.3965647277755735 -0.5 0 0.37050697612051292 -0.49999999999999972 0 0.37548563579558941 -0.47691317827672558 0 0.38984966203077559 -0.49044658463627572 0 0.37050697612051292 -0.49999999999999972 0 0.38984966203077559 -0.49044658463627572 0 0.37050697612051292 -0.49999999999999972 0 0.38984966203077559 -0.49044658463627572 0 0.3965647277755735 -0.5 0 0.40919234794103843 -0.48089316927255138 0 0.38984966203077559 -0.49044658463627572 0 0.40919234794103843 -0.48089316927255138 0 0.40919234794103843 -0.48089316927255138 0 0.42739538879675848 -0.48330639952373072 0 0.42830531416260431 -0.49774537173131422 0 0.40919234794103843 -0.48089316927255138 0 0.42262247943063408 -0.5 0 0.42830531416260431 -0.49774537173131422 0 0.3965647277755735 -0.5 0 0.40919234794103843 -0.48089316927255138 0 0.42262247943063408 -0.5 0 0.40919234794103843 -0.48089316927255138 0 0.42830531416260431 -0.49774537173131422 0 0.41142419380641321 -0.46093662474821828 0 0.40919234794103843 -0.48089316927255138 0 0.43205440916269039 -0.46960152301749708 0 0.40919234794103843 -0.48089316927255138 0 0.43205440916269039 -0.46960152301749708 0 0.40919234794103843 -0.48089316927255138 0 0.42739538879675848 -0.48330639952373072 0 0.43205440916269039 -0.46960152301749708 0 0.44002948392070079 -0.4849855340735596 0 0.42739538879675848 -0.48330639952373072 0 0.43205440916269039 -0.46960152301749708 0 0.44868023108569471 -0.5 0 0.42262247943063408 -0.5 0 0.42830531416260431 -0.49774537173131422 0 0.44002948392070079 -0.4849855340735596 0 0.42739538879675848 -0.48330639952373072 0 0.42830531416260431 -0.49774537173131422 0 0.31545845021493152 -0.5 0 0.32688125992518052 -0.48106880924120099 0 0.30450836500294248 -0.48277390769489742 0 0.32688125992518052 -0.48106880924120099 0 0.31543639649992711 -0.46482363722139541 0 0.30450836500294248 -0.48277390769489742 0 0.32688125992518052 -0.48106880924120099 0 0.34295705699572537 -0.47928226713024052 0 0.33832036111001712 -0.45967070670440918 0 0.32688125992518052 -0.48106880924120099 0 0.34295705699572537 -0.47928226713024052 0 0.34298271316772211 -0.5 0 0.31545845021493152 -0.5 0 0.32688125992518052 -0.48106880924120099 0 0.34298271316772211 -0.5 0 0.34295705699572537 -0.47928226713024052 0 0.34298271316772211 -0.5 0 0.35760397067922661 -0.48322932930029489 0 0.34298271316772211 -0.5 0 0.37050697612051292 -0.49999999999999972 0 0.35760397067922661 -0.48322932930029489 0 0.37548563579558941 -0.47691317827672558 0 0.37050697612051292 -0.49999999999999972 0 0.35760397067922661 -0.48322932930029489 0 0.37548563579558941 -0.47691317827672558 0 0.35760397067922661 -0.48322932930029489 0 0.36451589841876192 -0.46527151090627528 0 0.35760397067922661 -0.48322932930029489 0 0.35155398635648849 -0.46840650453411259 0 0.36451589841876192 -0.46527151090627528 0 0.34295705699572537 -0.47928226713024052 0 0.35155398635648849 -0.46840650453411259 0 0.33832036111001712 -0.45967070670440918 0 0.34295705699572537 -0.47928226713024052 0 0.35760397067922661 -0.48322932930029489 0 0.35155398635648849 -0.46840650453411259 0 0.35155398635648849 -0.46840650453411259 0 0.35654724874221322 -0.453642150493068 0 0.33832036111001712 -0.45967070670440918 0 0.35155398635648849 -0.46840650453411259 0 0.35654724874221322 -0.453642150493068 0 0.36451589841876192 -0.46527151090627528 0 0.35155398635648849 -0.46840650453411259 0 0.35654724874221322 -0.453642150493068 0 0.37742445673235248 -0.45288292072553349 0 0.35654724874221322 -0.453642150493068 0 0.36451589841876192 -0.46527151090627528 0 0.37742445673235248 -0.45288292072553349 0 0.37548563579558941 -0.47691317827672558 0 0.36451589841876192 -0.46527151090627528 0 0.37752559140814967 -0.43416594673828263 0 0.37742445673235248 -0.45288292072553349 0 0.36154051112799401 -0.43887779645204228 0 0.37742445673235248 -0.45288292072553349 0 0.35654724874221322 -0.453642150493068 0 0.36154051112799401 -0.43887779645204228 0 0.37742445673235248 -0.45288292072553349 0 0.36154051112799401 -0.43887779645204228 0 0.35654724874221322 -0.453642150493068 0 0.35037137929209511 -0.44345932876458632 0 0.33832036111001712 -0.45967070670440918 0 0.35654724874221322 -0.453642150493068 0 0.36154051112799401 -0.43887779645204228 0 0.35037137929209511 -0.44345932876458632 0 0.35654724874221322 -0.453642150493068 0 0.36154051112799401 -0.43887779645204228 0 0.34033620774926487 -0.44131861552865292 0 0.3219929940712028 -0.4435388682763281 0 0.33340131677176471 -0.43104233739091191 0 0.34033620774926487 -0.44131861552865292 0 0.33832036111001712 -0.45967070670440918 0 0.3219929940712028 -0.4435388682763281 0 0.35037137929209511 -0.44345932876458632 0 0.34033620774926487 -0.44131861552865292 0 0.33832036111001712 -0.45967070670440918 0 0.31543639649992711 -0.46482363722139541 0 0.3219929940712028 -0.4435388682763281 0 0.30360302969266068 -0.45414418916717331 0 0.32688125992518052 -0.48106880924120099 0 0.33832036111001712 -0.45967070670440918 0 0.31543639649992711 -0.46482363722139541 0 0.33832036111001712 -0.45967070670440918 0 0.31543639649992711 -0.46482363722139541 0 0.3219929940712028 -0.4435388682763281 0 0.3219929940712028 -0.4435388682763281 0 0.3128785701089819 -0.42937965992551341 0 0.30700795120534191 -0.44026272176589809 0 0.32332918298495489 -0.43025319242712118 0 0.32284053028107862 -0.42029902018605059 0 0.33340131677176471 -0.43104233739091191 0 0.3219929940712028 -0.4435388682763281 0 0.32332918298495489 -0.43025319242712118 0 0.33340131677176471 -0.43104233739091191 0 0.3219929940712028 -0.4435388682763281 0 0.32332918298495489 -0.43025319242712118 0 0.3128785701089819 -0.42937965992551341 0 0.32332918298495489 -0.43025319242712118 0 0.3128785701089819 -0.42937965992551341 0 0.32284053028107862 -0.42029902018605059 0 0.3128785701089819 -0.42937965992551341 0 0.32284053028107862 -0.42029902018605059 0 0.30831395555912078 -0.41898818295646711 0 0.31584242783196548 -0.41043057797421828 0 0.32284053028107862 -0.42029902018605059 0 0.30831395555912078 -0.41898818295646711 0 0.32888041299389409 -0.41008087504805207 0 0.32078798796335029 -0.40324265356079941 0 0.31584242783196548 -0.41043057797421828 0 0.32888041299389409 -0.41008087504805207 0 0.32078798796335029 -0.40324265356079941 0 0.31584242783196548 -0.41043057797421828 0 0.32284053028107862 -0.42029902018605059 0 0.32888041299389409 -0.41008087504805207 0 0.32284053028107862 -0.42029902018605059 0 0.32888041299389409 -0.41008087504805207 0 0.34123615718526501 -0.42097512873049431 0 0.32888041299389409 -0.41008087504805207 0 0.34516502433622631 -0.41030300931629649 0 0.32078798796335029 -0.40324265356079941 0 0.32888041299389409 -0.41008087504805207 0 0.34123615718526501 -0.42097512873049431 0 0.34516502433622631 -0.41030300931629649 0 0.32888041299389409 -0.41008087504805207 0 0.34123615718526501 -0.42097512873049431 0 0.34033620774926487 -0.44131861552865292 0 0.34123615718526501 -0.42097512873049431 0 0.33340131677176471 -0.43104233739091191 0 0.32284053028107862 -0.42029902018605059 0 0.34123615718526501 -0.42097512873049431 0 0.33340131677176471 -0.43104233739091191 0 0.35037137929209511 -0.44345932876458632 0 0.34033620774926487 -0.44131861552865292 0 0.34123615718526501 -0.42097512873049431 0 0.36154051112799401 -0.43887779645204228 0 0.35037137929209511 -0.44345932876458632 0 0.34123615718526501 -0.42097512873049431 0 0.36154051112799401 -0.43887779645204228 0 0.34123615718526501 -0.42097512873049431 0 0.35449751650550448 -0.41967699189631053 0 0.36154051112799401 -0.43887779645204228 0 0.34123615718526501 -0.42097512873049431 0 0.36154051112799401 -0.43887779645204228 0 0.36410742776193511 -0.42296069758395122 0 0.36751225385736458 -0.42122021768120671 0 0.37752559140814967 -0.43416594673828263 0 0.36154051112799401 -0.43887779645204228 0 0.36751225385736458 -0.42122021768120671 0 0.36154051112799401 -0.43887779645204228 0 0.36410742776193511 -0.42296069758395122 0 0.35449751650550448 -0.41967699189631053 0 0.36154051112799401 -0.43887779645204228 0 0.36751225385736458 -0.42122021768120671 0 0.36410742776193511 -0.42296069758395122 0 0.358845439518861 -0.41359442024627158 0 0.36076409965592221 -0.40573887738089709 0 0.36410742776193511 -0.42296069758395122 0 0.36665629365385449 -0.39712490485756963 0 0.36751225385736458 -0.42122021768120671 0 0.37348399658679049 -0.40356263891038968 0 0.36751225385736458 -0.42122021768120671 0 0.36665629365385449 -0.39712490485756963 0 0.37348399658679049 -0.40356263891038968 0 0.36410742776193511 -0.42296069758395122 0 0.36751225385736458 -0.42122021768120671 0 0.36665629365385449 -0.39712490485756963 0 0.36410742776193511 -0.42296069758395122 0 0.36076409965592221 -0.40573887738089709 0 0.36665629365385449 -0.39712490485756963 0 0.358845439518861 -0.41359442024627158 0 0.35519016001948828 -0.40857969929773591 0 0.35449751650550448 -0.41967699189631053 0 0.358845439518861 -0.41359442024627158 0 0.35519016001948828 -0.40857969929773591 0 0.36076409965592221 -0.40573887738089709 0 0.35519016001948828 -0.40857969929773591 0 0.35449751650550448 -0.41967699189631053 0 0.34516502433622631 -0.41030300931629649 0 0.36410742776193511 -0.42296069758395122 0 0.358845439518861 -0.41359442024627158 0 0.35449751650550448 -0.41967699189631053 0 0.34123615718526501 -0.42097512873049431 0 0.35449751650550448 -0.41967699189631053 0 0.34516502433622631 -0.41030300931629649 0 0.35519016001948828 -0.40857969929773591 0 0.35507291748902092 -0.39881187375323779 0 0.34275123072489522 -0.39726540487560369 0 0.34997796649555779 -0.39094018811539383 0 0.35507291748902092 -0.39881187375323779 0 0.36665629365385449 -0.39712490485756963 0 0.35519016001948828 -0.40857969929773591 0 0.34516502433622631 -0.41030300931629649 0 0.34275123072489522 -0.39726540487560369 0 0.34997796649555779 -0.39094018811539383 0 0.35507291748902092 -0.39881187375323779 0 0.34275123072489522 -0.39726540487560369 0 0.34997796649555779 -0.39094018811539383 0 0.34076602901951991 -0.38574326114311308 0 0.34275123072489522 -0.39726540487560369 0 0.35519016001948828 -0.40857969929773591 0 0.35507291748902092 -0.39881187375323779 0 0.36076409965592221 -0.40573887738089709 0 0.35507291748902092 -0.39881187375323779 0 0.36076409965592221 -0.40573887738089709 0 0.36665629365385449 -0.39712490485756963 0 0.37724742248087351 -0.39243473334181461 0 0.36665629365385449 -0.39712490485756963 0 0.37348399658679049 -0.40356263891038968 0 0.36665629365385449 -0.39712490485756963 0 0.37348399658679049 -0.40356263891038968 0 0.37724742248087351 -0.39243473334181461 0 0.36665629365385449 -0.39712490485756963 0 0.36856702901113952 -0.37775732541669488 0 0.36665629365385449 -0.39712490485756963 0 0.36856702901113952 -0.37775732541669488 0 0.3576186230225411 -0.37792931789251211 0 0.36665629365385449 -0.39712490485756963 0 0.36856702901113952 -0.37775732541669488 0 0.34997796649555779 -0.39094018811539383 0 0.36665629365385449 -0.39712490485756963 0 0.34499223541981161 -0.37669820399118192 0 0.36665629365385449 -0.39712490485756963 0 0.34499223541981161 -0.37669820399118192 0 0.36665629365385449 -0.39712490485756963 0 0.3576186230225411 -0.37792931789251211 0 0.34499223541981161 -0.37669820399118192 0 0.34997796649555779 -0.39094018811539383 0 0.34499223541981161 -0.37669820399118192 0 0.34076602901951991 -0.38574326114311308 0 0.3576186230225411 -0.37792931789251211 0 0.34499223541981161 -0.37669820399118192 0 0.34907174700958782 -0.37349619324734962 0 0.34499223541981161 -0.37669820399118192 0 0.33544736964449401 -0.37665145006727141 0 0.34907174700958782 -0.37349619324734962 0 0.34499223541981161 -0.37669820399118192 0 0.33544736964449401 -0.37665145006727141 0 0.34076602901951991 -0.38574326114311308 0 0.33544736964449401 -0.37665145006727141 0 0.32678329403356032 -0.37966041434875208 0 0.32808144300645509 -0.37058104865045682 0 0.33544736964449401 -0.37665145006727141 0 0.33066134281284087 -0.3871610586661145 0 0.32678329403356032 -0.37966041434875208 0 0.33544736964449401 -0.37665145006727141 0 0.33066134281284087 -0.3871610586661145 0 0.34076602901951991 -0.38574326114311308 0 0.33066134281284087 -0.3871610586661145 0 0.34076602901951991 -0.38574326114311308 0 0.34275123072489522 -0.39726540487560369 0 0.33066134281284087 -0.3871610586661145 0 0.34275123072489522 -0.39726540487560369 0 0.32078798796335029 -0.40324265356079941 0 0.34516502433622631 -0.41030300931629649 0 0.34275123072489522 -0.39726540487560369 0 0.32078798796335029 -0.40324265356079941 0 0.32078798796335029 -0.40324265356079941 0 0.31464251175021052 -0.39775388451687682 0 0.3176372040413693 -0.38151606859671983 0 0.33066134281284087 -0.3871610586661145 0 0.32078798796335029 -0.40324265356079941 0 0.3176372040413693 -0.38151606859671983 0 0.31584242783196548 -0.41043057797421828 0 0.32078798796335029 -0.40324265356079941 0 0.31464251175021052 -0.39775388451687682 0 0.32078798796335029 -0.40324265356079941 0 0.31464251175021052 -0.39775388451687682 0 0.33066134281284087 -0.3871610586661145 0 0.3176372040413693 -0.38151606859671983 0 0.32678329403356032 -0.37966041434875208 0 0.3176372040413693 -0.38151606859671983 0 0.32678329403356032 -0.37966041434875208 0 0.32808144300645509 -0.37058104865045682 0 0.31464251175021052 -0.39775388451687682 0 0.3176372040413693 -0.38151606859671983 0 0.30058695351265469 -0.38520030684873829 0 0.30058695351265469 -0.38520030684873829 0 0.3102400316611974 -0.36832748908401242 0 0.30058695351265469 -0.38520030684873829 0 0.29590687686493788 -0.38100759044194188 0 0.3102400316611974 -0.36832748908401242 0 0.3176372040413693 -0.38151606859671983 0 0.30058695351265469 -0.38520030684873829 0 0.3102400316611974 -0.36832748908401242 0 0.30058695351265469 -0.38520030684873829 0 0.29590687686493788 -0.38100759044194188 0 0.31464251175021052 -0.39775388451687682 0 0.30058695351265469 -0.38520030684873829 0 0.30379865544822632 -0.40571154884943461 0 0.30058695351265469 -0.38520030684873829 0 0.30379865544822632 -0.40571154884943461 0 0.2906875040585134 -0.40250376218604422 0 0.31464251175021052 -0.39775388451687682 0 0.30058695351265469 -0.38520030684873829 0 0.31584242783196548 -0.41043057797421828 0 0.31464251175021052 -0.39775388451687682 0 0.30379865544822632 -0.40571154884943461 0 0.30058695351265469 -0.38520030684873829 0 0.2906875040585134 -0.40250376218604422 0 0.2906875040585134 -0.40250376218604422 0 0.29590687686493788 -0.38100759044194188 0 0.27532293668358038 -0.38815357418349178 0 0.30058695351265469 -0.38520030684873829 0 0.2906875040585134 -0.40250376218604422 0 0.29590687686493788 -0.38100759044194188 0 0.29590687686493788 -0.38100759044194188 0 0.27532293668358038 -0.38815357418349178 0 0.28171566415704741 -0.36828485569923969 0 0.2590976936363843 -0.39674669773623122 0 0.25573174570141222 -0.37238572768261952 0 0.24086606561207591 -0.38754824512353092 0 0.27532293668358038 -0.38815357418349178 0 0.2590976936363843 -0.39674669773623122 0 0.25573174570141222 -0.37238572768261952 0 0.2906875040585134 -0.40250376218604422 0 0.27532293668358038 -0.38815357418349178 0 0.26677435863990501 -0.41203274912420751 0 0.27532293668358038 -0.38815357418349178 0 0.2590976936363843 -0.39674669773623122 0 0.26677435863990501 -0.41203274912420751 0 0.2906875040585134 -0.40250376218604422 0 0.28081316966382658 -0.41976331838415321 0 0.26677435863990501 -0.41203274912420751 0 0.28081316966382658 -0.41976331838415321 0 0.26677435863990501 -0.41203274912420751 0 0.27170375112556788 -0.42659758496729377 0 0.26677435863990501 -0.41203274912420751 0 0.26133467011006289 -0.42557829313150192 0 0.27170375112556788 -0.42659758496729377 0 0.26677435863990501 -0.41203274912420751 0 0.26133467011006289 -0.42557829313150192 0 0.2439753512001355 -0.42175142990410092 0 0.2590976936363843 -0.39674669773623122 0 0.26677435863990501 -0.41203274912420751 0 0.2439753512001355 -0.42175142990410092 0 0.26133467011006289 -0.42557829313150192 0 0.27170375112556788 -0.42659758496729377 0 0.26288521947464372 -0.44193140853040558 0 0.26133467011006289 -0.42557829313150192 0 0.26288521947464372 -0.44193140853040558 0 0.2439753512001355 -0.42175142990410092 0 0.26288521947464372 -0.44193140853040558 0 0.2439753512001355 -0.42175142990410092 0 0.26288521947464372 -0.44193140853040558 0 0.24582850601093659 -0.43770451171011848 0 0.2439753512001355 -0.42175142990410092 0 0.28081316966382658 -0.41976331838415321 0 0.27170375112556788 -0.42659758496729377 0 0.28865594584414578 -0.43300370307406377 0 0.28865594584414578 -0.43300370307406377 0 0.26288521947464372 -0.44193140853040558 0 0.27170375112556788 -0.42659758496729377 0 0.28865594584414578 -0.43300370307406377 0 0.26288521947464372 -0.44193140853040558 0 0.28865594584414578 -0.43300370307406377 0 0.30137268052705118 -0.42977017036791509 0 0.29509682812219479 -0.44285243593854012 0 0.28865594584414578 -0.43300370307406377 0 0.29562083581577531 -0.41815504904457967 0 0.30137268052705118 -0.42977017036791509 0 0.28081316966382658 -0.41976331838415321 0 0.28865594584414578 -0.43300370307406377 0 0.29562083581577531 -0.41815504904457967 0 0.2906875040585134 -0.40250376218604422 0 0.28081316966382658 -0.41976331838415321 0 0.30379865544822632 -0.40571154884943461 0 0.2906875040585134 -0.40250376218604422 0 0.29562083581577531 -0.41815504904457967 0 0.2906875040585134 -0.40250376218604422 0 0.28081316966382658 -0.41976331838415321 0 0.29562083581577531 -0.41815504904457967 0 0.30379865544822632 -0.40571154884943461 0 0.29562083581577531 -0.41815504904457967 0 0.30831395555912078 -0.41898818295646711 0 0.31584242783196548 -0.41043057797421828 0 0.30379865544822632 -0.40571154884943461 0 0.30831395555912078 -0.41898818295646711 0 0.3128785701089819 -0.42937965992551341 0 0.30831395555912078 -0.41898818295646711 0 0.30137268052705118 -0.42977017036791509 0 0.3128785701089819 -0.42937965992551341 0 0.30137268052705118 -0.42977017036791509 0 0.30700795120534191 -0.44026272176589809 0 0.29562083581577531 -0.41815504904457967 0 0.30831395555912078 -0.41898818295646711 0 0.30137268052705118 -0.42977017036791509 0 0.3219929940712028 -0.4435388682763281 0 0.30700795120534191 -0.44026272176589809 0 0.30360302969266068 -0.45414418916717331 0 0.30700795120534191 -0.44026272176589809 0 0.30360302969266068 -0.45414418916717331 0 0.29509682812219479 -0.44285243593854012 0 0.30137268052705118 -0.42977017036791509 0 0.30700795120534191 -0.44026272176589809 0 0.29509682812219479 -0.44285243593854012 0 0.31543639649992711 -0.46482363722139541 0 0.30360302969266068 -0.45414418916717331 0 0.29277233374288592 -0.46999435996118327 0 0.30360302969266068 -0.45414418916717331 0 0.28932378437625589 -0.45281710269509512 0 0.29277233374288592 -0.46999435996118327 0 0.28932378437625589 -0.45281710269509512 0 0.27635413339366699 -0.45381616192733809 0 0.29277233374288592 -0.46999435996118327 0 0.28932378437625589 -0.45281710269509512 0 0.29509682812219479 -0.44285243593854012 0 0.27956166163695317 -0.44338928951792028 0 0.28932378437625589 -0.45281710269509512 0 0.27956166163695317 -0.44338928951792028 0 0.27635413339366699 -0.45381616192733809 0 0.30360302969266068 -0.45414418916717331 0 0.28932378437625589 -0.45281710269509512 0 0.29509682812219479 -0.44285243593854012 0 0.28865594584414578 -0.43300370307406377 0 0.29509682812219479 -0.44285243593854012 0 0.27956166163695317 -0.44338928951792028 0 0.27956166163695317 -0.44338928951792028 0 0.26772471611511311 -0.44709595739711699 0 0.26288521947464372 -0.44193140853040558 0 0.28865594584414578 -0.43300370307406377 0 0.27956166163695317 -0.44338928951792028 0 0.26288521947464372 -0.44193140853040558 0 0.27956166163695317 -0.44338928951792028 0 0.26772471611511311 -0.44709595739711699 0 0.27635413339366699 -0.45381616192733809 0 0.26772471611511311 -0.44709595739711699 0 0.26569590684863958 -0.45439390851974132 0 0.27635413339366699 -0.45381616192733809 0 0.25911985539779281 -0.45013127018378618 0 0.25667734910858281 -0.45608485647008279 0 0.24209486279291159 -0.44913377365296359 0 0.26288521947464372 -0.44193140853040558 0 0.24582850601093659 -0.43770451171011848 0 0.24209486279291159 -0.44913377365296359 0 0.26288521947464372 -0.44193140853040558 0 0.24209486279291159 -0.44913377365296359 0 0.26288521947464372 -0.44193140853040558 0 0.25911985539779281 -0.45013127018378618 0 0.24209486279291159 -0.44913377365296359 0 0.26772471611511311 -0.44709595739711699 0 0.26288521947464372 -0.44193140853040558 0 0.26772471611511311 -0.44709595739711699 0 0.26288521947464372 -0.44193140853040558 0 0.25911985539779281 -0.45013127018378618 0 0.26772471611511311 -0.44709595739711699 0 0.25911985539779281 -0.45013127018378618 0 0.26569590684863958 -0.45439390851974132 0 0.26894972453231741 -0.46544161956596392 0 0.24512711532174869 -0.46088887917074461 0 0.25667734910858281 -0.45608485647008279 0 0.26894972453231741 -0.46544161956596392 0 0.24512711532174869 -0.46088887917074461 0 0.26894972453231741 -0.46544161956596392 0 0.25313498888367358 -0.47183159477686332 0 0.24512711532174869 -0.46088887917074461 0 0.25667734910858281 -0.45608485647008279 0 0.26894972453231741 -0.46544161956596392 0 0.26569590684863958 -0.45439390851974132 0 0.25911985539779281 -0.45013127018378618 0 0.25667734910858281 -0.45608485647008279 0 0.26569590684863958 -0.45439390851974132 0 0.26894972453231741 -0.46544161956596392 0 0.27635413339366699 -0.45381616192733809 0 0.29277233374288592 -0.46999435996118327 0 0.26894972453231741 -0.46544161956596392 0 0.29277233374288592 -0.46999435996118327 0 0.26894972453231741 -0.46544161956596392 0 0.26569590684863958 -0.45439390851974132 0 0.27635413339366699 -0.45381616192733809 0 0.26894972453231741 -0.46544161956596392 0 0.27960145450206297 -0.48270731202589062 0 0.26177178575703358 -0.48061463335438209 0 0.26894972453231741 -0.46544161956596392 0 0.27960145450206297 -0.48270731202589062 0 0.29277233374288592 -0.46999435996118327 0 0.26894972453231741 -0.46544161956596392 0 0.26177178575703358 -0.48061463335438209 0 0.25313498888367358 -0.47183159477686332 0 0.26177178575703358 -0.48061463335438209 0 0.25313498888367358 -0.47183159477686332 0 0.24676283655776399 -0.48309264040319277 0 0.26177178575703358 -0.48061463335438209 0 0.26040992430935012 -0.5 0 0.24676283655776399 -0.48309264040319277 0 0.27960145450206297 -0.48270731202589062 0 0.26040992430935012 -0.5 0 0.28793418726214071 -0.5 0 0.27960145450206297 -0.48270731202589062 0 0.26177178575703358 -0.48061463335438209 0 0.26040992430935012 -0.5 0 0.27960145450206297 -0.48270731202589062 0 0.28793418726214071 -0.5 0 0.30450836500294248 -0.48277390769489742 0 0.27960145450206297 -0.48270731202589062 0 0.29277233374288592 -0.46999435996118327 0 0.30450836500294248 -0.48277390769489742 0 0.31543639649992711 -0.46482363722139541 0 0.29277233374288592 -0.46999435996118327 0 0.30450836500294248 -0.48277390769489742 0 0.31545845021493152 -0.5 0 0.28793418726214071 -0.5 0 0.30450836500294248 -0.48277390769489742 0 0.33555525305948752 -0.28725229477371478 0 0.32904903462212282 -0.27804280579642709 0 0.34554652161988308 -0.27869626035274681 0 0.33555525305948752 -0.28725229477371478 0 0.32359110571866412 -0.29722871998805611 0 0.35167477808268421 -0.29590282673908758 0 0.32359110571866412 -0.29722871998805611 0 0.35167477808268421 -0.29590282673908758 0 0.33555525305948752 -0.28725229477371478 0 0.32359110571866412 -0.29722871998805611 0 0.32555480174016838 -0.2867180253100774 0 0.33555525305948752 -0.28725229477371478 0 0.32555480174016838 -0.2867180253100774 0 0.32904903462212282 -0.27804280579642709 0 0.32359110571866412 -0.29722871998805611 0 0.3252411831188497 -0.31217155971442051 0 0.35167477808268421 -0.29590282673908758 0 0.3252411831188497 -0.31217155971442051 0 0.35167477808268421 -0.29590282673908758 0 0.33702984751047782 -0.32150100805695248 0 0.32359110571866412 -0.29722871998805611 0 0.3252411831188497 -0.31217155971442051 0 0.31021015392181922 -0.31188982261633907 0 0.32555480174016838 -0.2867180253100774 0 0.30024488977903302 -0.29344129737411362 0 0.32359110571866412 -0.29722871998805611 0 0.32555480174016838 -0.2867180253100774 0 0.30024488977903302 -0.29344129737411362 0 0.32078869540727112 -0.28132008695497451 0 0.32555480174016838 -0.2867180253100774 0 0.32904903462212282 -0.27804280579642709 0 0.32078869540727112 -0.28132008695497451 0 0.32555480174016838 -0.2867180253100774 0 0.31147682722738779 -0.28472267542417928 0 0.32078869540727112 -0.28132008695497451 0 0.31707411803940561 -0.27579684128921411 0 0.31147682722738779 -0.28472267542417928 0 0.31707411803940561 -0.27579684128921411 0 0.31147682722738779 -0.28472267542417928 0 0.3096030141426202 -0.27789135799909881 0 0.31707411803940561 -0.27579684128921411 0 0.31559295578461161 -0.26610482310508898 0 0.32442900574481842 -0.26955512058754061 0 0.31707411803940561 -0.27579684128921411 0 0.31559295578461161 -0.26610482310508898 0 0.30832577637751968 -0.2711480086401224 0 0.32078869540727112 -0.28132008695497451 0 0.31707411803940561 -0.27579684128921411 0 0.32904903462212282 -0.27804280579642709 0 0.31707411803940561 -0.27579684128921411 0 0.32442900574481842 -0.26955512058754061 0 0.32904903462212282 -0.27804280579642709 0 0.31171633291391748 -0.24863279325672349 0 0.31466740911354052 -0.25732267375503692 0 0.3217750035898081 -0.25007614838849962 0 0.31466740911354052 -0.25732267375503692 0 0.32374893859287351 -0.26008667796789442 0 0.3217750035898081 -0.25007614838849962 0 0.31559295578461161 -0.26610482310508898 0 0.31466740911354052 -0.25732267375503692 0 0.32374893859287351 -0.26008667796789442 0 0.31559295578461161 -0.26610482310508898 0 0.32442900574481842 -0.26955512058754061 0 0.32374893859287351 -0.26008667796789442 0 0.32374893859287351 -0.26008667796789442 0 0.3217750035898081 -0.25007614838849962 0 0.33126718172301212 -0.25366948099773839 0 0.32374893859287351 -0.26008667796789442 0 0.33126718172301212 -0.25366948099773839 0 0.33627911296028162 -0.26530257677361607 0 0.32442900574481842 -0.26955512058754061 0 0.32374893859287351 -0.26008667796789442 0 0.33627911296028162 -0.26530257677361607 0 0.33126718172301212 -0.25366948099773839 0 0.33627911296028162 -0.26530257677361607 0 0.34419459638231392 -0.25366008266887002 0 0.33627911296028162 -0.26530257677361607 0 0.32904903462212282 -0.27804280579642709 0 0.34554652161988308 -0.27869626035274681 0 0.32442900574481842 -0.26955512058754061 0 0.33627911296028162 -0.26530257677361607 0 0.32904903462212282 -0.27804280579642709 0 0.33627911296028162 -0.26530257677361607 0 0.34554652161988308 -0.27869626035274681 0 0.35335848852303259 -0.26373477336191631 0 0.34554652161988308 -0.27869626035274681 0 0.35335848852303259 -0.26373477336191631 0 0.36119515185828688 -0.27926196573123951 0 0.33627911296028162 -0.26530257677361607 0 0.35335848852303259 -0.26373477336191631 0 0.34419459638231392 -0.25366008266887002 0 0.35861518981449497 -0.24532340809667191 0 0.35335848852303259 -0.26373477336191631 0 0.34419459638231392 -0.25366008266887002 0 0.35861518981449497 -0.24532340809667191 0 0.35335848852303259 -0.26373477336191631 0 0.37071552563388932 -0.26262110472339117 0 0.36127359061118253 -0.24143513377878889 0 0.37071552563388932 -0.26262110472339117 0 0.35861518981449497 -0.24532340809667191 0 0.37071552563388932 -0.26262110472339117 0 0.37071552563388932 -0.26262110472339117 0 0.37302989084798022 -0.26672386484123639 0 0.35335848852303259 -0.26373477336191631 0 0.37071552563388932 -0.26262110472339117 0 0.36119515185828688 -0.27926196573123951 0 0.37071552563388932 -0.26262110472339117 0 0.36119515185828688 -0.27926196573123951 0 0.37071552563388932 -0.26262110472339117 0 0.36119515185828688 -0.27926196573123951 0 0.37302989084798022 -0.26672386484123639 0 0.36119515185828688 -0.27926196573123951 0 0.37302989084798022 -0.26672386484123639 0 0.37183639427018822 -0.27721741139498479 0 0.36119515185828688 -0.27926196573123951 0 0.37183639427018822 -0.27721741139498479 0 0.36864604209967411 -0.28580195190526653 0 0.37692367512760472 -0.29471076959990938 0 0.36864604209967411 -0.28580195190526653 0 0.35167477808268421 -0.29590282673908758 0 0.38160021115960668 -0.28191678606111131 0 0.37183639427018822 -0.27721741139498479 0 0.36864604209967411 -0.28580195190526653 0 0.36119515185828688 -0.27926196573123951 0 0.36864604209967411 -0.28580195190526653 0 0.35167477808268421 -0.29590282673908758 0 0.37692367512760472 -0.29471076959990938 0 0.35167477808268421 -0.29590282673908758 0 0.33555525305948752 -0.28725229477371478 0 0.34554652161988308 -0.27869626035274681 0 0.35167477808268421 -0.29590282673908758 0 0.34554652161988308 -0.27869626035274681 0 0.36119515185828688 -0.27926196573123951 0 0.35167477808268421 -0.29590282673908758 0 0.36119515185828688 -0.27926196573123951 0 0.35167477808268421 -0.29590282673908758 0 0.35167477808268421 -0.29590282673908758 0 0.33702984751047782 -0.32150100805695248 0 0.35167477808268421 -0.29590282673908758 0 0.36533705678267792 -0.31728902237790901 0 0.33702984751047782 -0.32150100805695248 0 0.35167477808268421 -0.29590282673908758 0 0.36464699131523809 -0.30267278346703408 0 0.36533705678267792 -0.31728902237790901 0 0.37692367512760472 -0.29471076959990938 0 0.35167477808268421 -0.29590282673908758 0 0.36464699131523809 -0.30267278346703408 0 0.37553059104105319 -0.30600852212472363 0 0.37692367512760472 -0.29471076959990938 0 0.36464699131523809 -0.30267278346703408 0 0.37553059104105319 -0.30600852212472363 0 0.36464699131523809 -0.30267278346703408 0 0.36533705678267792 -0.31728902237790901 0 0.37773876792872862 -0.32777608744691228 0 0.36533705678267792 -0.31728902237790901 0 0.35716212220589921 -0.33614800162225061 0 0.37773876792872862 -0.32777608744691228 0 0.37212002878019962 -0.34174343944434288 0 0.35716212220589921 -0.33614800162225061 0 0.37212002878019962 -0.34174343944434288 0 0.35716212220589921 -0.33614800162225061 0 0.36224276236311159 -0.34794381471324992 0 0.35716212220589921 -0.33614800162225061 0 0.33702984751047782 -0.32150100805695248 0 0.33783671654866632 -0.34093248845220331 0 0.36533705678267792 -0.31728902237790901 0 0.35716212220589921 -0.33614800162225061 0 0.33702984751047782 -0.32150100805695248 0 0.37047776436842661 -0.35838974597582057 0 0.34921113409792093 -0.35549407181058551 0 0.35880581001831119 -0.36456996194976499 0 0.36856702901113952 -0.37775732541669488 0 0.37047776436842661 -0.35838974597582057 0 0.3787916495420417 -0.3686996929003083 0 0.36856702901113952 -0.37775732541669488 0 0.37047776436842661 -0.35838974597582057 0 0.36856702901113952 -0.37775732541669488 0 0.37047776436842661 -0.35838974597582057 0 0.35880581001831119 -0.36456996194976499 0 0.36856702901113952 -0.37775732541669488 0 0.3576186230225411 -0.37792931789251211 0 0.35880581001831119 -0.36456996194976499 0 0.37047776436842661 -0.35838974597582057 0 0.36224276236311159 -0.34794381471324992 0 0.34921113409792093 -0.35549407181058551 0 0.37047776436842661 -0.35838974597582057 0 0.34921113409792093 -0.35549407181058551 0 0.37212002878019962 -0.34174343944434288 0 0.37047776436842661 -0.35838974597582057 0 0.37212002878019962 -0.34174343944434288 0 0.37047776436842661 -0.35838974597582057 0 0.36224276236311159 -0.34794381471324992 0 0.35716212220589921 -0.33614800162225061 0 0.34921113409792093 -0.35549407181058551 0 0.33783671654866632 -0.34093248845220331 0 0.35716212220589921 -0.33614800162225061 0 0.36224276236311159 -0.34794381471324992 0 0.34921113409792093 -0.35549407181058551 0 0.34921113409792093 -0.35549407181058551 0 0.35880581001831119 -0.36456996194976499 0 0.34625829873830882 -0.36153965616326261 0 0.35880581001831119 -0.36456996194976499 0 0.34625829873830882 -0.36153965616326261 0 0.34907174700958782 -0.37349619324734962 0 0.3576186230225411 -0.37792931789251211 0 0.35880581001831119 -0.36456996194976499 0 0.34907174700958782 -0.37349619324734962 0 0.34907174700958782 -0.37349619324734962 0 0.32794450382741519 -0.3525983976453505 0 0.33544736964449401 -0.37665145006727141 0 0.34907174700958782 -0.37349619324734962 0 0.32808144300645509 -0.37058104865045682 0 0.34907174700958782 -0.37349619324734962 0 0.32794450382741519 -0.3525983976453505 0 0.32808144300645509 -0.37058104865045682 0 0.34625829873830882 -0.36153965616326261 0 0.34907174700958782 -0.37349619324734962 0 0.32794450382741519 -0.3525983976453505 0 0.34921113409792093 -0.35549407181058551 0 0.32794450382741519 -0.3525983976453505 0 0.33783671654866632 -0.34093248845220331 0 0.34921113409792093 -0.35549407181058551 0 0.34625829873830882 -0.36153965616326261 0 0.32794450382741519 -0.3525983976453505 0 0.34921113409792093 -0.35549407181058551 0 0.32794450382741519 -0.3525983976453505 0 0.32238491693826982 -0.34709918937481649 0 0.32794450382741519 -0.3525983976453505 0 0.33783671654866632 -0.34093248845220331 0 0.32238491693826982 -0.34709918937481649 0 0.31986792787746537 -0.35149868734689338 0 0.32794450382741519 -0.3525983976453505 0 0.32238491693826982 -0.34709918937481649 0 0.32794450382741519 -0.3525983976453505 0 0.32238491693826982 -0.34709918937481649 0 0.31986792787746537 -0.35149868734689338 0 0.31986792787746537 -0.35149868734689338 0 0.30636312974202301 -0.34965986781742442 0 0.32238491693826982 -0.34709918937481649 0 0.31385619996890651 -0.34513958416529872 0 0.31986792787746537 -0.35149868734689338 0 0.31385619996890651 -0.34513958416529872 0 0.31986792787746537 -0.35149868734689338 0 0.30636312974202301 -0.34965986781742442 0 0.31986792787746537 -0.35149868734689338 0 0.32794450382741519 -0.3525983976453505 0 0.31986792787746537 -0.35149868734689338 0 0.32794450382741519 -0.3525983976453505 0 0.32260147327244798 -0.36163093211019481 0 0.3176372040413693 -0.38151606859671983 0 0.32808144300645509 -0.37058104865045682 0 0.3102400316611974 -0.36832748908401242 0 0.32260147327244798 -0.36163093211019481 0 0.32808144300645509 -0.37058104865045682 0 0.3102400316611974 -0.36832748908401242 0 0.32794450382741519 -0.3525983976453505 0 0.32260147327244798 -0.36163093211019481 0 0.32808144300645509 -0.37058104865045682 0 0.31986792787746537 -0.35149868734689338 0 0.32260147327244798 -0.36163093211019481 0 0.3102400316611974 -0.36832748908401242 0 0.31986792787746537 -0.35149868734689338 0 0.3102400316611974 -0.36832748908401242 0 0.32238491693826982 -0.34709918937481649 0 0.33702984751047782 -0.32150100805695248 0 0.32238491693826982 -0.34709918937481649 0 0.33702984751047782 -0.32150100805695248 0 0.33783671654866632 -0.34093248845220331 0 0.32238491693826982 -0.34709918937481649 0 0.30656827056481067 -0.33145431606259618 0 0.32238491693826982 -0.34709918937481649 0 0.33702984751047782 -0.32150100805695248 0 0.32028687441084558 -0.32482317916502512 0 0.32238491693826982 -0.34709918937481649 0 0.32028687441084558 -0.32482317916502512 0 0.30656827056481067 -0.33145431606259618 0 0.32238491693826982 -0.34709918937481649 0 0.31385619996890651 -0.34513958416529872 0 0.30656827056481067 -0.33145431606259618 0 0.3252411831188497 -0.31217155971442051 0 0.33702984751047782 -0.32150100805695248 0 0.32028687441084558 -0.32482317916502512 0 0.3252411831188497 -0.31217155971442051 0 0.32028687441084558 -0.32482317916502512 0 0.31021015392181922 -0.31188982261633907 0 0.32028687441084558 -0.32482317916502512 0 0.30656827056481067 -0.33145431606259618 0 0.31021015392181922 -0.31188982261633907 0 0.30656827056481067 -0.33145431606259618 0 0.29075162419135359 -0.31580944275037398 0 0.2994909900250729 -0.30893538612981669 0 0.30656827056481067 -0.33145431606259618 0 0.29075162419135359 -0.31580944275037398 0 0.30656827056481067 -0.33145431606259618 0 0.31021015392181922 -0.31188982261633907 0 0.2994909900250729 -0.30893538612981669 0 0.30656827056481067 -0.33145431606259618 0 0.30636312974202301 -0.34965986781742442 0 0.29592152816030942 -0.34617207375523462 0 0.31385619996890651 -0.34513958416529872 0 0.30656827056481067 -0.33145431606259618 0 0.30636312974202301 -0.34965986781742442 0 0.30656827056481067 -0.33145431606259618 0 0.29333155947919459 -0.33709158213161772 0 0.29592152816030942 -0.34617207375523462 0 0.30656827056481067 -0.33145431606259618 0 0.29333155947919459 -0.33709158213161772 0 0.28822914244315012 -0.3291462308941947 0 0.29333155947919459 -0.33709158213161772 0 0.28345067506119881 -0.33985929436366707 0 0.29592152816030942 -0.34617207375523462 0 0.29333155947919459 -0.33709158213161772 0 0.28345067506119881 -0.33985929436366707 0 0.28822914244315012 -0.3291462308941947 0 0.28345067506119881 -0.33985929436366707 0 0.28822914244315012 -0.3291462308941947 0 0.27694224433743603 -0.33021025781877827 0 0.28822914244315012 -0.3291462308941947 0 0.27982465306735382 -0.32064968840487679 0 0.27694224433743603 -0.33021025781877827 0 0.29075162419135359 -0.31580944275037398 0 0.27375905785109389 -0.31266545239260762 0 0.27982465306735382 -0.32064968840487679 0 0.28822914244315012 -0.3291462308941947 0 0.29075162419135359 -0.31580944275037398 0 0.27982465306735382 -0.32064968840487679 0 0.30656827056481067 -0.33145431606259618 0 0.28822914244315012 -0.3291462308941947 0 0.29075162419135359 -0.31580944275037398 0 0.3102400316611974 -0.36832748908401242 0 0.30219403737592021 -0.36076703199438942 0 0.30636312974202301 -0.34965986781742442 0 0.29590687686493788 -0.38100759044194188 0 0.3102400316611974 -0.36832748908401242 0 0.29805729150289478 -0.36717696339586192 0 0.30219403737592021 -0.36076703199438942 0 0.29805729150289478 -0.36717696339586192 0 0.29411569659756548 -0.35790380768025898 0 0.3102400316611974 -0.36832748908401242 0 0.30219403737592021 -0.36076703199438942 0 0.29805729150289478 -0.36717696339586192 0 0.31986792787746537 -0.35149868734689338 0 0.3102400316611974 -0.36832748908401242 0 0.30636312974202301 -0.34965986781742442 0 0.30219403737592021 -0.36076703199438942 0 0.30636312974202301 -0.34965986781742442 0 0.29411569659756548 -0.35790380768025898 0 0.30636312974202301 -0.34965986781742442 0 0.29592152816030942 -0.34617207375523462 0 0.29411569659756548 -0.35790380768025898 0 0.28345067506119881 -0.33985929436366707 0 0.29592152816030942 -0.34617207375523462 0 0.28643003962161279 -0.35071543375648501 0 0.28345067506119881 -0.33985929436366707 0 0.28643003962161279 -0.35071543375648501 0 0.27599929219473712 -0.34808252985062649 0 0.28643003962161279 -0.35071543375648501 0 0.29411569659756548 -0.35790380768025898 0 0.28600630072781402 -0.36066630419665108 0 0.28643003962161279 -0.35071543375648501 0 0.28600630072781402 -0.36066630419665108 0 0.28001528232890188 -0.35599312585859588 0 0.29592152816030942 -0.34617207375523462 0 0.28643003962161279 -0.35071543375648501 0 0.29411569659756548 -0.35790380768025898 0 0.29411569659756548 -0.35790380768025898 0 0.29117943234374372 -0.36698663723839342 0 0.28600630072781402 -0.36066630419665108 0 0.29805729150289478 -0.36717696339586192 0 0.29411569659756548 -0.35790380768025898 0 0.29117943234374372 -0.36698663723839342 0 0.29117943234374372 -0.36698663723839342 0 0.28600630072781402 -0.36066630419665108 0 0.28171566415704741 -0.36828485569923969 0 0.28600630072781402 -0.36066630419665108 0 0.28171566415704741 -0.36828485569923969 0 0.28001528232890188 -0.35599312585859588 0 0.29590687686493788 -0.38100759044194188 0 0.28171566415704741 -0.36828485569923969 0 0.29590687686493788 -0.38100759044194188 0 0.29117943234374372 -0.36698663723839342 0 0.28171566415704741 -0.36828485569923969 0 0.29590687686493788 -0.38100759044194188 0 0.29805729150289478 -0.36717696339586192 0 0.29117943234374372 -0.36698663723839342 0 0.27532293668358038 -0.38815357418349178 0 0.27729168531528281 -0.36431866123301182 0 0.25573174570141222 -0.37238572768261952 0 0.27532293668358038 -0.38815357418349178 0 0.28171566415704741 -0.36828485569923969 0 0.27729168531528281 -0.36431866123301182 0 0.27729168531528281 -0.36431866123301182 0 0.26731775737439267 -0.35580011483677598 0 0.25573174570141222 -0.37238572768261952 0 0.28171566415704741 -0.36828485569923969 0 0.27729168531528281 -0.36431866123301182 0 0.28001528232890188 -0.35599312585859588 0 0.28171566415704741 -0.36828485569923969 0 0.27729168531528281 -0.36431866123301182 0 0.27729168531528281 -0.36431866123301182 0 0.26731775737439267 -0.35580011483677598 0 0.28643003962161279 -0.35071543375648501 0 0.28001528232890188 -0.35599312585859588 0 0.27599929219473712 -0.34808252985062649 0 0.27729168531528281 -0.36431866123301182 0 0.26731775737439267 -0.35580011483677598 0 0.28001528232890188 -0.35599312585859588 0 0.26731775737439267 -0.35580011483677598 0 0.28001528232890188 -0.35599312585859588 0 0.27599929219473712 -0.34808252985062649 0 0.27599929219473712 -0.34808252985062649 0 0.26738733094374029 -0.34716779051451918 0 0.27160189040457272 -0.33832850643937679 0 0.26731775737439267 -0.35580011483677598 0 0.27599929219473712 -0.34808252985062649 0 0.26738733094374029 -0.34716779051451918 0 0.25840792970885818 -0.34794417986824822 0 0.25573174570141222 -0.37238572768261952 0 0.24339662750178079 -0.35418437305464179 0 0.26731775737439267 -0.35580011483677598 0 0.25840792970885818 -0.34794417986824822 0 0.25573174570141222 -0.37238572768261952 0 0.26738733094374029 -0.34716779051451918 0 0.25840792970885818 -0.34794417986824822 0 0.26355284137302742 -0.34181248422409333 0 0.26731775737439267 -0.35580011483677598 0 0.26738733094374029 -0.34716779051451918 0 0.25840792970885818 -0.34794417986824822 0 0.26731775737439267 -0.35580011483677598 0 0.25840792970885818 -0.34794417986824822 0 0.27982465306735382 -0.32064968840487679 0 0.27694224433743603 -0.33021025781877827 0 0.26227895851729688 -0.32283868186457682 0 0.27375905785109389 -0.31266545239260762 0 0.26227895851729688 -0.32283868186457682 0 0.26100507566156772 -0.30386487950506019 0 0.27375905785109389 -0.31266545239260762 0 0.27982465306735382 -0.32064968840487679 0 0.26227895851729688 -0.32283868186457682 0 0.27160189040457272 -0.33832850643937679 0 0.26355284137302742 -0.34181248422409333 0 0.26227895851729688 -0.32283868186457682 0 0.28345067506119881 -0.33985929436366707 0 0.27599929219473712 -0.34808252985062649 0 0.27160189040457272 -0.33832850643937679 0 0.28345067506119881 -0.33985929436366707 0 0.27694224433743603 -0.33021025781877827 0 0.27160189040457272 -0.33832850643937679 0 0.26738733094374029 -0.34716779051451918 0 0.27160189040457272 -0.33832850643937679 0 0.26355284137302742 -0.34181248422409333 0 0.27694224433743603 -0.33021025781877827 0 0.27160189040457272 -0.33832850643937679 0 0.26227895851729688 -0.32283868186457682 0 0.26355284137302742 -0.34181248422409333 0 0.26227895851729688 -0.32283868186457682 0 0.25840792970885818 -0.34794417986824822 0 0.25366620046169841 -0.33285271160519531 0 0.23965845613081829 -0.33141247458140161 0 0.26355284137302742 -0.34181248422409333 0 0.25366620046169841 -0.33285271160519531 0 0.26227895851729688 -0.32283868186457682 0 0.25840792970885818 -0.34794417986824822 0 0.26355284137302742 -0.34181248422409333 0 0.25366620046169841 -0.33285271160519531 0 0.26227895851729688 -0.32283868186457682 0 0.26100507566156772 -0.30386487950506019 0 0.26227895851729688 -0.32283868186457682 0 0.25123812652807559 -0.31846488372117171 0 0.26100507566156772 -0.30386487950506019 0 0.25366620046169841 -0.33285271160519531 0 0.26227895851729688 -0.32283868186457682 0 0.25123812652807559 -0.31846488372117171 0 0.25123812652807559 -0.31846488372117171 0 0.25070374123613348 -0.30660130443104072 0 0.26100507566156772 -0.30386487950506019 0 0.25070374123613348 -0.30660130443104072 0 0.26100507566156772 -0.30386487950506019 0 0.25070374123613348 -0.30660130443104072 0 0.25297983090189469 -0.29837275064123681 0 0.26100507566156772 -0.30386487950506019 0 0.26100507566156772 -0.30386487950506019 0 0.25974808018628243 -0.28514260562596339 0 0.27493497781789772 -0.30016456943815062 0 0.26100507566156772 -0.30386487950506019 0 0.25974808018628243 -0.28514260562596339 0 0.25297983090189469 -0.29837275064123681 0 0.26100507566156772 -0.30386487950506019 0 0.25974808018628243 -0.28514260562596339 0 0.25974808018628243 -0.28514260562596339 0 0.24797830072704741 -0.29281725717050783 0 0.2424496568013797 -0.28549626221877328 0 0.25297983090189469 -0.29837275064123681 0 0.25974808018628243 -0.28514260562596339 0 0.24797830072704741 -0.29281725717050783 0 0.25974808018628243 -0.28514260562596339 0 0.27183979550838983 -0.2852349611458016 0 0.26924667469131952 -0.27662398550814382 0 0.25974808018628243 -0.28514260562596339 0 0.27183979550838983 -0.2852349611458016 0 0.27493497781789772 -0.30016456943815062 0 0.25974808018628243 -0.28514260562596339 0 0.27493497781789772 -0.30016456943815062 0 0.27183979550838983 -0.2852349611458016 0 0.28019493906043702 -0.286088095732077 0 0.27493497781789772 -0.30016456943815062 0 0.27183979550838983 -0.2852349611458016 0 0.28019493906043702 -0.286088095732077 0 0.27816897979240141 -0.27686416788136459 0 0.29075162419135359 -0.31580944275037398 0 0.27375905785109389 -0.31266545239260762 0 0.27493497781789772 -0.30016456943815062 0 0.27375905785109389 -0.31266545239260762 0 0.26100507566156772 -0.30386487950506019 0 0.27493497781789772 -0.30016456943815062 0 0.26100507566156772 -0.30386487950506019 0 0.27493497781789772 -0.30016456943815062 0 0.29075162419135359 -0.31580944275037398 0 0.27493497781789772 -0.30016456943815062 0 0.27493497781789772 -0.30016456943815062 0 0.29017125634724189 -0.3058660028888418 0 0.29550743335464402 -0.29855461323702659 0 0.29075162419135359 -0.31580944275037398 0 0.27493497781789772 -0.30016456943815062 0 0.29017125634724189 -0.3058660028888418 0 0.27493497781789772 -0.30016456943815062 0 0.29550743335464402 -0.29855461323702659 0 0.30024488977903302 -0.29344129737411362 0 0.29075162419135359 -0.31580944275037398 0 0.29017125634724189 -0.3058660028888418 0 0.2994909900250729 -0.30893538612981669 0 0.29017125634724189 -0.3058660028888418 0 0.29550743335464402 -0.29855461323702659 0 0.2994909900250729 -0.30893538612981669 0 0.27493497781789772 -0.30016456943815062 0 0.30024488977903302 -0.29344129737411362 0 0.27493497781789772 -0.30016456943815062 0 0.28902807314834089 -0.28767718436549272 0 0.30024488977903302 -0.29344129737411362 0 0.28019493906043702 -0.286088095732077 0 0.27493497781789772 -0.30016456943815062 0 0.28902807314834089 -0.28767718436549272 0 0.28019493906043702 -0.286088095732077 0 0.28902807314834089 -0.28767718436549272 0 0.28646806618083381 -0.27880247363021138 0 0.28902807314834089 -0.28767718436549272 0 0.29529761996151282 -0.27960529187599081 0 0.28646806618083381 -0.27880247363021138 0 0.28902807314834089 -0.28767718436549272 0 0.29680709147959328 -0.28614311472406417 0 0.29529761996151282 -0.27960529187599081 0 0.28902807314834089 -0.28767718436549272 0 0.29680709147959328 -0.28614311472406417 0 0.30024488977903302 -0.29344129737411362 0 0.32555480174016838 -0.2867180253100774 0 0.30024488977903302 -0.29344129737411362 0 0.31147682722738779 -0.28472267542417928 0 0.32359110571866412 -0.29722871998805611 0 0.29550743335464402 -0.29855461323702659 0 0.30024488977903302 -0.29344129737411362 0 0.29680709147959328 -0.28614311472406417 0 0.30024488977903302 -0.29344129737411362 0 0.30265778302948632 -0.28384868528065982 0 0.29680709147959328 -0.28614311472406417 0 0.30265778302948632 -0.28384868528065982 0 0.29529761996151282 -0.27960529187599081 0 0.30265778302948632 -0.28384868528065982 0 0.31147682722738779 -0.28472267542417928 0 0.3096030141426202 -0.27789135799909881 0 0.30024488977903302 -0.29344129737411362 0 0.30265778302948632 -0.28384868528065982 0 0.31147682722738779 -0.28472267542417928 0 0.32359110571866412 -0.29722871998805611 0 0.29550743335464402 -0.29855461323702659 0 0.31021015392181922 -0.31188982261633907 0 0.32359110571866412 -0.29722871998805611 0 0.29550743335464402 -0.29855461323702659 0 0.29550743335464402 -0.29855461323702659 0 0.31021015392181922 -0.31188982261633907 0 0.2994909900250729 -0.30893538612981669 0 0.30058919506181792 -0.25586283781993141 0 0.30584586362664351 -0.26161143966644818 0 0.29593230122887731 -0.26163806034475262 0 0.30584586362664351 -0.26161143966644818 0 0.30041543927587039 -0.26926099435642031 0 0.29593230122887731 -0.26163806034475262 0 0.30257819211255149 -0.2488094059651956 0 0.30058919506181792 -0.25586283781993141 0 0.29306254118803782 -0.25228332337818887 0 0.30257819211255149 -0.2488094059651956 0 0.30058919506181792 -0.25586283781993141 0 0.30756684783129529 -0.25436235776480021 0 0.30058919506181792 -0.25586283781993141 0 0.30756684783129529 -0.25436235776480021 0 0.30584586362664351 -0.26161143966644818 0 0.31171633291391748 -0.24863279325672349 0 0.30257819211255149 -0.2488094059651956 0 0.30756684783129529 -0.25436235776480021 0 0.31171633291391748 -0.24863279325672349 0 0.31466740911354052 -0.25732267375503692 0 0.30756684783129529 -0.25436235776480021 0 0.31466740911354052 -0.25732267375503692 0 0.30756684783129529 -0.25436235776480021 0 0.30584586362664351 -0.26161143966644818 0 0.31559295578461161 -0.26610482310508898 0 0.31466740911354052 -0.25732267375503692 0 0.30584586362664351 -0.26161143966644818 0 0.30584586362664351 -0.26161143966644818 0 0.30832577637751968 -0.2711480086401224 0 0.30041543927587039 -0.26926099435642031 0 0.31559295578461161 -0.26610482310508898 0 0.30584586362664351 -0.26161143966644818 0 0.30832577637751968 -0.2711480086401224 0 0.30265778302948632 -0.28384868528065982 0 0.3096030141426202 -0.27789135799909881 0 0.30229285222709851 -0.27581280716184808 0 0.31707411803940561 -0.27579684128921411 0 0.30832577637751968 -0.2711480086401224 0 0.3096030141426202 -0.27789135799909881 0 0.30832577637751968 -0.2711480086401224 0 0.3096030141426202 -0.27789135799909881 0 0.30229285222709851 -0.27581280716184808 0 0.30265778302948632 -0.28384868528065982 0 0.30229285222709851 -0.27581280716184808 0 0.29529761996151282 -0.27960529187599081 0 0.30229285222709851 -0.27581280716184808 0 0.2976367322126649 -0.27392960061011978 0 0.29529761996151282 -0.27960529187599081 0 0.30832577637751968 -0.2711480086401224 0 0.30229285222709851 -0.27581280716184808 0 0.30041543927587039 -0.26926099435642031 0 0.30229285222709851 -0.27581280716184808 0 0.2976367322126649 -0.27392960061011978 0 0.30041543927587039 -0.26926099435642031 0 0.29254101738617788 -0.27103930904622042 0 0.28847558375157939 -0.2642962437836483 0 0.29593230122887731 -0.26163806034475262 0 0.2976367322126649 -0.27392960061011978 0 0.30041543927587039 -0.26926099435642031 0 0.29254101738617788 -0.27103930904622042 0 0.30041543927587039 -0.26926099435642031 0 0.29254101738617788 -0.27103930904622042 0 0.29593230122887731 -0.26163806034475262 0 0.2976367322126649 -0.27392960061011978 0 0.29254101738617788 -0.27103930904622042 0 0.29529761996151282 -0.27960529187599081 0 0.29254101738617788 -0.27103930904622042 0 0.29529761996151282 -0.27960529187599081 0 0.28646806618083381 -0.27880247363021138 0 0.28019493906043702 -0.286088095732077 0 0.28646806618083381 -0.27880247363021138 0 0.27816897979240141 -0.27686416788136459 0 0.28646806618083381 -0.27880247363021138 0 0.28347693767789822 -0.27044098925205118 0 0.27816897979240141 -0.27686416788136459 0 0.28347693767789822 -0.27044098925205118 0 0.28847558375157939 -0.2642962437836483 0 0.27960648359465362 -0.26377092782333122 0 0.29254101738617788 -0.27103930904622042 0 0.28646806618083381 -0.27880247363021138 0 0.28347693767789822 -0.27044098925205118 0 0.29254101738617788 -0.27103930904622042 0 0.28347693767789822 -0.27044098925205118 0 0.28847558375157939 -0.2642962437836483 0 0.28427260618205752 -0.25856206313017188 0 0.28847558375157939 -0.2642962437836483 0 0.27960648359465362 -0.26377092782333122 0 0.28427260618205752 -0.25856206313017188 0 0.28847558375157939 -0.2642962437836483 0 0.29023835049674063 -0.25822254846248399 0 0.28847558375157939 -0.2642962437836483 0 0.29023835049674063 -0.25822254846248399 0 0.29593230122887731 -0.26163806034475262 0 0.29023835049674063 -0.25822254846248399 0 0.29593230122887731 -0.26163806034475262 0 0.29306254118803782 -0.25228332337818887 0 0.30058919506181792 -0.25586283781993141 0 0.29593230122887731 -0.26163806034475262 0 0.29306254118803782 -0.25228332337818887 0 0.29023835049674063 -0.25822254846248399 0 0.29306254118803782 -0.25228332337818887 0 0.28532918300569421 -0.250754221665133 0 0.28427260618205752 -0.25856206313017188 0 0.29023835049674063 -0.25822254846248399 0 0.28532918300569421 -0.250754221665133 0 0.28427260618205752 -0.25856206313017188 0 0.28532918300569421 -0.250754221665133 0 0.27866383698050312 -0.25525750584467971 0 0.27866383698050312 -0.25525750584467971 0 0.27187249871498498 -0.26033681621358767 0 0.27257391460034369 -0.25057512247541558 0 0.27843768703777472 -0.2475622186980867 0 0.28532918300569421 -0.250754221665133 0 0.27866383698050312 -0.25525750584467971 0 0.27843768703777472 -0.2475622186980867 0 0.27866383698050312 -0.25525750584467971 0 0.27257391460034369 -0.25057512247541558 0 0.28427260618205752 -0.25856206313017188 0 0.27866383698050312 -0.25525750584467971 0 0.27960648359465362 -0.26377092782333122 0 0.27866383698050312 -0.25525750584467971 0 0.27960648359465362 -0.26377092782333122 0 0.27187249871498498 -0.26033681621358767 0 0.27960648359465362 -0.26377092782333122 0 0.27187249871498498 -0.26033681621358767 0 0.274113781098138 -0.2689319541396169 0 0.27187249871498498 -0.26033681621358767 0 0.26625097147852972 -0.26822512722340047 0 0.26522012189941441 -0.25984177575405099 0 0.27187249871498498 -0.26033681621358767 0 0.26615335269546458 -0.25329157539057823 0 0.26522012189941441 -0.25984177575405099 0 0.27187249871498498 -0.26033681621358767 0 0.26615335269546458 -0.25329157539057823 0 0.27257391460034369 -0.25057512247541558 0 0.27816897979240141 -0.27686416788136459 0 0.274113781098138 -0.2689319541396169 0 0.26924667469131952 -0.27662398550814382 0 0.28347693767789822 -0.27044098925205118 0 0.27960648359465362 -0.26377092782333122 0 0.274113781098138 -0.2689319541396169 0 0.28347693767789822 -0.27044098925205118 0 0.27816897979240141 -0.27686416788136459 0 0.274113781098138 -0.2689319541396169 0 0.274113781098138 -0.2689319541396169 0 0.26625097147852972 -0.26822512722340047 0 0.26924667469131952 -0.27662398550814382 0 0.27187249871498498 -0.26033681621358767 0 0.274113781098138 -0.2689319541396169 0 0.26625097147852972 -0.26822512722340047 0 0.27183979550838983 -0.2852349611458016 0 0.27816897979240141 -0.27686416788136459 0 0.26924667469131952 -0.27662398550814382 0 0.25974808018628243 -0.28514260562596339 0 0.26625097147852972 -0.26822512722340047 0 0.25798867564231792 -0.25893721795045999 0 0.25974808018628243 -0.28514260562596339 0 0.25798867564231792 -0.25893721795045999 0 0.2473861784520596 -0.27291495749097999 0 0.25974808018628243 -0.28514260562596339 0 0.26625097147852972 -0.26822512722340047 0 0.26924667469131952 -0.27662398550814382 0 0.25974808018628243 -0.28514260562596339 0 0.25798867564231792 -0.25893721795045999 0 0.25974808018628243 -0.28514260562596339 0 0.2473861784520596 -0.27291495749097999 0 0.25918022024245729 -0.25235144889406369 0 0.26522012189941441 -0.25984177575405099 0 0.25798867564231792 -0.25893721795045999 0 0.26615335269546458 -0.25329157539057823 0 0.25918022024245729 -0.25235144889406369 0 0.26522012189941441 -0.25984177575405099 0 0.26625097147852972 -0.26822512722340047 0 0.26522012189941441 -0.25984177575405099 0 0.25798867564231792 -0.25893721795045999 0 0.25798867564231792 -0.25893721795045999 0 0.25127795685287257 -0.26048092430604952 0 0.2473861784520596 -0.27291495749097999 0 0.25798867564231792 -0.25893721795045999 0 0.25127795685287257 -0.26048092430604952 0 0.25329224927731792 -0.25475508289641102 0 0.25127795685287257 -0.26048092430604952 0 0.25329224927731792 -0.25475508289641102 0 0.24658012705147789 -0.25421662391773531 0 0.25918022024245729 -0.25235144889406369 0 0.25798867564231792 -0.25893721795045999 0 0.25329224927731792 -0.25475508289641102 0 0.25143426659746332 -0.24778919941374641 0 0.25918022024245729 -0.25235144889406369 0 0.25329224927731792 -0.25475508289641102 0 0.25143426659746332 -0.24778919941374641 0 0.25329224927731792 -0.25475508289641102 0 0.24658012705147789 -0.25421662391773531 0 0.25127795685287257 -0.26048092430604952 0 0.23999978769483621 -0.25777050040599092 0 0.23361606832064241 -0.26780992435059958 0 0.25143426659746332 -0.24778919941374641 0 0.24658012705147789 -0.25421662391773531 0 0.23833075635283299 -0.24797382414986241 0 0.25127795685287257 -0.26048092430604952 0 0.24658012705147789 -0.25421662391773531 0 0.23999978769483621 -0.25777050040599092 0 0.25127795685287257 -0.26048092430604952 0 0.23361606832064241 -0.26780992435059958 0 0.23999978769483621 -0.25777050040599092 0 0.23361606832064241 -0.26780992435059958 0 0.23019402989635479 -0.25837120530570762 0 0.24658012705147789 -0.25421662391773531 0 0.23999978769483621 -0.25777050040599092 0 0.23833075635283299 -0.24797382414986241 0 0.23999978769483621 -0.25777050040599092 0 0.23019402989635479 -0.25837120530570762 0 0.23833075635283299 -0.24797382414986241 0 0.25974808018628243 -0.28514260562596339 0 0.2473861784520596 -0.27291495749097999 0 0.2424496568013797 -0.28549626221877328 0 0.25127795685287257 -0.26048092430604952 0 0.2473861784520596 -0.27291495749097999 0 0.23361606832064241 -0.26780992435059958 0 0.2473861784520596 -0.27291495749097999 0 0.2351397403363156 -0.27774996836292898 0 0.23361606832064241 -0.26780992435059958 0 0.2473861784520596 -0.27291495749097999 0 0.2351397403363156 -0.27774996836292898 0 0.2424496568013797 -0.28549626221877328 0 0.2269551283208798 -0.27458622411059808 0 0.23361606832064241 -0.26780992435059958 0 0.2159541797884123 -0.2751389243951502 0 0.23361606832064241 -0.26780992435059958 0 0.22109538044069549 -0.26442155585303528 0 0.2159541797884123 -0.2751389243951502 0 0.23361606832064241 -0.26780992435059958 0 0.2159541797884123 -0.2751389243951502 0 0.2351397403363156 -0.27774996836292898 0 0.22869816838379389 -0.28022126897943178 0 0.2269551283208798 -0.27458622411059808 0 0.2351397403363156 -0.27774996836292898 0 0.22869816838379389 -0.28022126897943178 0 0.2321486252129607 -0.2846265421854744 0 0.2351397403363156 -0.27774996836292898 0 0.2269551283208798 -0.27458622411059808 0 0.23361606832064241 -0.26780992435059958 0 0.2269551283208798 -0.27458622411059808 0 0.22197860644184411 -0.27714914953108277 0 0.2175157699515487 -0.27567474314723511 0 0.2269551283208798 -0.27458622411059808 0 0.2175157699515487 -0.27567474314723511 0 0.2159541797884123 -0.2751389243951502 0 0.2269551283208798 -0.27458622411059808 0 0.22197860644184411 -0.27714914953108277 0 0.22386924493420979 -0.27983032839893679 0 0.22197860644184411 -0.27714914953108277 0 0.21963635686569119 -0.2790972541566496 0 0.2175157699515487 -0.27567474314723511 0 0.22197860644184411 -0.27714914953108277 0 0.21963635686569119 -0.2790972541566496 0 0.22386924493420979 -0.27983032839893679 0 0.21963635686569119 -0.2790972541566496 0 0.22386924493420979 -0.27983032839893679 0 0.22066920280653651 -0.2823584496633304 0 0.22869816838379389 -0.28022126897943178 0 0.2269551283208798 -0.27458622411059808 0 0.22386924493420979 -0.27983032839893679 0 0.23019402989635479 -0.25837120530570762 0 0.23833075635283299 -0.24797382414986241 0 0.21637229943374339 -0.24791817189244519 0 0.23019402989635479 -0.25837120530570762 0 0.22109538044069549 -0.26442155585303528 0 0.21637229943374339 -0.24791817189244519 0 0.23361606832064241 -0.26780992435059958 0 0.23019402989635479 -0.25837120530570762 0 0.22109538044069549 -0.26442155585303528 0 0.20644868714854339 -0.25882569468436228 0 0.20934032476432679 -0.27286955332126811 0 0.21637229943374339 -0.24791817189244519 0 0.20934032476432679 -0.27286955332126811 0 0.21637229943374339 -0.24791817189244519 0 0.22109538044069549 -0.26442155585303528 0 0.20934032476432679 -0.27286955332126811 0 0.21637229943374339 -0.24791817189244519 0 0.22109538044069549 -0.26442155585303528 0 0.2159541797884123 -0.2751389243951502 0 0.20934032476432679 -0.27286955332126811 0 0.2159541797884123 -0.2751389243951502 0 0.20774014520839421 -0.27854743077842398 0 0.21425288432383119 -0.28264063842211429 0 0.2159541797884123 -0.2751389243951502 0 0.20774014520839421 -0.27854743077842398 0 0.2159541797884123 -0.2751389243951502 0 0.20774014520839421 -0.27854743077842398 0 0.20934032476432679 -0.27286955332126811 0 0.21963635686569119 -0.2790972541566496 0 0.2175157699515487 -0.27567474314723511 0 0.21425288432383119 -0.28264063842211429 0 0.2175157699515487 -0.27567474314723511 0 0.2159541797884123 -0.2751389243951502 0 0.21425288432383119 -0.28264063842211429 0 0.2175157699515487 -0.27567474314723511 0 0.2159541797884123 -0.2751389243951502 0 0.2159541797884123 -0.2751389243951502 0 0.20934032476432679 -0.27286955332126811 0 0.20774014520839421 -0.27854743077842398 0 0.20934032476432679 -0.27286955332126811 0 0.20774014520839421 -0.27854743077842398 0 0.20934032476432679 -0.27286955332126811 0 0.202112779692463 -0.2738970611699787 0 0.20644868714854339 -0.25882569468436228 0 0.20934032476432679 -0.27286955332126811 0 0.20195922091034579 -0.26691373448159439 0 0.20934032476432679 -0.27286955332126811 0 0.1959038654029073 -0.26825918431574169 0 0.20934032476432679 -0.27286955332126811 0 0.1959038654029073 -0.26825918431574169 0 0.202112779692463 -0.2738970611699787 0 0.20934032476432679 -0.27286955332126811 0 0.1959038654029073 -0.26825918431574169 0 0.20195922091034579 -0.26691373448159439 0 0.20774014520839421 -0.27854743077842398 0 0.19533660471886241 -0.28369441993728761 0 0.1959038654029073 -0.26825918431574169 0 0.202112779692463 -0.2738970611699787 0 0.19533660471886241 -0.28369441993728761 0 0.20774014520839421 -0.27854743077842398 0 0.202112779692463 -0.2738970611699787 0 0.19533660471886241 -0.28369441993728761 0 0.1959038654029073 -0.26825918431574169 0 0.19533660471886241 -0.28369441993728761 0 0.1959038654029073 -0.26825918431574169 0 0.19533660471886241 -0.28369441993728761 0 0.18449621752656761 -0.27367505195713621 0 0.1959038654029073 -0.26825918431574169 0 0.19694444217526691 -0.2399449575141554 0 0.19038010371744371 -0.24735532658709611 0 0.1959038654029073 -0.26825918431574169 0 0.19694444217526691 -0.2399449575141554 0 0.1959038654029073 -0.26825918431574169 0 0.19038010371744371 -0.24735532658709611 0 0.20644868714854339 -0.25882569468436228 0 0.1959038654029073 -0.26825918431574169 0 0.19694444217526691 -0.2399449575141554 0 0.1959038654029073 -0.26825918431574169 0 0.18658771310562211 -0.25928744720448937 0 0.19038010371744371 -0.24735532658709611 0 0.20644868714854339 -0.25882569468436228 0 0.1959038654029073 -0.26825918431574169 0 0.20195922091034579 -0.26691373448159439 0 0.20215950897473769 -0.29834906400770939 0 0.19540566821163211 -0.32231354979044252 0 0.20215950897473769 -0.29834906400770939 0 0.19540566821163211 -0.32231354979044252 0 0.18663973258069361 -0.30261973696981331 0 0.20215950897473769 -0.29834906400770939 0 0.18867435784547229 -0.28645899449243339 0 0.18663973258069361 -0.30261973696981331 0 0.20774014520839421 -0.27854743077842398 0 0.20215950897473769 -0.29834906400770939 0 0.19508224743190231 -0.29061551418320558 0 0.18867435784547229 -0.28645899449243339 0 0.19533660471886241 -0.28369441993728761 0 0.18449621752656761 -0.27367505195713621 0 0.19508224743190231 -0.29061551418320558 0 0.19533660471886241 -0.28369441993728761 0 0.19508224743190231 -0.29061551418320558 0 0.18867435784547229 -0.28645899449243339 0 0.19533660471886241 -0.28369441993728761 0 0.18867435784547229 -0.28645899449243339 0 0.19533660471886241 -0.28369441993728761 0 0.20774014520839421 -0.27854743077842398 0 0.19508224743190231 -0.29061551418320558 0 0.19533660471886241 -0.28369441993728761 0 0.20215950897473769 -0.29834906400770939 0 0.18867435784547229 -0.28645899449243339 0 0.20215950897473769 -0.29834906400770939 0 0.19508224743190231 -0.29061551418320558 0 0.18867435784547229 -0.28645899449243339 0 0.20774014520839421 -0.27854743077842398 0 0.20215950897473769 -0.29834906400770939 0 0.20215950897473769 -0.29834906400770939 0 0.21425288432383119 -0.28264063842211429 0 0.21771501621223449 -0.29326150158486908 0 0.20774014520839421 -0.27854743077842398 0 0.20215950897473769 -0.29834906400770939 0 0.21425288432383119 -0.28264063842211429 0 0.21425288432383119 -0.28264063842211429 0 0.21771501621223449 -0.29326150158486908 0 0.22074419692681271 -0.28702014065069947 0 0.21963635686569119 -0.2790972541566496 0 0.21425288432383119 -0.28264063842211429 0 0.22066920280653651 -0.2823584496633304 0 0.21425288432383119 -0.28264063842211429 0 0.22066920280653651 -0.2823584496633304 0 0.22074419692681271 -0.28702014065069947 0 0.20215950897473769 -0.29834906400770939 0 0.22090898255277849 -0.31488076929455477 0 0.20215950897473769 -0.29834906400770939 0 0.22090898255277849 -0.31488076929455477 0 0.19540566821163211 -0.32231354979044252 0 0.20215950897473769 -0.29834906400770939 0 0.21771501621223449 -0.29326150158486908 0 0.22090898255277849 -0.31488076929455477 0 0.21771501621223449 -0.29326150158486908 0 0.2288728536485895 -0.30257419285879222 0 0.22090898255277849 -0.31488076929455477 0 0.2288728536485895 -0.30257419285879222 0 0.23855000441908719 -0.3125843486544207 0 0.22090898255277849 -0.31488076929455477 0 0.2288728536485895 -0.30257419285879222 0 0.2263820852644563 -0.29256329355980137 0 0.23458123966767169 -0.29681102647328039 0 0.22869816838379389 -0.28022126897943178 0 0.22386924493420979 -0.27983032839893679 0 0.22538821535479969 -0.28382171433858377 0 0.22386924493420979 -0.27983032839893679 0 0.22538821535479969 -0.28382171433858377 0 0.22066920280653651 -0.2823584496633304 0 0.22538821535479969 -0.28382171433858377 0 0.22066920280653651 -0.2823584496633304 0 0.22074419692681271 -0.28702014065069947 0 0.22538821535479969 -0.28382171433858377 0 0.22074419692681271 -0.28702014065069947 0 0.22773269177201319 -0.28780140070431448 0 0.21771501621223449 -0.29326150158486908 0 0.22074419692681271 -0.28702014065069947 0 0.2263820852644563 -0.29256329355980137 0 0.21771501621223449 -0.29326150158486908 0 0.2288728536485895 -0.30257419285879222 0 0.2263820852644563 -0.29256329355980137 0 0.22074419692681271 -0.28702014065069947 0 0.2263820852644563 -0.29256329355980137 0 0.22773269177201319 -0.28780140070431448 0 0.2263820852644563 -0.29256329355980137 0 0.2340003361010364 -0.29097531278701388 0 0.23458123966767169 -0.29681102647328039 0 0.2263820852644563 -0.29256329355980137 0 0.2340003361010364 -0.29097531278701388 0 0.22773269177201319 -0.28780140070431448 0 0.22538821535479969 -0.28382171433858377 0 0.22773269177201319 -0.28780140070431448 0 0.2321486252129607 -0.2846265421854744 0 0.2340003361010364 -0.29097531278701388 0 0.22773269177201319 -0.28780140070431448 0 0.2321486252129607 -0.2846265421854744 0 0.22869816838379389 -0.28022126897943178 0 0.22538821535479969 -0.28382171433858377 0 0.2321486252129607 -0.2846265421854744 0 0.2340003361010364 -0.29097531278701388 0 0.2321486252129607 -0.2846265421854744 0 0.2424496568013797 -0.28549626221877328 0 0.2351397403363156 -0.27774996836292898 0 0.2321486252129607 -0.2846265421854744 0 0.2424496568013797 -0.28549626221877328 0 0.2340003361010364 -0.29097531278701388 0 0.24016616782778599 -0.29381416392344301 0 0.2424496568013797 -0.28549626221877328 0 0.2340003361010364 -0.29097531278701388 0 0.23458123966767169 -0.29681102647328039 0 0.24016616782778599 -0.29381416392344301 0 0.24016616782778599 -0.29381416392344301 0 0.24797830072704741 -0.29281725717050783 0 0.23991786641812771 -0.30157246703956331 0 0.24016616782778599 -0.29381416392344301 0 0.24797830072704741 -0.29281725717050783 0 0.2424496568013797 -0.28549626221877328 0 0.2288728536485895 -0.30257419285879222 0 0.23991786641812771 -0.30157246703956331 0 0.23855000441908719 -0.3125843486544207 0 0.2288728536485895 -0.30257419285879222 0 0.23458123966767169 -0.29681102647328039 0 0.23991786641812771 -0.30157246703956331 0 0.23458123966767169 -0.29681102647328039 0 0.24016616782778599 -0.29381416392344301 0 0.23991786641812771 -0.30157246703956331 0 0.25297983090189469 -0.29837275064123681 0 0.24797830072704741 -0.29281725717050783 0 0.23991786641812771 -0.30157246703956331 0 0.25070374123613348 -0.30660130443104072 0 0.25297983090189469 -0.29837275064123681 0 0.23991786641812771 -0.30157246703956331 0 0.25070374123613348 -0.30660130443104072 0 0.23991786641812771 -0.30157246703956331 0 0.23855000441908719 -0.3125843486544207 0 0.25123812652807559 -0.31846488372117171 0 0.25070374123613348 -0.30660130443104072 0 0.23855000441908719 -0.3125843486544207 0 0.25123812652807559 -0.31846488372117171 0 0.23855000441908719 -0.3125843486544207 0 0.23965845613081829 -0.33141247458140161 0 0.25366620046169841 -0.33285271160519531 0 0.25123812652807559 -0.31846488372117171 0 0.23965845613081829 -0.33141247458140161 0 0.25840792970885818 -0.34794417986824822 0 0.2440242939159028 -0.33793982812939699 0 0.23965845613081829 -0.33141247458140161 0 0.2440242939159028 -0.33793982812939699 0 0.23965845613081829 -0.33141247458140161 0 0.21971498106376819 -0.33012668895991742 0 0.25840792970885818 -0.34794417986824822 0 0.23965845613081829 -0.33141247458140161 0 0.21971498106376819 -0.33012668895991742 0 0.23330376038033501 -0.34336420463758283 0 0.2260791390398883 -0.35120592840637521 0 0.2440242939159028 -0.33793982812939699 0 0.21971498106376819 -0.33012668895991742 0 0.2440242939159028 -0.33793982812939699 0 0.21971498106376819 -0.33012668895991742 0 0.23330376038033501 -0.34336420463758283 0 0.23965845613081829 -0.33141247458140161 0 0.21971498106376819 -0.33012668895991742 0 0.22090898255277849 -0.31488076929455477 0 0.23855000441908719 -0.3125843486544207 0 0.23965845613081829 -0.33141247458140161 0 0.22090898255277849 -0.31488076929455477 0 0.23965845613081829 -0.33141247458140161 0 0.22090898255277849 -0.31488076929455477 0 0.25573174570141222 -0.37238572768261952 0 0.24339662750178079 -0.35418437305464179 0 0.2331310476830448 -0.3677433750009258 0 0.2440242939159028 -0.33793982812939699 0 0.23330376038033501 -0.34336420463758283 0 0.24339662750178079 -0.35418437305464179 0 0.25840792970885818 -0.34794417986824822 0 0.2440242939159028 -0.33793982812939699 0 0.24339662750178079 -0.35418437305464179 0 0.24339662750178079 -0.35418437305464179 0 0.2260791390398883 -0.35120592840637521 0 0.2331310476830448 -0.3677433750009258 0 0.23330376038033501 -0.34336420463758283 0 0.24339662750178079 -0.35418437305464179 0 0.2260791390398883 -0.35120592840637521 0 0.2260791390398883 -0.35120592840637521 0 0.2331310476830448 -0.3677433750009258 0 0.21426750685273169 -0.36102727676281071 0 0.2331310476830448 -0.3677433750009258 0 0.21426750685273169 -0.36102727676281071 0 0.20615561465112051 -0.38139147265149048 0 0.21426750685273169 -0.36102727676281071 0 0.19888780215358279 -0.35958814585222171 0 0.20615561465112051 -0.38139147265149048 0 0.2260791390398883 -0.35120592840637521 0 0.21426750685273169 -0.36102727676281071 0 0.20773221107336129 -0.34537391883464141 0 0.21426750685273169 -0.36102727676281071 0 0.20773221107336129 -0.34537391883464141 0 0.19888780215358279 -0.35958814585222171 0 0.18911411698130981 -0.34463770508205671 0 0.19888780215358279 -0.35958814585222171 0 0.1828225657509876 -0.36696186037367112 0 0.20773221107336129 -0.34537391883464141 0 0.18911411698130981 -0.34463770508205671 0 0.19888780215358279 -0.35958814585222171 0 0.19888780215358279 -0.35958814585222171 0 0.1828225657509876 -0.36696186037367112 0 0.20615561465112051 -0.38139147265149048 0 0.21971498106376819 -0.33012668895991742 0 0.22090898255277849 -0.31488076929455477 0 0.19540566821163211 -0.32231354979044252 0 0.21971498106376819 -0.33012668895991742 0 0.19540566821163211 -0.32231354979044252 0 0.21971498106376819 -0.33012668895991742 0 0.20773221107336129 -0.34537391883464141 0 0.19540566821163211 -0.32231354979044252 0 0.21971498106376819 -0.33012668895991742 0 0.2260791390398883 -0.35120592840637521 0 0.20773221107336129 -0.34537391883464141 0 0.18911411698130981 -0.34463770508205671 0 0.19540566821163211 -0.32231354979044252 0 0.20773221107336129 -0.34537391883464141 0 0.18911411698130981 -0.34463770508205671 0 0.19540566821163211 -0.32231354979044252 0 0.19540566821163211 -0.32231354979044252 0 0.17069079571075851 -0.31437006164744302 0 0.19540566821163211 -0.32231354979044252 0 0.17069079571075851 -0.31437006164744302 0 0.18663973258069361 -0.30261973696981331 0 0.19540566821163211 -0.32231354979044252 0 0.1757467201330162 -0.33203339853937808 0 0.17069079571075851 -0.31437006164744302 0 0.18911411698130981 -0.34463770508205671 0 0.1757467201330162 -0.33203339853937808 0 0.16589785038433519 -0.34725293024044668 0 0.18911411698130981 -0.34463770508205671 0 0.19540566821163211 -0.32231354979044252 0 0.1757467201330162 -0.33203339853937808 0 0.1757467201330162 -0.33203339853937808 0 0.16589785038433519 -0.34725293024044668 0 0.15278074797523561 -0.32767436588499932 0 0.17069079571075851 -0.31437006164744302 0 0.15278074797523561 -0.32767436588499932 0 0.14597592320988331 -0.30642657350444807 0 0.1757467201330162 -0.33203339853937808 0 0.17069079571075851 -0.31437006164744302 0 0.15278074797523561 -0.32767436588499932 0 0.1828225657509876 -0.36696186037367112 0 0.15039156997241929 -0.36479706674777962 0 0.1569744912430453 -0.38359765292191961 0 0.1828225657509876 -0.36696186037367112 0 0.16589785038433519 -0.34725293024044668 0 0.15039156997241929 -0.36479706674777962 0 0.18911411698130981 -0.34463770508205671 0 0.1828225657509876 -0.36696186037367112 0 0.16589785038433519 -0.34725293024044668 0 0.18911411698130981 -0.34463770508205671 0 0.1828225657509876 -0.36696186037367112 0 0.15039156997241929 -0.36479706674777962 0 0.14667822768304281 -0.3457585980593999 0 0.11632791681951959 -0.36711727995928811 0 0.15039156997241929 -0.36479706674777962 0 0.13385353291822599 -0.37793595710899769 0 0.11632791681951959 -0.36711727995928811 0 0.16589785038433519 -0.34725293024044668 0 0.15039156997241929 -0.36479706674777962 0 0.14667822768304281 -0.3457585980593999 0 0.14667822768304281 -0.3457585980593999 0 0.12667610778984401 -0.3394979018465194 0 0.11632791681951959 -0.36711727995928811 0 0.15278074797523561 -0.32767436588499932 0 0.13702429876016861 -0.31187852373375041 0 0.14597592320988331 -0.30642657350444807 0 0.14667822768304281 -0.3457585980593999 0 0.15278074797523561 -0.32767436588499932 0 0.12667610778984401 -0.3394979018465194 0 0.16589785038433519 -0.34725293024044668 0 0.14667822768304281 -0.3457585980593999 0 0.15278074797523561 -0.32767436588499932 0 0.12667610778984401 -0.3394979018465194 0 0.13702429876016861 -0.31187852373375041 0 0.15278074797523561 -0.32767436588499932 0 0.12667610778984401 -0.3394979018465194 0 0.13702429876016861 -0.31187852373375041 0 0.12667610778984401 -0.3394979018465194 0 0.13702429876016861 -0.31187852373375041 0 0.1195923907648492 -0.31578461612278819 0 0.13702429876016861 -0.31187852373375041 0 0.1212610507090081 -0.29848308536145329 0 0.1195923907648492 -0.31578461612278819 0 0.14597592320988331 -0.30642657350444807 0 0.1212610507090081 -0.29848308536145329 0 0.13702429876016861 -0.31187852373375041 0 0.14597592320988331 -0.30642657350444807 0 0.1212610507090081 -0.29848308536145329 0 0.14597592320988331 -0.30642657350444807 0 0.144126651977387 -0.29220733113191949 0 0.1212610507090081 -0.29848308536145329 0 0.14597592320988331 -0.30642657350444807 0 0.144126651977387 -0.29220733113191949 0 0.1601372688631641 -0.29566081726784937 0 0.15493849713532079 -0.28500657929764378 0 0.144126651977387 -0.29220733113191949 0 0.1601372688631641 -0.29566081726784937 0 0.15493849713532079 -0.28500657929764378 0 0.144126651977387 -0.29220733113191949 0 0.14422761199887441 -0.27839685282443238 0 0.144126651977387 -0.29220733113191949 0 0.13263554959180521 -0.28452374394732821 0 0.1212610507090081 -0.29848308536145329 0 0.144126651977387 -0.29220733113191949 0 0.13263554959180521 -0.28452374394732821 0 0.14422761199887441 -0.27839685282443238 0 0.13263554959180521 -0.28452374394732821 0 0.12979379718899109 -0.27291628726155981 0 0.1204331481654583 -0.27872240562612333 0 0.12979379718899109 -0.27291628726155981 0 0.131436706906709 -0.26312350717575161 0 0.1216372810812828 -0.26467991258782791 0 0.12979379718899109 -0.27291628726155981 0 0.1397319768008404 -0.26816598762809352 0 0.14422761199887441 -0.27839685282443238 0 0.12979379718899109 -0.27291628726155981 0 0.1397319768008404 -0.26816598762809352 0 0.131436706906709 -0.26312350717575161 0 0.13263554959180521 -0.28452374394732821 0 0.12979379718899109 -0.27291628726155981 0 0.14422761199887441 -0.27839685282443238 0 0.12903626199286899 -0.25346210742832143 0 0.131436706906709 -0.26312350717575161 0 0.1369842174695616 -0.25639324097295502 0 0.12903626199286899 -0.25346210742832143 0 0.131436706906709 -0.26312350717575161 0 0.1216372810812828 -0.26467991258782791 0 0.1397319768008404 -0.26816598762809352 0 0.131436706906709 -0.26312350717575161 0 0.1369842174695616 -0.25639324097295502 0 0.1369842174695616 -0.25639324097295502 0 0.1425664307512606 -0.2499578410125623 0 0.13431594935557631 -0.2489770844462042 0 0.12903626199286899 -0.25346210742832143 0 0.1369842174695616 -0.25639324097295502 0 0.13431594935557631 -0.2489770844462042 0 0.14538167287151449 -0.26064031156737871 0 0.15027714804140829 -0.25260357163612601 0 0.1541778526243274 -0.26839933562170198 0 0.1369842174695616 -0.25639324097295502 0 0.14538167287151449 -0.26064031156737871 0 0.1425664307512606 -0.2499578410125623 0 0.14538167287151449 -0.26064031156737871 0 0.15027714804140829 -0.25260357163612601 0 0.1425664307512606 -0.2499578410125623 0 0.15027714804140829 -0.25260357163612601 0 0.1425664307512606 -0.2499578410125623 0 0.1397319768008404 -0.26816598762809352 0 0.1369842174695616 -0.25639324097295502 0 0.14538167287151449 -0.26064031156737871 0 0.15493849713532079 -0.28500657929764378 0 0.14422761199887441 -0.27839685282443238 0 0.1541778526243274 -0.26839933562170198 0 0.1397319768008404 -0.26816598762809352 0 0.14422761199887441 -0.27839685282443238 0 0.1541778526243274 -0.26839933562170198 0 0.1397319768008404 -0.26816598762809352 0 0.14538167287151449 -0.26064031156737871 0 0.1541778526243274 -0.26839933562170198 0 0.15493849713532079 -0.28500657929764378 0 0.1541778526243274 -0.26839933562170198 0 0.1672786769287655 -0.28277733744249078 0 0.1541778526243274 -0.26839933562170198 0 0.1694757529434423 -0.26953128306427743 0 0.1672786769287655 -0.28277733744249078 0 0.15027714804140829 -0.25260357163612601 0 0.1694757529434423 -0.26953128306427743 0 0.15027714804140829 -0.25260357163612601 0 0.1694757529434423 -0.26953128306427743 0 0.17309050672215631 -0.26043137797593852 0 0.15027714804140829 -0.25260357163612601 0 0.17309050672215631 -0.26043137797593852 0 0.15027714804140829 -0.25260357163612601 0 0.17309050672215631 -0.26043137797593852 0 0.16345997852390681 -0.24666503200669751 0 0.15027714804140829 -0.25260357163612601 0 0.1541778526243274 -0.26839933562170198 0 0.1694757529434423 -0.26953128306427743 0 0.17664944540245781 -0.2516724249431368 0 0.17309050672215631 -0.26043137797593852 0 0.16345997852390681 -0.24666503200669751 0 0.1959038654029073 -0.26825918431574169 0 0.17309050672215631 -0.26043137797593852 0 0.18658771310562211 -0.25928744720448937 0 0.1959038654029073 -0.26825918431574169 0 0.17309050672215631 -0.26043137797593852 0 0.17664944540245781 -0.2516724249431368 0 0.17309050672215631 -0.26043137797593852 0 0.18658771310562211 -0.25928744720448937 0 0.17664944540245781 -0.2516724249431368 0 0.18658771310562211 -0.25928744720448937 0 0.19038010371744371 -0.24735532658709611 0 0.18867435784547229 -0.28645899449243339 0 0.1694757529434423 -0.26953128306427743 0 0.18449621752656761 -0.27367505195713621 0 0.18867435784547229 -0.28645899449243339 0 0.1694757529434423 -0.26953128306427743 0 0.1672786769287655 -0.28277733744249078 0 0.18867435784547229 -0.28645899449243339 0 0.1694757529434423 -0.26953128306427743 0 0.1959038654029073 -0.26825918431574169 0 0.17309050672215631 -0.26043137797593852 0 0.18449621752656761 -0.27367505195713621 0 0.1694757529434423 -0.26953128306427743 0 0.17309050672215631 -0.26043137797593852 0 0.18449621752656761 -0.27367505195713621 0 0.18867435784547229 -0.28645899449243339 0 0.17626833216086829 -0.29160701491103691 0 0.18867435784547229 -0.28645899449243339 0 0.17626833216086829 -0.29160701491103691 0 0.1672786769287655 -0.28277733744249078 0 0.18867435784547229 -0.28645899449243339 0 0.17626833216086829 -0.29160701491103691 0 0.18663973258069361 -0.30261973696981331 0 0.17069079571075851 -0.31437006164744302 0 0.17626833216086829 -0.29160701491103691 0 0.18663973258069361 -0.30261973696981331 0 0.17069079571075851 -0.31437006164744302 0 0.17626833216086829 -0.29160701491103691 0 0.1601372688631641 -0.29566081726784937 0 0.17069079571075851 -0.31437006164744302 0 0.14597592320988331 -0.30642657350444807 0 0.17069079571075851 -0.31437006164744302 0 0.14597592320988331 -0.30642657350444807 0 0.1601372688631641 -0.29566081726784937 0 0.17626833216086829 -0.29160701491103691 0 0.1601372688631641 -0.29566081726784937 0 0.1672786769287655 -0.28277733744249078 0 0.15493849713532079 -0.28500657929764378 0 0.1601372688631641 -0.29566081726784937 0 0.1672786769287655 -0.28277733744249078 0 0.1941477167449166 -0.4840282160909295 0 0.20536139840376841 -0.5 0 0.1778371354509776 -0.5 0 0.1941477167449166 -0.4840282160909295 0 0.21260063364449031 -0.47196068423685211 0 0.19609647420746501 -0.46506891102041892 0 0.1941477167449166 -0.4840282160909295 0 0.21260063364449031 -0.47196068423685211 0 0.2167812874081009 -0.48799422861861858 0 0.1941477167449166 -0.4840282160909295 0 0.2167812874081009 -0.48799422861861858 0 0.20536139840376841 -0.5 0 0.2167812874081009 -0.48799422861861858 0 0.20536139840376841 -0.5 0 0.2328856613565593 -0.5 0 0.2167812874081009 -0.48799422861861858 0 0.2328856613565593 -0.5 0 0.22971115101468201 -0.47790167353475688 0 0.26040992430935012 -0.5 0 0.2328856613565593 -0.5 0 0.24676283655776399 -0.48309264040319277 0 0.2328856613565593 -0.5 0 0.24676283655776399 -0.48309264040319277 0 0.22971115101468201 -0.47790167353475688 0 0.24676283655776399 -0.48309264040319277 0 0.24122410665486871 -0.47174326487204959 0 0.22971115101468201 -0.47790167353475688 0 0.25313498888367358 -0.47183159477686332 0 0.24676283655776399 -0.48309264040319277 0 0.24122410665486871 -0.47174326487204959 0 0.22971115101468201 -0.47790167353475688 0 0.22289491503771849 -0.4676056615244516 0 0.23186531188945109 -0.46696219690048613 0 0.21260063364449031 -0.47196068423685211 0 0.2167812874081009 -0.48799422861861858 0 0.22971115101468201 -0.47790167353475688 0 0.21260063364449031 -0.47196068423685211 0 0.22971115101468201 -0.47790167353475688 0 0.22289491503771849 -0.4676056615244516 0 0.24122410665486871 -0.47174326487204959 0 0.22971115101468201 -0.47790167353475688 0 0.23186531188945109 -0.46696219690048613 0 0.22130450611118041 -0.45633613877552448 0 0.23186531188945109 -0.46696219690048613 0 0.24512711532174869 -0.46088887917074461 0 0.21260063364449031 -0.47196068423685211 0 0.22289491503771849 -0.4676056615244516 0 0.22130450611118041 -0.45633613877552448 0 0.22289491503771849 -0.4676056615244516 0 0.22130450611118041 -0.45633613877552448 0 0.23186531188945109 -0.46696219690048613 0 0.22130450611118041 -0.45633613877552448 0 0.24512711532174869 -0.46088887917074461 0 0.22130450611118041 -0.45633613877552448 0 0.21993462640090899 -0.44979352434379383 0 0.21578635569323101 -0.45528156469035119 0 0.24122410665486871 -0.47174326487204959 0 0.23186531188945109 -0.46696219690048613 0 0.24512711532174869 -0.46088887917074461 0 0.22130450611118041 -0.45633613877552448 0 0.24512711532174869 -0.46088887917074461 0 0.24209486279291159 -0.44913377365296359 0 0.25667734910858281 -0.45608485647008279 0 0.24512711532174869 -0.46088887917074461 0 0.24209486279291159 -0.44913377365296359 0 0.25313498888367358 -0.47183159477686332 0 0.24122410665486871 -0.47174326487204959 0 0.24512711532174869 -0.46088887917074461 0 0.24209486279291159 -0.44913377365296359 0 0.23435859057605549 -0.43800143475300402 0 0.22786925699966071 -0.44711573938160087 0 0.24582850601093659 -0.43770451171011848 0 0.24209486279291159 -0.44913377365296359 0 0.23435859057605549 -0.43800143475300402 0 0.22130450611118041 -0.45633613877552448 0 0.24209486279291159 -0.44913377365296359 0 0.22130450611118041 -0.45633613877552448 0 0.24209486279291159 -0.44913377365296359 0 0.22786925699966071 -0.44711573938160087 0 0.23435859057605549 -0.43800143475300402 0 0.22786925699966071 -0.44711573938160087 0 0.22165369911724711 -0.44231382538271891 0 0.22130450611118041 -0.45633613877552448 0 0.22786925699966071 -0.44711573938160087 0 0.21993462640090899 -0.44979352434379383 0 0.22786925699966071 -0.44711573938160087 0 0.21993462640090899 -0.44979352434379383 0 0.22165369911724711 -0.44231382538271891 0 0.22165369911724711 -0.44231382538271891 0 0.21213300964071519 -0.44594956839882438 0 0.21348366143732239 -0.43530400560562099 0 0.21213300964071519 -0.44594956839882438 0 0.20192065831130759 -0.43861271016960962 0 0.20258620655931189 -0.45053280286836039 0 0.21213300964071519 -0.44594956839882438 0 0.20192065831130759 -0.43861271016960962 0 0.21348366143732239 -0.43530400560562099 0 0.21213300964071519 -0.44594956839882438 0 0.21578635569323101 -0.45528156469035119 0 0.20258620655931189 -0.45053280286836039 0 0.21993462640090899 -0.44979352434379383 0 0.22165369911724711 -0.44231382538271891 0 0.21213300964071519 -0.44594956839882438 0 0.21993462640090899 -0.44979352434379383 0 0.21213300964071519 -0.44594956839882438 0 0.21578635569323101 -0.45528156469035119 0 0.21260063364449031 -0.47196068423685211 0 0.22130450611118041 -0.45633613877552448 0 0.19609647420746501 -0.46506891102041892 0 0.22130450611118041 -0.45633613877552448 0 0.21578635569323101 -0.45528156469035119 0 0.19609647420746501 -0.46506891102041892 0 0.22130450611118041 -0.45633613877552448 0 0.19609647420746501 -0.46506891102041892 0 0.21578635569323101 -0.45528156469035119 0 0.19609647420746501 -0.46506891102041892 0 0.20258620655931189 -0.45053280286836039 0 0.22130450611118041 -0.45633613877552448 0 0.21578635569323101 -0.45528156469035119 0 0.19609647420746501 -0.46506891102041892 0 0.18813227713287309 -0.44714894035174829 0 0.20258620655931189 -0.45053280286836039 0 0.18813227713287309 -0.44714894035174829 0 0.20192065831130759 -0.43861271016960962 0 0.18960259805544519 -0.42784423580025721 0 0.18813227713287309 -0.44714894035174829 0 0.20192065831130759 -0.43861271016960962 0 0.20258620655931189 -0.45053280286836039 0 0.20792216226228449 -0.41955632339881321 0 0.225065482925628 -0.4015714512777957 0 0.1932844718015142 -0.4050133805491104 0 0.20192065831130759 -0.43861271016960962 0 0.18960259805544519 -0.42784423580025721 0 0.20792216226228449 -0.41955632339881321 0 0.18960259805544519 -0.42784423580025721 0 0.20792216226228449 -0.41955632339881321 0 0.1932844718015142 -0.4050133805491104 0 0.20792216226228449 -0.41955632339881321 0 0.21348366143732239 -0.43530400560562099 0 0.22378877785505791 -0.43008760067813961 0 0.20792216226228449 -0.41955632339881321 0 0.22378877785505791 -0.43008760067813961 0 0.2238212853532528 -0.41738982683922088 0 0.20192065831130759 -0.43861271016960962 0 0.20792216226228449 -0.41955632339881321 0 0.21348366143732239 -0.43530400560562099 0 0.22378877785505791 -0.43008760067813961 0 0.2439753512001355 -0.42175142990410092 0 0.2238212853532528 -0.41738982683922088 0 0.23435859057605549 -0.43800143475300402 0 0.22378877785505791 -0.43008760067813961 0 0.2439753512001355 -0.42175142990410092 0 0.22165369911724711 -0.44231382538271891 0 0.21348366143732239 -0.43530400560562099 0 0.22378877785505791 -0.43008760067813961 0 0.23435859057605549 -0.43800143475300402 0 0.22165369911724711 -0.44231382538271891 0 0.22378877785505791 -0.43008760067813961 0 0.24582850601093659 -0.43770451171011848 0 0.23435859057605549 -0.43800143475300402 0 0.2439753512001355 -0.42175142990410092 0 0.2439753512001355 -0.42175142990410092 0 0.225065482925628 -0.4015714512777957 0 0.20792216226228449 -0.41955632339881321 0 0.2238212853532528 -0.41738982683922088 0 0.225065482925628 -0.4015714512777957 0 0.2439753512001355 -0.42175142990410092 0 0.2238212853532528 -0.41738982683922088 0 0.225065482925628 -0.4015714512777957 0 0.2331310476830448 -0.3677433750009258 0 0.24086606561207591 -0.38754824512353092 0 0.20615561465112051 -0.38139147265149048 0 0.225065482925628 -0.4015714512777957 0 0.24086606561207591 -0.38754824512353092 0 0.20615561465112051 -0.38139147265149048 0 0.2439753512001355 -0.42175142990410092 0 0.225065482925628 -0.4015714512777957 0 0.24086606561207591 -0.38754824512353092 0 0.2590976936363843 -0.39674669773623122 0 0.2439753512001355 -0.42175142990410092 0 0.24086606561207591 -0.38754824512353092 0 0.25573174570141222 -0.37238572768261952 0 0.2331310476830448 -0.3677433750009258 0 0.24086606561207591 -0.38754824512353092 0 0.225065482925628 -0.4015714512777957 0 0.20615561465112051 -0.38139147265149048 0 0.1932844718015142 -0.4050133805491104 0 0.225065482925628 -0.4015714512777957 0 0.20615561465112051 -0.38139147265149048 0 0.20615561465112051 -0.38139147265149048 0 0.1932844718015142 -0.4050133805491104 0 0.1765310145206655 -0.38928601566528531 0 0.1828225657509876 -0.36696186037367112 0 0.20615561465112051 -0.38139147265149048 0 0.1765310145206655 -0.38928601566528531 0 0.1828225657509876 -0.36696186037367112 0 0.1765310145206655 -0.38928601566528531 0 0.1569744912430453 -0.38359765292191961 0 0.1828225657509876 -0.36696186037367112 0 0.1765310145206655 -0.38928601566528531 0 0.1932844718015142 -0.4050133805491104 0 0.1765310145206655 -0.38928601566528531 0 0.17862786516759371 -0.4141381845149491 0 0.1765310145206655 -0.38928601566528531 0 0.1606222071292871 -0.40208976161640131 0 0.17862786516759371 -0.4141381845149491 0 0.1765310145206655 -0.38928601566528531 0 0.1606222071292871 -0.40208976161640131 0 0.1569744912430453 -0.38359765292191961 0 0.13385353291822599 -0.37793595710899769 0 0.1381181315032238 -0.39742209011302848 0 0.1059797258491951 -0.39473665807205688 0 0.15039156997241929 -0.36479706674777962 0 0.1569744912430453 -0.38359765292191961 0 0.13385353291822599 -0.37793595710899769 0 0.1569744912430453 -0.38359765292191961 0 0.13385353291822599 -0.37793595710899769 0 0.1381181315032238 -0.39742209011302848 0 0.1606222071292871 -0.40208976161640131 0 0.1381181315032238 -0.39742209011302848 0 0.14569359731717871 -0.415432972000847 0 0.1606222071292871 -0.40208976161640131 0 0.1569744912430453 -0.38359765292191961 0 0.1381181315032238 -0.39742209011302848 0 0.1606222071292871 -0.40208976161640131 0 0.14569359731717871 -0.415432972000847 0 0.16212028732754791 -0.41911851669554812 0 0.1381181315032238 -0.39742209011302848 0 0.14569359731717871 -0.415432972000847 0 0.1249657873123091 -0.41490563998984409 0 0.14569359731717871 -0.415432972000847 0 0.13827451805798949 -0.43264706631154148 0 0.1249657873123091 -0.41490563998984409 0 0.13827451805798949 -0.43264706631154148 0 0.1168726045127894 -0.43192423344731667 0 0.1249657873123091 -0.41490563998984409 0 0.14569359731717871 -0.415432972000847 0 0.13827451805798949 -0.43264706631154148 0 0.15494038526785761 -0.43138283023037682 0 0.14569359731717871 -0.415432972000847 0 0.15494038526785761 -0.43138283023037682 0 0.16212028732754791 -0.41911851669554812 0 0.16212028732754791 -0.41911851669554812 0 0.17862786516759371 -0.4141381845149491 0 0.16918074817150799 -0.4394878902517057 0 0.15494038526785761 -0.43138283023037682 0 0.16212028732754791 -0.41911851669554812 0 0.16918074817150799 -0.4394878902517057 0 0.1606222071292871 -0.40208976161640131 0 0.16212028732754791 -0.41911851669554812 0 0.17862786516759371 -0.4141381845149491 0 0.18960259805544519 -0.42784423580025721 0 0.1932844718015142 -0.4050133805491104 0 0.17862786516759371 -0.4141381845149491 0 0.18960259805544519 -0.42784423580025721 0 0.17862786516759371 -0.4141381845149491 0 0.16918074817150799 -0.4394878902517057 0 0.18813227713287309 -0.44714894035174829 0 0.17496942813864691 -0.45596472579036418 0 0.16918074817150799 -0.4394878902517057 0 0.18813227713287309 -0.44714894035174829 0 0.18960259805544519 -0.42784423580025721 0 0.16918074817150799 -0.4394878902517057 0 0.19609647420746501 -0.46506891102041892 0 0.17496942813864691 -0.45596472579036418 0 0.17088844230375 -0.47380168326531408 0 0.19609647420746501 -0.46506891102041892 0 0.18813227713287309 -0.44714894035174829 0 0.17496942813864691 -0.45596472579036418 0 0.17496942813864691 -0.45596472579036418 0 0.15054919887763851 -0.45431620406263362 0 0.17088844230375 -0.47380168326531408 0 0.17496942813864691 -0.45596472579036418 0 0.16918074817150799 -0.4394878902517057 0 0.15054919887763851 -0.45431620406263362 0 0.15494038526785761 -0.43138283023037682 0 0.16918074817150799 -0.4394878902517057 0 0.15054919887763851 -0.45431620406263362 0 0.13827451805798949 -0.43264706631154148 0 0.15494038526785761 -0.43138283023037682 0 0.15054919887763851 -0.45431620406263362 0 0.13827451805798949 -0.43264706631154148 0 0.12854200147657679 -0.44881465175620078 0 0.15054919887763851 -0.45431620406263362 0 0.13827451805798949 -0.43264706631154148 0 0.12854200147657679 -0.44881465175620078 0 0.1168726045127894 -0.43192423344731667 0 0.12854200147657679 -0.44881465175620078 0 0.1350707603468061 -0.46361197939982479 0 0.15054919887763851 -0.45431620406263362 0 0.1350707603468061 -0.46361197939982479 0 0.12742183160909451 -0.47531032909802429 0 0.1210100563839803 -0.46164477217705641 0 0.12854200147657679 -0.44881465175620078 0 0.1350707603468061 -0.46361197939982479 0 0.1210100563839803 -0.46164477217705641 0 0.1350707603468061 -0.46361197939982479 0 0.15054919887763851 -0.45431620406263362 0 0.14568041040003499 -0.48253445551020929 0 0.15054919887763851 -0.45431620406263362 0 0.14568041040003499 -0.48253445551020929 0 0.17088844230375 -0.47380168326531408 0 0.14568041040003499 -0.48253445551020929 0 0.12742183160909451 -0.47531032909802429 0 0.12047237849632 -0.49126722775510462 0 0.1350707603468061 -0.46361197939982479 0 0.14568041040003499 -0.48253445551020929 0 0.12742183160909451 -0.47531032909802429 0 0.14568041040003499 -0.48253445551020929 0 0.1227886095453958 -0.5 0 0.12047237849632 -0.49126722775510462 0 0.14568041040003499 -0.48253445551020929 0 0.1503128724981867 -0.5 0 0.1227886095453958 -0.5 0 0.14568041040003499 -0.48253445551020929 0 0.12047237849632 -0.49126722775510462 0 0.14568041040003499 -0.48253445551020929 0 0.1503128724981867 -0.5 0 0.1615747262578012 -0.4876658534447576 0 0.1615747262578012 -0.4876658534447576 0 0.17088844230375 -0.47380168326531408 0 0.1778371354509776 -0.5 0 0.1503128724981867 -0.5 0 0.1615747262578012 -0.4876658534447576 0 0.1778371354509776 -0.5 0 0.14568041040003499 -0.48253445551020929 0 0.1615747262578012 -0.4876658534447576 0 0.17088844230375 -0.47380168326531408 0 0.14568041040003499 -0.48253445551020929 0 0.17088844230375 -0.47380168326531408 0 0.1941477167449166 -0.4840282160909295 0 0.19609647420746501 -0.46506891102041892 0 0.17088844230375 -0.47380168326531408 0 0.19609647420746501 -0.46506891102041892 0 0.17088844230375 -0.47380168326531408 0 0.1941477167449166 -0.4840282160909295 0 0.17088844230375 -0.47380168326531408 0 0.1778371354509776 -0.5 0 0.065559448601512638 -0.5 0 0.067430192224570459 -0.47733623107848377 0 0.082411465586891539 -0.48399171951456549 0 0.067430192224570459 -0.47733623107848377 0 0.082411465586891539 -0.48399171951456549 0 0.080196056811316085 -0.46704775481456368 0 0.082411465586891539 -0.48399171951456549 0 0.097405737828569747 -0.47424173191156871 0 0.080196056811316085 -0.46704775481456368 0 0.065559448601512638 -0.5 0 0.082411465586891539 -0.48399171951456549 0 0.095264346592604951 -0.49999999999999989 0 0.082411465586891539 -0.48399171951456549 0 0.095264346592604951 -0.49999999999999989 0 0.097405737828569747 -0.47424173191156871 0 0.095264346592604951 -0.49999999999999989 0 0.12047237849632 -0.49126722775510462 0 0.095264346592604951 -0.49999999999999989 0 0.12047237849632 -0.49126722775510462 0 0.112634413358929 -0.47776470868381821 0 0.095264346592604951 -0.49999999999999989 0 0.1227886095453958 -0.5 0 0.12047237849632 -0.49126722775510462 0 0.12742183160909451 -0.47531032909802429 0 0.112634413358929 -0.47776470868381821 0 0.1210100563839803 -0.46164477217705641 0 0.12742183160909451 -0.47531032909802429 0 0.12047237849632 -0.49126722775510462 0 0.112634413358929 -0.47776470868381821 0 0.095264346592604951 -0.49999999999999989 0 0.112634413358929 -0.47776470868381821 0 0.097405737828569747 -0.47424173191156871 0 0.112634413358929 -0.47776470868381821 0 0.097405737828569747 -0.47424173191156871 0 0.1092166223563011 -0.46400542908158487 0 0.097405737828569747 -0.47424173191156871 0 0.1092166223563011 -0.46400542908158487 0 0.091549171794701539 -0.45153038387175742 0 0.1092166223563011 -0.46400542908158487 0 0.1093235261569811 -0.44906463737454472 0 0.091549171794701539 -0.45153038387175742 0 0.112634413358929 -0.47776470868381821 0 0.1092166223563011 -0.46400542908158487 0 0.1210100563839803 -0.46164477217705641 0 0.12854200147657679 -0.44881465175620078 0 0.1210100563839803 -0.46164477217705641 0 0.1093235261569811 -0.44906463737454472 0 0.1092166223563011 -0.46400542908158487 0 0.1210100563839803 -0.46164477217705641 0 0.1093235261569811 -0.44906463737454472 0 0.12854200147657679 -0.44881465175620078 0 0.1093235261569811 -0.44906463737454472 0 0.1168726045127894 -0.43192423344731667 0 0.1093235261569811 -0.44906463737454472 0 0.096744667211084101 -0.43314405344505258 0 0.1168726045127894 -0.43192423344731667 0 0.1093235261569811 -0.44906463737454472 0 0.091549171794701539 -0.45153038387175742 0 0.096744667211084101 -0.43314405344505258 0 0.091549171794701539 -0.45153038387175742 0 0.075431999981226933 -0.45375645229751449 0 0.069062691845642163 -0.43648023784130457 0 0.091549171794701539 -0.45153038387175742 0 0.069062691845642163 -0.43648023784130457 0 0.096744667211084101 -0.43314405344505258 0 0.097405737828569747 -0.47424173191156871 0 0.091549171794701539 -0.45153038387175742 0 0.080196056811316085 -0.46704775481456368 0 0.091549171794701539 -0.45153038387175742 0 0.080196056811316085 -0.46704775481456368 0 0.075431999981226933 -0.45375645229751449 0 0.080196056811316085 -0.46704775481456368 0 0.075431999981226933 -0.45375645229751449 0 0.060920079473247922 -0.45996743266243251 0 0.067430192224570459 -0.47733623107848377 0 0.080196056811316085 -0.46704775481456368 0 0.060920079473247922 -0.45996743266243251 0 0.075431999981226933 -0.45375645229751449 0 0.069062691845642163 -0.43648023784130457 0 0.060920079473247922 -0.45996743266243251 0 0.069062691845642163 -0.43648023784130457 0 0.087102459684636868 -0.41674712275330889 0 0.059059985297593161 -0.40850078607829182 0 0.087102459684636868 -0.41674712275330889 0 0.08232321451277537 -0.39627868586668469 0 0.059059985297593161 -0.40850078607829182 0 0.069062691845642163 -0.43648023784130457 0 0.087102459684636868 -0.41674712275330889 0 0.096744667211084101 -0.43314405344505258 0 0.096744667211084101 -0.43314405344505258 0 0.1168726045127894 -0.43192423344731667 0 0.1063330489140029 -0.41829154154151582 0 0.087102459684636868 -0.41674712275330889 0 0.096744667211084101 -0.43314405344505258 0 0.1063330489140029 -0.41829154154151582 0 0.1168726045127894 -0.43192423344731667 0 0.1249657873123091 -0.41490563998984409 0 0.1063330489140029 -0.41829154154151582 0 0.1249657873123091 -0.41490563998984409 0 0.1063330489140029 -0.41829154154151582 0 0.1059797258491951 -0.39473665807205688 0 0.087102459684636868 -0.41674712275330889 0 0.1063330489140029 -0.41829154154151582 0 0.1059797258491951 -0.39473665807205688 0 0.1381181315032238 -0.39742209011302848 0 0.1249657873123091 -0.41490563998984409 0 0.1059797258491951 -0.39473665807205688 0 0.1059797258491951 -0.39473665807205688 0 0.11632791681951959 -0.36711727995928811 0 0.13385353291822599 -0.37793595710899769 0 0.1059797258491951 -0.39473665807205688 0 0.11632791681951959 -0.36711727995928811 0 0.1059797258491951 -0.39473665807205688 0 0.091608639279214671 -0.37560527361487922 0 0.11632791681951959 -0.36711727995928811 0 0.1059797258491951 -0.39473665807205688 0 0.091608639279214671 -0.37560527361487922 0 0.08232321451277537 -0.39627868586668469 0 0.091608639279214671 -0.37560527361487922 0 0.08232321451277537 -0.39627868586668469 0 0.066324698568829832 -0.3822035196787969 0 0.087102459684636868 -0.41674712275330889 0 0.1059797258491951 -0.39473665807205688 0 0.08232321451277537 -0.39627868586668469 0 0.08232321451277537 -0.39627868586668469 0 0.066324698568829832 -0.3822035196787969 0 0.059059985297593161 -0.40850078607829182 0 0.066324698568829832 -0.3822035196787969 0 0.049055839900257463 -0.37746566703989048 0 0.040431265269072258 -0.39325305455837678 0 0.066324698568829832 -0.3822035196787969 0 0.040431265269072258 -0.39325305455837678 0 0.059059985297593161 -0.40850078607829182 0 0.040431265269072258 -0.39325305455837678 0 0.03419478779286643 -0.41532916316523211 0 0.059059985297593161 -0.40850078607829182 0 0.049055839900257463 -0.37746566703989048 0 0.040431265269072258 -0.39325305455837678 0 0.033600004962601571 -0.37475637910123588 0 0.040431265269072258 -0.39325305455837678 0 0.023666178759470888 -0.38827906301799348 0 0.033600004962601571 -0.37475637910123588 0 0.023666178759470888 -0.38827906301799348 0 0.0089110281326635777 -0.37995103884739662 0 0.019944095431654991 -0.37260160596898828 0 0.023666178759470888 -0.38827906301799348 0 0.033600004962601571 -0.37475637910123588 0 0.019944095431654991 -0.37260160596898828 0 -0.0056360938850787152 -0.38607414576439381 0 -0.0030508565299749478 -0.40163911683637288 0 0.0089110281326635777 -0.37995103884739662 0 -0.00024599811553788209 -0.37123979155157932 0 -0.0056360938850787152 -0.38607414576439381 0 0.0089110281326635777 -0.37995103884739662 0 0.0089110281326635777 -0.37995103884739662 0 0.017117361601886521 -0.4062368038271974 0 -0.0030508565299749478 -0.40163911683637288 0 0.0089110281326635777 -0.37995103884739662 0 0.017117361601886521 -0.4062368038271974 0 0.040431265269072258 -0.39325305455837678 0 0.023666178759470888 -0.38827906301799348 0 0.017117361601886521 -0.4062368038271974 0 0.040431265269072258 -0.39325305455837678 0 0.017117361601886521 -0.4062368038271974 0 0.03419478779286643 -0.41532916316523211 0 0.023666178759470888 -0.38827906301799348 0 0.0089110281326635777 -0.37995103884739662 0 0.017117361601886521 -0.4062368038271974 0 0.017117361601886521 -0.4062368038271974 0 0.025323695071109421 -0.43252256880699819 0 0.0082330861129023339 -0.43819651569704587 0 0.017117361601886521 -0.4062368038271974 0 0.025323695071109421 -0.43252256880699819 0 0.03419478779286643 -0.41532916316523211 0 0.017117361601886521 -0.4062368038271974 0 0.025323695071109421 -0.43252256880699819 0 -0.006928175898192333 -0.42788875077507749 0 0.017117361601886521 -0.4062368038271974 0 0.0082330861129023339 -0.43819651569704587 0 -0.0030508565299749478 -0.40163911683637288 0 -0.006928175898192333 -0.42788875077507749 0 0.017117361601886521 -0.4062368038271974 0 0.025323695071109421 -0.43252256880699819 0 0.043782173971808551 -0.43213367178334239 0 0.03419478779286643 -0.41532916316523211 0 0.043782173971808551 -0.43213367178334239 0 0.03419478779286643 -0.41532916316523211 0 0.059059985297593161 -0.40850078607829182 0 0.043782173971808551 -0.43213367178334239 0 0.059059985297593161 -0.40850078607829182 0 0.069062691845642163 -0.43648023784130457 0 0.043782173971808551 -0.43213367178334239 0 0.059059985297593161 -0.40850078607829182 0 0.069062691845642163 -0.43648023784130457 0 0.060920079473247922 -0.45996743266243251 0 0.045713952095470009 -0.45013721776726662 0 0.069062691845642163 -0.43648023784130457 0 0.043782173971808551 -0.43213367178334239 0 0.045713952095470009 -0.45013721776726662 0 0.060920079473247922 -0.45996743266243251 0 0.045713952095470009 -0.45013721776726662 0 0.044963137711942193 -0.47500780851675167 0 0.045713952095470009 -0.45013721776726662 0 0.028504362646023941 -0.45576655748839301 0 0.044963137711942193 -0.47500780851675167 0 0.043782173971808551 -0.43213367178334239 0 0.028504362646023941 -0.45576655748839301 0 0.043782173971808551 -0.43213367178334239 0 0.045713952095470009 -0.45013721776726662 0 0.028504362646023941 -0.45576655748839301 0 0.025323695071109421 -0.43252256880699819 0 0.043782173971808551 -0.43213367178334239 0 0.028504362646023941 -0.45576655748839301 0 0.025323695071109421 -0.43252256880699819 0 0.0082330861129023339 -0.43819651569704587 0 0.028504362646023941 -0.45576655748839301 0 -0.006928175898192333 -0.42788875077507749 0 0.0082330861129023339 -0.43819651569704587 0 0.00018356116932998889 -0.45460021365762759 0 0.0082330861129023339 -0.43819651569704587 0 0.00018356116932998889 -0.45460021365762759 0 0.028504362646023941 -0.45576655748839301 0 0.00018356116932998889 -0.45460021365762759 0 0.028504362646023941 -0.45576655748839301 0 0.0132265513202393 -0.47939944319344369 0 0.028504362646023941 -0.45576655748839301 0 0.0132265513202393 -0.47939944319344369 0 0.028504362646023941 -0.45576655748839301 0 0.0132265513202393 -0.47939944319344369 0 0.044963137711942193 -0.47500780851675167 0 -0.01125188331078086 -0.47583166011634043 0 0.00018356116932998889 -0.45460021365762759 0 0.0132265513202393 -0.47939944319344369 0 -0.01125188331078086 -0.47583166011634043 0 0.0132265513202393 -0.47939944319344369 0 0.0061496526193284273 -0.5 0 0.0132265513202393 -0.47939944319344369 0 0.0061496526193284273 -0.5 0 0.035854550610420421 -0.5 0 0.0132265513202393 -0.47939944319344369 0 0.035854550610420421 -0.5 0 0.044963137711942193 -0.47500780851675167 0 0.065559448601512638 -0.5 0 0.067430192224570459 -0.47733623107848377 0 0.044963137711942193 -0.47500780851675167 0 0.067430192224570459 -0.47733623107848377 0 0.060920079473247922 -0.45996743266243251 0 0.044963137711942193 -0.47500780851675167 0 0.065559448601512638 -0.5 0 0.035854550610420421 -0.5 0 0.044963137711942193 -0.47500780851675167 0 0.089840334351325171 -0.29776256249865768 0 0.070199909016827086 -0.28598452716220202 0 0.081531464292497274 -0.28935331027453037 0 0.071831305707257626 -0.28259610907546368 0 0.09654617820813291 -0.29053959721845851 0 0.071831305707257626 -0.28259610907546368 0 0.08449133211067679 -0.27877046837401881 0 0.09654617820813291 -0.29053959721845851 0 0.081531464292497274 -0.28935331027453037 0 0.089840334351325171 -0.29776256249865768 0 0.070199909016827086 -0.28598452716220202 0 0.071831305707257626 -0.28259610907546368 0 0.09654617820813291 -0.29053959721845851 0 0.08449133211067679 -0.27877046837401881 0 0.095751664491309882 -0.27965354718217272 0 0.09654617820813291 -0.29053959721845851 0 0.081531464292497274 -0.28935331027453037 0 0.089840334351325171 -0.29776256249865768 0 0.09654617820813291 -0.29053959721845851 0 0.089840334351325171 -0.29776256249865768 0 0.083457162131803264 -0.30454837250372663 0 0.073707507395077559 -0.29651568023294322 0 0.089840334351325171 -0.29776256249865768 0 0.083457162131803264 -0.30454837250372663 0 0.095184632239271566 -0.3075842632325006 0 0.083457162131803264 -0.30454837250372663 0 0.095184632239271566 -0.3075842632325006 0 0.086057060340490987 -0.31481853711975272 0 0.083457162131803264 -0.30454837250372663 0 0.072955918559156577 -0.30620793927650741 0 0.086057060340490987 -0.31481853711975272 0 0.072955918559156577 -0.30620793927650741 0 0.06529010433671549 -0.30022868522527602 0 0.073707507395077559 -0.29651568023294322 0 0.083457162131803264 -0.30454837250372663 0 0.072955918559156577 -0.30620793927650741 0 0.073707507395077559 -0.29651568023294322 0 0.072955918559156577 -0.30620793927650741 0 0.06529010433671549 -0.30022868522527602 0 0.059597386015003202 -0.30931944116854748 0 0.072955918559156577 -0.30620793927650741 0 0.072761420371114591 -0.31792361383037038 0 0.059597386015003202 -0.30931944116854748 0 0.06529010433671549 -0.30022868522527602 0 0.064603240330643061 -0.29295397044308619 0 0.073707507395077559 -0.29651568023294322 0 0.064603240330643061 -0.29295397044308619 0 0.073707507395077559 -0.29651568023294322 0 0.070199909016827086 -0.28598452716220202 0 0.089840334351325171 -0.29776256249865768 0 0.073707507395077559 -0.29651568023294322 0 0.070199909016827086 -0.28598452716220202 0 0.081531464292497274 -0.28935331027453037 0 0.071831305707257626 -0.28259610907546368 0 0.070199909016827086 -0.28598452716220202 0 0.064603240330643061 -0.29295397044308619 0 0.070199909016827086 -0.28598452716220202 0 0.056833253271372883 -0.28715423792635097 0 0.06960259183916645 -0.27165413813118577 0 0.064037040012199689 -0.26165385736732433 0 0.088645699996003691 -0.26910178443662658 0 0.071831305707257626 -0.28259610907546368 0 0.070199909016827086 -0.28598452716220202 0 0.050559483682329258 -0.27420649182574558 0 0.071831305707257626 -0.28259610907546368 0 0.06960259183916645 -0.27165413813118577 0 0.050559483682329258 -0.27420649182574558 0 0.071831305707257626 -0.28259610907546368 0 0.06960259183916645 -0.27165413813118577 0 0.08449133211067679 -0.27877046837401881 0 0.064037040012199689 -0.26165385736732433 0 0.088645699996003691 -0.26910178443662658 0 0.064037040012199689 -0.26165385736732433 0 0.088645699996003691 -0.26910178443662658 0 0.077056326583040818 -0.24878137367569911 0 0.064037040012199689 -0.26165385736732433 0 0.056063541621038521 -0.24362041398438261 0 0.077056326583040818 -0.24878137367569911 0 0.092927874553834333 -0.25142727875471849 0 0.088645699996003691 -0.26910178443662658 0 0.077056326583040818 -0.24878137367569911 0 0.06960259183916645 -0.27165413813118577 0 0.08449133211067679 -0.27877046837401881 0 0.088645699996003691 -0.26910178443662658 0 0.06960259183916645 -0.27165413813118577 0 0.088645699996003691 -0.26910178443662658 0 0.08449133211067679 -0.27877046837401881 0 0.088645699996003691 -0.26910178443662658 0 0.095751664491309882 -0.27965354718217272 0 0.088645699996003691 -0.26910178443662658 0 0.1051414905386433 -0.26689084851222727 0 0.10453942408073109 -0.27391209503137481 0 0.095751664491309882 -0.27965354718217272 0 0.10453942408073109 -0.27391209503137481 0 0.10153096897268141 -0.28231959738687751 0 0.088645699996003691 -0.26910178443662658 0 0.095751664491309882 -0.27965354718217272 0 0.10453942408073109 -0.27391209503137481 0 0.088645699996003691 -0.26910178443662658 0 0.1051414905386433 -0.26689084851222727 0 0.088645699996003691 -0.26910178443662658 0 0.10453942408073109 -0.27391209503137481 0 0.1051414905386433 -0.26689084851222727 0 0.10453942408073109 -0.27391209503137481 0 0.1140380253797153 -0.27119015611926328 0 0.10453942408073109 -0.27391209503137481 0 0.10928660911055189 -0.28517315011550431 0 0.10153096897268141 -0.28231959738687751 0 0.092927874553834333 -0.25142727875471849 0 0.088645699996003691 -0.26910178443662658 0 0.1024252553920903 -0.25724726699802292 0 0.088645699996003691 -0.26910178443662658 0 0.1051414905386433 -0.26689084851222727 0 0.1024252553920903 -0.25724726699802292 0 0.092927874553834333 -0.25142727875471849 0 0.1024252553920903 -0.25724726699802292 0 0.1039377824829307 -0.2473607053338055 0 0.1051414905386433 -0.26689084851222727 0 0.1024252553920903 -0.25724726699802292 0 0.1102399949151124 -0.26060409139878588 0 0.1024252553920903 -0.25724726699802292 0 0.1117559526484331 -0.25359833749706578 0 0.1039377824829307 -0.2473607053338055 0 0.1024252553920903 -0.25724726699802292 0 0.1117559526484331 -0.25359833749706578 0 0.1102399949151124 -0.26060409139878588 0 0.1051414905386433 -0.26689084851222727 0 0.1102399949151124 -0.26060409139878588 0 0.1216372810812828 -0.26467991258782791 0 0.1117559526484331 -0.25359833749706578 0 0.1206729215231577 -0.25104549537699072 0 0.1138730097407424 -0.2461866768253986 0 0.1117559526484331 -0.25359833749706578 0 0.1102399949151124 -0.26060409139878588 0 0.1216372810812828 -0.26467991258782791 0 0.12903626199286899 -0.25346210742832143 0 0.1216372810812828 -0.26467991258782791 0 0.1206729215231577 -0.25104549537699072 0 0.1117559526484331 -0.25359833749706578 0 0.1216372810812828 -0.26467991258782791 0 0.1206729215231577 -0.25104549537699072 0 0.1051414905386433 -0.26689084851222727 0 0.1216372810812828 -0.26467991258782791 0 0.1140380253797153 -0.27119015611926328 0 0.10453942408073109 -0.27391209503137481 0 0.1204331481654583 -0.27872240562612333 0 0.1051414905386433 -0.26689084851222727 0 0.1216372810812828 -0.26467991258782791 0 0.10453942408073109 -0.27391209503137481 0 0.1204331481654583 -0.27872240562612333 0 0.10928660911055189 -0.28517315011550431 0 0.10453942408073109 -0.27391209503137481 0 0.1140380253797153 -0.27119015611926328 0 0.1204331481654583 -0.27872240562612333 0 0.1216372810812828 -0.26467991258782791 0 0.1140380253797153 -0.27119015611926328 0 0.1204331481654583 -0.27872240562612333 0 0.12979379718899109 -0.27291628726155981 0 0.1216372810812828 -0.26467991258782791 0 0.1204331481654583 -0.27872240562612333 0 0.1204331481654583 -0.27872240562612333 0 0.10928660911055189 -0.28517315011550431 0 0.1212610507090081 -0.29848308536145329 0 0.13263554959180521 -0.28452374394732821 0 0.1204331481654583 -0.27872240562612333 0 0.1212610507090081 -0.29848308536145329 0 0.09654617820813291 -0.29053959721845851 0 0.1021459735517211 -0.30056228767489129 0 0.1212610507090081 -0.29848308536145329 0 0.10928660911055189 -0.28517315011550431 0 0.09654617820813291 -0.29053959721845851 0 0.10153096897268141 -0.28231959738687751 0 0.10928660911055189 -0.28517315011550431 0 0.09654617820813291 -0.29053959721845851 0 0.1212610507090081 -0.29848308536145329 0 0.09654617820813291 -0.29053959721845851 0 0.1212610507090081 -0.29848308536145329 0 0.089840334351325171 -0.29776256249865768 0 0.09654617820813291 -0.29053959721845851 0 0.1021459735517211 -0.30056228767489129 0 0.095751664491309882 -0.27965354718217272 0 0.09654617820813291 -0.29053959721845851 0 0.10153096897268141 -0.28231959738687751 0 0.089840334351325171 -0.29776256249865768 0 0.095184632239271566 -0.3075842632325006 0 0.1021459735517211 -0.30056228767489129 0 0.095184632239271566 -0.3075842632325006 0 0.1078976722508676 -0.30844193006338633 0 0.105102824314358 -0.32062163960883172 0 0.095184632239271566 -0.3075842632325006 0 0.1021459735517211 -0.30056228767489129 0 0.1078976722508676 -0.30844193006338633 0 0.1021459735517211 -0.30056228767489129 0 0.1078976722508676 -0.30844193006338633 0 0.1212610507090081 -0.29848308536145329 0 0.1078976722508676 -0.30844193006338633 0 0.1212610507090081 -0.29848308536145329 0 0.1195923907648492 -0.31578461612278819 0 0.12667610778984401 -0.3394979018465194 0 0.1195923907648492 -0.31578461612278819 0 0.105102824314358 -0.32062163960883172 0 0.1078976722508676 -0.30844193006338633 0 0.1195923907648492 -0.31578461612278819 0 0.105102824314358 -0.32062163960883172 0 0.12667610778984401 -0.3394979018465194 0 0.105102824314358 -0.32062163960883172 0 0.098421469616832888 -0.34666281674144928 0 0.105102824314358 -0.32062163960883172 0 0.098421469616832888 -0.34666281674144928 0 0.093037382909055277 -0.32931132509891309 0 0.105102824314358 -0.32062163960883172 0 0.086057060340490987 -0.31481853711975272 0 0.093037382909055277 -0.32931132509891309 0 0.095184632239271566 -0.3075842632325006 0 0.105102824314358 -0.32062163960883172 0 0.086057060340490987 -0.31481853711975272 0 0.12667610778984401 -0.3394979018465194 0 0.11632791681951959 -0.36711727995928811 0 0.12667610778984401 -0.3394979018465194 0 0.11632791681951959 -0.36711727995928811 0 0.098421469616832888 -0.34666281674144928 0 0.091608639279214671 -0.37560527361487922 0 0.11632791681951959 -0.36711727995928811 0 0.098421469616832888 -0.34666281674144928 0 0.091608639279214671 -0.37560527361487922 0 0.066324698568829832 -0.3822035196787969 0 0.076577456985558096 -0.35799251544438349 0 0.091608639279214671 -0.37560527361487922 0 0.098421469616832888 -0.34666281674144928 0 0.076577456985558096 -0.35799251544438349 0 0.098421469616832888 -0.34666281674144928 0 0.076577456985558096 -0.35799251544438349 0 0.078680018747287098 -0.33330134172473669 0 0.076577456985558096 -0.35799251544438349 0 0.078680018747287098 -0.33330134172473669 0 0.062679519953781446 -0.34170063728850769 0 0.076577456985558096 -0.35799251544438349 0 0.062679519953781446 -0.34170063728850769 0 0.050958685135782118 -0.35966005255027622 0 0.066324698568829832 -0.3822035196787969 0 0.076577456985558096 -0.35799251544438349 0 0.050958685135782118 -0.35966005255027622 0 0.086057060340490987 -0.31481853711975272 0 0.078680018747287098 -0.33330134172473669 0 0.072761420371114591 -0.31792361383037038 0 0.086057060340490987 -0.31481853711975272 0 0.093037382909055277 -0.32931132509891309 0 0.078680018747287098 -0.33330134172473669 0 0.098421469616832888 -0.34666281674144928 0 0.093037382909055277 -0.32931132509891309 0 0.078680018747287098 -0.33330134172473669 0 0.078680018747287098 -0.33330134172473669 0 0.062679519953781446 -0.34170063728850769 0 0.061225821054176441 -0.32469994654978018 0 0.078680018747287098 -0.33330134172473669 0 0.072761420371114591 -0.31792361383037038 0 0.061225821054176441 -0.32469994654978018 0 0.072955918559156577 -0.30620793927650741 0 0.086057060340490987 -0.31481853711975272 0 0.072761420371114591 -0.31792361383037038 0 0.072761420371114591 -0.31792361383037038 0 0.061225821054176441 -0.32469994654978018 0 0.059597386015003202 -0.30931944116854748 0 0.061225821054176441 -0.32469994654978018 0 0.046556241257517082 -0.33325695941685851 0 0.044096494921116773 -0.31684450805357189 0 0.061225821054176441 -0.32469994654978018 0 0.044096494921116773 -0.31684450805357189 0 0.059597386015003202 -0.30931944116854748 0 0.062679519953781446 -0.34170063728850769 0 0.061225821054176441 -0.32469994654978018 0 0.046556241257517082 -0.33325695941685851 0 0.046556241257517082 -0.33325695941685851 0 0.03202037601852379 -0.34499454068613072 0 0.030065366586288871 -0.32422798920023999 0 0.044096494921116773 -0.31684450805357189 0 0.030065366586288871 -0.32422798920023999 0 0.029838355233514351 -0.30786305752068821 0 0.046556241257517082 -0.33325695941685851 0 0.044096494921116773 -0.31684450805357189 0 0.030065366586288871 -0.32422798920023999 0 0.066324698568829832 -0.3822035196787969 0 0.049055839900257463 -0.37746566703989048 0 0.050958685135782118 -0.35966005255027622 0 0.062679519953781446 -0.34170063728850769 0 0.046556241257517082 -0.33325695941685851 0 0.050958685135782118 -0.35966005255027622 0 0.046556241257517082 -0.33325695941685851 0 0.050958685135782118 -0.35966005255027622 0 0.03202037601852379 -0.34499454068613072 0 0.050958685135782118 -0.35966005255027622 0 0.03202037601852379 -0.34499454068613072 0 0.02701309957473691 -0.36025324032458239 0 0.050958685135782118 -0.35966005255027622 0 0.03202037601852379 -0.34499454068613072 0 0.049055839900257463 -0.37746566703989048 0 0.050958685135782118 -0.35966005255027622 0 0.033600004962601571 -0.37475637910123588 0 0.050958685135782118 -0.35966005255027622 0 0.033600004962601571 -0.37475637910123588 0 0.02701309957473691 -0.36025324032458239 0 0.019944095431654991 -0.37260160596898828 0 0.02701309957473691 -0.36025324032458239 0 0.010528259395883579 -0.36261323690550418 0 0.033600004962601571 -0.37475637910123588 0 0.019944095431654991 -0.37260160596898828 0 0.02701309957473691 -0.36025324032458239 0 0.02701309957473691 -0.36025324032458239 0 0.01502717650397546 -0.34689362673535912 0 0.010528259395883579 -0.36261323690550418 0 0.03202037601852379 -0.34499454068613072 0 0.02701309957473691 -0.36025324032458239 0 0.01502717650397546 -0.34689362673535912 0 -0.0054738040968354334 -0.33820831142802682 0 0.010528259395883579 -0.36261323690550418 0 -0.0054738040968354334 -0.33820831142802682 0 0.00070469466344070218 -0.35366527386759589 0 0.010528259395883579 -0.36261323690550418 0 -0.0054738040968354334 -0.33820831142802682 0 0.01502717650397546 -0.34689362673535912 0 0.010528259395883579 -0.36261323690550418 0 0.0089110281326635777 -0.37995103884739662 0 0.00070469466344070218 -0.35366527386759589 0 -0.00024599811553788209 -0.37123979155157932 0 0.0089110281326635777 -0.37995103884739662 0 0.00070469466344070218 -0.35366527386759589 0 0.0089110281326635777 -0.37995103884739662 0 0.00070469466344070218 -0.35366527386759589 0 0.010528259395883579 -0.36261323690550418 0 0.0089110281326635777 -0.37995103884739662 0 0.019944095431654991 -0.37260160596898828 0 0.010528259395883579 -0.36261323690550418 0 0.030065366586288871 -0.32422798920023999 0 0.01556803846613254 -0.31229977466713921 0 0.029838355233514351 -0.30786305752068821 0 0.030065366586288871 -0.32422798920023999 0 0.01308206690126551 -0.33032902882198523 0 0.01556803846613254 -0.31229977466713921 0 0.03202037601852379 -0.34499454068613072 0 0.01502717650397546 -0.34689362673535912 0 0.01308206690126551 -0.33032902882198523 0 0.03202037601852379 -0.34499454068613072 0 0.030065366586288871 -0.32422798920023999 0 0.01308206690126551 -0.33032902882198523 0 0.03202037601852379 -0.34499454068613072 0 0.01308206690126551 -0.33032902882198523 0 -0.0054738040968354334 -0.33820831142802682 0 0.01502717650397546 -0.34689362673535912 0 0.01308206690126551 -0.33032902882198523 0 -0.0058562422159927369 -0.31566351695783967 0 0.01308206690126551 -0.33032902882198523 0 -0.0058562422159927369 -0.31566351695783967 0 -0.0054738040968354334 -0.33820831142802682 0 0.01308206690126551 -0.33032902882198523 0 -0.0058562422159927369 -0.31566351695783967 0 0.01308206690126551 -0.33032902882198523 0 0.01556803846613254 -0.31229977466713921 0 -0.001672395886785232 -0.28903979919491629 0 0.01556803846613254 -0.31229977466713921 0 0.0187416931647349 -0.2974915725875335 0 -0.001672395886785232 -0.28903979919491629 0 0.01556803846613254 -0.31229977466713921 0 -0.0099433396684511944 -0.30138064144538018 0 -0.001672395886785232 -0.28903979919491629 0 0.01556803846613254 -0.31229977466713921 0 -0.001672395886785232 -0.28903979919491629 0 0.017789716485280681 -0.28406018111269032 0 0.0080328050355413533 -0.27844408171548718 0 -0.001672395886785232 -0.28903979919491629 0 0.017789716485280681 -0.28406018111269032 0 0.0187416931647349 -0.2974915725875335 0 0.017789716485280681 -0.28406018111269032 0 0.0187416931647349 -0.2974915725875335 0 0.032954124805868949 -0.29441498440716712 0 0.017789716485280681 -0.28406018111269032 0 0.032954124805868949 -0.29441498440716712 0 0.029015201977494409 -0.28045600562234851 0 0.01556803846613254 -0.31229977466713921 0 0.0187416931647349 -0.2974915725875335 0 0.029838355233514351 -0.30786305752068821 0 0.0187416931647349 -0.2974915725875335 0 0.029838355233514351 -0.30786305752068821 0 0.032954124805868949 -0.29441498440716712 0 0.044096494921116773 -0.31684450805357189 0 0.029838355233514351 -0.30786305752068821 0 0.043881274033922217 -0.30246798515792161 0 0.029838355233514351 -0.30786305752068821 0 0.043881274033922217 -0.30246798515792161 0 0.032954124805868949 -0.29441498440716712 0 0.032954124805868949 -0.29441498440716712 0 0.045643463001704673 -0.28854348313968142 0 0.035891443315276113 -0.27617245382703381 0 0.032954124805868949 -0.29441498440716712 0 0.035891443315276113 -0.27617245382703381 0 0.029015201977494409 -0.28045600562234851 0 0.032954124805868949 -0.29441498440716712 0 0.035891443315276113 -0.27617245382703381 0 0.043881274033922217 -0.30246798515792161 0 0.032954124805868949 -0.29441498440716712 0 0.045643463001704673 -0.28854348313968142 0 0.070199909016827086 -0.28598452716220202 0 0.056833253271372883 -0.28715423792635097 0 0.050559483682329258 -0.27420649182574558 0 0.045643463001704673 -0.28854348313968142 0 0.056833253271372883 -0.28715423792635097 0 0.055586469383697087 -0.29614639500529572 0 0.043881274033922217 -0.30246798515792161 0 0.045643463001704673 -0.28854348313968142 0 0.055586469383697087 -0.29614639500529572 0 0.045643463001704673 -0.28854348313968142 0 0.056833253271372883 -0.28715423792635097 0 0.050559483682329258 -0.27420649182574558 0 0.064603240330643061 -0.29295397044308619 0 0.056833253271372883 -0.28715423792635097 0 0.055586469383697087 -0.29614639500529572 0 0.06529010433671549 -0.30022868522527602 0 0.064603240330643061 -0.29295397044308619 0 0.055586469383697087 -0.29614639500529572 0 0.043881274033922217 -0.30246798515792161 0 0.055586469383697087 -0.29614639500529572 0 0.059597386015003202 -0.30931944116854748 0 0.06529010433671549 -0.30022868522527602 0 0.055586469383697087 -0.29614639500529572 0 0.059597386015003202 -0.30931944116854748 0 0.044096494921116773 -0.31684450805357189 0 0.043881274033922217 -0.30246798515792161 0 0.059597386015003202 -0.30931944116854748 0 0.064037040012199689 -0.26165385736732433 0 0.03942838002839609 -0.25420593029802058 0 0.056063541621038521 -0.24362041398438261 0 0.064037040012199689 -0.26165385736732433 0 0.050559483682329258 -0.27420649182574558 0 0.03942838002839609 -0.25420593029802058 0 0.064037040012199689 -0.26165385736732433 0 0.03942838002839609 -0.25420593029802058 0 0.06960259183916645 -0.27165413813118577 0 0.050559483682329258 -0.27420649182574558 0 0.06960259183916645 -0.27165413813118577 0 0.064037040012199689 -0.26165385736732433 0 0.050559483682329258 -0.27420649182574558 0 0.070199909016827086 -0.28598452716220202 0 0.050559483682329258 -0.27420649182574558 0 0.050559483682329258 -0.27420649182574558 0 0.035891443315276113 -0.27617245382703381 0 0.037471719738319739 -0.26635797818195228 0 0.050559483682329258 -0.27420649182574558 0 0.037471719738319739 -0.26635797818195228 0 0.050559483682329258 -0.27420649182574558 0 0.035891443315276113 -0.27617245382703381 0 0.045643463001704673 -0.28854348313968142 0 0.050559483682329258 -0.27420649182574558 0 0.035891443315276113 -0.27617245382703381 0 0.035891443315276113 -0.27617245382703381 0 0.033620783312707882 -0.27647679109167139 0 0.03222858804504232 -0.27221398725061979 0 0.033620783312707882 -0.27647679109167139 0 0.03222858804504232 -0.27221398725061979 0 0.0284641509034863 -0.27439449834855578 0 0.035891443315276113 -0.27617245382703381 0 0.033620783312707882 -0.27647679109167139 0 0.035891443315276113 -0.27617245382703381 0 0.033620783312707882 -0.27647679109167139 0 0.029015201977494409 -0.28045600562234851 0 0.037471719738319739 -0.26635797818195228 0 0.03222858804504232 -0.27221398725061979 0 0.025694842955422681 -0.26766821480388592 0 0.035891443315276113 -0.27617245382703381 0 0.037471719738319739 -0.26635797818195228 0 0.035891443315276113 -0.27617245382703381 0 0.037471719738319739 -0.26635797818195228 0 0.03222858804504232 -0.27221398725061979 0 0.050559483682329258 -0.27420649182574558 0 0.037471719738319739 -0.26635797818195228 0 0.03942838002839609 -0.25420593029802058 0 0.037471719738319739 -0.26635797818195228 0 0.03942838002839609 -0.25420593029802058 0 0.037471719738319739 -0.26635797818195228 0 0.03942838002839609 -0.25420593029802058 0 0.021303747614659391 -0.25666231509176302 0 0.037471719738319739 -0.26635797818195228 0 0.021303747614659391 -0.25666231509176302 0 0.037471719738319739 -0.26635797818195228 0 0.021303747614659391 -0.25666231509176302 0 0.025694842955422681 -0.26766821480388592 0 0.03942838002839609 -0.25420593029802058 0 0.01823264062606501 -0.24779093974785071 0 0.03942838002839609 -0.25420593029802058 0 0.021303747614659391 -0.25666231509176302 0 0.01823264062606501 -0.24779093974785071 0 0.01815528751655613 -0.26386868131177849 0 0.021303747614659391 -0.25666231509176302 0 0.025694842955422681 -0.26766821480388592 0 0.01815528751655613 -0.26386868131177849 0 0.021303747614659391 -0.25666231509176302 0 0.0097192396090850786 -0.25993642970176212 0 0.033620783312707882 -0.27647679109167139 0 0.029015201977494409 -0.28045600562234851 0 0.0284641509034863 -0.27439449834855578 0 0.029015201977494409 -0.28045600562234851 0 0.0284641509034863 -0.27439449834855578 0 0.023135119102871159 -0.27542187922420158 0 0.0284641509034863 -0.27439449834855578 0 0.025694842955422681 -0.26766821480388592 0 0.023135119102871159 -0.27542187922420158 0 0.03222858804504232 -0.27221398725061979 0 0.0284641509034863 -0.27439449834855578 0 0.025694842955422681 -0.26766821480388592 0 0.01815528751655613 -0.26386868131177849 0 0.025694842955422681 -0.26766821480388592 0 0.014748867143384669 -0.2709824177262572 0 0.025694842955422681 -0.26766821480388592 0 0.023135119102871159 -0.27542187922420158 0 0.014748867143384669 -0.2709824177262572 0 0.017789716485280681 -0.28406018111269032 0 0.029015201977494409 -0.28045600562234851 0 0.023135119102871159 -0.27542187922420158 0 0.017789716485280681 -0.28406018111269032 0 0.023135119102871159 -0.27542187922420158 0 0.014748867143384669 -0.2709824177262572 0 -0.001672395886785232 -0.28903979919491629 0 0.0080328050355413533 -0.27844408171548718 0 0.0012650324002853009 -0.26969392882808513 0 0.017789716485280681 -0.28406018111269032 0 0.0080328050355413533 -0.27844408171548718 0 0.014748867143384669 -0.2709824177262572 0 0.0080328050355413533 -0.27844408171548718 0 0.014748867143384669 -0.2709824177262572 0 0.0012650324002853009 -0.26969392882808513 0 0.014748867143384669 -0.2709824177262572 0 0.0012650324002853009 -0.26969392882808513 0 0.0097192396090850786 -0.25993642970176212 0 0.021303747614659391 -0.25666231509176302 0 0.0097192396090850786 -0.25993642970176212 0 0.0051357754909989034 -0.24696665200157411 0 0.021303747614659391 -0.25666231509176302 0 0.0051357754909989034 -0.24696665200157411 0 0.01823264062606501 -0.24779093974785071 0 0.021303747614659391 -0.25666231509176302 0 0.0051357754909989034 -0.24696665200157411 0 0.01815528751655613 -0.26386868131177849 0 0.014748867143384669 -0.2709824177262572 0 0.0097192396090850786 -0.25993642970176212 0 -0.0037676009972298589 -0.25546460003562632 0 0.0012650324002853009 -0.26969392882808513 0 0.0097192396090850786 -0.25993642970176212 0 -0.0037676009972298589 -0.25546460003562632 0 0.0097192396090850786 -0.25993642970176212 0 0.0051357754909989034 -0.24696665200157411 0 -0.0029630987762654971 -0.24137594919767921 0 0.0086927904450992896 -0.23909920926165609 0 0.01823264062606501 -0.24779093974785071 0 -0.0029630987762654971 -0.24137594919767921 0 0.0051357754909989034 -0.24696665200157411 0 0.01823264062606501 -0.24779093974785071 0 -0.0029630987762654971 -0.24137594919767921 0 0.01823264062606501 -0.24779093974785071 0 0.0086927904450992896 -0.23909920926165609 0 0.015380730248236191 -0.23665891212818169 0 0.01823264062606501 -0.24779093974785071 0 0.0086927904450992896 -0.23909920926165609 0 0.015380730248236191 -0.23665891212818169 0 0.0041208896823614616 -0.23057103597291281 0 -0.0029630987762654971 -0.24137594919767921 0 0.0086927904450992896 -0.23909920926165609 0 0.0041208896823614616 -0.23057103597291281 0 0.0041208896823614616 -0.23057103597291281 0 0.02225376786309027 -0.2262352559955724 0 0.0099342152993651192 -0.2106144727812147 0 0.015380730248236191 -0.23665891212818169 0 0.0041208896823614616 -0.23057103597291281 0 0.02225376786309027 -0.2262352559955724 0 0.02225376786309027 -0.2262352559955724 0 0.02695960938375307 -0.20353573601804381 0 0.043591848936401063 -0.22834826160105501 0 0.03942838002839609 -0.25420593029802058 0 0.030223279440906511 -0.24041302833337699 0 0.01823264062606501 -0.24779093974785071 0 0.015380730248236191 -0.23665891212818169 0 0.02225376786309027 -0.2262352559955724 0 0.030223279440906511 -0.24041302833337699 0 0.015380730248236191 -0.23665891212818169 0 0.030223279440906511 -0.24041302833337699 0 0.01823264062606501 -0.24779093974785071 0 -0.01070764475568931 -0.18871689110466081 0 0.0093347905219219006 -0.19230756749936781 0 0.0099342152993651192 -0.2106144727812147 0 0.0093347905219219006 -0.19230756749936781 0 0.0099342152993651192 -0.2106144727812147 0 0.02695960938375307 -0.20353573601804381 0 0.02225376786309027 -0.2262352559955724 0 0.0099342152993651192 -0.2106144727812147 0 0.02695960938375307 -0.20353573601804381 0 0.02695960938375307 -0.20353573601804381 0 0.038777565067345407 -0.18098195034956371 0 0.018578459390080931 -0.18178806989193799 0 0.0093347905219219006 -0.19230756749936781 0 0.02695960938375307 -0.20353573601804381 0 0.018578459390080931 -0.18178806989193799 0 0.047755317844405849 -0.20249059290408911 0 0.068618739516871932 -0.2102280532928715 0 0.061555995479001341 -0.17437673818576269 0 0.02695960938375307 -0.20353573601804381 0 0.047755317844405849 -0.20249059290408911 0 0.038777565067345407 -0.18098195034956371 0 0.047755317844405849 -0.20249059290408911 0 0.043591848936401063 -0.22834826160105501 0 0.02695960938375307 -0.20353573601804381 0 0.047755317844405849 -0.20249059290408911 0 0.043591848936401063 -0.22834826160105501 0 0.047755317844405849 -0.20249059290408911 0 0.043591848936401063 -0.22834826160105501 0 0.068618739516871932 -0.2102280532928715 0 0.03942838002839609 -0.25420593029802058 0 0.030223279440906511 -0.24041302833337699 0 0.043591848936401063 -0.22834826160105501 0 0.03942838002839609 -0.25420593029802058 0 0.043591848936401063 -0.22834826160105501 0 0.056063541621038521 -0.24362041398438261 0 0.03942838002839609 -0.25420593029802058 0 0.043591848936401063 -0.22834826160105501 0 0.02225376786309027 -0.2262352559955724 0 0.030223279440906511 -0.24041302833337699 0 0.043591848936401063 -0.22834826160105501 0 0.043591848936401063 -0.22834826160105501 0 0.070966164052119501 -0.23064929325455641 0 0.068618739516871932 -0.2102280532928715 0 0.043591848936401063 -0.22834826160105501 0 0.056063541621038521 -0.24362041398438261 0 0.070966164052119501 -0.23064929325455641 0 0.056063541621038521 -0.24362041398438261 0 0.077056326583040818 -0.24878137367569911 0 0.070966164052119501 -0.23064929325455641 0 0.077056326583040818 -0.24878137367569911 0 0.092878267428806144 -0.23447722117737271 0 0.070966164052119501 -0.23064929325455641 0 0.092927874553834333 -0.25142727875471849 0 0.077056326583040818 -0.24878137367569911 0 0.092878267428806144 -0.23447722117737271 0 0.092878267428806144 -0.23447722117737271 0 0.070966164052119501 -0.23064929325455641 0 0.08485130473026091 -0.21654968888599491 0 0.092878267428806144 -0.23447722117737271 0 0.08485130473026091 -0.21654968888599491 0 0.1032890171293407 -0.2111733987309988 0 0.070966164052119501 -0.23064929325455641 0 0.068618739516871932 -0.2102280532928715 0 0.08485130473026091 -0.21654968888599491 0 0.068618739516871932 -0.2102280532928715 0 0.082422506304171056 -0.19277506845838069 0 0.061555995479001341 -0.17437673818576269 0 0.082422506304171056 -0.19277506845838069 0 0.1032890171293407 -0.2111733987309988 0 0.082422506304171056 -0.19277506845838069 0 0.08485130473026091 -0.21654968888599491 0 0.1032890171293407 -0.2111733987309988 0 0.068618739516871932 -0.2102280532928715 0 0.082422506304171056 -0.19277506845838069 0 0.08485130473026091 -0.21654968888599491 0 0.082422506304171056 -0.19277506845838069 0 0.1032890171293407 -0.2111733987309988 0 0.11336324313313791 -0.1929243194269652 0 0.11336324313313791 -0.1929243194269652 0 0.12075699680342419 -0.2125329804658119 0 0.13186209510086119 -0.2025322016544257 0 0.1032890171293407 -0.2111733987309988 0 0.12075699680342419 -0.2125329804658119 0 0.12415552795451019 -0.22957172900361711 0 0.1032890171293407 -0.2111733987309988 0 0.11336324313313791 -0.1929243194269652 0 0.12075699680342419 -0.2125329804658119 0 0.1032890171293407 -0.2111733987309988 0 0.12415552795451019 -0.22957172900361711 0 0.1089901383417238 -0.2384281316975744 0 0.1032890171293407 -0.2111733987309988 0 0.12415552795451019 -0.22957172900361711 0 0.12415552795451019 -0.22957172900361711 0 0.1089901383417238 -0.2384281316975744 0 0.12415552795451019 -0.22957172900361711 0 0.1217885987790958 -0.24142154113282069 0 0.1089901383417238 -0.2384281316975744 0 0.1206729215231577 -0.25104549537699072 0 0.1217885987790958 -0.24142154113282069 0 0.1138730097407424 -0.2461866768253986 0 0.1206729215231577 -0.25104549537699072 0 0.1217885987790958 -0.24142154113282069 0 0.1285193151480771 -0.24469918824912659 0 0.1117559526484331 -0.25359833749706578 0 0.1138730097407424 -0.2461866768253986 0 0.1039377824829307 -0.2473607053338055 0 0.1217885987790958 -0.24142154113282069 0 0.1138730097407424 -0.2461866768253986 0 0.1089901383417238 -0.2384281316975744 0 0.092878267428806144 -0.23447722117737271 0 0.1089901383417238 -0.2384281316975744 0 0.1039377824829307 -0.2473607053338055 0 0.092927874553834333 -0.25142727875471849 0 0.092878267428806144 -0.23447722117737271 0 0.1039377824829307 -0.2473607053338055 0 0.1138730097407424 -0.2461866768253986 0 0.1089901383417238 -0.2384281316975744 0 0.1039377824829307 -0.2473607053338055 0 0.092878267428806144 -0.23447722117737271 0 0.1032890171293407 -0.2111733987309988 0 0.1089901383417238 -0.2384281316975744 0 0.1109844071791186 -0.14451373860099631 0 0.1140981411329401 -0.160318739719921 0 0.089530624012526178 -0.15260657733446251 0 0.1109844071791186 -0.14451373860099631 0 0.089530624012526178 -0.15260657733446251 0 0.091420662539376696 -0.1284368183015972 0 0.1109844071791186 -0.14451373860099631 0 0.089530624012526178 -0.15260657733446251 0 0.1109844071791186 -0.14451373860099631 0 0.091420662539376696 -0.1284368183015972 0 0.11341959945555349 -0.1198679163152221 0 0.1109844071791186 -0.14451373860099631 0 0.11341959945555349 -0.1198679163152221 0 0.13243819034571089 -0.13642089986752959 0 0.1109844071791186 -0.14451373860099631 0 0.13243819034571089 -0.13642089986752959 0 0.1109844071791186 -0.14451373860099631 0 0.1230623871309196 -0.14895335695444839 0 0.13243819034571089 -0.13642089986752959 0 0.1109844071791186 -0.14451373860099631 0 0.1230623871309196 -0.14895335695444839 0 0.1140981411329401 -0.160318739719921 0 0.1230623871309196 -0.14895335695444839 0 0.1140981411329401 -0.160318739719921 0 0.12887174430618481 -0.1592005579403753 0 0.1140981411329401 -0.160318739719921 0 0.13036691970352299 -0.18086637979740061 0 0.12887174430618481 -0.1592005579403753 0 0.11336324313313791 -0.1929243194269652 0 0.1017727644653684 -0.17577182769184299 0 0.13036691970352299 -0.18086637979740061 0 0.1140981411329401 -0.160318739719921 0 0.1017727644653684 -0.17577182769184299 0 0.13036691970352299 -0.18086637979740061 0 0.082422506304171056 -0.19277506845838069 0 0.11336324313313791 -0.1929243194269652 0 0.1017727644653684 -0.17577182769184299 0 0.1140981411329401 -0.160318739719921 0 0.1017727644653684 -0.17577182769184299 0 0.089530624012526178 -0.15260657733446251 0 0.080671746221400151 -0.17124592554767551 0 0.068076840845933725 -0.16069941606792859 0 0.089530624012526178 -0.15260657733446251 0 0.068076840845933725 -0.16069941606792859 0 0.089530624012526178 -0.15260657733446251 0 0.1017727644653684 -0.17577182769184299 0 0.080671746221400151 -0.17124592554767551 0 0.089530624012526178 -0.15260657733446251 0 0.082422506304171056 -0.19277506845838069 0 0.1017727644653684 -0.17577182769184299 0 0.080671746221400151 -0.17124592554767551 0 0.082422506304171056 -0.19277506845838069 0 0.080671746221400151 -0.17124592554767551 0 0.061555995479001341 -0.17437673818576269 0 0.082422506304171056 -0.19277506845838069 0 0.061555995479001341 -0.17437673818576269 0 0.080671746221400151 -0.17124592554767551 0 0.068076840845933725 -0.16069941606792859 0 0.061555995479001341 -0.17437673818576269 0 0.068076840845933725 -0.16069941606792859 0 0.089530624012526178 -0.15260657733446251 0 0.071295635117029618 -0.1367493390311714 0 0.068076840845933725 -0.16069941606792859 0 0.071295635117029618 -0.1367493390311714 0 0.056463195311278143 -0.14361371547042431 0 0.089530624012526178 -0.15260657733446251 0 0.091420662539376696 -0.1284368183015972 0 0.071295635117029618 -0.1367493390311714 0 0.091420662539376696 -0.1284368183015972 0 0.071295635117029618 -0.1367493390311714 0 0.069694843366783332 -0.1126370124657279 0 0.040689484653831647 -0.1559784079131446 0 0.01982297382866199 -0.13758007764052649 0 0.045790820628317561 -0.1210276988694528 0 0.056463195311278143 -0.14361371547042431 0 0.040689484653831647 -0.1559784079131446 0 0.045790820628317561 -0.1210276988694528 0 0.071295635117029618 -0.1367493390311714 0 0.056463195311278143 -0.14361371547042431 0 0.045790820628317561 -0.1210276988694528 0 0.068076840845933725 -0.16069941606792859 0 0.056463195311278143 -0.14361371547042431 0 0.040689484653831647 -0.1559784079131446 0 0.047755317844405849 -0.20249059290408911 0 0.061555995479001341 -0.17437673818576269 0 0.038777565067345407 -0.18098195034956371 0 0.040689484653831647 -0.1559784079131446 0 0.061555995479001341 -0.17437673818576269 0 0.038777565067345407 -0.18098195034956371 0 0.068076840845933725 -0.16069941606792859 0 0.040689484653831647 -0.1559784079131446 0 0.061555995479001341 -0.17437673818576269 0 0.040689484653831647 -0.1559784079131446 0 0.061555995479001341 -0.17437673818576269 0 0.040689484653831647 -0.1559784079131446 0 0.038777565067345407 -0.18098195034956371 0 0.017342825313188651 -0.16159566359566491 0 0.038777565067345407 -0.18098195034956371 0 0.018578459390080931 -0.18178806989193799 0 0.017342825313188651 -0.16159566359566491 0 -0.0024628466161756421 -0.1602726340402203 0 0.017342825313188651 -0.16159566359566491 0 0.0028716684178432539 -0.176104986180316 0 -0.01070764475568931 -0.18871689110466081 0 0.0093347905219219006 -0.19230756749936781 0 0.0028716684178432539 -0.176104986180316 0 0.018578459390080931 -0.18178806989193799 0 0.017342825313188651 -0.16159566359566491 0 0.0028716684178432539 -0.176104986180316 0 0.0093347905219219006 -0.19230756749936781 0 0.018578459390080931 -0.18178806989193799 0 0.0028716684178432539 -0.176104986180316 0 0.040689484653831647 -0.1559784079131446 0 0.017342825313188651 -0.16159566359566491 0 0.01982297382866199 -0.13758007764052649 0 0.040689484653831647 -0.1559784079131446 0 0.01982297382866199 -0.13758007764052649 0 -0.0035679149115061628 -0.14124214058008361 0 -0.0024628466161756421 -0.1602726340402203 0 0.017342825313188651 -0.16159566359566491 0 -0.0035679149115061628 -0.14124214058008361 0 0.017342825313188651 -0.16159566359566491 0 0.01982297382866199 -0.13758007764052649 0 -0.001043536996507721 -0.1191817473679085 0 0.01982297382866199 -0.13758007764052649 0 0.015686923743491881 -0.1206111404556811 0 -0.001043536996507721 -0.1191817473679085 0 -0.0035679149115061628 -0.14124214058008361 0 0.01982297382866199 -0.13758007764052649 0 -0.001043536996507721 -0.1191817473679085 0 0.01982297382866199 -0.13758007764052649 0 -0.001043536996507721 -0.1191817473679085 0 0.0046327842355795186 -0.1097690924407289 0 0.015686923743491881 -0.1206111404556811 0 0.0046327842355795186 -0.1097690924407289 0 0.015686923743491881 -0.1206111404556811 0 0.01492788339026305 -0.1050887188810003 0 0.01982297382866199 -0.13758007764052649 0 0.015686923743491881 -0.1206111404556811 0 0.029736165386098318 -0.11283289575548119 0 0.015686923743491881 -0.1206111404556811 0 0.029736165386098318 -0.11283289575548119 0 0.01492788339026305 -0.1050887188810003 0 0.025213303022391331 -0.099743927573230876 0 0.01492788339026305 -0.1050887188810003 0 0.016804065840755378 -0.08827403666453143 0 0.029736165386098318 -0.11283289575548119 0 0.025213303022391331 -0.099743927573230876 0 0.01492788339026305 -0.1050887188810003 0 0.01492788339026305 -0.1050887188810003 0 0.0013244843624020371 -0.094741037539600739 0 0.016804065840755378 -0.08827403666453143 0 0.0046327842355795186 -0.1097690924407289 0 0.01492788339026305 -0.1050887188810003 0 0.0013244843624020371 -0.094741037539600739 0 0.0013244843624020371 -0.094741037539600739 0 0.0030420178430166892 -0.078936690626402614 0 0.016804065840755378 -0.08827403666453143 0 0.0030420178430166892 -0.078936690626402614 0 0.0146637776422533 -0.072896953850064866 0 0.016804065840755378 -0.08827403666453143 0 0.0030420178430166892 -0.078936690626402614 0 0.0146637776422533 -0.072896953850064866 0 0.002171372446112714 -0.058618858002487888 0 0.0146637776422533 -0.072896953850064866 0 0.002171372446112714 -0.058618858002487888 0 0.01555452117937692 -0.059262408920646152 0 0.0146637776422533 -0.072896953850064866 0 0.023750759848435971 -0.066075036479633004 0 0.030707663688686038 -0.080061373599117747 0 0.0146637776422533 -0.072896953850064866 0 0.023750759848435971 -0.066075036479633004 0 0.01555452117937692 -0.059262408920646152 0 0.023750759848435971 -0.066075036479633004 0 0.030707663688686038 -0.080061373599117747 0 0.037495395218885237 -0.064812448276693232 0 0.025213303022391331 -0.099743927573230876 0 0.016804065840755378 -0.08827403666453143 0 0.030707663688686038 -0.080061373599117747 0 0.0146637776422533 -0.072896953850064866 0 0.016804065840755378 -0.08827403666453143 0 0.030707663688686038 -0.080061373599117747 0 0.025213303022391331 -0.099743927573230876 0 0.030707663688686038 -0.080061373599117747 0 0.039818674157096973 -0.097891350657800982 0 0.030707663688686038 -0.080061373599117747 0 0.047897886096722471 -0.076921575742445653 0 0.039818674157096973 -0.097891350657800982 0 0.037495395218885237 -0.064812448276693232 0 0.047897886096722471 -0.076921575742445653 0 0.052720605879770552 -0.06028916088505816 0 0.030707663688686038 -0.080061373599117747 0 0.037495395218885237 -0.064812448276693232 0 0.047897886096722471 -0.076921575742445653 0 0.047897886096722471 -0.076921575742445653 0 0.052720605879770552 -0.06028916088505816 0 0.063642447792521775 -0.069171224461213016 0 0.047897886096722471 -0.076921575742445653 0 0.062135481343351583 -0.088663829471390329 0 0.039818674157096973 -0.097891350657800982 0 0.047897886096722471 -0.076921575742445653 0 0.062135481343351583 -0.088663829471390329 0 0.063642447792521775 -0.069171224461213016 0 0.062135481343351583 -0.088663829471390329 0 0.054359954873887353 -0.105054972866093 0 0.039818674157096973 -0.097891350657800982 0 0.062135481343351583 -0.088663829471390329 0 0.054359954873887353 -0.105054972866093 0 0.069694843366783332 -0.1126370124657279 0 0.054359954873887353 -0.105054972866093 0 0.045790820628317561 -0.1210276988694528 0 0.069694843366783332 -0.1126370124657279 0 0.045790820628317561 -0.1210276988694528 0 0.069694843366783332 -0.1126370124657279 0 0.071295635117029618 -0.1367493390311714 0 0.045790820628317561 -0.1210276988694528 0 0.069694843366783332 -0.1126370124657279 0 0.01982297382866199 -0.13758007764052649 0 0.029736165386098318 -0.11283289575548119 0 0.045790820628317561 -0.1210276988694528 0 0.029736165386098318 -0.11283289575548119 0 0.045790820628317561 -0.1210276988694528 0 0.039818674157096973 -0.097891350657800982 0 0.054359954873887353 -0.105054972866093 0 0.045790820628317561 -0.1210276988694528 0 0.039818674157096973 -0.097891350657800982 0 0.029736165386098318 -0.11283289575548119 0 0.025213303022391331 -0.099743927573230876 0 0.039818674157096973 -0.097891350657800982 0 0.016380542671817849 -9.4010737341792714e-05 0 0.012275101599124399 -0.018275795654806051 0 0.031324439248817088 -0.0054374493414821234 0 0.0038335246810187419 0.0028210596814118639 0 0.016380542671817849 -9.4010737341792714e-05 0 0.012275101599124399 -0.018275795654806051 0 -0.015120462510579869 -0.0097122517518174346 0 0.0038335246810187419 0.0028210596814118639 0 0.012275101599124399 -0.018275795654806051 0 -0.0039213121239204214 -0.024019612186942811 0 0.012275101599124399 -0.018275795654806051 0 0.0064710913855901032 -0.02805553134041756 0 -0.0039213121239204214 -0.024019612186942811 0 -0.0015365045248385699 -0.037671365160683951 0 0.0064710913855901032 -0.02805553134041756 0 0.012275101599124399 -0.018275795654806051 0 0.0064710913855901032 -0.02805553134041756 0 0.019067080591995009 -0.032255352359237453 0 0.012275101599124399 -0.018275795654806051 0 0.039670665708829177 -0.026839339557793201 0 0.012275101599124399 -0.018275795654806051 0 0.019067080591995009 -0.032255352359237453 0 0.039670665708829177 -0.026839339557793201 0 0.012275101599124399 -0.018275795654806051 0 0.039670665708829177 -0.026839339557793201 0 0.031324439248817088 -0.0054374493414821234 0 0.019067080591995009 -0.032255352359237453 0 0.039670665708829177 -0.026839339557793201 0 0.019067080591995009 -0.032255352359237453 0 0.01359492694841675 -0.046625031095016388 0 0.032187500986261122 -0.040269964360212428 0 0.019067080591995009 -0.032255352359237453 0 0.032187500986261122 -0.040269964360212428 0 0.039670665708829177 -0.026839339557793201 0 -0.0015365045248385699 -0.037671365160683951 0 0.0064710913855901032 -0.02805553134041756 0 0.019067080591995009 -0.032255352359237453 0 -0.0015365045248385699 -0.037671365160683951 0 0.019067080591995009 -0.032255352359237453 0 -0.0015365045248385699 -0.037671365160683951 0 0.019067080591995009 -0.032255352359237453 0 0.01359492694841675 -0.046625031095016388 0 -0.0015365045248385699 -0.037671365160683951 0 0.01359492694841675 -0.046625031095016388 0 -0.0015365045248385699 -0.037671365160683951 0 0.01359492694841675 -0.046625031095016388 0 0.002171372446112714 -0.058618858002487888 0 0.01359492694841675 -0.046625031095016388 0 0.002171372446112714 -0.058618858002487888 0 0.01555452117937692 -0.059262408920646152 0 0.023750759848435971 -0.066075036479633004 0 0.01555452117937692 -0.059262408920646152 0 0.026827075383781849 -0.053845331550711431 0 0.01359492694841675 -0.046625031095016388 0 0.026827075383781849 -0.053845331550711431 0 0.032187500986261122 -0.040269964360212428 0 0.01359492694841675 -0.046625031095016388 0 0.01555452117937692 -0.059262408920646152 0 0.026827075383781849 -0.053845331550711431 0 0.023750759848435971 -0.066075036479633004 0 0.037495395218885237 -0.064812448276693232 0 0.026827075383781849 -0.053845331550711431 0 0.026827075383781849 -0.053845331550711431 0 0.043213769296177373 -0.050984479935178129 0 0.032187500986261122 -0.040269964360212428 0 0.037495395218885237 -0.064812448276693232 0 0.026827075383781849 -0.053845331550711431 0 0.043213769296177373 -0.050984479935178129 0 0.037495395218885237 -0.064812448276693232 0 0.043213769296177373 -0.050984479935178129 0 0.052720605879770552 -0.06028916088505816 0 0.052720605879770552 -0.06028916088505816 0 0.066458959598475642 -0.054293261998741273 0 0.063642447792521775 -0.069171224461213016 0 0.052720605879770552 -0.06028916088505816 0 0.057615177275840868 -0.045551974896077707 0 0.066458959598475642 -0.054293261998741273 0 0.043213769296177373 -0.050984479935178129 0 0.052720605879770552 -0.06028916088505816 0 0.057615177275840868 -0.045551974896077707 0 0.059877431769627058 -0.033155746389431008 0 0.046411183475584858 -0.039194496143551798 0 0.039670665708829177 -0.026839339557793201 0 0.057615177275840868 -0.045551974896077707 0 0.059877431769627058 -0.033155746389431008 0 0.046411183475584858 -0.039194496143551798 0 0.043213769296177373 -0.050984479935178129 0 0.057615177275840868 -0.045551974896077707 0 0.046411183475584858 -0.039194496143551798 0 0.046411183475584858 -0.039194496143551798 0 0.032187500986261122 -0.040269964360212428 0 0.039670665708829177 -0.026839339557793201 0 0.043213769296177373 -0.050984479935178129 0 0.046411183475584858 -0.039194496143551798 0 0.032187500986261122 -0.040269964360212428 0 0.039670665708829177 -0.026839339557793201 0 0.053599348116351128 -0.023177941708891609 0 0.044774687725317633 -0.011640521022762069 0 0.039670665708829177 -0.026839339557793201 0 0.053599348116351128 -0.023177941708891609 0 0.059877431769627058 -0.033155746389431008 0 0.039670665708829177 -0.026839339557793201 0 0.053599348116351128 -0.023177941708891609 0 0.053599348116351128 -0.023177941708891609 0 0.059532994407347432 -0.0083949225991459733 0 0.066053125471971008 -0.02454513494456597 0 0.059877431769627058 -0.033155746389431008 0 0.039670665708829177 -0.026839339557793201 0 0.059877431769627058 -0.033155746389431008 0 0.053599348116351128 -0.023177941708891609 0 0.066053125471971008 -0.02454513494456597 0 0.053599348116351128 -0.023177941708891609 0 0.059532994407347432 -0.0083949225991459733 0 0.044774687725317633 -0.011640521022762069 0 0.045938678210594802 0.01228610618558118 0 0.059532994407347432 -0.0083949225991459733 0 0.044774687725317633 -0.011640521022762069 0 0.039670665708829177 -0.026839339557793201 0 0.031324439248817088 -0.0054374493414821234 0 0.044774687725317633 -0.011640521022762069 0 0.045938678210594802 0.01228610618558118 0 0.031324439248817088 -0.0054374493414821234 0 0.044774687725317633 -0.011640521022762069 0 0.073788251262878413 0.0040560700056532298 0 0.092203167308598344 -0.01393686192881549 0 0.077171655236104059 -0.018524910804293949 0 0.073788251262878413 0.0040560700056532298 0 0.059532994407347432 -0.0083949225991459733 0 0.077171655236104059 -0.018524910804293949 0 0.077171655236104059 -0.018524910804293949 0 0.066053125471971008 -0.02454513494456597 0 0.080084197830425405 -0.039472153221067327 0 0.059532994407347432 -0.0083949225991459733 0 0.077171655236104059 -0.018524910804293949 0 0.066053125471971008 -0.02454513494456597 0 0.092203167308598344 -0.01393686192881549 0 0.077171655236104059 -0.018524910804293949 0 0.092249926358720563 -0.030082813944256138 0 0.077171655236104059 -0.018524910804293949 0 0.092249926358720563 -0.030082813944256138 0 0.080084197830425405 -0.039472153221067327 0 0.080084197830425405 -0.039472153221067327 0 0.1002909638912237 -0.045788560052703653 0 0.092249926358720563 -0.030082813944256138 0 0.080084197830425405 -0.039472153221067327 0 0.1002909638912237 -0.045788560052703653 0 0.059877431769627058 -0.033155746389431008 0 0.080084197830425405 -0.039472153221067327 0 0.057615177275840868 -0.045551974896077707 0 0.059877431769627058 -0.033155746389431008 0 0.080084197830425405 -0.039472153221067327 0 0.057615177275840868 -0.045551974896077707 0 0.080084197830425405 -0.039472153221067327 0 0.066458959598475642 -0.054293261998741273 0 0.059877431769627058 -0.033155746389431008 0 0.066053125471971008 -0.02454513494456597 0 0.080084197830425405 -0.039472153221067327 0 0.066458959598475642 -0.054293261998741273 0 0.080896170393100028 -0.057219950651484497 0 0.063642447792521775 -0.069171224461213016 0 0.080084197830425405 -0.039472153221067327 0 0.066458959598475642 -0.054293261998741273 0 0.080896170393100028 -0.057219950651484497 0 0.080896170393100028 -0.057219950651484497 0 0.1002909638912237 -0.045788560052703653 0 0.096022270429670667 -0.063051329019883556 0 0.080084197830425405 -0.039472153221067327 0 0.080896170393100028 -0.057219950651484497 0 0.1002909638912237 -0.045788560052703653 0 0.10749989945748741 -0.056064994843569867 0 0.1002909638912237 -0.045788560052703653 0 0.096022270429670667 -0.063051329019883556 0 0.10749989945748741 -0.056064994843569867 0 0.1112531431459747 -0.046529789480353433 0 0.1002909638912237 -0.045788560052703653 0 0.10749989945748741 -0.056064994843569867 0 0.096022270429670667 -0.063051329019883556 0 0.1100380533248777 -0.066823483183395649 0 0.10749989945748741 -0.056064994843569867 0 0.1176546488180238 -0.054447378666736733 0 0.1100380533248777 -0.066823483183395649 0 0.1176546488180238 -0.054447378666736733 0 0.1100380533248777 -0.066823483183395649 0 0.1237285979821439 -0.063030597353105025 0 0.1176546488180238 -0.054447378666736733 0 0.1237285979821439 -0.063030597353105025 0 0.12505513276252361 -0.054353057183426257 0 0.1176546488180238 -0.054447378666736733 0 0.118168204413926 -0.044622065944994967 0 0.12538623105721269 -0.04812442225268982 0 0.1176546488180238 -0.054447378666736733 0 0.12505513276252361 -0.054353057183426257 0 0.12538623105721269 -0.04812442225268982 0 0.10749989945748741 -0.056064994843569867 0 0.1176546488180238 -0.054447378666736733 0 0.1112531431459747 -0.046529789480353433 0 0.1176546488180238 -0.054447378666736733 0 0.1112531431459747 -0.046529789480353433 0 0.118168204413926 -0.044622065944994967 0 0.1112531431459747 -0.046529789480353433 0 0.118168204413926 -0.044622065944994967 0 0.1088613146243593 -0.02923203344062722 0 0.1088613146243593 -0.02923203344062722 0 0.12551946194012009 -0.044527204952439108 0 0.118168204413926 -0.044622065944994967 0 0.1088613146243593 -0.02923203344062722 0 0.12551946194012009 -0.044527204952439108 0 0.118168204413926 -0.044622065944994967 0 0.12551946194012009 -0.044527204952439108 0 0.12538623105721269 -0.04812442225268982 0 0.1112531431459747 -0.046529789480353433 0 0.1002909638912237 -0.045788560052703653 0 0.1088613146243593 -0.02923203344062722 0 0.092249926358720563 -0.030082813944256138 0 0.1002909638912237 -0.045788560052703653 0 0.1088613146243593 -0.02923203344062722 0 0.092203167308598344 -0.01393686192881549 0 0.1088613146243593 -0.02923203344062722 0 0.092203167308598344 -0.01393686192881549 0 0.1088613146243593 -0.02923203344062722 0 0.1090956319150638 -0.0097810016364484054 0 0.092203167308598344 -0.01393686192881549 0 0.092249926358720563 -0.030082813944256138 0 0.1088613146243593 -0.02923203344062722 0 0.1088613146243593 -0.02923203344062722 0 0.1090956319150638 -0.0097810016364484054 0 0.12648733369378609 -0.018394787747486589 0 0.1088613146243593 -0.02923203344062722 0 0.12648733369378609 -0.018394787747486589 0 0.12551946194012009 -0.044527204952439108 0 0.11566825232464489 0.0022947270128303768 0 0.1274552054474524 0.0077376294574659759 0 0.12648733369378609 -0.018394787747486589 0 0.11566825232464489 0.0022947270128303768 0 0.1090956319150638 -0.0097810016364484054 0 0.12648733369378609 -0.018394787747486589 0 0.1029464362136215 0.0089179659296784383 0 0.092203167308598344 -0.01393686192881549 0 0.1090956319150638 -0.0097810016364484054 0 0.093598866105249104 -0.104246326062003 0 0.069694843366783332 -0.1126370124657279 0 0.080650666957106251 -0.090485073425852297 0 0.093598866105249104 -0.104246326062003 0 0.069694843366783332 -0.1126370124657279 0 0.091420662539376696 -0.1284368183015972 0 0.093598866105249104 -0.104246326062003 0 0.069694843366783332 -0.1126370124657279 0 0.062135481343351583 -0.088663829471390329 0 0.069694843366783332 -0.1126370124657279 0 0.080650666957106251 -0.090485073425852297 0 0.062135481343351583 -0.088663829471390329 0 0.078878182816283032 -0.071543175155298219 0 0.080650666957106251 -0.090485073425852297 0 0.062135481343351583 -0.088663829471390329 0 0.063642447792521775 -0.069171224461213016 0 0.078878182816283032 -0.071543175155298219 0 0.080896170393100028 -0.057219950651484497 0 0.063642447792521775 -0.069171224461213016 0 0.078878182816283032 -0.071543175155298219 0 0.080896170393100028 -0.057219950651484497 0 0.078878182816283032 -0.071543175155298219 0 0.096022270429670667 -0.063051329019883556 0 0.078878182816283032 -0.071543175155298219 0 0.099027705952389605 -0.081363703410257601 0 0.096022270429670667 -0.063051329019883556 0 0.078878182816283032 -0.071543175155298219 0 0.080650666957106251 -0.090485073425852297 0 0.099027705952389605 -0.081363703410257601 0 0.093598866105249104 -0.104246326062003 0 0.080650666957106251 -0.090485073425852297 0 0.099027705952389605 -0.081363703410257601 0 0.099027705952389605 -0.081363703410257601 0 0.1100380533248777 -0.066823483183395649 0 0.11753657968199541 -0.07924738812078036 0 0.099027705952389605 -0.081363703410257601 0 0.096022270429670667 -0.063051329019883556 0 0.1100380533248777 -0.066823483183395649 0 0.1100380533248777 -0.066823483183395649 0 0.1237285979821439 -0.063030597353105025 0 0.11753657968199541 -0.07924738812078036 0 0.1237285979821439 -0.063030597353105025 0 0.11753657968199541 -0.07924738812078036 0 0.13311343224371211 -0.080013520263291976 0 0.099027705952389605 -0.081363703410257601 0 0.11753657968199541 -0.07924738812078036 0 0.117502888843715 -0.09585563965827805 0 0.11753657968199541 -0.07924738812078036 0 0.117502888843715 -0.09585563965827805 0 0.13311343224371211 -0.080013520263291976 0 0.117502888843715 -0.09585563965827805 0 0.11341959945555349 -0.1198679163152221 0 0.1327758112947108 -0.1082172100654108 0 0.093598866105249104 -0.104246326062003 0 0.117502888843715 -0.09585563965827805 0 0.11341959945555349 -0.1198679163152221 0 0.093598866105249104 -0.104246326062003 0 0.099027705952389605 -0.081363703410257601 0 0.117502888843715 -0.09585563965827805 0 0.093598866105249104 -0.104246326062003 0 0.117502888843715 -0.09585563965827805 0 0.091420662539376696 -0.1284368183015972 0 0.093598866105249104 -0.104246326062003 0 0.11341959945555349 -0.1198679163152221 0 0.11341959945555349 -0.1198679163152221 0 0.1327758112947108 -0.1082172100654108 0 0.13243819034571089 -0.13642089986752959 0 0.1327758112947108 -0.1082172100654108 0 0.13243819034571089 -0.13642089986752959 0 0.14178745248414151 -0.1215450709206894 0 0.1327758112947108 -0.1082172100654108 0 0.13243819034571089 -0.13642089986752959 0 0.15238600540049391 -0.11157615038406229 0 0.16666141544558971 -0.12351114686397981 0 0.14954980289565031 -0.129966023365755 0 0.14178745248414151 -0.1215450709206894 0 0.15238600540049391 -0.11157615038406229 0 0.1327758112947108 -0.1082172100654108 0 0.14178745248414151 -0.1215450709206894 0 0.15238600540049391 -0.11157615038406229 0 0.14954980289565031 -0.129966023365755 0 0.15238600540049391 -0.11157615038406229 0 0.1452306458912288 -0.094426959827692891 0 0.16302915166097451 -0.096202810106628206 0 0.15238600540049391 -0.11157615038406229 0 0.1452306458912288 -0.094426959827692891 0 0.1327758112947108 -0.1082172100654108 0 0.1452306458912288 -0.094426959827692891 0 0.1327758112947108 -0.1082172100654108 0 0.13311343224371211 -0.080013520263291976 0 0.1327758112947108 -0.1082172100654108 0 0.13311343224371211 -0.080013520263291976 0 0.117502888843715 -0.09585563965827805 0 0.1327758112947108 -0.1082172100654108 0 0.13311343224371211 -0.080013520263291976 0 0.1237285979821439 -0.063030597353105025 0 0.13311343224371211 -0.080013520263291976 0 0.133451053192714 -0.051809830461173448 0 0.13311343224371211 -0.080013520263291976 0 0.15477105919529019 -0.071385425649584167 0 0.133451053192714 -0.051809830461173448 0 0.13311343224371211 -0.080013520263291976 0 0.133451053192714 -0.051809830461173448 0 0.1452306458912288 -0.094426959827692891 0 0.13311343224371211 -0.080013520263291976 0 0.15477105919529019 -0.071385425649584167 0 0.1452306458912288 -0.094426959827692891 0 0.15477105919529019 -0.071385425649584167 0 0.16302915166097451 -0.096202810106628206 0 0.17116129009472469 -0.080520350084694811 0 0.17704611208936361 -0.095733690848902653 0 0.16302915166097451 -0.096202810106628206 0 0.15477105919529019 -0.071385425649584167 0 0.17116129009472469 -0.080520350084694811 0 0.16302915166097451 -0.096202810106628206 0 0.15477105919529019 -0.071385425649584167 0 0.17116129009472469 -0.080520350084694811 0 0.17615564185299179 -0.058250284267017408 0 0.17615564185299179 -0.058250284267017408 0 0.1913075321882701 -0.061426345565270948 0 0.18750429363983021 -0.077323627927451496 0 0.17116129009472469 -0.080520350084694811 0 0.17615564185299179 -0.058250284267017408 0 0.18750429363983021 -0.077323627927451496 0 0.17704611208936361 -0.095733690848902653 0 0.1910701302791066 -0.097627420441627769 0 0.18750429363983021 -0.077323627927451496 0 0.17116129009472469 -0.080520350084694811 0 0.17704611208936361 -0.095733690848902653 0 0.18750429363983021 -0.077323627927451496 0 0.17704611208936361 -0.095733690848902653 0 0.1814241923135671 -0.1127730571833821 0 0.16809327907161961 -0.1094354321733923 0 0.17704611208936361 -0.095733690848902653 0 0.1814241923135671 -0.1127730571833821 0 0.1910701302791066 -0.097627420441627769 0 0.1814241923135671 -0.1127730571833821 0 0.16666141544558971 -0.12351114686397981 0 0.18469844227573501 -0.12999493965264131 0 0.1814241923135671 -0.1127730571833821 0 0.16809327907161961 -0.1094354321733923 0 0.16666141544558971 -0.12351114686397981 0 0.15238600540049391 -0.11157615038406229 0 0.16809327907161961 -0.1094354321733923 0 0.16666141544558971 -0.12351114686397981 0 0.15238600540049391 -0.11157615038406229 0 0.16809327907161961 -0.1094354321733923 0 0.16302915166097451 -0.096202810106628206 0 0.17704611208936361 -0.095733690848902653 0 0.16809327907161961 -0.1094354321733923 0 0.16302915166097451 -0.096202810106628206 0 0.1451183973694046 -0.014535420665751831 0 0.15233585962607921 -0.023531950342314849 0 0.15901711775268429 -0.006544852682459551 0 0.1451183973694046 -0.014535420665751831 0 0.14319412215549979 -0.0041842003619043198 0 0.15901711775268429 -0.006544852682459551 0 0.1493895168637106 0.0071916650305739582 0 0.14319412215549979 -0.0041842003619043198 0 0.15901711775268429 -0.006544852682459551 0 0.1451183973694046 -0.014535420665751831 0 0.14319412215549979 -0.0041842003619043198 0 0.1363818066390631 -0.012825069777916739 0 0.1274552054474524 0.0077376294574659759 0 0.1363818066390631 -0.012825069777916739 0 0.12648733369378609 -0.018394787747486589 0 0.1274552054474524 0.0077376294574659759 0 0.14319412215549979 -0.0041842003619043198 0 0.1363818066390631 -0.012825069777916739 0 0.1274552054474524 0.0077376294574659759 0 0.12648733369378609 -0.018394787747486589 0 0.12648733369378609 -0.018394787747486589 0 0.13378912309923799 -0.023568636295763959 0 0.12551946194012009 -0.044527204952439108 0 0.1363818066390631 -0.012825069777916739 0 0.13378912309923799 -0.023568636295763959 0 0.1428208235289691 -0.023884922261350489 0 0.1363818066390631 -0.012825069777916739 0 0.12648733369378609 -0.018394787747486589 0 0.13378912309923799 -0.023568636295763959 0 0.13378912309923799 -0.023568636295763959 0 0.1428208235289691 -0.023884922261350489 0 0.14409306501546801 -0.032832159324514887 0 0.1428208235289691 -0.023884922261350489 0 0.15233585962607921 -0.023531950342314849 0 0.14409306501546801 -0.032832159324514887 0 0.1451183973694046 -0.014535420665751831 0 0.1363818066390631 -0.012825069777916739 0 0.1428208235289691 -0.023884922261350489 0 0.1451183973694046 -0.014535420665751831 0 0.1428208235289691 -0.023884922261350489 0 0.15233585962607921 -0.023531950342314849 0 0.1459669106666982 -0.043721012410638027 0 0.14409306501546801 -0.032832159324514887 0 0.133451053192714 -0.051809830461173448 0 0.15233585962607921 -0.023531950342314849 0 0.15598400767115719 -0.03815237576277563 0 0.14409306501546801 -0.032832159324514887 0 0.15598400767115719 -0.03815237576277563 0 0.1459669106666982 -0.043721012410638027 0 0.14409306501546801 -0.032832159324514887 0 0.15598400767115719 -0.03815237576277563 0 0.1459669106666982 -0.043721012410638027 0 0.1503395167874535 -0.052089684094088137 0 0.13378912309923799 -0.023568636295763959 0 0.14409306501546801 -0.032832159324514887 0 0.133451053192714 -0.051809830461173448 0 0.12648733369378609 -0.018394787747486589 0 0.12551946194012009 -0.044527204952439108 0 0.13378912309923799 -0.023568636295763959 0 0.133451053192714 -0.051809830461173448 0 0.13378912309923799 -0.023568636295763959 0 0.12551946194012009 -0.044527204952439108 0 0.133451053192714 -0.051809830461173448 0 0.12551946194012009 -0.044527204952439108 0 0.12538623105721269 -0.04812442225268982 0 0.133451053192714 -0.051809830461173448 0 0.12505513276252361 -0.054353057183426257 0 0.12538623105721269 -0.04812442225268982 0 0.12551946194012009 -0.044527204952439108 0 0.133451053192714 -0.051809830461173448 0 0.12538623105721269 -0.04812442225268982 0 0.12551946194012009 -0.044527204952439108 0 0.133451053192714 -0.051809830461173448 0 0.1237285979821439 -0.063030597353105025 0 0.133451053192714 -0.051809830461173448 0 0.12505513276252361 -0.054353057183426257 0 0.1459669106666982 -0.043721012410638027 0 0.133451053192714 -0.051809830461173448 0 0.1503395167874535 -0.052089684094088137 0 0.15477105919529019 -0.071385425649584167 0 0.1503395167874535 -0.052089684094088137 0 0.16331422904290299 -0.049727031505400407 0 0.15477105919529019 -0.071385425649584167 0 0.133451053192714 -0.051809830461173448 0 0.1503395167874535 -0.052089684094088137 0 0.15477105919529019 -0.071385425649584167 0 0.133451053192714 -0.051809830461173448 0 0.16331422904290299 -0.049727031505400407 0 0.17615564185299179 -0.058250284267017408 0 0.17295313833246201 -0.039955711608878633 0 0.15477105919529019 -0.071385425649584167 0 0.16331422904290299 -0.049727031505400407 0 0.17615564185299179 -0.058250284267017408 0 0.17615564185299179 -0.058250284267017408 0 0.17295313833246201 -0.039955711608878633 0 0.1964517290426796 -0.046815199215181499 0 0.17295313833246201 -0.039955711608878633 0 0.18722621651501301 -0.0274337235086109 0 0.1964517290426796 -0.046815199215181499 0 0.15598400767115719 -0.03815237576277563 0 0.17295313833246201 -0.039955711608878633 0 0.16733588168254901 -0.02421579787973854 0 0.15598400767115719 -0.03815237576277563 0 0.16331422904290299 -0.049727031505400407 0 0.17295313833246201 -0.039955711608878633 0 0.15598400767115719 -0.03815237576277563 0 0.1503395167874535 -0.052089684094088137 0 0.16331422904290299 -0.049727031505400407 0 0.15233585962607921 -0.023531950342314849 0 0.16733588168254901 -0.02421579787973854 0 0.15901711775268429 -0.006544852682459551 0 0.15233585962607921 -0.023531950342314849 0 0.15598400767115719 -0.03815237576277563 0 0.16733588168254901 -0.02421579787973854 0 0.16733588168254901 -0.02421579787973854 0 0.18722621651501301 -0.0274337235086109 0 0.17801785224868311 -0.010519948110449449 0 0.17295313833246201 -0.039955711608878633 0 0.16733588168254901 -0.02421579787973854 0 0.18722621651501301 -0.0274337235086109 0 0.18722621651501301 -0.0274337235086109 0 0.17801785224868311 -0.010519948110449449 0 0.19372963240977259 -0.0092869345902538755 0 0.1859869084017956 0.0024433714559852532 0 0.17801785224868311 -0.010519948110449449 0 0.19372963240977259 -0.0092869345902538755 0 0.17415294238970491 0.003088488330222813 0 0.1859869084017956 0.0024433714559852532 0 0.17801785224868311 -0.010519948110449449 0 0.17415294238970491 0.003088488330222813 0 0.17801785224868311 -0.010519948110449449 0 0.15901711775268429 -0.006544852682459551 0 0.16733588168254901 -0.02421579787973854 0 0.17801785224868311 -0.010519948110449449 0 0.15901711775268429 -0.006544852682459551 0 0.2181200160463545 0.0011720216127723371 0 0.19959946491814479 0.0046282397502151107 0 0.20688660925052221 -0.0063339662240384726 0 0.2181200160463545 0.0011720216127723371 0 0.21519968397116779 -0.01401679076414288 0 0.20688660925052221 -0.0063339662240384726 0 0.21519968397116779 -0.01401679076414288 0 0.20688660925052221 -0.0063339662240384726 0 0.2046004531485866 -0.01939613659224176 0 0.19959946491814479 0.0046282397502151107 0 0.20688660925052221 -0.0063339662240384726 0 0.19372963240977259 -0.0092869345902538755 0 0.19959946491814479 0.0046282397502151107 0 0.1859869084017956 0.0024433714559852532 0 0.19372963240977259 -0.0092869345902538755 0 0.20688660925052221 -0.0063339662240384726 0 0.19372963240977259 -0.0092869345902538755 0 0.2046004531485866 -0.01939613659224176 0 0.18722621651501301 -0.0274337235086109 0 0.2046004531485866 -0.01939613659224176 0 0.20402533800369199 -0.033437396864454301 0 0.18722621651501301 -0.0274337235086109 0 0.19372963240977259 -0.0092869345902538755 0 0.2046004531485866 -0.01939613659224176 0 0.2046004531485866 -0.01939613659224176 0 0.21654582887267779 -0.027209786912546181 0 0.20402533800369199 -0.033437396864454301 0 0.21519968397116779 -0.01401679076414288 0 0.2046004531485866 -0.01939613659224176 0 0.21654582887267779 -0.027209786912546181 0 0.21658310950984219 -0.041715113266169272 0 0.20402533800369199 -0.033437396864454301 0 0.1964517290426796 -0.046815199215181499 0 0.21654582887267779 -0.027209786912546181 0 0.21658310950984219 -0.041715113266169272 0 0.20402533800369199 -0.033437396864454301 0 0.18722621651501301 -0.0274337235086109 0 0.20402533800369199 -0.033437396864454301 0 0.1964517290426796 -0.046815199215181499 0 0.17615564185299179 -0.058250284267017408 0 0.1964517290426796 -0.046815199215181499 0 0.1913075321882701 -0.061426345565270948 0 0.1964517290426796 -0.046815199215181499 0 0.1913075321882701 -0.061426345565270948 0 0.2057553749878 -0.064644990184223691 0 0.21658310950984219 -0.041715113266169272 0 0.1964517290426796 -0.046815199215181499 0 0.21787033991829879 -0.056344382123945838 0 0.1964517290426796 -0.046815199215181499 0 0.21787033991829879 -0.056344382123945838 0 0.2057553749878 -0.064644990184223691 0 0.21658310950984219 -0.041715113266169272 0 0.21787033991829879 -0.056344382123945838 0 0.23252096269528791 -0.057360119139088853 0 0.21787033991829879 -0.056344382123945838 0 0.23252096269528791 -0.057360119139088853 0 0.2236738840233283 -0.070680006629756445 0 0.23252096269528791 -0.057360119139088853 0 0.24341039940362891 -0.042173740244686897 0 0.24612108748217501 -0.07017583377114911 0 0.24341039940362891 -0.042173740244686897 0 0.24612108748217501 -0.07017583377114911 0 0.25519944218403839 -0.055937302381494691 0 0.24341039940362891 -0.042173740244686897 0 0.24612108748217501 -0.07017583377114911 0 0.23252096269528791 -0.057360119139088853 0 0.24341039940362891 -0.042173740244686897 0 0.2298245430403047 -0.033723666855004393 0 0.21658310950984219 -0.041715113266169272 0 0.23252096269528791 -0.057360119139088853 0 0.2298245430403047 -0.033723666855004393 0 0.21654582887267779 -0.027209786912546181 0 0.21658310950984219 -0.041715113266169272 0 0.2298245430403047 -0.033723666855004393 0 0.2298245430403047 -0.033723666855004393 0 0.22918724643530841 -0.019711594849310409 0 0.24069971132508289 -0.0141716467182247 0 0.21654582887267779 -0.027209786912546181 0 0.2298245430403047 -0.033723666855004393 0 0.22918724643530841 -0.019711594849310409 0 0.21519968397116779 -0.01401679076414288 0 0.21654582887267779 -0.027209786912546181 0 0.22918724643530841 -0.019711594849310409 0 0.25218648869958882 -0.02329869203001355 0 0.24341039940362891 -0.042173740244686897 0 0.24069971132508289 -0.0141716467182247 0 0.24341039940362891 -0.042173740244686897 0 0.24069971132508289 -0.0141716467182247 0 0.24341039940362891 -0.042173740244686897 0 0.2298245430403047 -0.033723666855004393 0 0.24069971132508289 -0.0141716467182247 0 0.25218648869958882 -0.02329869203001355 0 0.25266044236801027 -0.0098448912506446801 0 0.24069971132508289 -0.0141716467182247 0 0.23798902324653681 0.01383044680823774 0 0.24069971132508289 -0.0141716467182247 0 0.2493448423645083 0.0014051681544095839 0 0.25266044236801027 -0.0098448912506446801 0 0.24069971132508289 -0.0141716467182247 0 0.2181200160463545 0.0011720216127723371 0 0.22918724643530841 -0.019711594849310409 0 0.23129756664408271 0.0034871144361431051 0 0.24069971132508289 -0.0141716467182247 0 0.22937412415085151 -0.0050609707787374596 0 0.2181200160463545 0.0011720216127723371 0 0.22918724643530841 -0.019711594849310409 0 0.22937412415085151 -0.0050609707787374596 0 0.2181200160463545 0.0011720216127723371 0 0.21519968397116779 -0.01401679076414288 0 0.22918724643530841 -0.019711594849310409 0 0.22918724643530841 -0.019711594849310409 0 0.24069971132508289 -0.0141716467182247 0 0.22937412415085151 -0.0050609707787374596 0 0.22579893665580589 0.002145308586464775 0 0.2181200160463545 0.0011720216127723371 0 0.22937412415085151 -0.0050609707787374596 0 0.21082035324201789 -0.1098617621101894 0 0.2025907044208696 -0.10043485518361139 0 0.21238953075634009 -0.092536187231589642 0 0.21082035324201789 -0.1098617621101894 0 0.21238953075634009 -0.092536187231589642 0 0.2217638174191989 -0.098394303956811466 0 0.21082035324201789 -0.1098617621101894 0 0.1968773974380032 -0.11537582777528189 0 0.2025907044208696 -0.10043485518361139 0 0.21082035324201789 -0.1098617621101894 0 0.1968773974380032 -0.11537582777528189 0 0.2091420818328763 -0.12747866452626741 0 0.21082035324201789 -0.1098617621101894 0 0.22840117212215111 -0.10784021488978859 0 0.2091420818328763 -0.12747866452626741 0 0.1814241923135671 -0.1127730571833821 0 0.1968773974380032 -0.11537582777528189 0 0.18469844227573501 -0.12999493965264131 0 0.1968773974380032 -0.11537582777528189 0 0.2091420818328763 -0.12747866452626741 0 0.19766395109203011 -0.1303243812714871 0 0.1814241923135671 -0.1127730571833821 0 0.1968773974380032 -0.11537582777528189 0 0.1910701302791066 -0.097627420441627769 0 0.1910701302791066 -0.097627420441627769 0 0.2025907044208696 -0.10043485518361139 0 0.20207580534393399 -0.083830488883139515 0 0.1968773974380032 -0.11537582777528189 0 0.1910701302791066 -0.097627420441627769 0 0.2025907044208696 -0.10043485518361139 0 0.1910701302791066 -0.097627420441627769 0 0.20207580534393399 -0.083830488883139515 0 0.18750429363983021 -0.077323627927451496 0 0.1913075321882701 -0.061426345565270948 0 0.18750429363983021 -0.077323627927451496 0 0.2057553749878 -0.064644990184223691 0 0.20207580534393399 -0.083830488883139515 0 0.18750429363983021 -0.077323627927451496 0 0.2057553749878 -0.064644990184223691 0 0.20207580534393399 -0.083830488883139515 0 0.2057553749878 -0.064644990184223691 0 0.2139074416720638 -0.07950058034064203 0 0.2057553749878 -0.064644990184223691 0 0.2139074416720638 -0.07950058034064203 0 0.2236738840233283 -0.070680006629756445 0 0.21787033991829879 -0.056344382123945838 0 0.2057553749878 -0.064644990184223691 0 0.2236738840233283 -0.070680006629756445 0 0.2025907044208696 -0.10043485518361139 0 0.20207580534393399 -0.083830488883139515 0 0.21238953075634009 -0.092536187231589642 0 0.20207580534393399 -0.083830488883139515 0 0.2139074416720638 -0.07950058034064203 0 0.21238953075634009 -0.092536187231589642 0 0.2139074416720638 -0.07950058034064203 0 0.21238953075634009 -0.092536187231589642 0 0.2236620081554844 -0.085781557011526857 0 0.2236620081554844 -0.085781557011526857 0 0.23391225679941699 -0.094092757206668848 0 0.2217638174191989 -0.098394303956811466 0 0.21238953075634009 -0.092536187231589642 0 0.2236620081554844 -0.085781557011526857 0 0.2217638174191989 -0.098394303956811466 0 0.2139074416720638 -0.07950058034064203 0 0.2236620081554844 -0.085781557011526857 0 0.2236738840233283 -0.070680006629756445 0 0.2236620081554844 -0.085781557011526857 0 0.2236738840233283 -0.070680006629756445 0 0.23632511826255839 -0.07948550670369281 0 0.2236620081554844 -0.085781557011526857 0 0.23632511826255839 -0.07948550670369281 0 0.23391225679941699 -0.094092757206668848 0 0.2236738840233283 -0.070680006629756445 0 0.2346602631158374 -0.069425366560921797 0 0.23632511826255839 -0.07948550670369281 0 0.23252096269528791 -0.057360119139088853 0 0.2236738840233283 -0.070680006629756445 0 0.2346602631158374 -0.069425366560921797 0 0.23252096269528791 -0.057360119139088853 0 0.2346602631158374 -0.069425366560921797 0 0.24612108748217501 -0.07017583377114911 0 0.2346602631158374 -0.069425366560921797 0 0.24612108748217501 -0.07017583377114911 0 0.23632511826255839 -0.07948550670369281 0 0.2507869405063915 -0.080011144606320195 0 0.24612108748217501 -0.07017583377114911 0 0.23632511826255839 -0.07948550670369281 0 0.2507869405063915 -0.080011144606320195 0 0.24766026241142591 -0.088201765253309902 0 0.23391225679941699 -0.094092757206668848 0 0.2507869405063915 -0.080011144606320195 0 0.23391225679941699 -0.094092757206668848 0 0.2507869405063915 -0.080011144606320195 0 0.23632511826255839 -0.07948550670369281 0 0.23391225679941699 -0.094092757206668848 0 0.24766026241142591 -0.088201765253309902 0 0.23391225679941699 -0.094092757206668848 0 0.22840117212215111 -0.10784021488978859 0 0.2450942160685709 -0.1019414555228059 0 0.22840117212215111 -0.10784021488978859 0 0.24145071203087429 -0.115435474970793 0 0.24766026241142591 -0.088201765253309902 0 0.22840117212215111 -0.10784021488978859 0 0.25856414745024231 -0.09820988331950839 0 0.2450942160685709 -0.1019414555228059 0 0.24145071203087429 -0.115435474970793 0 0.24766026241142591 -0.088201765253309902 0 0.2450942160685709 -0.1019414555228059 0 0.22840117212215111 -0.10784021488978859 0 0.25351509400142769 -0.092934925890948539 0 0.24766026241142591 -0.088201765253309902 0 0.2450942160685709 -0.1019414555228059 0 0.23391225679941699 -0.094092757206668848 0 0.22840117212215111 -0.10784021488978859 0 0.2217638174191989 -0.098394303956811466 0 0.21082035324201789 -0.1098617621101894 0 0.22840117212215111 -0.10784021488978859 0 0.2217638174191989 -0.098394303956811466 0 0.22840117212215111 -0.10784021488978859 0 0.24145071203087429 -0.115435474970793 0 0.22433727661150549 -0.1326610666220768 0 0.22840117212215111 -0.10784021488978859 0 0.22433727661150549 -0.1326610666220768 0 0.2091420818328763 -0.12747866452626741 0 0.24145071203087429 -0.115435474970793 0 0.22433727661150549 -0.1326610666220768 0 0.22840117212215111 -0.10784021488978859 0 0.2091420818328763 -0.12747866452626741 0 0.25153217278082501 -0.1231612647483309 0 0.24145071203087429 -0.115435474970793 0 0.23840861661417589 -0.1324207377444169 0 0.25153217278082501 -0.1231612647483309 0 0.24450019811140869 -0.1481126461771537 0 0.25153217278082501 -0.1231612647483309 0 0.23840861661417589 -0.1324207377444169 0 0.24450019811140869 -0.1481126461771537 0 0.24145071203087429 -0.115435474970793 0 0.23840861661417589 -0.1324207377444169 0 0.22433727661150549 -0.1326610666220768 0 0.23840861661417589 -0.1324207377444169 0 0.24450019811140869 -0.1481126461771537 0 0.22954564692575971 -0.14292101135287921 0 0.24450019811140869 -0.1481126461771537 0 0.22954564692575971 -0.14292101135287921 0 0.22816314975605789 -0.1569309826437805 0 0.22954564692575971 -0.14292101135287921 0 0.21993542816986539 -0.14971217017984559 0 0.2148442826392068 -0.1396533439106967 0 0.22954564692575971 -0.14292101135287921 0 0.21993542816986539 -0.14971217017984559 0 0.22816314975605789 -0.1569309826437805 0 0.21993542816986539 -0.14971217017984559 0 0.2163366732770671 -0.15922340236161189 0 0.22816314975605789 -0.1569309826437805 0 0.23840861661417589 -0.1324207377444169 0 0.22954564692575971 -0.14292101135287921 0 0.22433727661150549 -0.1326610666220768 0 0.22954564692575971 -0.14292101135287921 0 0.22433727661150549 -0.1326610666220768 0 0.2148442826392068 -0.1396533439106967 0 0.2091420818328763 -0.12747866452626741 0 0.2032656516951018 -0.1394801197698369 0 0.19766395109203011 -0.1303243812714871 0 0.2091420818328763 -0.12747866452626741 0 0.2032656516951018 -0.1394801197698369 0 0.2148442826392068 -0.1396533439106967 0 0.22433727661150549 -0.1326610666220768 0 0.2091420818328763 -0.12747866452626741 0 0.2148442826392068 -0.1396533439106967 0 0.21993542816986539 -0.14971217017984559 0 0.2148442826392068 -0.1396533439106967 0 0.2101103116407291 -0.15001988577940881 0 0.21993542816986539 -0.14971217017984559 0 0.2101103116407291 -0.15001988577940881 0 0.2163366732770671 -0.15922340236161189 0 0.2101103116407291 -0.15001988577940881 0 0.19897754632738421 -0.15192753251243299 0 0.20665458406866041 -0.16138777270799701 0 0.2032656516951018 -0.1394801197698369 0 0.2148442826392068 -0.1396533439106967 0 0.2101103116407291 -0.15001988577940881 0 0.2032656516951018 -0.1394801197698369 0 0.2101103116407291 -0.15001988577940881 0 0.19897754632738421 -0.15192753251243299 0 0.2032656516951018 -0.1394801197698369 0 0.19897754632738421 -0.15192753251243299 0 0.19287232899879489 -0.14102092651787429 0 0.19897754632738421 -0.15192753251243299 0 0.18834389981877869 -0.15081186676675179 0 0.19186359600146369 -0.1574896857824408 0 0.18834389981877869 -0.15081186676675179 0 0.19186359600146369 -0.1574896857824408 0 0.18481943334762341 -0.1578535630579464 0 0.18834389981877869 -0.15081186676675179 0 0.19287232899879489 -0.14102092651787429 0 0.18394907341415931 -0.14314796415843589 0 0.19897754632738421 -0.15192753251243299 0 0.18834389981877869 -0.15081186676675179 0 0.19287232899879489 -0.14102092651787429 0 0.19287232899879489 -0.14102092651787429 0 0.19766395109203011 -0.1303243812714871 0 0.18469844227573501 -0.12999493965264131 0 0.1968773974380032 -0.11537582777528189 0 0.19766395109203011 -0.1303243812714871 0 0.18469844227573501 -0.12999493965264131 0 0.2032656516951018 -0.1394801197698369 0 0.19287232899879489 -0.14102092651787429 0 0.19766395109203011 -0.1303243812714871 0 0.19897906206292729 -0.18458269065944 0 0.1948717895376289 -0.17551777543912611 0 0.1994957716419607 -0.17052295705788281 0 0.19897906206292729 -0.18458269065944 0 0.1994957716419607 -0.17052295705788281 0 0.19897906206292729 -0.18458269065944 0 0.20313453063243869 -0.17209751071247761 0 0.19897906206292729 -0.18458269065944 0 0.1994957716419607 -0.17052295705788281 0 0.20313453063243869 -0.17209751071247761 0 0.19897906206292729 -0.18458269065944 0 0.18767071240209271 -0.18662875874863991 0 0.19099639786504069 -0.18006259261186819 0 0.19897906206292729 -0.18458269065944 0 0.19099639786504069 -0.18006259261186819 0 0.1948717895376289 -0.17551777543912611 0 0.18767071240209271 -0.18662875874863991 0 0.19099639786504069 -0.18006259261186819 0 0.18463910282758411 -0.1795441870804686 0 0.19099639786504069 -0.18006259261186819 0 0.18882132249497199 -0.17403955113166619 0 0.18463910282758411 -0.1795441870804686 0 0.19099639786504069 -0.18006259261186819 0 0.1948717895376289 -0.17551777543912611 0 0.18882132249497199 -0.17403955113166619 0 0.1948717895376289 -0.17551777543912611 0 0.18882132249497199 -0.17403955113166619 0 0.1935245490444702 -0.16837778531648509 0 0.18882132249497199 -0.17403955113166619 0 0.1935245490444702 -0.16837778531648509 0 0.1858584411954563 -0.16896491084380441 0 0.1935245490444702 -0.16837778531648509 0 0.18858322256175561 -0.16302500116746779 0 0.1976609992239608 -0.16222570450937851 0 0.1935245490444702 -0.16837778531648509 0 0.18858322256175561 -0.16302500116746779 0 0.1858584411954563 -0.16896491084380441 0 0.18858322256175561 -0.16302500116746779 0 0.19186359600146369 -0.1574896857824408 0 0.1976609992239608 -0.16222570450937851 0 0.18858322256175561 -0.16302500116746779 0 0.19186359600146369 -0.1574896857824408 0 0.18481943334762341 -0.1578535630579464 0 0.19897754632738421 -0.15192753251243299 0 0.1976609992239608 -0.16222570450937851 0 0.20665458406866041 -0.16138777270799701 0 0.19897754632738421 -0.15192753251243299 0 0.19186359600146369 -0.1574896857824408 0 0.1976609992239608 -0.16222570450937851 0 0.1976609992239608 -0.16222570450937851 0 0.20347591794583089 -0.16631674914219349 0 0.20665458406866041 -0.16138777270799701 0 0.1948717895376289 -0.17551777543912611 0 0.1935245490444702 -0.16837778531648509 0 0.1994957716419607 -0.17052295705788281 0 0.1935245490444702 -0.16837778531648509 0 0.1987153031078725 -0.1666761566527353 0 0.1994957716419607 -0.17052295705788281 0 0.1935245490444702 -0.16837778531648509 0 0.1976609992239608 -0.16222570450937851 0 0.1987153031078725 -0.1666761566527353 0 0.1987153031078725 -0.1666761566527353 0 0.1994957716419607 -0.17052295705788281 0 0.20347591794583089 -0.16631674914219349 0 0.1976609992239608 -0.16222570450937851 0 0.1987153031078725 -0.1666761566527353 0 0.20347591794583089 -0.16631674914219349 0 0.1994957716419607 -0.17052295705788281 0 0.20347591794583089 -0.16631674914219349 0 0.20313453063243869 -0.17209751071247761 0 0.20694574959162751 -0.16942212394451539 0 0.20665458406866041 -0.16138777270799701 0 0.21179492209022749 -0.16799412661489591 0 0.20694574959162751 -0.16942212394451539 0 0.20347591794583089 -0.16631674914219349 0 0.20665458406866041 -0.16138777270799701 0 0.20694574959162751 -0.16942212394451539 0 0.21179492209022749 -0.16799412661489591 0 0.20887633201277639 -0.17622465982464711 0 0.20694574959162751 -0.16942212394451539 0 0.20347591794583089 -0.16631674914219349 0 0.20313453063243869 -0.17209751071247761 0 0.20665458406866041 -0.16138777270799701 0 0.2163366732770671 -0.15922340236161189 0 0.21179492209022749 -0.16799412661489591 0 0.2101103116407291 -0.15001988577940881 0 0.20665458406866041 -0.16138777270799701 0 0.2163366732770671 -0.15922340236161189 0 0.21179492209022749 -0.16799412661489591 0 0.20887633201277639 -0.17622465982464711 0 0.2199585143847288 -0.1699111750984785 0 0.2163366732770671 -0.15922340236161189 0 0.21179492209022749 -0.16799412661489591 0 0.2199585143847288 -0.1699111750984785 0 0.19897906206292729 -0.18458269065944 0 0.20887633201277639 -0.17622465982464711 0 0.21736632479318349 -0.18343151108206859 0 0.20887633201277639 -0.17622465982464711 0 0.21736632479318349 -0.18343151108206859 0 0.2199585143847288 -0.1699111750984785 0 0.19897906206292729 -0.18458269065944 0 0.20887633201277639 -0.17622465982464711 0 0.20313453063243869 -0.17209751071247761 0 0.20694574959162751 -0.16942212394451539 0 0.20887633201277639 -0.17622465982464711 0 0.20313453063243869 -0.17209751071247761 0 0.21736632479318349 -0.18343151108206859 0 0.23746822344199239 -0.17306402760597661 0 0.23043624877257601 -0.19801540903479961 0 0.23746822344199239 -0.17306402760597661 0 0.23043624877257601 -0.19801540903479961 0 0.21736632479318349 -0.18343151108206859 0 0.2199585143847288 -0.1699111750984785 0 0.23746822344199239 -0.17306402760597661 0 0.2199585143847288 -0.1699111750984785 0 0.22816314975605789 -0.1569309826437805 0 0.23746822344199239 -0.17306402760597661 0 0.2163366732770671 -0.15922340236161189 0 0.2199585143847288 -0.1699111750984785 0 0.22816314975605789 -0.1569309826437805 0 0.24450019811140869 -0.1481126461771537 0 0.22816314975605789 -0.1569309826437805 0 0.23746822344199239 -0.17306402760597661 0 0.25356566987203982 -0.1641341326189521 0 0.24450019811140869 -0.1481126461771537 0 0.23746822344199239 -0.17306402760597661 0 0.24450019811140869 -0.1481126461771537 0 0.23746822344199239 -0.17306402760597661 0 0.25303826176319699 -0.18852534679998401 0 0.23746822344199239 -0.17306402760597661 0 0.23043624877257601 -0.19801540903479961 0 0.25303826176319699 -0.18852534679998401 0 0.25356566987203982 -0.1641341326189521 0 0.23746822344199239 -0.17306402760597661 0 0.25303826176319699 -0.18852534679998401 0 0.2497333894385155 -0.20700878973220599 0 0.23043624877257601 -0.19801540903479961 0 0.25700776576854178 -0.21995061100086691 0 0.2497333894385155 -0.20700878973220599 0 0.2411746840965143 -0.22137414082971971 0 0.2497333894385155 -0.20700878973220599 0 0.23043624877257601 -0.19801540903479961 0 0.2411746840965143 -0.22137414082971971 0 0.23043624877257601 -0.19801540903479961 0 0.22340427410315969 -0.22296679046362239 0 0.23043624877257601 -0.19801540903479961 0 0.2411746840965143 -0.22137414082971971 0 0.22340427410315969 -0.22296679046362239 0 0.23043624877257601 -0.19801540903479961 0 0.22340427410315969 -0.22296679046362239 0 0.21215811400273499 -0.1998346334092668 0 0.21736632479318349 -0.18343151108206859 0 0.23043624877257601 -0.19801540903479961 0 0.21215811400273499 -0.1998346334092668 0 0.25143426659746332 -0.24778919941374641 0 0.23833075635283299 -0.24797382414986241 0 0.24911566892364639 -0.23415028430013829 0 0.23833075635283299 -0.24797382414986241 0 0.24911566892364639 -0.23415028430013829 0 0.2336795365819794 -0.23487664232715769 0 0.25700776576854178 -0.21995061100086691 0 0.24911566892364639 -0.23415028430013829 0 0.2411746840965143 -0.22137414082971971 0 0.24911566892364639 -0.23415028430013829 0 0.2411746840965143 -0.22137414082971971 0 0.2336795365819794 -0.23487664232715769 0 0.2411746840965143 -0.22137414082971971 0 0.22340427410315969 -0.22296679046362239 0 0.2336795365819794 -0.23487664232715769 0 0.23833075635283299 -0.24797382414986241 0 0.2336795365819794 -0.23487664232715769 0 0.21637229943374339 -0.24791817189244519 0 0.22340427410315969 -0.22296679046362239 0 0.2336795365819794 -0.23487664232715769 0 0.21637229943374339 -0.24791817189244519 0 0.22340427410315969 -0.22296679046362239 0 0.21637229943374339 -0.24791817189244519 0 0.22340427410315969 -0.22296679046362239 0 0.21637229943374339 -0.24791817189244519 0 0.19694444217526691 -0.2399449575141554 0 0.20644868714854339 -0.25882569468436228 0 0.21637229943374339 -0.24791817189244519 0 0.19694444217526691 -0.2399449575141554 0 0.22340427410315969 -0.22296679046362239 0 0.19694444217526691 -0.2399449575141554 0 0.19796175211909639 -0.21226382408679759 0 0.19694444217526691 -0.2399449575141554 0 0.19796175211909639 -0.21226382408679759 0 0.19694444217526691 -0.2399449575141554 0 0.19796175211909639 -0.21226382408679759 0 0.1848330752034508 -0.22708456223267859 0 0.19038010371744371 -0.24735532658709611 0 0.1848330752034508 -0.22708456223267859 0 0.19694444217526691 -0.2399449575141554 0 0.19038010371744371 -0.24735532658709611 0 0.1848330752034508 -0.22708456223267859 0 0.19897906206292729 -0.18458269065944 0 0.21736632479318349 -0.18343151108206859 0 0.21215811400273499 -0.1998346334092668 0 0.22340427410315969 -0.22296679046362239 0 0.21215811400273499 -0.1998346334092668 0 0.19796175211909639 -0.21226382408679759 0 0.1919060686331901 -0.20583362644605971 0 0.1848330752034508 -0.22708456223267859 0 0.19796175211909639 -0.21226382408679759 0 0.1919060686331901 -0.20583362644605971 0 0.1848330752034508 -0.22708456223267859 0 0.19897906206292729 -0.18458269065944 0 0.19796175211909639 -0.21226382408679759 0 0.1919060686331901 -0.20583362644605971 0 0.19897906206292729 -0.18458269065944 0 0.1919060686331901 -0.20583362644605971 0 0.19897906206292729 -0.18458269065944 0 0.1919060686331901 -0.20583362644605971 0 0.18795340488931139 -0.19453693076370671 0 0.19897906206292729 -0.18458269065944 0 0.19796175211909639 -0.21226382408679759 0 0.19897906206292729 -0.18458269065944 0 0.21215811400273499 -0.1998346334092668 0 0.19796175211909639 -0.21226382408679759 0 0.19897906206292729 -0.18458269065944 0 0.18767071240209271 -0.18662875874863991 0 0.18795340488931139 -0.19453693076370671 0 0.18795340488931139 -0.19453693076370671 0 0.18172928272201569 -0.19167599216620321 0 0.17860995208145361 -0.19777100901887409 0 0.18767071240209271 -0.18662875874863991 0 0.18172928272201569 -0.19167599216620321 0 0.1794305944660651 -0.1848884015832197 0 0.18767071240209271 -0.18662875874863991 0 0.18795340488931139 -0.19453693076370671 0 0.18172928272201569 -0.19167599216620321 0 0.1750324227501911 -0.19126958203231459 0 0.1770593181852434 -0.19867656031471151 0 0.16437838830620261 -0.1907003599190486 0 0.18172928272201569 -0.19167599216620321 0 0.1750324227501911 -0.19126958203231459 0 0.1794305944660651 -0.1848884015832197 0 0.18172928272201569 -0.19167599216620321 0 0.1750324227501911 -0.19126958203231459 0 0.17860995208145361 -0.19777100901887409 0 0.1750324227501911 -0.19126958203231459 0 0.1770593181852434 -0.19867656031471151 0 0.1750324227501911 -0.19126958203231459 0 0.1770593181852434 -0.19867656031471151 0 0.17860995208145361 -0.19777100901887409 0 0.1770593181852434 -0.19867656031471151 0 0.17860995208145361 -0.19777100901887409 0 0.1919060686331901 -0.20583362644605971 0 0.1770593181852434 -0.19867656031471151 0 0.17860995208145361 -0.19777100901887409 0 0.1919060686331901 -0.20583362644605971 0 0.18795340488931139 -0.19453693076370671 0 0.17860995208145361 -0.19777100901887409 0 0.1919060686331901 -0.20583362644605971 0 0.1770593181852434 -0.19867656031471151 0 0.1848330752034508 -0.22708456223267859 0 0.1770593181852434 -0.19867656031471151 0 0.1704379247293808 -0.21847097189000619 0 0.1848330752034508 -0.22708456223267859 0 0.1770593181852434 -0.19867656031471151 0 0.1848330752034508 -0.22708456223267859 0 0.1770593181852434 -0.19867656031471151 0 0.1704379247293808 -0.21847097189000619 0 0.15520829434172231 -0.21143729191308211 0 0.1770593181852434 -0.19867656031471151 0 0.15520829434172231 -0.21143729191308211 0 0.1770593181852434 -0.19867656031471151 0 0.16437838830620261 -0.1907003599190486 0 0.15520829434172231 -0.21143729191308211 0 0.17664944540245781 -0.2516724249431368 0 0.17193340575519661 -0.23638200376154991 0 0.1848330752034508 -0.22708456223267859 0 0.17664944540245781 -0.2516724249431368 0 0.1848330752034508 -0.22708456223267859 0 0.17664944540245781 -0.2516724249431368 0 0.19038010371744371 -0.24735532658709611 0 0.1848330752034508 -0.22708456223267859 0 0.1704379247293808 -0.21847097189000619 0 0.17193340575519661 -0.23638200376154991 0 0.1848330752034508 -0.22708456223267859 0 0.1704379247293808 -0.21847097189000619 0 0.17193340575519661 -0.23638200376154991 0 0.16215913521453221 -0.2306613908803089 0 0.1704379247293808 -0.21847097189000619 0 0.16215913521453221 -0.2306613908803089 0 0.15520829434172231 -0.21143729191308211 0 0.16215913521453221 -0.2306613908803089 0 0.16345997852390681 -0.24666503200669751 0 0.14837344946173739 -0.2317852272677052 0 0.17193340575519661 -0.23638200376154991 0 0.16215913521453221 -0.2306613908803089 0 0.16345997852390681 -0.24666503200669751 0 0.17664944540245781 -0.2516724249431368 0 0.17193340575519661 -0.23638200376154991 0 0.16345997852390681 -0.24666503200669751 0 0.15027714804140829 -0.25260357163612601 0 0.14837344946173739 -0.2317852272677052 0 0.1343483243296843 -0.23855887763058159 0 0.15027714804140829 -0.25260357163612601 0 0.1425664307512606 -0.2499578410125623 0 0.1343483243296843 -0.23855887763058159 0 0.15027714804140829 -0.25260357163612601 0 0.16345997852390681 -0.24666503200669751 0 0.14837344946173739 -0.2317852272677052 0 0.15027714804140829 -0.25260357163612601 0 0.1343483243296843 -0.23855887763058159 0 0.14837344946173739 -0.2317852272677052 0 0.13335727049820029 -0.22419802351145091 0 0.15520829434172231 -0.21143729191308211 0 0.16215913521453221 -0.2306613908803089 0 0.14837344946173739 -0.2317852272677052 0 0.15520829434172231 -0.21143729191308211 0 0.12075699680342419 -0.2125329804658119 0 0.12415552795451019 -0.22957172900361711 0 0.13335727049820029 -0.22419802351145091 0 0.12415552795451019 -0.22957172900361711 0 0.13335727049820029 -0.22419802351145091 0 0.12415552795451019 -0.22957172900361711 0 0.13335727049820029 -0.22419802351145091 0 0.1343483243296843 -0.23855887763058159 0 0.12415552795451019 -0.22957172900361711 0 0.1343483243296843 -0.23855887763058159 0 0.14837344946173739 -0.2317852272677052 0 0.13335727049820029 -0.22419802351145091 0 0.1343483243296843 -0.23855887763058159 0 0.13335727049820029 -0.22419802351145091 0 0.1343483243296843 -0.23855887763058159 0 0.1344735214161133 -0.24037304456805561 0 0.1343483243296843 -0.23855887763058159 0 0.1217885987790958 -0.24142154113282069 0 0.1343483243296843 -0.23855887763058159 0 0.1285193151480771 -0.24469918824912659 0 0.12415552795451019 -0.22957172900361711 0 0.1217885987790958 -0.24142154113282069 0 0.1343483243296843 -0.23855887763058159 0 0.1344735214161133 -0.24037304456805561 0 0.1343483243296843 -0.23855887763058159 0 0.1285193151480771 -0.24469918824912659 0 0.12903626199286899 -0.25346210742832143 0 0.1206729215231577 -0.25104549537699072 0 0.1285193151480771 -0.24469918824912659 0 0.1344735214161133 -0.24037304456805561 0 0.1285193151480771 -0.24469918824912659 0 0.13431594935557631 -0.2489770844462042 0 0.12903626199286899 -0.25346210742832143 0 0.1285193151480771 -0.24469918824912659 0 0.13431594935557631 -0.2489770844462042 0 0.1425664307512606 -0.2499578410125623 0 0.1344735214161133 -0.24037304456805561 0 0.1343483243296843 -0.23855887763058159 0 0.1425664307512606 -0.2499578410125623 0 0.1344735214161133 -0.24037304456805561 0 0.13431594935557631 -0.2489770844462042 0 0.14753139260950909 -0.18855182940693929 0 0.15520829434172231 -0.21143729191308211 0 0.13186209510086119 -0.2025322016544257 0 0.16437838830620261 -0.1907003599190486 0 0.14753139260950909 -0.18855182940693929 0 0.15520829434172231 -0.21143729191308211 0 0.13335727049820029 -0.22419802351145091 0 0.15520829434172231 -0.21143729191308211 0 0.12075699680342419 -0.2125329804658119 0 0.13335727049820029 -0.22419802351145091 0 0.13186209510086119 -0.2025322016544257 0 0.13335727049820029 -0.22419802351145091 0 0.13186209510086119 -0.2025322016544257 0 0.13335727049820029 -0.22419802351145091 0 0.15520829434172231 -0.21143729191308211 0 0.13186209510086119 -0.2025322016544257 0 0.13186209510086119 -0.2025322016544257 0 0.13036691970352299 -0.18086637979740061 0 0.14753139260950909 -0.18855182940693929 0 0.13186209510086119 -0.2025322016544257 0 0.13036691970352299 -0.18086637979740061 0 0.11336324313313791 -0.1929243194269652 0 0.13186209510086119 -0.2025322016544257 0 0.13036691970352299 -0.18086637979740061 0 0.14753139260950909 -0.18855182940693929 0 0.13036691970352299 -0.18086637979740061 0 0.14434256364043921 -0.169097474989855 0 0.14753139260950909 -0.18855182940693929 0 0.14434256364043921 -0.169097474989855 0 0.15903009456430611 -0.1766772681678242 0 0.14813541210470099 -0.1573254395910457 0 0.15769573279483939 -0.15441945035485649 0 0.15787139131531441 -0.16390122712262009 0 0.14434256364043921 -0.169097474989855 0 0.14813541210470099 -0.1573254395910457 0 0.15787139131531441 -0.16390122712262009 0 0.14434256364043921 -0.169097474989855 0 0.15903009456430611 -0.1766772681678242 0 0.15787139131531441 -0.16390122712262009 0 0.14434256364043921 -0.169097474989855 0 0.14813541210470099 -0.1573254395910457 0 0.13874637144525381 -0.15714676410980069 0 0.14434256364043921 -0.169097474989855 0 0.13874637144525381 -0.15714676410980069 0 0.12887174430618481 -0.1592005579403753 0 0.13036691970352299 -0.18086637979740061 0 0.12887174430618481 -0.1592005579403753 0 0.13036691970352299 -0.18086637979740061 0 0.14434256364043921 -0.169097474989855 0 0.12887174430618481 -0.1592005579403753 0 0.1230623871309196 -0.14895335695444839 0 0.12887174430618481 -0.1592005579403753 0 0.13171020885879139 -0.1510275264184735 0 0.1230623871309196 -0.14895335695444839 0 0.13237025680944811 -0.14209583321970171 0 0.13243819034571089 -0.13642089986752959 0 0.1230623871309196 -0.14895335695444839 0 0.13171020885879139 -0.1510275264184735 0 0.13237025680944811 -0.14209583321970171 0 0.13171020885879139 -0.1510275264184735 0 0.13237025680944811 -0.14209583321970171 0 0.14067192831615249 -0.14908282160925401 0 0.13237025680944811 -0.14209583321970171 0 0.14214680206121699 -0.1399536299359633 0 0.14067192831615249 -0.14908282160925401 0 0.13874637144525381 -0.15714676410980069 0 0.12887174430618481 -0.1592005579403753 0 0.13171020885879139 -0.1510275264184735 0 0.13874637144525381 -0.15714676410980069 0 0.13171020885879139 -0.1510275264184735 0 0.14067192831615249 -0.14908282160925401 0 0.13237025680944811 -0.14209583321970171 0 0.13243819034571089 -0.13642089986752959 0 0.13237025680944811 -0.14209583321970171 0 0.13243819034571089 -0.13642089986752959 0 0.14214680206121699 -0.1399536299359633 0 0.13243819034571089 -0.13642089986752959 0 0.14954980289565031 -0.129966023365755 0 0.14178745248414151 -0.1215450709206894 0 0.13243819034571089 -0.13642089986752959 0 0.14954980289565031 -0.129966023365755 0 0.13243819034571089 -0.13642089986752959 0 0.14214680206121699 -0.1399536299359633 0 0.14954980289565031 -0.129966023365755 0 0.14214680206121699 -0.1399536299359633 0 0.14954980289565031 -0.129966023365755 0 0.15188239999225711 -0.1448552528662429 0 0.14954980289565031 -0.129966023365755 0 0.15188239999225711 -0.1448552528662429 0 0.16191579883927151 -0.13669543182122659 0 0.14813541210470099 -0.1573254395910457 0 0.14067192831615249 -0.14908282160925401 0 0.15188239999225711 -0.1448552528662429 0 0.14813541210470099 -0.1573254395910457 0 0.13874637144525381 -0.15714676410980069 0 0.14067192831615249 -0.14908282160925401 0 0.14214680206121699 -0.1399536299359633 0 0.14067192831615249 -0.14908282160925401 0 0.15188239999225711 -0.1448552528662429 0 0.14813541210470099 -0.1573254395910457 0 0.15188239999225711 -0.1448552528662429 0 0.15769573279483939 -0.15441945035485649 0 0.15188239999225711 -0.1448552528662429 0 0.15769573279483939 -0.15441945035485649 0 0.16306132293396819 -0.14654397338559971 0 0.15769573279483939 -0.15441945035485649 0 0.16306132293396819 -0.14654397338559971 0 0.1678815595530895 -0.1557644464599271 0 0.15188239999225711 -0.1448552528662429 0 0.16306132293396819 -0.14654397338559971 0 0.16191579883927151 -0.13669543182122659 0 0.16306132293396819 -0.14654397338559971 0 0.16191579883927151 -0.13669543182122659 0 0.1741943337483669 -0.14165520157256439 0 0.16306132293396819 -0.14654397338559971 0 0.1678815595530895 -0.1557644464599271 0 0.1741943337483669 -0.14165520157256439 0 0.16666141544558971 -0.12351114686397981 0 0.14954980289565031 -0.129966023365755 0 0.16191579883927151 -0.13669543182122659 0 0.16666141544558971 -0.12351114686397981 0 0.16191579883927151 -0.13669543182122659 0 0.1741943337483669 -0.14165520157256439 0 0.16666141544558971 -0.12351114686397981 0 0.14954980289565031 -0.129966023365755 0 0.16666141544558971 -0.12351114686397981 0 0.18469844227573501 -0.12999493965264131 0 0.1741943337483669 -0.14165520157256439 0 0.19287232899879489 -0.14102092651787429 0 0.18469844227573501 -0.12999493965264131 0 0.18394907341415931 -0.14314796415843589 0 0.18469844227573501 -0.12999493965264131 0 0.1741943337483669 -0.14165520157256439 0 0.18394907341415931 -0.14314796415843589 0 0.1678815595530895 -0.1557644464599271 0 0.1796363622291211 -0.15225688628234779 0 0.1741943337483669 -0.14165520157256439 0 0.1796363622291211 -0.15225688628234779 0 0.1741943337483669 -0.14165520157256439 0 0.18394907341415931 -0.14314796415843589 0 0.18834389981877869 -0.15081186676675179 0 0.1796363622291211 -0.15225688628234779 0 0.18394907341415931 -0.14314796415843589 0 0.18834389981877869 -0.15081186676675179 0 0.1796363622291211 -0.15225688628234779 0 0.18481943334762341 -0.1578535630579464 0 0.1796363622291211 -0.15225688628234779 0 0.18481943334762341 -0.1578535630579464 0 0.17929521677329549 -0.16282770482847991 0 0.18858322256175561 -0.16302500116746779 0 0.18481943334762341 -0.1578535630579464 0 0.17929521677329549 -0.16282770482847991 0 0.1678815595530895 -0.1557644464599271 0 0.17929521677329549 -0.16282770482847991 0 0.169999157459026 -0.1694117454241848 0 0.1678815595530895 -0.1557644464599271 0 0.1796363622291211 -0.15225688628234779 0 0.17929521677329549 -0.16282770482847991 0 0.17929521677329549 -0.16282770482847991 0 0.18024172471854941 -0.17261674271407909 0 0.169999157459026 -0.1694117454241848 0 0.17929521677329549 -0.16282770482847991 0 0.1858584411954563 -0.16896491084380441 0 0.18024172471854941 -0.17261674271407909 0 0.18858322256175561 -0.16302500116746779 0 0.17929521677329549 -0.16282770482847991 0 0.1858584411954563 -0.16896491084380441 0 0.18882132249497199 -0.17403955113166619 0 0.18463910282758411 -0.1795441870804686 0 0.18024172471854941 -0.17261674271407909 0 0.18882132249497199 -0.17403955113166619 0 0.1858584411954563 -0.16896491084380441 0 0.18024172471854941 -0.17261674271407909 0 0.18463910282758411 -0.1795441870804686 0 0.18024172471854941 -0.17261674271407909 0 0.17804324690097981 -0.17831041673656589 0 0.18767071240209271 -0.18662875874863991 0 0.18463910282758411 -0.1795441870804686 0 0.1794305944660651 -0.1848884015832197 0 0.18463910282758411 -0.1795441870804686 0 0.1794305944660651 -0.1848884015832197 0 0.17804324690097981 -0.17831041673656589 0 0.1750324227501911 -0.19126958203231459 0 0.1794305944660651 -0.1848884015832197 0 0.17169646181151929 -0.18028652039433229 0 0.1794305944660651 -0.1848884015832197 0 0.17804324690097981 -0.17831041673656589 0 0.17169646181151929 -0.18028652039433229 0 0.18024172471854941 -0.17261674271407909 0 0.17499514772251859 -0.17515635631729051 0 0.169999157459026 -0.1694117454241848 0 0.17499514772251859 -0.17515635631729051 0 0.17169646181151929 -0.18028652039433229 0 0.169999157459026 -0.1694117454241848 0 0.18024172471854941 -0.17261674271407909 0 0.17804324690097981 -0.17831041673656589 0 0.17499514772251859 -0.17515635631729051 0 0.17804324690097981 -0.17831041673656589 0 0.17499514772251859 -0.17515635631729051 0 0.17169646181151929 -0.18028652039433229 0 0.17169646181151929 -0.18028652039433229 0 0.15903009456430611 -0.1766772681678242 0 0.169999157459026 -0.1694117454241848 0 0.16437838830620261 -0.1907003599190486 0 0.14753139260950909 -0.18855182940693929 0 0.15903009456430611 -0.1766772681678242 0 0.1750324227501911 -0.19126958203231459 0 0.16437838830620261 -0.1907003599190486 0 0.17169646181151929 -0.18028652039433229 0 0.16437838830620261 -0.1907003599190486 0 0.17169646181151929 -0.18028652039433229 0 0.15903009456430611 -0.1766772681678242 0 0.15903009456430611 -0.1766772681678242 0 0.15787139131531441 -0.16390122712262009 0 0.169999157459026 -0.1694117454241848 0 0.15769573279483939 -0.15441945035485649 0 0.1678815595530895 -0.1557644464599271 0 0.15787139131531441 -0.16390122712262009 0 0.1678815595530895 -0.1557644464599271 0 0.15787139131531441 -0.16390122712262009 0 0.169999157459026 -0.1694117454241848 0 
</DataArray>
</Points>
<Cells>
<DataArray type="UInt32" Name="connectivity" format="ascii">
0 1 2 3 4 5 6 7 8 9 10 11 12 13 14 15 16 17 18 19 20 21 22 23 24 25 26 27 28 29 30 31 32 33 34 35 36 37 38 39 40 41 42 43 44 45 46 47 48 49 50 51 52 53 54 55 56 57 58 59 60 61 62 63 64 65 66 67 68 69 70 71 72 73 74 75 76 77 78 79 80 81 82 83 84 85 86 87 88 89 90 91 92 93 94 95 96 97 98 99 100 101 102 103 104 105 106 107 108 109 110 111 112 113 114 115 116 117 118 119 120 121 122 123 124 125 126 127 128 129 130 131 132 133 134 135 136 137 138 139 140 141 142 143 144 145 146 147 148 149 150 151 152 153 154 155 156 157 158 159 160 161 162 163 164 165 166 167 168 169 170 171 172 173 174 175 176 177 178 179 180 181 182 183 184 185 186 187 188 189 190 191 192 193 194 195 196 197 198 199 200 201 202 203 204 205 206 207 208 209 210 211 212 213 214 215 216 217 218 219 220 221 222 223 224 225 226 227 228 229 230 231 232 233 234 235 236 237 238 239 240 241 242 243 244 245 246 247 248 249 250 251 252 253 254 255 256 257 258 259 260 261 262 263 264 265 266 267 268 269 270 271 272 273 274 275 276 277 278 279 280 281 282 283 284 285 286 287 288 289 290 291 292 293 294 295 296 297 298 299 300 301 302 303 304 305 306 307 308 309 310 311 312 313 314 315 316 317 318 319 320 321 322 323 324 325 326 327 328 329 330 331 332 333 334 335 336 337 338 339 340 341 342 343 344 345 346 347 348 349 350 351 352 353 354 355 356 357 358 359 360 361 362 363 364 365 366 367 368 369 370 371 372 373 374 375 376 377 378 379 380 381 382 383 384 385 386 387 388 389 390 391 392 393 394 395 396 397 398 399 400 401 402 403 404 405 406 407 408 409 410 411 412 413 414 415 416 417 418 419 420 421 422 423 424 425 426 427 428 429 430 431 432 433 434 435 436 437 438 439 440 441 442 443 444 445 446 447 448 449 450 451 452 453 454 455 456 457 458 459 460 461 462 463 464 465 466 467 468 469 470 471 472 473 474 475 476 477 478 479 480 481 482 483 484 485 486 487 488 489 490 491 492 493 494 495 496 497 498 499 500 501 502 503 504 505 506 507 508 509 510 511 512 513 514 515 516 517 518 519 520 521 522 523 524 525 526 527 528 529 530 531 532 533 534 535 536 537 538 539 540 541 542 543 544 545 546 547 548 549 550 551 552 553 554 555 556 557 558 559 560 561 562 563 564 565 566 567 568 569 570 571 572 573 574 575 576 577 578 579 580 581 582 583 584 585 586 587 588 589 590 591 592 593 594 595 596 597 598 599 600 601 602 603 604 605 606 607 608 609 610 611 612 613 614 615 616 617 618 619 620 621 622 623 624 625 626 627 628 629 630 631 632 633 634 635 636 637 638 639 640 641 642 643 644 645 646 647 648 649 650 651 652 653 654 655 656 657 658 659 660 661 662 663 664 665 666 667 668 669 670 671 672 673 674 675 676 677 678 679 680 681 682 683 684 685 686 687 688 689 690 691 692 693 694 695 696 697 698 699 700 701 702 703 704 705 706 707 708 709 710 711 712 713 714 715 716 717 718 719 720 721 722 723 724 725 726 727 728 729 730 731 732 733 734 735 736 737 738 739 740 741 742 743 744 745 746 747 748 749 750 751 752 753 754 755 756 757 758 759 760 761 762 763 764 765 766 767 768 769 770 771 772 773 774 775 776 777 778 779 780 781 782 783 784 785 786 787 788 789 790 791 792 793 794 795 796 797 798 799 800 801 802 803 804 805 806 807 808 809 810 811 812 813 814 815 816 817 818 819 820 821 822 823 824 825 826 827 828 829 830 831 832 833 834 835 836 837 838 839 840 841 842 843 844 845 846 847 848 849 850 851 852 853 854 855 856 857 858 859 860 861 862 863 864 865 866 867 868 869 870 871 872 873 874 875 876 877 878 879 880 881 882 883 884 885 886 887 888 889 890 891 892 893 894 895 896 897 898 899 900 901 902 903 904 905 906 907 908 909 910 911 912 913 914 915 916 917 918 919 920 921 922 923 924 925 926 927 928 929 930 931 932 933 934 935 936 937 938 939 940 941 942 943 944 945 946 947 948 949 950 951 952 953 954 955 956 957 958 959 960 961 962 963 964 965 966 967 968 969 970 971 972 973 974 975 976 977 978 979 980 981 982 983 984 985 986 987 988 989 990 991 992 993 994 995 996 997 998 999 1000 1001 1002 1003 1004 1005 1006 1007 1008 1009 1010 1011 1012 1013 1014 1015 1016 1017 1018 1019 1020 1021 1022 1023 1024 1025 1026 1027 1028 1029 1030 1031 1032 1033 1034 1035 1036 1037 1038 1039 1040 1041 1042 1043 1044 1045 1046 1047 1048 1049 1050 1051 1052 1053 1054 1055 1056 1057 1058 1059 1060 1061 1062 1063 1064 1065 1066 1067 1068 1069 1070 1071 1072 1073 1074 1075 1076 1077 1078 1079 1080 1081 1082 1083 1084 1085 1086 1087 1088 1089 1090 1091 1092 1093 1094 1095 1096 1097 1098 1099 1100 1101 1102 1103 1104 1105 1106 1107 1108 1109 1110 1111 1112 1113 1114 1115 1116 1117 1118 1119 1120 1121 1122 1123 1124 1125 1126 1127 1128 1129 1130 1131 1132 1133 1134 1135 1136 1137 1138 1139 1140 1141 1142 1143 1144 1145 1146 1147 1148 1149 1150 1151 1152 1153 1154 1155 1156 1157 1158 1159 1160 1161 1162 1163 1164 1165 1166 1167 1168 1169 1170 1171 1172 1173 1174 1175 1176 1177 1178 1179 1180 1181 1182 1183 1184 1185 1186 1187 1188 1189 1190 1191 1192 1193 1194 1195 1196 1197 1198 1199 1200 1201 1202 1203 1204 1205 1206 1207 1208 1209 1210 1211 1212 1213 1214 1215 1216 1217 1218 1219 1220 1221 1222 1223 1224 1225 1226 1227 1228 1229 1230 1231 1232 1233 1234 1235 1236 1237 1238 1239 1240 1241 1242 1243 1244 1245 1246 1247 1248 1249 1250 1251 1252 1253 1254 1255 1256 1257 1258 1259 1260 1261 1262 1263 1264 1265 1266 1267 1268 1269 1270 1271 1272 1273 1274 1275 1276 1277 1278 1279 1280 1281 1282 1283 1284 1285 1286 1287 1288 1289 1290 1291 1292 1293 1294 1295 1296 1297 1298 1299 1300 1301 1302 1303 1304 1305 1306 1307 1308 1309 1310 1311 1312 1313 1314 1315 1316 1317 1318 1319 1320 1321 1322 1323 1324 1325 1326 1327 1328 1329 1330 1331 1332 1333 1334 1335 1336 1337 1338 1339 1340 1341 1342 1343 1344 1345 1346 1347 1348 1349 1350 1351 1352 1353 1354 1355 1356 1357 1358 1359 1360 1361 1362 1363 1364 1365 1366 1367 1368 1369 1370 1371 1372 1373 1374 1375 1376 1377 1378 1379 1380 1381 1382 1383 1384 1385 1386 1387 1388 1389 1390 1391 1392 1393 1394 1395 1396 1397 1398 1399 1400 1401 1402 1403 1404 1405 1406 1407 1408 1409 1410 1411 1412 1413 1414 1415 1416 1417 1418 1419 1420 1421 1422 1423 1424 1425 1426 1427 1428 1429 1430 1431 1432 1433 1434 1435 1436 1437 1438 1439 1440 1441 1442 1443 1444 1445 1446 1447 1448 1449 1450 1451 1452 1453 1454 1455 1456 1457 1458 1459 1460 1461 1462 1463 1464 1465 1466 1467 1468 1469 1470 1471 1472 1473 1474 1475 1476 1477 1478 1479 1480 1481 1482 1483 1484 1485 1486 1487 1488 1489 1490 1491 1492 1493 1494 1495 1496 1497 1498 1499 1500 1501 1502 1503 1504 1505 1506 1507 1508 1509 1510 1511 1512 1513 1514 1515 1516 1517 1518 1519 1520 1521 1522 1523 1524 1525 1526 1527 1528 1529 1530 1531 1532 1533 1534 1535 1536 1537 1538 1539 1540 1541 1542 1543 1544 1545 1546 1547 1548 1549 1550 1551 1552 1553 1554 1555 1556 1557 1558 1559 1560 1561 1562 1563 1564 1565 1566 1567 1568 1569 1570 1571 1572 1573 1574 1575 1576 1577 1578 1579 1580 1581 1582 1583 1584 1585 1586 1587 1588 1589 1590 1591 1592 1593 1594 1595 1596 1597 1598 1599 1600 1601 1602 1603 1604 1605 1606 1607 1608 1609 1610 1611 1612 1613 1614 1615 1616 1617 1618 1619 1620 1621 1622 1623 1624 1625 1626 1627 1628 1629 1630 1631 1632 1633 1634 1635 1636 1637 1638 1639 1640 1641 1642 1643 1644 1645 1646 1647 1648 1649 1650 1651 1652 1653 1654 1655 1656 1657 1658 1659 1660 1661 1662 1663 1664 1665 1666 1667 1668 1669 1670 1671 1672 1673 1674 1675 1676 1677 1678 1679 1680 1681 1682 1683 1684 1685 1686 1687 1688 1689 1690 1691 1692 1693 1694 1695 1696 1697 1698 1699 1700 1701 1702 1703 1704 1705 1706 1707 1708 1709 1710 1711 1712 1713 1714 1715 1716 1717 1718 1719 1720 1721 1722 1723 1724 1725 1726 1727 1728 1729 1730 1731 1732 1733 1734 1735 1736 1737 1738 1739 1740 1741 1742 1743 1744 1745 1746 1747 1748 1749 1750 1751 1752 1753 1754 1755 1756 1757 1758 1759 1760 1761 1762 1763 1764 1765 1766 1767 1768 1769 1770 1771 1772 1773 1774 1775 1776 1777 1778 1779 1780 1781 1782 1783 1784 1785 1786 1787 1788 1789 1790 1791 1792 1793 1794 1795 1796 1797 1798 1799 1800 1801 1802 1803 1804 1805 1806 1807 1808 1809 1810 1811 1812 1813 1814 1815 1816 1817 1818 1819 1820 1821 1822 1823 1824 1825 1826 1827 1828 1829 1830 1831 1832 1833 1834 1835 1836 1837 1838 1839 1840 1841 1842 1843 1844 1845 1846 1847 1848 1849 1850 1851 1852 1853 1854 1855 1856 1857 1858 1859 1860 1861 1862 1863 1864 1865 1866 1867 1868 1869 1870 1871 1872 1873 1874 1875 1876 1877 1878 1879 1880 1881 1882 1883 1884 1885 1886 1887 1888 1889 1890 1891 1892 1893 1894 1895 1896 1897 1898 1899 1900 1901 1902 1903 1904 1905 1906 1907 1908 1909 1910 1911 1912 1913 1914 1915 1916 1917 1918 1919 1920 1921 1922 1923 1924 1925 1926 1927 1928 1929 1930 1931 1932 1933 1934 1935 1936 1937 1938 1939 1940 1941 1942 1943 1944 1945 1946 1947 1948 1949 1950 1951 1952 1953 1954 1955 1956 1957 1958 1959 1960 1961 1962 1963 1964 1965 1966 1967 1968 1969 1970 1971 1972 1973 1974 1975 1976 1977 1978 1979 1980 1981 1982 1983 1984 1985 1986 1987 1988 1989 1990 1991 1992 1993 1994 1995 1996 1997 1998 1999 2000 2001 2002 2003 2004 2005 2006 2007 2008 2009 2010 2011 2012 2013 2014 2015 2016 2017 2018 2019 2020 2021 2022 2023 2024 2025 2026 2027 2028 2029 2030 2031 2032 2033 2034 2035 2036 2037 2038 2039 2040 2041 2042 2043 2044 2045 2046 2047 2048 2049 2050 2051 2052 2053 2054 2055 2056 2057 2058 2059 2060 2061 2062 2063 2064 2065 2066 2067 2068 2069 2070 2071 2072 2073 2074 2075 2076 2077 2078 2079 2080 2081 2082 2083 2084 2085 2086 2087 2088 2089 2090 2091 2092 2093 2094 2095 2096 2097 2098 2099 2100 2101 2102 2103 2104 2105 2106 2107 2108 2109 2110 2111 2112 2113 2114 2115 2116 2117 2118 2119 2120 2121 2122 2123 2124 2125 2126 2127 2128 2129 2130 2131 2132 2133 2134 2135 2136 2137 2138 2139 2140 2141 2142 2143 2144 2145 2146 2147 2148 2149 2150 2151 2152 2153 2154 2155 2156 2157 2158 2159 2160 2161 2162 2163 2164 2165 2166 2167 2168 2169 2170 2171 2172 2173 2174 2175 2176 2177 2178 2179 2180 2181 2182 2183 2184 2185 2186 2187 2188 2189 2190 2191 2192 2193 2194 2195 2196 2197 2198 2199 2200 2201 2202 2203 2204 2205 2206 2207 2208 2209 2210 2211 2212 2213 2214 2215 2216 2217 2218 2219 2220 2221 2222 2223 2224 2225 2226 2227 2228 2229 2230 2231 2232 2233 2234 2235 2236 2237 2238 2239 2240 2241 2242 2243 2244 2245 2246 2247 2248 2249 2250 2251 2252 2253 2254 2255 2256 2257 2258 2259 2260 2261 2262 2263 2264 2265 2266 2267 2268 2269 2270 2271 2272 2273 2274 2275 2276 2277 2278 2279 2280 2281 2282 2283 2284 2285 2286 2287 2288 2289 2290 2291 2292 2293 2294 2295 2296 2297 2298 2299 2300 2301 2302 2303 2304 2305 2306 2307 2308 2309 2310 2311 2312 2313 2314 2315 2316 2317 2318 2319 2320 2321 2322 2323 2324 2325 2326 2327 2328 2329 2330 2331 2332 2333 2334 2335 2336 2337 2338 2339 2340 2341 2342 2343 2344 2345 2346 2347 2348 2349 2350 2351 2352 2353 2354 2355 2356 2357 2358 2359 2360 2361 2362 2363 2364 2365 2366 2367 2368 2369 2370 2371 2372 2373 2374 2375 2376 2377 2378 2379 2380 2381 2382 2383 2384 2385 2386 2387 2388 2389 2390 2391 2392 2393 2394 2395 2396 2397 2398 2399 2400 2401 2402 2403 2404 2405 2406 2407 2408 2409 2410 2411 2412 2413 2414 2415 2416 2417 2418 2419 2420 2421 2422 2423 2424 2425 2426 2427 2428 2429 2430 2431 2432 2433 2434 2435 2436 2437 2438 2439 2440 2441 2442 2443 2444 2445 2446 2447 2448 2449 2450 2451 2452 2453 2454 2455 2456 2457 2458 2459 2460 2461 2462 2463 2464 2465 2466 2467 2468 2469 2470 2471 2472 2473 2474 2475 2476 2477 2478 2479 2480 2481 2482 2483 2484 2485 2486 2487 2488 2489 2490 2491 2492 2493 2494 2495 2496 2497 2498 2499 2500 2501 2502 2503 2504 2505 2506 2507 2508 2509 2510 2511 2512 2513 2514 2515 2516 2517 2518 2519 2520 2521 2522 2523 2524 2525 2526 2527 2528 2529 2530 2531 2532 2533 2534 2535 2536 2537 2538 2539 2540 2541 2542 2543 2544 2545 2546 2547 2548 2549 2550 2551 2552 2553 2554 2555 2556 2557 2558 2559 2560 2561 2562 2563 2564 2565 2566 2567 2568 2569 2570 2571 2572 2573 2574 2575 2576 2577 2578 2579 2580 2581 2582 2583 2584 2585 2586 2587 2588 2589 2590 2591 2592 2593 2594 2595 2596 2597 2598 2599 2600 2601 2602 2603 2604 2605 2606 2607 2608 2609 2610 2611 2612 2613 2614 2615 2616 2617 2618 2619 2620 2621 2622 2623 2624 2625 2626 2627 2628 2629 2630 2631 2632 2633 2634 2635 2636 2637 2638 2639 2640 2641 2642 2643 2644 2645 2646 2647 2648 2649 2650 2651 2652 2653 2654 2655 2656 2657 2658 2659 2660 2661 2662 2663 2664 2665 2666 2667 2668 2669 2670 2671 2672 2673 2674 2675 2676 2677 2678 2679 2680 2681 2682 2683 2684 2685 2686 2687 2688 2689 2690 2691 2692 2693 2694 2695 2696 2697 2698 2699 2700 2701 2702 2703 2704 2705 2706 2707 2708 2709 2710 2711 2712 2713 2714 2715 2716 2717 2718 2719 2720 2721 2722 2723 2724 2725 2726 2727 2728 2729 2730 2731 2732 2733 2734 2735 2736 2737 2738 2739 2740 2741 2742 2743 2744 2745 2746 2747 2748 2749 2750 2751 2752 2753 2754 2755 2756 2757 2758 2759 2760 2761 2762 2763 2764 2765 2766 2767 2768 2769 2770 2771 2772 2773 2774 2775 2776 2777 2778 2779 2780 2781 2782 2783 2784 2785 2786 2787 2788 2789 2790 2791 2792 2793 2794 2795 2796 2797 2798 2799 2800 2801 2802 2803 2804 2805 2806 2807 2808 2809 2810 2811 2812 2813 2814 2815 2816 2817 2818 2819 2820 2821 2822 2823 2824 2825 2826 2827 2828 2829 2830 2831 2832 2833 2834 2835 2836 2837 2838 2839 2840 2841 2842 2843 2844 2845 2846 2847 2848 2849 2850 2851 2852 2853 2854 2855 2856 2857 2858 2859 2860 2861 2862 2863 2864 2865 2866 2867 2868 2869 2870 2871 2872 2873 2874 2875 2876 2877 2878 2879 2880 2881 2882 2883 2884 2885 2886 2887 2888 2889 2890 2891 2892 2893 2894 2895 2896 2897 2898 2899 2900 2901 2902 2903 2904 2905 2906 2907 2908 2909 2910 2911 2912 2913 2914 2915 2916 2917 2918 2919 2920 2921 2922 2923 2924 2925 2926 2927 2928 2929 2930 2931 2932 2933 2934 2935 2936 2937 2938 2939 2940 2941 2942 2943 2944 2945 2946 2947 2948 2949 2950 2951 2952 2953 2954 2955 2956 2957 2958 2959 2960 2961 2962 2963 2964 2965 2966 2967 2968 2969 2970 2971 2972 2973 2974 2975 2976 2977 2978 2979 2980 2981 2982 2983 2984 2985 2986 2987 2988 2989 2990 2991 2992 2993 2994 2995 2996 2997 2998 2999 3000 3001 3002 3003 3004 3005 3006 3007 3008 3009 3010 3011 3012 3013 3014 3015 3016 3017 3018 3019 3020 3021 3022 3023 3024 3025 3026 3027 3028 3029 3030 3031 3032 3033 3034 3035 3036 3037 3038 3039 3040 3041 3042 3043 3044 3045 3046 3047 3048 3049 3050 3051 3052 3053 3054 3055 3056 3057 3058 3059 3060 3061 3062 3063 3064 3065 3066 3067 3068 3069 3070 3071 3072 3073 3074 3075 3076 3077 3078 3079 3080 3081 3082 3083 3084 3085 3086 3087 3088 3089 3090 3091 3092 3093 3094 3095 3096 3097 3098 3099 3100 3101 3102 3103 3104 3105 3106 3107 3108 3109 3110 3111 3112 3113 3114 3115 3116 3117 3118 3119 3120 3121 3122 3123 3124 3125 3126 3127 3128 3129 3130 3131 3132 3133 3134 3135 3136 3137 3138 3139 3140 3141 3142 3143 3144 3145 3146 3147 3148 3149 3150 3151 3152 3153 3154 3155 3156 3157 3158 3159 3160 3161 3162 3163 3164 3165 3166 3167 3168 3169 3170 3171 3172 3173 3174 3175 3176 3177 3178 3179 3180 3181 3182 3183 3184 3185 3186 3187 3188 3189 3190 3191 3192 3193 3194 3195 3196 3197 3198 3199 3200 3201 3202 3203 3204 3205 3206 3207 3208 3209 3210 3211 3212 3213 3214 3215 3216 3217 3218 3219 3220 3221 3222 3223 3224 3225 3226 3227 3228 3229 3230 3231 3232 3233 3234 3235 3236 3237 3238 3239 3240 3241 3242 3243 3244 3245 3246 3247 3248 3249 3250 3251 3252 3253 3254 3255 3256 3257 3258 3259 3260 3261 3262 3263 3264 3265 3266 3267 3268 3269 3270 3271 3272 3273 3274 3275 3276 3277 3278 3279 3280 3281 3282 3283 3284 3285 3286 3287 3288 3289 3290 3291 3292 3293 3294 3295 3296 3297 3298 3299 3300 3301 3302 3303 3304 3305 3306 3307 3308 3309 3310 3311 3312 3313 3314 3315 3316 3317 3318 3319 3320 3321 3322 3323 3324 3325 3326 3327 3328 3329 3330 3331 3332 3333 3334 3335 3336 3337 3338 3339 3340 3341 3342 3343 3344 3345 3346 3347 3348 3349 3350 3351 3352 3353 3354 3355 3356 3357 3358 3359 3360 3361 3362 3363 3364 3365 3366 3367 3368 3369 3370 3371 3372 3373 3374 3375 3376 3377 3378 3379 3380 3381 3382 3383 3384 3385 3386 3387 3388 3389 3390 3391 3392 3393 3394 3395 3396 3397 3398 3399 3400 3401 3402 3403 3404 3405 3406 3407 3408 3409 3410 3411 3412 3413 3414 3415 3416 3417 3418 3419 3420 3421 3422 3423 3424 3425 3426 3427 3428 3429 3430 3431 3432 3433 3434 3435 3436 3437 3438 3439 3440 3441 3442 3443 3444 3445 3446 3447 3448 3449 3450 3451 3452 3453 3454 3455 3456 3457 3458 3459 3460 3461 3462 3463 3464 3465 3466 3467 3468 3469 3470 3471 3472 3473 3474 3475 3476 3477 3478 3479 3480 3481 3482 3483 3484 3485 3486 3487 3488 3489 3490 3491 3492 3493 3494 3495 3496 3497 3498 3499 3500 3501 3502 3503 3504 3505 3506 3507 3508 3509 3510 3511 3512 3513 3514 3515 3516 3517 3518 3519 3520 3521 3522 3523 3524 3525 3526 3527 3528 3529 3530 3531 3532 3533 3534 3535 3536 3537 3538 3539 3540 3541 3542 3543 3544 3545 3546 3547 3548 3549 3550 3551 3552 3553 3554 3555 3556 3557 3558 3559 3560 3561 3562 3563 3564 3565 3566 3567 3568 3569 3570 3571 3572 3573 3574 3575 3576 3577 3578 3579 3580 3581 3582 3583 3584 3585 3586 3587 3588 3589 3590 3591 3592 3593 3594 3595 3596 3597 3598 3599 3600 3601 3602 3603 3604 3605 3606 3607 3608 3609 3610 3611 3612 3613 3614 3615 3616 3617 3618 3619 3620 3621 3622 3623 3624 3625 3626 3627 3628 3629 3630 3631 3632 3633 3634 3635 3636 3637 3638 3639 3640 3641 3642 3643 3644 3645 3646 3647 3648 3649 3650 3651 3652 3653 3654 3655 3656 3657 3658 3659 3660 3661 3662 3663 3664 3665 3666 3667 3668 3669 3670 3671 3672 3673 3674 3675 3676 3677 3678 3679 3680 3681 3682 3683 3684 3685 3686 3687 3688 3689 3690 3691 3692 3693 3694 3695 3696 3697 3698 3699 3700 3701 3702 3703 3704 3705 3706 3707 3708 3709 3710 3711 3712 3713 3714 3715 3716 3717 3718 3719 3720 3721 3722 3723 3724 3725 3726 3727 3728 3729 3730 3731 3732 3733 3734 3735 3736 3737 3738 3739 3740 3741 3742 3743 3744 3745 3746 3747 3748 3749 3750 3751 3752 3753 3754 3755 3756 3757 3758 3759 3760 3761 3762 3763 3764 3765 3766 3767 3768 3769 3770 3771 3772 3773 3774 3775 3776 3777 3778 3779 3780 3781 3782 3783 3784 3785 3786 3787 3788 3789 3790 3791 3792 3793 3794 3795 3796 3797 3798 3799 3800 3801 3802 3803 3804 3805 3806 3807 3808 3809 3810 3811 3812 3813 3814 3815 3816 3817 3818 3819 3820 3821 3822 3823 3824 3825 3826 3827 3828 3829 3830 3831 3832 3833 3834 3835 3836 3837 3838 3839 3840 3841 3842 3843 3844 3845 3846 3847 3848 3849 3850 3851 3852 3853 3854 3855 3856 3857 3858 3859 3860 3861 3862 3863 3864 3865 3866 3867 3868 3869 3870 3871 3872 3873 3874 3875 3876 3877 3878 3879 3880 3881 3882 3883 3884 3885 3886 3887 3888 3889 3890 3891 3892 3893 3894 3895 3896 3897 3898 3899 3900 3901 3902 3903 3904 3905 3906 3907 3908 3909 3910 3911 3912 3913 3914 3915 3916 3917 3918 3919 3920 3921 3922 3923 3924 3925 3926 3927 3928 3929 3930 3931 3932 3933 3934 3935 3936 3937 3938 3939 3940 3941 3942 3943 3944 3945 3946 3947 3948 3949 3950 3951 3952 3953 3954 3955 3956 3957 3958 3959 3960 3961 3962 3963 3964 3965 3966 3967 3968 3969 3970 3971 3972 3973 3974 3975 3976 3977 3978 3979 3980 3981 3982 3983 3984 3985 3986 3987 3988 3989 3990 3991 3992 3993 3994 3995 3996 3997 3998 3999 4000 4001 4002 4003 4004 4005 4006 4007 4008 4009 4010 4011 4012 4013 4014 4015 4016 4017 4018 4019 4020 4021 4022 4023 4024 4025 4026 4027 4028 4029 4030 4031 4032 4033 4034 4035 4036 4037 4038 4039 4040 4041 4042 4043 4044 4045 4046 4047 4048 4049 4050 4051 4052 4053 4054 4055 4056 4057 4058 4059 4060 4061 4062 4063 4064 4065 4066 4067 4068 4069 4070 4071 4072 4073 4074 4075 4076 4077 4078 4079 4080 4081 4082 4083 4084 4085 4086 4087 4088 4089 4090 4091 4092 4093 4094 4095 4096 4097 4098 4099 4100 4101 4102 4103 4104 4105 4106 4107 4108 4109 4110 4111 4112 4113 4114 4115 4116 4117 4118 4119 4120 4121 4122 4123 4124 4125 4126 4127 4128 4129 4130 4131 4132 4133 4134 4135 4136 4137 4138 4139 4140 4141 4142 4143 4144 4145 4146 4147 4148 4149 4150 4151 4152 4153 4154 4155 4156 4157 4158 4159 4160 4161 4162 4163 4164 4165 4166 4167 4168 4169 4170 4171 4172 4173 4174 4175 4176 4177 4178 4179 4180 4181 4182 4183 4184 4185 4186 4187 4188 4189 4190 4191 4192 4193 4194 4195 4196 4197 4198 4199 4200 4201 4202 4203 4204 4205 4206 4207 4208 4209 4210 4211 4212 4213 4214 4215 4216 4217 4218 4219 4220 4221 4222 4223 4224 4225 4226 4227 4228 4229 4230 4231 4232 4233 4234 4235 4236 4237 4238 4239 4240 4241 4242 4243 4244 4245 4246 4247 4248 4249 4250 4251 4252 4253 4254 4255 4256 4257 4258 4259 4260 4261 4262 4263 4264 4265 4266 4267 4268 4269 4270 4271 4272 4273 4274 4275 4276 4277 4278 4279 4280 4281 4282 4283 4284 4285 4286 4287 4288 4289 4290 4291 4292 4293 4294 4295 4296 4297 4298 4299 4300 4301 4302 4303 4304 4305 4306 4307 4308 4309 4310 4311 4312 4313 4314 4315 4316 4317 4318 4319 4320 4321 4322 4323 4324 4325 4326 4327 4328 4329 4330 4331 4332 4333 4334 4335 4336 4337 4338 4339 4340 4341 4342 4343 4344 4345 4346 4347 4348 4349 4350 4351 4352 4353 4354 4355 4356 4357 4358 4359 4360 4361 4362 4363 4364 4365 4366 4367 4368 4369 4370 4371 4372 4373 4374 4375 4376 4377 4378 4379 4380 4381 4382 4383 4384 4385 4386 4387 4388 4389 4390 4391 4392 4393 4394 4395 4396 4397 4398 4399 4400 4401 4402 4403 4404 4405 4406 4407 4408 4409 4410 4411 4412 4413 4414 4415 4416 4417 4418 4419 4420 4421 4422 4423 4424 4425 4426 4427 4428 4429 4430 4431 4432 4433 4434 4435 4436 4437 4438 4439 4440 4441 4442 4443 4444 4445 4446 4447 4448 4449 4450 4451 4452 4453 4454 4455 4456 4457 4458 4459 4460 4461 4462 4463 4464 4465 4466 4467 4468 4469 4470 4471 4472 4473 4474 4475 4476 4477 4478 4479 4480 4481 4482 4483 4484 4485 4486 4487 4488 4489 4490 4491 4492 4493 4494 4495 4496 4497 4498 4499 4500 4501 4502 4503 4504 4505 4506 4507 4508 4509 4510 4511 4512 4513 4514 4515 4516 4517 4518 4519 4520 4521 4522 4523 4524 4525 4526 4527 4528 4529 4530 4531 4532 4533 4534 4535 4536 4537 4538 4539 4540 4541 4542 4543 4544 4545 4546 4547 4548 4549 4550 4551 4552 4553 4554 4555 4556 4557 4558 4559 4560 4561 4562 4563 4564 4565 4566 4567 4568 4569 4570 4571 4572 4573 4574 4575 4576 4577 4578 4579 4580 4581 4582 4583 4584 4585 4586 4587 4588 4589 4590 4591 4592 4593 4594 4595 4596 4597 4598 4599 4600 4601 4602 4603 4604 4605 4606 4607 4608 4609 4610 4611 4612 4613 4614 4615 4616 4617 4618 4619 4620 4621 4622 4623 4624 4625 4626 4627 4628 4629 4630 4631 4632 4633 4634 4635 4636 4637 4638 4639 4640 4641 4642 4643 4644 4645 4646 4647 4648 4649 4650 4651 4652 4653 4654 4655 4656 4657 4658 4659 4660 4661 4662 4663 4664 4665 4666 4667 4668 4669 4670 4671 4672 4673 4674 4675 4676 4677 4678 4679 4680 4681 4682 4683 4684 4685 4686 4687 4688 4689 4690 4691 4692 4693 4694 4695 4696 4697 4698 4699 4700 4701 4702 4703 4704 4705 4706 4707 4708 4709 4710 4711 4712 4713 4714 4715 4716 4717 4718 4719 4720 4721 4722 4723 4724 4725 4726 4727 4728 4729 4730 4731 4732 4733 4734 4735 4736 4737 4738 4739 4740 4741 4742 4743 4744 4745 4746 4747 4748 4749 4750 4751 4752 4753 4754 4755 4756 4757 4758 4759 4760 4761 4762 4763 4764 4765 4766 4767 4768 4769 4770 4771 4772 4773 4774 4775 4776 4777 4778 4779 4780 4781 4782 4783 4784 4785 4786 4787 4788 4789 4790 4791 4792 4793 4794 4795 4796 4797 4798 4799 4800 4801 4802 4803 4804 4805 4806 4807 4808 4809 4810 4811 4812 4813 4814 4815 4816 4817 4818 4819 4820 4821 4822 4823 4824 4825 4826 4827 4828 4829 4830 4831 4832 4833 4834 4835 4836 4837 4838 4839 4840 4841 4842 4843 4844 4845 4846 4847 4848 4849 4850 4851 4852 4853 4854 4855 4856 4857 4858 4859 4860 4861 4862 4863 4864 4865 4866 4867 4868 4869 4870 4871 4872 4873 4874 4875 4876 4877 4878 4879 4880 4881 4882 4883 4884 4885 4886 4887 4888 4889 4890 4891 4892 4893 4894 4895 4896 4897 4898 4899 4900 4901 4902 4903 4904 4905 4906 4907 4908 4909 4910 4911 4912 4913 4914 4915 4916 4917 4918 4919 4920 4921 4922 4923 4924 4925 4926 4927 4928 4929 4930 4931 4932 4933 4934 4935 4936 4937 4938 4939 4940 4941 4942 4943 4944 4945 4946 4947 4948 4949 4950 4951 4952 4953 4954 4955 4956 4957 4958 4959 4960 4961 4962 4963 4964 4965 4966 4967 4968 4969 4970 4971 4972 4973 4974 4975 4976 4977 4978 4979 4980 4981 4982 4983 4984 4985 4986 4987 4988 4989 4990 4991 4992 4993 4994 4995 4996 4997 4998 4999 5000 5001 5002 5003 5004 5005 5006 5007 5008 5009 5010 5011 5012 5013 5014 5015 5016 5017 5018 5019 5020 5021 5022 5023 5024 5025 5026 5027 5028 5029 5030 5031 5032 5033 5034 5035 5036 5037 5038 5039 5040 5041 5042 5043 5044 5045 5046 5047 5048 5049 5050 5051 5052 5053 5054 5055 5056 5057 5058 5059 5060 5061 5062 5063 5064 5065 5066 5067 5068 5069 5070 5071 5072 5073 5074 5075 5076 5077 5078 5079 5080 5081 5082 5083 5084 5085 5086 5087 5088 5089 5090 5091 5092 5093 5094 5095 5096 5097 5098 5099 5100 5101 5102 5103 5104 5105 5106 5107 5108 5109 5110 5111 5112 5113 5114 5115 5116 5117 5118 5119 5120 5121 5122 5123 5124 5125 5126 5127 5128 5129 5130 5131 5132 5133 5134 5135 5136 5137 5138 5139 5140 5141 5142 5143 5144 5145 5146 5147 5148 5149 5150 5151 5152 5153 5154 5155 5156 5157 5158 5159 5160 5161 5162 5163 5164 5165 5166 5167 5168 5169 5170 5171 5172 5173 5174 5175 5176 5177 5178 5179 5180 5181 5182 5183 5184 5185 5186 5187 5188 5189 5190 5191 5192 5193 5194 5195 5196 5197 5198 5199 5200 5201 5202 5203 5204 5205 5206 5207 5208 5209 5210 5211 5212 5213 5214 5215 5216 5217 5218 5219 5220 5221 5222 5223 5224 5225 5226 5227 5228 5229 5230 5231 5232 5233 5234 5235 5236 5237 5238 5239 5240 5241 5242 5243 5244 5245 5246 5247 5248 5249 5250 5251 5252 5253 5254 5255 5256 5257 5258 5259 5260 5261 5262 5263 5264 5265 5266 5267 5268 5269 5270 5271 5272 5273 5274 5275 5276 5277 5278 5279 5280 5281 5282 5283 5284 5285 5286 5287 5288 5289 5290 5291 5292 5293 5294 5295 5296 5297 5298 5299 5300 5301 5302 5303 5304 5305 5306 5307 5308 5309 5310 5311 5312 5313 5314 5315 5316 5317 5318 5319 5320 5321 5322 5323 5324 5325 5326 5327 5328 5329 5330 5331 5332 5333 5334 5335 5336 5337 5338 5339 5340 5341 5342 5343 5344 5345 5346 5347 5348 5349 5350 5351 5352 5353 5354 5355 5356 5357 5358 5359 5360 5361 5362 5363 5364 5365 5366 5367 5368 5369 5370 5371 5372 5373 5374 5375 5376 5377 5378 5379 5380 5381 5382 5383 5384 5385 5386 5387 5388 5389 5390 5391 5392 5393 5394 5395 5396 5397 5398 5399 5400 5401 5402 5403 5404 5405 5406 5407 5408 5409 5410 5411 5412 5413 5414 5415 5416 5417 5418 5419 5420 5421 5422 5423 5424 5425 5426 5427 5428 5429 5430 5431 5432 5433 5434 5435 5436 5437 5438 5439 5440 5441 5442 5443 5444 5445 5446 5447 5448 5449 5450 5451 5452 5453 5454 5455 5456 5457 5458 5459 5460 5461 5462 5463 5464 5465 5466 5467 5468 5469 5470 5471 5472 5473 5474 5475 5476 5477 5478 5479 5480 5481 5482 5483 5484 5485 5486 5487 5488 5489 5490 5491 5492 5493 5494 5495 5496 5497 5498 5499 5500 5501 5502 5503 5504 5505 5506 5507 5508 5509 5510 5511 5512 5513 5514 5515 5516 5517 5518 5519 5520 5521 5522 5523 5524 5525 5526 5527 5528 5529 5530 5531 5532 5533 5534 5535 5536 5537 5538 5539 5540 5541 5542 5543 5544 5545 5546 5547 5548 5549 5550 5551 5552 5553 5554 5555 5556 5557 5558 5559 5560 5561 5562 5563 5564 5565 5566 5567 5568 5569 5570 5571 5572 5573 5574 5575 5576 5577 5578 5579 5580 5581 5582 5583 5584 5585 5586 5587 5588 5589 5590 5591 5592 5593 5594 5595 5596 5597 5598 5599 5600 5601 5602 5603 5604 5605 5606 5607 5608 5609 5610 5611 5612 5613 5614 5615 5616 5617 5618 5619 5620 5621 5622 5623 5624 5625 5626 5627 5628 5629 5630 5631 5632 5633 5634 5635 5636 5637 5638 5639 5640 5641 5642 5643 5644 5645 5646 5647 5648 5649 5650 5651 5652 5653 5654 5655 5656 5657 5658 5659 5660 5661 5662 5663 5664 5665 5666 5667 5668 5669 5670 5671 5672 5673 5674 5675 5676 5677 5678 5679 5680 5681 5682 5683 5684 5685 5686 5687 5688 5689 5690 5691 5692 5693 5694 5695 5696 5697 5698 5699 5700 5701 5702 5703 5704 5705 5706 5707 5708 5709 5710 5711 5712 5713 5714 5715 5716 5717 5718 5719 5720 5721 5722 5723 5724 5725 5726 5727 5728 5729 5730 5731 5732 5733 5734 5735 5736 5737 5738 5739 5740 5741 5742 5743 5744 5745 5746 5747 5748 5749 5750 5751 5752 5753 5754 5755 5756 5757 5758 5759 5760 5761 5762 5763 5764 5765 5766 5767 5768 5769 5770 5771 5772 5773 5774 5775 5776 5777 5778 5779 5780 5781 5782 5783 5784 5785 5786 5787 5788 5789 5790 5791 5792 5793 5794 5795 5796 5797 5798 5799 5800 5801 5802 5803 5804 5805 5806 5807 5808 5809 5810 5811 5812 5813 5814 5815 5816 5817 5818 5819 5820 5821 5822 5823 5824 5825 5826 5827 5828 5829 5830 5831 5832 5833 5834 5835 5836 5837 5838 5839 5840 5841 5842 5843 5844 5845 5846 5847 5848 5849 5850 5851 5852 5853 5854 5855 5856 5857 5858 5859 5860 5861 5862 5863 5864 5865 5866 5867 5868 5869 5870 5871 5872 5873 5874 5875 5876 5877 5878 5879 5880 5881 5882 5883 5884 5885 5886 5887 5888 5889 5890 5891 5892 5893 5894 5895 5896 5897 5898 5899 5900 5901 5902 5903 5904 5905 5906 5907 5908 5909 5910 5911 5912 5913 5914 5915 5916 5917 5918 5919 5920 5921 5922 5923 5924 5925 5926 5927 5928 5929 5930 5931 5932 5933 5934 5935 5936 5937 5938 5939 5940 5941 5942 5943 5944 5945 5946 5947 5948 5949 5950 5951 5952 5953 5954 5955 5956 5957 5958 5959 5960 5961 5962 5963 5964 5965 5966 5967 5968 5969 5970 5971 5972 5973 5974 5975 5976 5977 5978 5979 5980 5981 5982 5983 5984 5985 5986 5987 5988 5989 5990 5991 5992 5993 5994 5995 5996 5997 5998 5999 6000 6001 6002 6003 6004 6005 6006 6007 6008 6009 6010 6011 6012 6013 6014 6015 6016 6017 6018 6019 6020 6021 6022 6023 6024 6025 6026 6027 6028 6029 6030 6031 6032 6033 6034 6035 6036 6037 6038 6039 6040 6041 6042 6043 6044 6045 6046 6047 6048 6049 6050 6051 6052 6053 6054 6055 6056 6057 6058 6059 6060 6061 6062 6063 6064 6065 6066 6067 6068 6069 6070 6071 6072 6073 6074 6075 6076 6077 6078 6079 6080 6081 6082 6083 6084 6085 6086 6087 6088 6089 6090 6091 6092 6093 6094 6095 6096 6097 6098 6099 6100 6101 6102 6103 6104 6105 6106 6107 6108 6109 6110 6111 6112 6113 6114 6115 6116 6117 6118 6119 6120 6121 6122 6123 6124 6125 6126 6127 6128 6129 6130 6131 6132 6133 6134 6135 6136 6137 6138 6139 6140 6141 6142 6143 6144 6145 6146 6147 6148 6149 6150 6151 6152 6153 6154 6155 6156 6157 6158 6159 6160 6161 6162 6163 6164 6165 6166 6167 6168 6169 6170 6171 6172 6173 6174 6175 6176 6177 6178 6179 6180 6181 6182 6183 6184 6185 6186 6187 6188 6189 6190 6191 6192 6193 6194 6195 6196 6197 6198 6199 6200 6201 6202 6203 6204 6205 6206 6207 6208 6209 6210 6211 6212 6213 6214 6215 6216 6217 6218 6219 6220 6221 6222 6223 6224 6225 6226 6227 6228 6229 6230 6231 6232 6233 6234 6235 6236 6237 6238 6239 6240 6241 6242 6243 6244 6245 6246 6247 6248 6249 6250 6251 6252 6253 6254 6255 6256 6257 6258 6259 6260 6261 6262 6263 6264 6265 6266 6267 6268 6269 6270 6271 6272 6273 6274 6275 6276 6277 6278 6279 6280 6281 6282 6283 6284 6285 6286 6287 6288 6289 6290 6291 6292 6293 6294 6295 6296 6297 6298 6299 6300 6301 6302 6303 6304 6305 6306 6307 6308 6309 6310 6311 6312 6313 6314 6315 6316 6317 6318 6319 6320 6321 6322 6323 6324 6325 6326 6327 6328 6329 6330 6331 6332 6333 6334 6335 6336 6337 6338 6339 6340 6341 6342 6343 6344 6345 6346 6347 6348 6349 6350 6351 6352 6353 6354 6355 6356 6357 6358 6359 6360 6361 6362 6363 6364 6365 6366 6367 6368 6369 6370 6371 6372 6373 6374 6375 6376 6377 6378 6379 6380 6381 6382 6383 6384 6385 6386 6387 6388 6389 6390 6391 6392 6393 6394 6395 6396 6397 6398 6399 6400 6401 6402 6403 6404 6405 6406 6407 6408 6409 6410 6411 6412 6413 6414 6415 6416 6417 6418 6419 6420 6421 6422 6423 6424 6425 6426 6427 6428 6429 6430 6431 6432 6433 6434 6435 6436 6437 6438 6439 6440 6441 6442 6443 6444 6445 6446 6447 6448 6449 6450 6451 6452 6453 6454 6455 6456 6457 6458 6459 6460 6461 6462 6463 6464 6465 6466 6467 6468 6469 6470 6471 6472 6473 6474 6475 6476 6477 6478 6479 6480 6481 6482 6483 6484 6485 6486 6487 6488 6489 6490 6491 6492 6493 6494 6495 6496 6497 6498 6499 6500 6501 6502 6503 6504 6505 6506 6507 6508 6509 6510 6511 6512 6513 6514 6515 6516 6517 6518 6519 6520 6521 6522 6523 6524 6525 6526 6527 6528 6529 6530 6531 6532 6533 6534 6535 6536 6537 6538 6539 6540 6541 6542 6543 6544 6545 6546 6547 6548 6549 6550 6551 6552 6553 6554 6555 6556 6557 6558 6559 6560 6561 6562 6563 6564 6565 6566 6567 6568 6569 6570 6571 6572 6573 6574 6575 6576 6577 6578 6579 6580 6581 6582 6583 6584 6585 6586 6587 6588 6589 6590 6591 6592 6593 6594 6595 6596 6597 6598 6599 6600 6601 6602 6603 6604 6605 6606 6607 6608 6609 6610 6611 6612 6613 6614 6615 6616 6617 6618 6619 6620 6621 6622 6623 6624 6625 6626 6627 6628 6629 6630 6631 6632 6633 6634 6635 6636 6637 6638 6639 6640 6641 6642 6643 6644 6645 6646 6647 6648 6649 6650 6651 6652 6653 6654 6655 6656 6657 6658 6659 6660 6661 6662 6663 6664 6665 6666 6667 6668 6669 6670 6671 6672 6673 6674 6675 6676 6677 6678 6679 6680 6681 6682 6683 6684 6685 6686 6687 6688 6689 6690 6691 6692 6693 6694 6695 6696 6697 6698 6699 6700 6701 6702 6703 6704 6705 6706 6707 6708 6709 6710 6711 6712 6713 6714 6715 6716 6717 6718 6719 6720 6721 6722 6723 6724 6725 6726 6727 6728 6729 6730 6731 6732 6733 6734 6735 6736 6737 6738 6739 6740 6741 6742 6743 6744 6745 6746 6747 6748 6749 6750 6751 6752 6753 6754 6755 6756 6757 6758 6759 6760 6761 6762 6763 6764 6765 6766 6767 6768 6769 6770 6771 6772 6773 6774 6775 6776 6777 6778 6779 6780 6781 6782 6783 6784 6785 6786 6787 6788 6789 6790 6791 6792 6793 6794 6795 6796 6797 6798 6799 6800 6801 6802 6803 6804 6805 6806 6807 6808 6809 6810 6811 6812 6813 6814 6815 6816 6817 6818 6819 6820 6821 6822 6823 6824 6825 6826 6827 6828 6829 6830 6831 6832 6833 6834 6835 6836 6837 6838 6839 6840 6841 6842 6843 6844 6845 6846 6847 6848 6849 6850 6851 6852 6853 6854 6855 6856 6857 6858 6859 6860 6861 6862 6863 6864 6865 6866 6867 6868 6869 6870 6871 6872 6873 6874 6875 6876 6877 6878 6879 6880 6881 6882 6883 6884 6885 6886 6887 6888 6889 6890 6891 6892 6893 6894 6895 6896 6897 6898 6899 6900 6901 6902 6903 6904 6905 6906 6907 6908 6909 6910 6911 6912 6913 6914 6915 6916 6917 6918 6919 6920 6921 6922 6923 6924 6925 6926 6927 6928 6929 6930 6931 6932 6933 6934 6935 6936 6937 6938 6939 6940 6941 6942 6943 6944 6945 6946 6947 6948 6949 6950 6951 6952 6953 6954 6955 6956 6957 6958 6959 6960 6961 6962 6963 6964 6965 6966 6967 6968 6969 6970 6971 6972 6973 6974 6975 6976 6977 6978 6979 6980 6981 6982 6983 6984 6985 6986 6987 6988 6989 6990 6991 6992 6993 6994 6995 6996 6997 6998 6999 7000 7001 7002 7003 7004 7005 7006 7007 7008 7009 7010 7011 7012 7013 7014 7015 7016 7017 7018 7019 7020 7021 7022 7023 7024 7025 7026 7027 7028 7029 7030 7031 7032 7033 7034 7035 7036 7037 7038 7039 7040 7041 7042 7043 7044 7045 7046 7047 7048 7049 7050 7051 7052 7053 7054 7055 7056 7057 7058 7059 7060 7061 7062 7063 7064 7065 7066 7067 7068 7069 7070 7071 7072 7073 7074 7075 7076 7077 7078 7079 7080 7081 7082 7083 7084 7085 7086 7087 7088 7089 7090 7091 7092 7093 7094 7095 7096 7097 7098 7099 7100 7101 7102 7103 7104 7105 7106 7107 7108 7109 7110 7111 7112 7113 7114 7115 7116 7117 7118 7119 7120 7121 7122 7123 7124 7125 7126 7127 7128 7129 7130 7131 7132 7133 7134 7135 7136 7137 7138 7139 7140 7141 7142 7143 7144 7145 7146 7147 7148 7149 7150 7151 7152 7153 7154 7155 7156 7157 7158 7159 7160 7161 7162 7163 7164 7165 7166 7167 7168 7169 7170 7171 7172 7173 7174 7175 7176 7177 7178 7179 7180 7181 7182 7183 7184 7185 7186 7187 7188 7189 7190 7191 7192 7193 7194 7195 7196 7197 7198 7199 7200 7201 7202 7203 7204 7205 7206 7207 7208 7209 7210 7211 7212 7213 7214 7215 7216 7217 7218 7219 7220 7221 7222 7223 7224 7225 7226 7227 7228 7229 7230 7231 7232 7233 7234 7235 7236 7237 7238 7239 7240 7241 7242 7243 7244 7245 7246 7247 7248 7249 7250 7251 7252 7253 7254 7255 7256 7257 7258 7259 7260 7261 7262 7263 7264 7265 7266 7267 7268 7269 7270 7271 7272 7273 7274 7275 7276 7277 7278 7279 7280 7281 7282 7283 7284 7285 7286 7287 7288 7289 7290 7291 7292 7293 7294 7295 7296 7297 7298 7299 7300 7301 7302 7303 7304 7305 7306 7307 7308 7309 7310 7311 7312 7313 7314 7315 7316 7317 7318 7319 7320 7321 7322 7323 7324 7325 7326 7327 7328 7329 7330 7331 7332 7333 7334 7335 7336 7337 7338 7339 7340 7341 7342 7343 7344 7345 7346 7347 7348 7349 7350 7351 7352 7353 7354 7355 7356 7357 7358 7359 7360 7361 7362 7363 7364 7365 7366 7367 7368 7369 7370 7371 7372 7373 7374 7375 7376 7377 7378 7379 7380 7381 7382 7383 7384 7385 7386 7387 7388 7389 7390 7391 7392 7393 7394 7395 7396 7397 7398 7399 7400 7401 7402 7403 7404 7405 7406 7407 7408 7409 7410 7411 7412 7413 7414 7415 7416 7417 7418 7419 7420 7421 7422 7423 7424 7425 7426 7427 7428 7429 7430 7431 7432 7433 7434 7435 7436 7437 7438 7439 7440 7441 7442 7443 7444 7445 7446 7447 7448 7449 7450 7451 7452 7453 7454 7455 7456 7457 7458 7459 7460 7461 7462 7463 7464 7465 7466 7467 7468 7469 7470 7471 7472 7473 7474 7475 7476 7477 7478 7479 7480 7481 7482 7483 7484 7485 7486 7487 7488 7489 7490 7491 7492 7493 7494 7495 7496 7497 7498 7499 7500 7501 7502 7503 7504 7505 7506 7507 7508 7509 7510 7511 7512 7513 7514 7515 7516 7517 7518 7519 7520 7521 7522 7523 7524 7525 7526 7527 7528 7529 7530 7531 7532 7533 7534 7535 7536 7537 7538 7539 7540 7541 7542 7543 7544 7545 7546 7547 7548 7549 7550 7551 7552 7553 7554 7555 7556 7557 7558 7559 7560 7561 7562 7563 7564 7565 7566 7567 7568 7569 7570 7571 7572 7573 7574 7575 7576 7577 7578 7579 7580 7581 7582 7583 7584 7585 7586 7587 7588 7589 7590 7591 7592 7593 7594 7595 7596 7597 7598 7599 7600 7601 7602 7603 7604 7605 7606 7607 7608 7609 7610 7611 7612 7613 7614 7615 7616 7617 7618 7619 7620 7621 7622 7623 7624 7625 7626 7627 7628 7629 7630 7631 7632 7633 7634 7635 7636 7637 7638 7639 7640 7641 7642 7643 7644 7645 7646 7647 7648 7649 7650 7651 7652 7653 7654 7655 7656 7657 7658 7659 7660 7661 7662 7663 7664 7665 7666 7667 7668 7669 7670 7671 7672 7673 7674 7675 7676 7677 7678 7679 7680 7681 7682 7683 7684 7685 7686 7687 7688 7689 7690 7691 7692 7693 7694 7695 7696 7697 7698 7699 7700 7701 7702 7703 7704 7705 7706 7707 7708 7709 7710 7711 7712 7713 7714 7715 7716 7717 7718 7719 7720 7721 7722 7723 7724 7725 7726 7727 7728 7729 7730 7731 7732 7733 7734 7735 7736 7737 7738 7739 7740 7741 7742 7743 7744 7745 7746 7747 7748 7749 7750 7751 7752 7753 7754 7755 7756 7757 7758 7759 7760 7761 7762 7763 7764 7765 7766 7767 7768 7769 7770 7771 7772 7773 7774 7775 7776 7777 7778 7779 7780 7781 7782 7783 7784 7785 7786 7787 7788 7789 7790 7791 7792 7793 7794 7795 7796 7797 7798 7799 7800 7801 7802 7803 7804 7805 7806 7807 7808 7809 7810 7811 7812 7813 7814 7815 7816 7817 7818 7819 7820 7821 7822 7823 7824 7825 7826 7827 7828 7829 7830 7831 7832 7833 7834 7835 7836 7837 7838 7839 7840 7841 7842 7843 7844 7845 7846 7847 7848 7849 7850 7851 7852 7853 7854 7855 7856 7857 7858 7859 7860 7861 7862 7863 7864 7865 7866 7867 7868 7869 7870 7871 7872 7873 7874 7875 7876 7877 7878 7879 7880 7881 7882 7883 7884 7885 7886 7887 7888 7889 7890 7891 7892 7893 7894 7895 7896 7897 7898 7899 7900 7901 7902 7903 7904 7905 7906 7907 7908 7909 7910 7911 7912 7913 7914 7915 7916 7917 7918 7919 7920 7921 7922 7923 7924 7925 7926 7927 7928 7929 7930 7931 7932 7933 7934 7935 7936 7937 7938 7939 7940 7941 7942 7943 7944 7945 7946 7947 7948 7949 7950 7951 7952 7953 7954 7955 7956 7957 7958 7959 7960 7961 7962 7963 7964 7965 7966 7967 7968 7969 7970 7971 7972 7973 7974 7975 7976 7977 7978 7979 7980 7981 7982 7983 7984 7985 7986 7987 7988 7989 7990 7991 7992 7993 7994 7995 7996 7997 7998 7999 8000 8001 8002 8003 8004 8005 8006 8007 8008 8009 8010 8011 8012 8013 8014 8015 8016 8017 8018 8019 8020 8021 8022 8023 8024 8025 8026 8027 8028 8029 8030 8031 8032 8033 8034 8035 8036 8037 8038 8039 8040 8041 8042 8043 8044 8045 8046 8047 8048 8049 8050 8051 8052 8053 8054 8055 8056 8057 8058 8059 8060 8061 8062 8063 8064 8065 8066 8067 8068 8069 8070 8071 8072 8073 8074 8075 8076 8077 8078 8079 8080 8081 8082 8083 8084 8085 8086 8087 8088 8089 8090 8091 8092 8093 8094 8095 8096 8097 8098 8099 8100 8101 8102 8103 8104 8105 8106 8107 8108 8109 8110 8111 8112 8113 8114 8115 8116 8117 8118 8119 8120 8121 8122 8123 8124 8125 8126 8127 8128 8129 8130 8131 8132 8133 8134 8135 8136 8137 8138 8139 8140 8141 8142 8143 8144 8145 8146 8147 8148 8149 8150 8151 8152 8153 8154 8155 8156 8157 8158 8159 8160 8161 8162 8163 8164 8165 8166 8167 8168 8169 8170 8171 8172 8173 8174 8175 8176 8177 8178 8179 8180 8181 8182 8183 8184 8185 8186 8187 8188 8189 8190 8191 8192 8193 8194 8195 8196 8197 8198 8199 8200 8201 8202 8203 8204 8205 8206 8207 8208 8209 8210 8211 8212 8213 8214 8215 8216 8217 8218 8219 8220 8221 8222 8223 8224 8225 8226 8227 8228 8229 8230 8231 8232 8233 8234 8235 8236 8237 8238 8239 8240 8241 8242 8243 8244 8245 8246 8247 8248 8249 8250 8251 8252 8253 8254 8255 8256 8257 8258 8259 8260 8261 8262 8263 8264 8265 8266 8267 8268 8269 8270 8271 8272 8273 8274 8275 8276 8277 8278 8279 8280 8281 8282 8283 8284 8285 8286 8287 8288 8289 8290 8291 8292 8293 8294 8295 8296 8297 8298 8299 8300 8301 8302 8303 8304 8305 8306 8307 8308 8309 8310 8311 8312 8313 8314 8315 8316 8317 8318 8319 8320 8321 8322 8323 8324 8325 8326 8327 8328 8329 8330 8331 8332 8333 8334 8335 8336 8337 8338 8339 8340 8341 8342 8343 8344 8345 8346 8347 8348 8349 8350 8351 8352 8353 8354 8355 8356 8357 8358 8359 8360 8361 8362 8363 8364 8365 8366 8367 8368 8369 8370 8371 8372 8373 8374 8375 8376 8377 8378 8379 8380 8381 8382 8383 8384 8385 8386 8387 8388 8389 8390 8391 8392 8393 8394 8395 8396 8397 8398 8399 8400 8401 8402 8403 8404 8405 8406 8407 8408 8409 8410 8411 8412 8413 8414 8415 8416 8417 8418 8419 8420 8421 8422 8423 8424 8425 8426 8427 8428 8429 8430 8431 8432 8433 8434 8435 8436 8437 8438 8439 8440 8441 8442 8443 8444 8445 8446 8447 8448 8449 8450 8451 8452 8453 8454 8455 8456 8457 8458 8459 8460 8461 8462 8463 8464 8465 8466 8467 8468 8469 8470 8471 8472 8473 8474 8475 8476 8477 8478 8479 8480 8481 8482 8483 8484 8485 8486 8487 8488 8489 8490 8491 8492 8493 8494 8495 8496 8497 8498 8499 8500 8501 8502 8503 8504 8505 8506 8507 8508 8509 8510 8511 8512 8513 8514 8515 8516 8517 8518 8519 8520 8521 8522 8523 8524 8525 8526 8527 8528 8529 8530 8531 8532 8533 8534 8535 8536 8537 8538 8539 8540 8541 8542 8543 8544 8545 8546 8547 8548 8549 8550 8551 8552 8553 8554 8555 8556 8557 8558 8559 8560 8561 8562 8563 8564 8565 8566 8567 8568 8569 8570 8571 8572 8573 8574 8575 8576 8577 8578 8579 8580 8581 8582 8583 8584 8585 8586 8587 8588 8589 8590 8591 8592 8593 8594 8595 8596 8597 8598 8599 8600 8601 8602 8603 8604 8605 8606 8607 8608 8609 8610 8611 8612 8613 8614 8615 8616 8617 8618 8619 8620 8621 8622 8623 8624 8625 8626 8627 8628 8629 8630 8631 8632 8633 8634 8635 8636 8637 8638 8639 8640 8641 8642 8643 8644 8645 8646 8647 8648 8649 8650 8651 8652 8653 8654 8655 8656 8657 8658 8659 8660 8661 8662 8663 8664 8665 8666 8667 8668 8669 8670 8671 8672 8673 8674 8675 8676 8677 8678 8679 8680 8681 8682 8683 8684 8685 8686 8687 8688 8689 8690 8691 8692 8693 8694 8695 8696 8697 8698 8699 8700 8701 8702 8703 8704 8705 8706 8707 8708 8709 8710 8711 8712 8713 8714 8715 8716 8717 8718 8719 8720 8721 8722 8723 8724 8725 8726 8727 8728 8729 8730 8731 8732 8733 8734 8735 8736 8737 8738 8739 8740 8741 8742 8743 8744 8745 8746 8747 8748 8749 8750 8751 8752 8753 8754 8755 8756 8757 8758 8759 8760 8761 8762 8763 8764 8765 8766 8767 8768 8769 8770 8771 8772 8773 8774 8775 8776 8777 8778 8779 8780 8781 8782 8783 8784 8785 8786 8787 8788 8789 8790 8791 8792 8793 8794 8795 8796 8797 8798 8799 8800 8801 8802 8803 8804 8805 8806 8807 8808 8809 8810 8811 8812 8813 8814 8815 8816 8817 8818 8819 8820 8821 8822 8823 8824 8825 8826 8827 8828 8829 8830 8831 8832 8833 8834 8835 8836 8837 8838 8839 8840 8841 8842 8843 8844 8845 8846 8847 8848 8849 8850 8851 8852 8853 8854 8855 8856 8857 8858 8859 8860 8861 8862 8863 8864 8865 8866 8867 8868 8869 8870 8871 8872 8873 8874 8875 8876 8877 8878 8879 8880 8881 8882 8883 8884 8885 8886 8887 8888 8889 8890 8891 8892 8893 8894 8895 8896 8897 8898 8899 8900 8901 8902 8903 8904 8905 8906 8907 8908 8909 8910 8911 8912 8913 8914 8915 8916 8917 8918 8919 8920 8921 8922 8923 8924 8925 8926 8927 8928 8929 8930 8931 8932 8933 8934 8935 8936 8937 8938 8939 8940 8941 8942 8943 8944 8945 8946 8947 8948 8949 8950 8951 8952 8953 8954 8955 8956 8957 8958 8959 8960 8961 8962 8963 8964 8965 8966 8967 8968 8969 8970 8971 8972 8973 8974 8975 8976 8977 8978 8979 8980 8981 8982 8983 8984 8985 8986 8987 8988 8989 8990 8991 8992 8993 8994 8995 8996 8997 8998 8999 9000 9001 9002 9003 9004 9005 9006 9007 9008 9009 9010 9011 9012 9013 9014 9015 9016 9017 9018 9019 9020 9021 9022 9023 9024 9025 9026 9027 9028 9029 9030 9031 9032 9033 9034 9035 9036 9037 9038 9039 9040 9041 9042 9043 9044 9045 9046 9047 9048 9049 9050 9051 9052 9053 9054 9055 9056 9057 9058 9059 9060 9061 9062 9063 9064 9065 9066 9067 9068 9069 9070 9071 9072 9073 9074 9075 9076 9077 9078 9079 9080 9081 9082 9083 9084 9085 9086 9087 9088 9089 9090 9091 9092 9093 9094 9095 9096 9097 9098 9099 9100 9101 9102 9103 9104 9105 9106 9107 9108 9109 9110 9111 9112 9113 9114 9115 9116 9117 9118 9119 9120 9121 9122 9123 9124 9125 9126 9127 9128 9129 9130 9131 9132 9133 9134 9135 9136 9137 9138 9139 9140 9141 9142 9143 9144 9145 9146 9147 9148 9149 9150 9151 9152 9153 9154 9155 9156 9157 9158 9159 9160 9161 9162 9163 9164 9165 9166 9167 9168 9169 9170 9171 9172 9173 9174 9175 9176 9177 9178 9179 9180 9181 9182 9183 9184 9185 9186 9187 9188 9189 9190 9191 9192 9193 9194 9195 9196 9197 9198 9199 9200 9201 9202 9203 9204 9205 9206 9207 9208 9209 9210 9211 9212 9213 9214 9215 9216 9217 9218 9219 9220 9221 9222 9223 9224 9225 9226 9227 9228 9229 9230 9231 9232 9233 9234 9235 9236 9237 9238 9239 9240 9241 9242 9243 9244 9245 9246 9247 9248 9249 9250 9251 9252 9253 9254 9255 9256 9257 9258 9259 9260 9261 9262 9263 9264 9265 9266 9267 9268 9269 9270 9271 9272 9273 9274 9275 9276 9277 9278 9279 9280 9281 9282 9283 9284 9285 9286 9287 9288 9289 9290 9291 9292 9293 9294 9295 9296 9297 9298 9299 9300 9301 9302 9303 9304 9305 9306 9307 9308 9309 9310 9311 9312 9313 9314 9315 9316 9317 9318 9319 9320 9321 9322 9323 9324 9325 9326 9327 9328 9329 9330 9331 9332 9333 9334 9335 9336 9337 9338 9339 9340 9341 9342 9343 9344 9345 9346 9347 9348 9349 9350 9351 9352 9353 9354 9355 9356 9357 9358 9359 9360 9361 9362 9363 9364 9365 9366 9367 9368 9369 9370 9371 9372 9373 9374 9375 9376 9377 9378 9379 9380 9381 9382 9383 9384 9385 9386 9387 9388 9389 9390 9391 9392 9393 9394 9395 9396 9397 9398 9399 9400 9401 9402 9403 9404 9405 9406 9407 9408 9409 9410 9411 9412 9413 9414 9415 9416 9417 9418 9419 9420 9421 9422 9423 9424 9425 9426 9427 9428 9429 9430 9431 9432 9433 9434 9435 9436 9437 9438 9439 9440 9441 9442 9443 9444 9445 9446 9447 9448 9449 9450 9451 9452 9453 9454 9455 9456 9457 9458 9459 9460 9461 9462 9463 9464 9465 9466 9467 9468 9469 9470 9471 9472 9473 9474 9475 9476 9477 9478 9479 9480 9481 9482 9483 9484 9485 9486 9487 9488 9489 9490 9491 9492 9493 9494 9495 9496 9497 9498 9499 9500 9501 9502 9503 9504 9505 9506 9507 9508 9509 9510 9511 9512 9513 9514 9515 9516 9517 9518 9519 9520 9521 9522 9523 9524 9525 9526 9527 9528 9529 9530 9531 9532 9533 9534 9535 9536 9537 9538 9539 9540 9541 9542 9543 9544 9545 9546 9547 9548 9549 9550 9551 9552 9553 9554 9555 9556 9557 9558 9559 9560 9561 9562 9563 9564 9565 9566 9567 9568 9569 9570 9571 9572 9573 9574 9575 9576 9577 9578 9579 9580 9581 9582 9583 9584 9585 9586 9587 9588 9589 9590 9591 9592 9593 9594 9595 9596 9597 9598 9599 9600 9601 9602 9603 9604 9605 9606 9607 9608 9609 9610 9611 9612 9613 9614 9615 9616 9617 9618 9619 9620 9621 9622 9623 9624 9625 9626 9627 9628 9629 9630 9631 9632 9633 9634 9635 9636 9637 9638 9639 9640 9641 9642 9643 9644 9645 9646 9647 9648 9649 9650 9651 9652 9653 9654 9655 9656 9657 9658 9659 9660 9661 9662 9663 9664 9665 9666 9667 9668 9669 9670 9671 9672 9673 9674 9675 9676 9677 9678 9679 9680 9681 9682 9683 9684 9685 9686 9687 9688 9689 9690 9691 9692 9693 9694 9695 9696 9697 9698 9699 9700 9701 9702 9703 9704 9705 9706 9707 9708 9709 9710 9711 9712 9713 9714 9715 9716 9717 9718 9719 9720 9721 9722 9723 9724 9725 9726 9727 9728 9729 9730 9731 9732 9733 9734 9735 9736 9737 9738 9739 9740 9741 9742 9743 9744 9745 9746 9747 9748 9749 9750 9751 9752 9753 9754 9755 9756 9757 9758 9759 9760 9761 9762 9763 9764 9765 9766 9767 9768 9769 9770 9771 9772 9773 9774 9775 9776 9777 9778 9779 9780 9781 9782 9783 9784 9785 9786 9787 9788 9789 9790 9791 9792 9793 9794 9795 9796 9797 9798 9799 9800 9801 9802 9803 9804 9805 9806 9807 9808 9809 9810 9811 9812 9813 9814 9815 9816 9817 9818 9819 9820 9821 9822 9823 9824 9825 9826 9827 9828 9829 9830 9831 9832 9833 9834 9835 9836 9837 9838 9839 9840 9841 9842 9843 9844 9845 9846 9847 9848 9849 9850 9851 9852 9853 9854 9855 9856 9857 9858 9859 9860 9861 9862 9863 9864 9865 9866 9867 9868 9869 9870 9871 9872 9873 9874 9875 9876 9877 9878 9879 9880 9881 9882 9883 9884 9885 9886 9887 9888 9889 9890 9891 9892 9893 9894 9895 9896 9897 9898 9899 9900 9901 9902 9903 9904 9905 9906 9907 9908 9909 9910 9911 9912 9913 9914 9915 9916 9917 9918 9919 9920 9921 9922 9923 9924 9925 9926 9927 9928 9929 9930 9931 9932 9933 9934 9935 9936 9937 9938 9939 9940 9941 9942 9943 9944 9945 9946 9947 9948 9949 9950 9951 9952 9953 9954 9955 9956 9957 9958 9959 9960 9961 9962 9963 9964 9965 9966 9967 9968 9969 9970 9971 9972 9973 9974 9975 9976 9977 9978 9979 9980 9981 9982 9983 9984 9985 9986 9987 9988 9989 9990 9991 9992 9993 9994 9995 9996 9997 9998 9999 10000 10001 10002 10003 10004 10005 10006 10007 10008 10009 10010 10011 10012 10013 10014 10015 10016 10017 10018 10019 10020 10021 10022 10023 10024 10025 10026 10027 10028 10029 10030 10031 10032 10033 10034 10035 10036 10037 10038 10039 10040 10041 10042 10043 10044 10045 10046 10047 10048 10049 10050 10051 10052 10053 10054 10055 10056 10057 10058 10059 10060 10061 10062 10063 10064 10065 10066 10067 10068 10069 10070 10071 10072 10073 10074 10075 10076 10077 10078 10079 10080 10081 10082 10083 10084 10085 10086 10087 10088 10089 10090 10091 10092 10093 10094 10095 10096 10097 10098 10099 10100 10101 10102 10103 10104 10105 10106 10107 10108 10109 10110 10111 10112 10113 10114 10115 10116 10117 10118 10119 10120 10121 10122 10123 10124 10125 10126 10127 10128 10129 10130 10131 10132 10133 10134 10135 10136 10137 10138 10139 10140 10141 10142 10143 10144 10145 10146 10147 10148 10149 10150 10151 10152 10153 10154 10155 10156 10157 10158 10159 10160 10161 10162 10163 10164 10165 10166 10167 10168 10169 10170 10171 10172 10173 10174 10175 10176 10177 10178 10179 10180 10181 10182 10183 10184 10185 10186 10187 10188 10189 10190 10191 10192 10193 10194 10195 10196 10197 10198 10199 10200 10201 10202 10203 10204 10205 10206 10207 10208 10209 10210 10211 10212 10213 10214 10215 10216 10217 10218 10219 10220 10221 10222 10223 10224 10225 10226 10227 10228 10229 10230 10231 10232 10233 10234 10235 10236 10237 10238 10239 10240 10241 10242 10243 10244 10245 10246 10247 10248 10249 10250 10251 10252 10253 10254 10255 10256 10257 10258 10259 10260 10261 10262 10263 10264 10265 10266 10267 10268 10269 10270 10271 10272 10273 10274 10275 10276 10277 10278 10279 10280 10281 10282 10283 10284 10285 10286 10287 10288 10289 10290 10291 10292 10293 10294 10295 10296 10297 10298 10299 10300 10301 10302 10303 10304 10305 10306 10307 10308 10309 10310 10311 10312 10313 10314 10315 10316 10317 10318 10319 10320 10321 10322 10323 10324 10325 10326 10327 10328 10329 10330 10331 10332 10333 10334 10335 10336 10337 10338 10339 10340 10341 10342 10343 10344 10345 10346 10347 10348 10349 10350 10351 10352 10353 10354 10355 10356 10357 10358 10359 10360 10361 10362 10363 10364 10365 10366 10367 10368 10369 10370 10371 10372 10373 10374 10375 10376 10377 10378 10379 10380 10381 10382 10383 10384 10385 10386 10387 10388 10389 10390 10391 10392 10393 10394 10395 10396 10397 10398 10399 10400 10401 10402 10403 10404 10405 10406 10407 10408 10409 10410 10411 10412 10413 10414 10415 10416 10417 10418 10419 10420 10421 10422 10423 10424 10425 10426 10427 10428 10429 10430 10431 10432 10433 10434 10435 10436 10437 10438 10439 10440 10441 10442 10443 10444 10445 10446 10447 10448 10449 10450 10451 10452 10453 10454 10455 10456 10457 10458 10459 10460 10461 10462 10463 10464 10465 10466 10467 10468 10469 10470 10471 10472 10473 10474 10475 10476 10477 10478 10479 10480 10481 10482 10483 10484 10485 10486 10487 10488 10489 10490 10491 10492 10493 10494 10495 10496 10497 10498 10499 10500 10501 10502 10503 10504 10505 10506 10507 10508 10509 10510 10511 10512 10513 10514 10515 10516 10517 10518 10519 10520 10521 10522 10523 10524 10525 10526 10527 10528 10529 10530 10531 10532 10533 10534 10535 10536 10537 10538 10539 10540 10541 10542 10543 10544 10545 10546 10547 10548 10549 10550 10551 10552 10553 10554 10555 10556 10557 10558 10559 10560 10561 10562 10563 10564 10565 10566 10567 10568 10569 10570 10571 10572 10573 10574 10575 10576 10577 10578 10579 10580 10581 10582 10583 10584 10585 10586 10587 10588 10589 10590 10591 10592 10593 10594 10595 10596 10597 10598 10599 10600 10601 10602 10603 10604 10605 10606 10607 10608 10609 10610 10611 10612 10613 10614 10615 10616 10617 10618 10619 10620 10621 10622 10623 10624 10625 10626 10627 10628 10629 10630 10631 10632 10633 10634 10635 10636 10637 10638 10639 10640 10641 10642 10643 10644 10645 10646 10647 10648 10649 10650 10651 10652 10653 10654 10655 10656 10657 10658 10659 10660 10661 10662 10663 10664 10665 10666 10667 10668 10669 10670 10671 10672 10673 10674 10675 10676 10677 10678 10679 10680 10681 10682 10683 10684 10685 10686 10687 10688 10689 10690 10691 10692 10693 10694 10695 10696 10697 10698 10699 10700 10701 10702 10703 10704 10705 10706 10707 10708 10709 10710 10711 10712 10713 10714 10715 10716 10717 10718 10719 10720 10721 10722 10723 10724 10725 10726 10727 10728 10729 10730 10731 10732 10733 10734 10735 10736 10737 10738 10739 10740 10741 10742 10743 10744 10745 10746 10747 10748 10749 10750 10751 10752 10753 10754 10755 10756 10757 10758 10759 10760 10761 10762 10763 10764 10765 10766 10767 10768 10769 10770 10771 10772 10773 10774 10775 10776 10777 10778 10779 10780 10781 10782 10783 10784 10785 10786 10787 10788 10789 10790 10791 10792 10793 10794 10795 10796 10797 10798 10799 10800 10801 10802 10803 10804 10805 10806 10807 10808 10809 10810 10811 10812 10813 10814 10815 10816 10817 10818 10819 10820 10821 10822 10823 10824 10825 10826 10827 10828 10829 10830 10831 10832 10833 10834 10835 10836 10837 10838 10839 10840 10841 10842 10843 10844 10845 10846 10847 10848 10849 10850 10851 10852 10853 10854 10855 10856 10857 10858 10859 10860 10861 10862 10863 10864 10865 10866 10867 10868 10869 10870 10871 10872 10873 10874 10875 10876 10877 10878 10879 10880 10881 10882 10883 10884 10885 10886 10887 10888 10889 10890 10891 10892 10893 10894 10895 10896 10897 10898 10899 10900 10901 10902 10903 10904 10905 10906 10907 10908 10909 10910 10911 10912 10913 10914 10915 10916 10917 10918 10919 10920 10921 10922 10923 10924 10925 10926 10927 10928 10929 10930 10931 10932 10933 10934 10935 10936 10937 10938 10939 10940 10941 10942 10943 10944 10945 10946 10947 10948 10949 10950 10951 10952 10953 10954 10955 10956 10957 10958 10959 10960 10961 10962 10963 10964 10965 10966 10967 10968 10969 10970 10971 10972 10973 10974 10975 10976 10977 10978 10979 10980 10981 10982 10983 10984 10985 10986 10987 10988 10989 10990 10991 10992 10993 10994 10995 10996 10997 10998 10999 11000 11001 11002 11003 11004 11005 11006 11007 11008 11009 11010 11011 11012 11013 11014 11015 11016 11017 11018 11019 11020 11021 11022 11023 11024 11025 11026 11027 11028 11029 11030 11031 11032 11033 11034 11035 11036 11037 11038 11039 11040 11041 11042 11043 11044 11045 11046 11047 11048 11049 11050 11051 11052 11053 11054 11055 11056 11057 11058 11059 11060 11061 11062 11063 11064 11065 11066 11067 11068 11069 11070 11071 11072 11073 11074 11075 11076 11077 11078 11079 11080 11081 11082 11083 11084 11085 11086 11087 11088 11089 11090 11091 11092 11093 11094 11095 11096 11097 11098 11099 11100 11101 11102 11103 11104 11105 11106 11107 11108 11109 11110 11111 11112 11113 11114 11115 11116 11117 11118 11119 11120 11121 11122 11123 11124 11125 11126 11127 11128 11129 11130 11131 11132 11133 11134 11135 11136 11137 11138 11139 11140 11141 11142 11143 11144 11145 11146 11147 11148 11149 11150 11151 11152 11153 11154 11155 11156 11157 11158 11159 11160 11161 11162 11163 11164 11165 11166 11167 11168 11169 11170 11171 11172 11173 11174 11175 11176 11177 11178 11179 11180 11181 11182 11183 11184 11185 11186 11187 11188 11189 11190 11191 11192 11193 11194 11195 11196 11197 11198 11199 11200 11201 11202 11203 11204 11205 11206 11207 11208 11209 11210 11211 11212 11213 11214 11215 11216 11217 11218 11219 11220 11221 11222 11223 11224 11225 11226 11227 11228 11229 11230 11231 11232 11233 11234 11235 11236 11237 11238 11239 11240 11241 11242 11243 11244 11245 11246 11247 11248 11249 11250 11251 11252 11253 11254 11255 11256 11257 11258 11259 11260 11261 11262 11263 11264 11265 11266 11267 11268 11269 11270 11271 11272 11273 11274 11275 11276 11277 11278 11279 11280 11281 11282 11283 11284 11285 11286 11287 11288 11289 11290 11291 11292 11293 11294 11295 11296 11297 11298 11299 11300 11301 11302 11303 11304 11305 11306 11307 11308 11309 11310 11311 11312 11313 11314 11315 11316 11317 11318 11319 11320 11321 11322 11323 11324 11325 11326 11327 11328 11329 11330 11331 11332 11333 11334 11335 11336 11337 11338 11339 11340 11341 11342 11343 11344 11345 11346 11347 11348 11349 11350 11351 11352 11353 11354 11355 11356 11357 11358 11359 11360 11361 11362 11363 11364 11365 11366 11367 11368 11369 11370 11371 11372 11373 11374 11375 11376 11377 11378 11379 11380 11381 11382 11383 11384 11385 11386 11387 11388 11389 11390 11391 11392 11393 11394 11395 11396 11397 11398 11399 11400 11401 11402 11403 11404 11405 11406 11407 11408 11409 11410 11411 11412 11413 11414 11415 11416 11417 11418 11419 11420 11421 11422 11423 11424 11425 11426 11427 11428 11429 11430 11431 11432 11433 11434 11435 11436 11437 11438 11439 11440 11441 11442 11443 11444 11445 11446 11447 11448 11449 11450 11451 11452 11453 11454 11455 11456 11457 11458 11459 11460 11461 11462 11463 11464 11465 11466 11467 11468 11469 11470 11471 11472 11473 11474 11475 11476 11477 11478 11479 11480 11481 11482 11483 11484 11485 11486 11487 11488 11489 11490 11491 11492 11493 11494 11495 11496 11497 11498 11499 11500 11501 11502 11503 11504 11505 11506 11507 11508 11509 11510 11511 11512 11513 11514 11515 11516 11517 11518 11519 11520 11521 11522 11523 11524 11525 11526 11527 11528 11529 11530 11531 11532 11533 11534 11535 11536 11537 11538 11539 11540 11541 11542 11543 11544 11545 11546 11547 11548 11549 11550 11551 11552 11553 11554 11555 11556 11557 11558 11559 11560 11561 11562 11563 11564 11565 11566 11567 11568 11569 11570 11571 11572 11573 11574 11575 11576 11577 11578 11579 11580 11581 11582 11583 11584 11585 11586 11587 11588 11589 11590 11591 11592 11593 11594 11595 11596 11597 11598 11599 11600 11601 11602 11603 11604 11605 11606 11607 11608 11609 11610 11611 11612 11613 11614 11615 11616 11617 11618 11619 11620 11621 11622 11623 11624 11625 11626 11627 11628 11629 11630 11631 11632 11633 11634 11635 11636 11637 11638 11639 11640 11641 11642 11643 11644 11645 11646 11647 11648 11649 11650 11651 11652 11653 11654 11655 11656 11657 11658 11659 11660 11661 11662 11663 11664 11665 11666 11667 11668 11669 11670 11671 11672 11673 11674 11675 11676 11677 11678 11679 11680 11681 11682 11683 11684 11685 11686 11687 11688 11689 11690 11691 11692 11693 11694 11695 11696 11697 11698 11699 11700 11701 11702 11703 11704 11705 11706 11707 11708 11709 11710 11711 11712 11713 11714 11715 11716 11717 11718 11719 11720 11721 11722 11723 11724 11725 11726 11727 11728 11729 11730 11731 11732 11733 11734 11735 11736 11737 11738 11739 11740 11741 11742 11743 11744 11745 11746 11747 11748 11749 11750 11751 11752 11753 11754 11755 11756 11757 11758 11759 11760 11761 11762 11763 11764 11765 11766 11767 11768 11769 11770 11771 11772 11773 11774 11775 11776 11777 11778 11779 11780 11781 11782 11783 11784 11785 11786 11787 11788 11789 11790 11791 11792 11793 11794 11795 11796 11797 11798 11799 11800 11801 11802 11803 11804 11805 11806 11807 11808 11809 11810 11811 11812 11813 11814 11815 11816 11817 11818 11819 11820 11821 11822 11823 11824 11825 11826 11827 11828 11829 11830 11831 11832 11833 11834 11835 11836 11837 11838 11839 11840 11841 11842 11843 11844 11845 11846 11847 11848 11849 11850 11851 11852 11853 11854 11855 11856 11857 11858 11859 11860 11861 11862 11863 11864 11865 11866 11867 11868 11869 11870 11871 11872 11873 11874 11875 11876 11877 11878 11879 11880 11881 11882 11883 11884 11885 11886 11887 11888 11889 11890 11891 11892 11893 11894 11895 11896 11897 11898 11899 11900 11901 11902 11903 11904 11905 11906 11907 11908 11909 11910 11911 11912 11913 11914 11915 11916 11917 11918 11919 11920 11921 11922 11923 11924 11925 11926 11927 11928 11929 11930 11931 11932 11933 11934 11935 11936 11937 11938 11939 11940 11941 11942 11943 11944 11945 11946 11947 11948 11949 11950 11951 11952 11953 11954 11955 11956 11957 11958 11959 11960 11961 11962 11963 11964 11965 11966 11967 11968 11969 11970 11971 11972 11973 11974 11975 11976 11977 11978 11979 11980 11981 11982 11983 11984 11985 11986 11987 11988 11989 11990 11991 11992 11993 11994 11995 11996 11997 11998 11999 12000 12001 12002 12003 12004 12005 12006 12007 12008 12009 12010 12011 12012 12013 12014 12015 12016 12017 12018 12019 12020 12021 12022 12023 12024 12025 12026 12027 12028 12029 12030 12031 12032 12033 12034 12035 12036 12037 12038 12039 12040 12041 12042 12043 12044 12045 12046 12047 12048 12049 12050 12051 12052 12053 12054 12055 12056 12057 12058 12059 12060 12061 12062 12063 12064 12065 12066 12067 12068 12069 12070 12071 12072 12073 12074 12075 12076 12077 12078 12079 12080 12081 12082 12083 12084 12085 12086 12087 12088 12089 12090 12091 12092 12093 12094 12095 12096 12097 12098 12099 12100 12101 12102 12103 12104 12105 12106 12107 12108 12109 12110 12111 12112 12113 12114 12115 12116 12117 12118 12119 12120 12121 12122 12123 12124 12125 12126 12127 12128 12129 12130 12131 12132 12133 12134 12135 12136 12137 12138 12139 12140 12141 12142 12143 12144 12145 12146 12147 12148 12149 12150 12151 12152 12153 12154 12155 12156 12157 12158 12159 12160 12161 12162 12163 12164 12165 12166 12167 12168 12169 12170 12171 12172 12173 12174 12175 12176 12177 12178 12179 12180 12181 12182 12183 12184 12185 12186 12187 12188 12189 12190 12191 12192 12193 12194 12195 12196 12197 12198 12199 12200 12201 12202 12203 12204 12205 12206 12207 12208 12209 12210 12211 12212 12213 12214 12215 12216 12217 12218 12219 12220 12221 12222 12223 12224 12225 12226 12227 12228 12229 12230 12231 12232 12233 12234 12235 12236 12237 12238 12239 12240 12241 12242 12243 12244 12245 12246 12247 12248 12249 12250 12251 12252 12253 12254 12255 12256 12257 12258 12259 12260 12261 12262 12263 12264 12265 12266 12267 12268 12269 12270 12271 12272 12273 12274 12275 12276 12277 12278 12279 12280 12281 12282 12283 12284 12285 12286 12287 12288 12289 12290 12291 12292 12293 12294 12295 12296 12297 12298 12299 12300 12301 12302 12303 12304 12305 12306 12307 12308 12309 12310 12311 12312 12313 12314 12315 12316 12317 12318 12319 12320 12321 12322 12323 12324 12325 12326 12327 12328 12329 12330 12331 12332 12333 12334 12335 12336 12337 12338 12339 12340 12341 12342 12343 12344 12345 12346 12347 12348 12349 12350 12351 12352 12353 12354 12355 12356 12357 12358 12359 12360 12361 12362 12363 12364 12365 12366 12367 12368 12369 12370 12371 12372 12373 12374 12375 12376 12377 12378 12379 12380 12381 12382 12383 12384 12385 12386 12387 12388 12389 12390 12391 12392 12393 12394 12395 12396 12397 12398 12399 12400 12401 12402 12403 12404 12405 12406 12407 12408 12409 12410 12411 12412 12413 12414 12415 12416 12417 12418 12419 12420 12421 12422 12423 12424 12425 12426 12427 12428 12429 12430 12431 12432 12433 12434 12435 12436 12437 12438 12439 12440 12441 12442 12443 12444 12445 12446 12447 12448 12449 12450 12451 12452 12453 12454 12455 12456 12457 12458 12459 12460 12461 12462 12463 12464 12465 12466 12467 12468 12469 12470 12471 12472 12473 12474 12475 12476 12477 12478 12479 12480 12481 12482 12483 12484 12485 12486 12487 12488 12489 12490 12491 12492 12493 12494 12495 12496 12497 12498 12499 12500 12501 12502 12503 12504 12505 12506 12507 12508 12509 12510 12511 12512 12513 12514 12515 12516 12517 12518 12519 12520 12521 12522 12523 12524 12525 12526 12527 12528 12529 12530 12531 12532 12533 12534 12535 12536 12537 12538 12539 12540 12541 12542 12543 12544 12545 12546 12547 12548 12549 12550 12551 12552 12553 12554 12555 12556 12557 12558 12559 12560 12561 12562 12563 12564 12565 12566 12567 12568 12569 12570 12571 12572 12573 12574 12575 12576 12577 12578 12579 12580 12581 12582 12583 12584 12585 12586 12587 12588 12589 12590 12591 12592 12593 12594 12595 12596 12597 12598 12599 12600 12601 12602 12603 12604 12605 12606 12607 12608 12609 12610 12611 12612 12613 12614 12615 12616 12617 12618 12619 12620 12621 12622 12623 12624 12625 12626 12627 12628 12629 12630 12631 12632 12633 12634 12635 12636 12637 12638 12639 12640 12641 12642 12643 12644 12645 12646 12647 12648 12649 12650 12651 12652 12653 12654 12655 12656 12657 12658 12659 12660 12661 12662 12663 12664 12665 12666 12667 12668 12669 12670 12671 12672 12673 12674 12675 12676 12677 12678 12679 12680 12681 12682 12683 12684 12685 12686 12687 12688 12689 12690 12691 12692 12693 12694 12695 12696 12697 12698 12699 12700 12701 12702 12703 12704 12705 12706 12707 12708 12709 12710 12711 12712 12713 12714 12715 12716 12717 12718 12719 12720 12721 12722 12723 12724 12725 12726 12727 12728 12729 12730 12731 12732 12733 12734 12735 12736 12737 12738 12739 12740 12741 12742 12743 12744 12745 12746 12747 12748 12749 12750 12751 12752 12753 12754 12755 12756 12757 12758 12759 12760 12761 12762 12763 12764 12765 12766 12767 12768 12769 12770 12771 12772 12773 12774 12775 12776 12777 12778 12779 12780 12781 12782 12783 12784 12785 12786 12787 12788 12789 12790 12791 12792 12793 12794 12795 12796 12797 12798 12799 12800 12801 12802 12803 12804 12805 12806 12807 12808 12809 12810 12811 12812 12813 12814 12815 12816 12817 12818 12819 12820 12821 12822 12823 12824 12825 12826 12827 12828 12829 12830 12831 12832 12833 12834 12835 12836 12837 12838 12839 12840 12841 12842 12843 12844 12845 12846 12847 12848 12849 12850 12851 12852 12853 12854 12855 12856 12857 12858 12859 12860 12861 12862 12863 12864 12865 12866 12867 12868 12869 12870 12871 12872 12873 12874 12875 12876 12877 12878 12879 12880 12881 12882 12883 12884 12885 12886 12887 12888 12889 12890 12891 12892 12893 12894 12895 12896 12897 12898 12899 12900 12901 12902 12903 12904 12905 12906 12907 12908 12909 12910 12911 12912 12913 12914 12915 12916 12917 12918 12919 12920 12921 12922 12923 12924 12925 12926 12927 12928 12929 12930 12931 12932 12933 12934 12935 12936 12937 12938 12939 12940 12941 12942 12943 12944 12945 12946 12947 12948 12949 12950 12951 12952 12953 12954 12955 12956 12957 12958 12959 12960 12961 12962 12963 12964 12965 12966 12967 12968 12969 12970 12971 12972 12973 12974 12975 12976 12977 12978 12979 12980 12981 12982 12983 12984 12985 12986 12987 12988 12989 12990 12991 12992 12993 12994 12995 12996 12997 12998 12999 13000 13001 13002 13003 13004 13005 13006 13007 13008 13009 13010 13011 13012 13013 13014 13015 13016 13017 13018 13019 13020 13021 13022 13023 13024 13025 13026 13027 13028 13029 13030 13031 13032 13033 13034 13035 13036 13037 13038 13039 13040 13041 13042 13043 13044 13045 13046 13047 13048 13049 13050 13051 13052 13053 13054 13055 13056 13057 13058 13059 13060 13061 13062 13063 13064 13065 13066 13067 13068 13069 13070 13071 13072 13073 13074 13075 13076 13077 13078 13079 13080 13081 13082 13083 13084 13085 13086 13087 13088 13089 13090 13091 13092 13093 13094 13095 13096 13097 13098 13099 13100 13101 13102 13103 13104 13105 13106 13107 13108 13109 13110 13111 13112 13113 13114 13115 13116 13117 13118 13119 13120 13121 13122 13123 13124 13125 13126 13127 13128 13129 13130 13131 13132 13133 13134 13135 13136 13137 13138 13139 13140 13141 13142 13143 13144 13145 13146 13147 13148 13149 13150 13151 13152 13153 13154 13155 13156 13157 13158 13159 13160 13161 13162 13163 13164 13165 13166 13167 13168 13169 13170 13171 13172 13173 13174 13175 13176 13177 13178 13179 13180 13181 13182 13183 13184 13185 13186 13187 13188 13189 13190 13191 13192 13193 13194 13195 13196 13197 13198 13199 13200 13201 13202 13203 13204 13205 13206 13207 13208 13209 13210 13211 13212 13213 13214 13215 13216 13217 13218 13219 13220 13221 13222 13223 13224 13225 13226 13227 13228 13229 13230 13231 13232 13233 13234 13235 13236 13237 13238 13239 13240 13241 13242 13243 13244 13245 13246 13247 13248 13249 13250 13251 13252 13253 13254 13255 13256 13257 13258 13259 13260 13261 13262 13263 13264 13265 13266 13267 13268 13269 13270 13271 13272 13273 13274 13275 13276 13277 13278 13279 13280 13281 13282 13283 13284 13285 13286 13287 13288 13289 13290 13291 13292 13293 13294 13295 13296 13297 13298 13299 13300 13301 13302 13303 13304 13305 13306 13307 13308 13309 13310 13311 13312 13313 13314 13315 13316 13317 13318 13319 13320 13321 13322 13323 13324 13325 13326 13327 13328 13329 13330 13331 13332 13333 13334 13335 13336 13337 13338 13339 13340 13341 13342 13343 13344 13345 13346 13347 13348 13349 13350 13351 13352 13353 13354 13355 13356 13357 13358 13359 13360 13361 13362 13363 13364 13365 13366 13367 13368 13369 13370 13371 13372 13373 13374 13375 13376 13377 13378 13379 13380 13381 13382 13383 13384 13385 13386 13387 13388 13389 13390 13391 13392 13393 13394 13395 13396 13397 13398 13399 13400 13401 13402 13403 13404 13405 13406 13407 13408 13409 13410 13411 13412 13413 13414 13415 13416 13417 13418 13419 13420 13421 13422 13423 13424 13425 13426 13427 13428 13429 13430 13431 13432 13433 13434 13435 13436 13437 13438 13439 13440 13441 13442 13443 13444 13445 13446 13447 13448 13449 13450 13451 13452 13453 13454 13455 13456 13457 13458 13459 13460 13461 13462 13463 13464 13465 13466 13467 13468 13469 13470 13471 13472 13473 13474 13475 13476 13477 13478 13479 13480 13481 13482 13483 13484 13485 13486 13487 13488 13489 13490 13491 13492 13493 13494 13495 13496 13497 13498 13499 13500 13501 13502 13503 13504 13505 13506 13507 13508 13509 13510 13511 13512 13513 13514 13515 13516 13517 13518 13519 13520 13521 13522 13523 13524 13525 13526 13527 13528 13529 13530 13531 13532 13533 13534 13535 13536 13537 13538 13539 13540 13541 13542 13543 13544 13545 13546 13547 13548 13549 13550 13551 13552 13553 13554 13555 13556 13557 13558 13559 13560 13561 13562 13563 13564 13565 13566 13567 13568 13569 13570 13571 13572 13573 13574 13575 13576 13577 13578 13579 13580 13581 13582 13583 13584 13585 13586 13587 13588 13589 13590 13591 13592 13593 13594 13595 13596 13597 13598 13599 13600 13601 13602 13603 13604 13605 13606 13607 13608 13609 13610 13611 13612 13613 13614 13615 13616 13617 13618 13619 13620 13621 13622 13623 13624 13625 13626 13627 13628 13629 13630 13631 13632 13633 13634 13635 13636 13637 13638 13639 13640 13641 13642 13643 13644 13645 13646 13647 13648 13649 13650 13651 13652 13653 13654 13655 13656 13657 13658 13659 13660 13661 13662 13663 13664 13665 13666 13667 13668 13669 13670 13671 13672 13673 13674 13675 13676 13677 13678 13679 13680 13681 13682 13683 13684 13685 13686 13687 13688 13689 13690 13691 13692 13693 13694 13695 13696 13697 13698 13699 13700 13701 13702 13703 13704 13705 13706 13707 13708 13709 13710 13711 13712 13713 13714 13715 13716 13717 13718 13719 13720 13721 13722 13723 13724 13725 13726 13727 13728 13729 13730 13731 13732 13733 13734 13735 13736 13737 13738 13739 13740 13741 13742 13743 13744 13745 13746 13747 13748 13749 13750 13751 13752 13753 13754 13755 13756 13757 13758 13759 13760 13761 13762 13763 13764 13765 13766 13767 13768 13769 13770 13771 13772 13773 13774 13775 13776 13777 13778 13779 13780 13781 13782 13783 13784 13785 13786 13787 13788 13789 13790 13791 13792 13793 13794 13795 13796 13797 13798 13799 13800 13801 13802 13803 13804 13805 13806 13807 13808 13809 13810 13811 13812 13813 13814 13815 13816 13817 13818 13819 13820 13821 13822 13823 13824 13825 13826 13827 13828 13829 13830 13831 13832 13833 13834 13835 13836 13837 13838 13839 13840 13841 13842 13843 13844 13845 13846 13847 13848 13849 13850 13851 13852 13853 13854 13855 13856 13857 13858 13859 13860 13861 13862 13863 13864 13865 13866 13867 13868 13869 13870 13871 13872 13873 13874 13875 13876 13877 13878 13879 13880 13881 13882 13883 13884 13885 13886 13887 13888 13889 13890 13891 13892 13893 13894 13895 13896 13897 13898 13899 13900 13901 13902 13903 13904 13905 13906 13907 13908 13909 13910 13911 13912 13913 13914 13915 13916 13917 13918 13919 13920 13921 13922 13923 13924 13925 13926 13927 13928 13929 13930 13931 13932 13933 13934 13935 13936 13937 13938 13939 13940 13941 13942 13943 13944 13945 13946 13947 13948 13949 13950 13951 13952 13953 13954 13955 13956 13957 13958 13959 13960 13961 13962 13963 13964 13965 13966 13967 13968 13969 13970 13971 13972 13973 13974 13975 13976 13977 13978 13979 13980 13981 13982 13983 13984 13985 13986 13987 13988 13989 13990 13991 13992 13993 13994 13995 13996 13997 13998 13999 14000 14001 14002 14003 14004 14005 14006 14007 14008 14009 14010 14011 14012 14013 14014 14015 14016 14017 14018 14019 14020 14021 14022 14023 14024 14025 14026 14027 14028 14029 14030 14031 14032 14033 14034 14035 14036 14037 14038 14039 14040 14041 14042 14043 14044 14045 14046 14047 14048 14049 14050 14051 14052 14053 14054 14055 14056 14057 14058 14059 14060 14061 14062 14063 14064 14065 14066 14067 14068 14069 14070 14071 14072 14073 14074 14075 14076 14077 14078 14079 14080 14081 14082 14083 14084 14085 14086 14087 14088 14089 14090 14091 14092 14093 14094 14095 14096 14097 14098 14099 14100 14101 14102 14103 14104 14105 14106 14107 14108 14109 14110 14111 14112 14113 14114 14115 14116 14117 14118 14119 14120 14121 14122 14123 14124 14125 14126 14127 14128 14129 14130 14131 14132 14133 14134 14135 14136 14137 14138 14139 14140 14141 14142 14143 14144 14145 14146 14147 14148 14149 14150 14151 14152 14153 14154 14155 14156 14157 14158 14159 14160 14161 14162 14163 14164 14165 14166 14167 14168 14169 14170 14171 14172 14173 14174 14175 14176 14177 14178 14179 14180 14181 14182 14183 14184 14185 14186 14187 14188 14189 14190 14191 14192 14193 14194 14195 14196 14197 14198 14199 14200 14201 14202 14203 14204 14205 14206 14207 14208 14209 14210 14211 14212 14213 14214 14215 14216 14217 14218 14219 14220 14221 14222 14223 14224 14225 14226 14227 14228 14229 14230 14231 14232 14233 14234 14235 14236 14237 14238 14239 14240 14241 14242 14243 14244 14245 14246 14247 14248 14249 14250 14251 14252 14253 14254 14255 14256 14257 14258 14259 14260 14261 14262 14263 14264 14265 14266 14267 14268 14269 14270 14271 14272 14273 14274 14275 14276 14277 14278 14279 14280 14281 14282 14283 14284 14285 14286 14287 14288 14289 14290 14291 14292 14293 14294 14295 14296 14297 14298 14299 14300 14301 14302 14303 14304 14305 14306 14307 14308 14309 14310 14311 14312 14313 14314 14315 14316 14317 14318 14319 14320 14321 14322 14323 14324 14325 14326 14327 14328 14329 14330 14331 14332 14333 14334 14335 14336 14337 14338 14339 14340 14341 14342 14343 14344 14345 14346 14347 14348 14349 14350 14351 14352 14353 14354 14355 14356 14357 14358 14359 14360 14361 14362 14363 14364 14365 14366 14367 14368 14369 14370 14371 14372 14373 14374 14375 14376 14377 14378 14379 14380 14381 14382 14383 14384 14385 14386 14387 14388 14389 14390 14391 14392 14393 14394 14395 14396 14397 14398 14399 14400 14401 14402 14403 14404 14405 14406 14407 14408 14409 14410 14411 14412 14413 14414 14415 14416 14417 14418 14419 14420 14421 14422 14423 14424 14425 14426 14427 14428 14429 14430 14431 14432 14433 14434 14435 14436 14437 14438 14439 14440 14441 14442 14443 14444 14445 14446 14447 14448 14449 14450 14451 14452 14453 14454 14455 14456 14457 14458 14459 14460 14461 14462 14463 14464 14465 14466 14467 14468 14469 14470 14471 14472 14473 14474 14475 14476 14477 14478 14479 14480 14481 14482 14483 14484 14485 14486 14487 14488 14489 14490 14491 14492 14493 14494 14495 14496 14497 14498 14499 14500 14501 14502 14503 14504 14505 14506 14507 14508 14509 14510 14511 14512 14513 14514 14515 14516 14517 14518 14519 14520 14521 14522 14523 14524 14525 14526 14527 14528 14529 14530 14531 14532 14533 14534 14535 14536 14537 14538 14539 14540 14541 14542 14543 14544 14545 14546 14547 14548 14549 14550 14551 14552 14553 14554 14555 14556 14557 14558 14559 14560 14561 14562 14563 14564 14565 14566 14567 14568 14569 14570 14571 14572 14573 14574 14575 14576 14577 14578 14579 14580 14581 14582 14583 14584 14585 14586 14587 14588 14589 14590 14591 14592 14593 14594 14595 14596 14597 14598 14599 14600 14601 14602 14603 14604 14605 14606 14607 14608 14609 14610 14611 14612 14613 14614 14615 14616 14617 14618 14619 14620 14621 14622 14623 14624 14625 14626 14627 14628 14629 14630 14631 14632 14633 14634 14635 14636 14637 14638 14639 14640 14641 14642 14643 14644 14645 14646 14647 14648 14649 14650 14651 14652 14653 14654 14655 14656 14657 14658 14659 14660 14661 14662 14663 14664 14665 14666 14667 14668 14669 14670 14671 14672 14673 14674 14675 14676 14677 14678 14679 14680 14681 14682 14683 14684 14685 14686 14687 14688 14689 14690 14691 14692 14693 14694 14695 14696 14697 14698 14699 14700 14701 14702 14703 14704 14705 14706 14707 14708 14709 14710 14711 14712 14713 14714 14715 14716 14717 14718 14719 14720 14721 14722 14723 14724 14725 14726 14727 14728 14729 14730 14731 14732 14733 14734 14735 14736 14737 14738 14739 14740 14741 14742 14743 14744 14745 14746 14747 14748 14749 14750 14751 14752 14753 14754 14755 14756 14757 14758 14759 14760 14761 14762 14763 14764 14765 14766 14767 14768 14769 14770 14771 14772 14773 14774 14775 14776 14777 14778 14779 14780 14781 14782 14783 14784 14785 14786 14787 14788 14789 14790 14791 14792 14793 14794 14795 14796 14797 14798 14799 14800 14801 14802 14803 14804 14805 14806 14807 14808 14809 14810 14811 14812 14813 14814 14815 14816 14817 14818 14819 14820 14821 14822 14823 14824 14825 14826 14827 14828 14829 14830 14831 14832 14833 14834 14835 14836 14837 14838 14839 14840 14841 14842 14843 14844 14845 14846 14847 14848 14849 14850 14851 14852 14853 14854 14855 14856 14857 14858 14859 14860 14861 14862 14863 14864 14865 14866 14867 14868 14869 14870 14871 14872 14873 14874 14875 14876 14877 14878 14879 14880 14881 14882 14883 14884 14885 14886 14887 14888 14889 14890 14891 14892 14893 14894 14895 14896 14897 14898 14899 14900 14901 14902 14903 14904 14905 14906 14907 14908 14909 14910 14911 14912 14913 14914 14915 14916 14917 14918 14919 14920 14921 14922 14923 14924 14925 14926 14927 14928 14929 14930 14931 14932 14933 14934 14935 14936 14937 14938 14939 14940 14941 14942 14943 14944 14945 14946 14947 14948 14949 14950 14951 14952 14953 14954 14955 14956 14957 14958 14959 14960 14961 14962 14963 14964 14965 14966 14967 14968 14969 14970 14971 14972 14973 14974 14975 14976 14977 14978 14979 14980 14981 14982 14983 14984 14985 14986 14987 14988 14989 14990 14991 14992 14993 14994 14995 14996 14997 14998 14999 15000 15001 15002 15003 15004 15005 15006 15007 15008 15009 15010 15011 15012 15013 15014 15015 15016 15017 15018 15019 15020 15021 15022 15023 15024 15025 15026 15027 15028 15029 15030 15031 15032 15033 15034 15035 15036 15037 15038 15039 15040 15041 15042 15043 15044 15045 15046 15047 15048 15049 15050 15051 15052 15053 15054 15055 15056 15057 15058 15059 15060 15061 15062 15063 15064 15065 15066 15067 15068 15069 15070 15071 15072 15073 15074 15075 15076 15077 15078 15079 15080 15081 15082 15083 15084 15085 15086 15087 15088 15089 15090 15091 15092 15093 15094 15095 15096 15097 15098 15099 15100 15101 15102 15103 15104 15105 15106 15107 15108 15109 15110 15111 15112 15113 15114 15115 15116 15117 15118 15119 15120 15121 15122 15123 15124 15125 15126 15127 15128 15129 15130 15131 15132 15133 15134 15135 15136 15137 15138 15139 15140 15141 15142 15143 15144 15145 15146 15147 15148 15149 15150 15151 15152 15153 15154 15155 15156 15157 15158 15159 15160 15161 15162 15163 15164 15165 15166 15167 15168 15169 15170 15171 15172 15173 15174 15175 15176 15177 15178 15179 15180 15181 15182 15183 15184 15185 15186 15187 15188 15189 15190 15191 15192 15193 15194 15195 15196 15197 15198 15199 15200 15201 15202 15203 15204 15205 15206 15207 15208 15209 15210 15211 15212 15213 15214 15215 15216 15217 15218 15219 15220 15221 15222 15223 15224 15225 15226 15227 15228 15229 15230 15231 15232 15233 15234 15235 15236 15237 15238 15239 15240 15241 15242 15243 15244 15245 15246 15247 15248 15249 15250 15251 15252 15253 15254 15255 15256 15257 15258 15259 15260 15261 15262 15263 15264 15265 15266 15267 15268 15269 15270 15271 15272 15273 15274 15275 15276 15277 15278 15279 15280 15281 15282 15283 15284 15285 15286 15287 15288 15289 15290 15291 15292 15293 15294 15295 15296 15297 15298 15299 15300 15301 15302 15303 15304 15305 15306 15307 15308 15309 15310 15311 15312 15313 15314 15315 15316 15317 15318 15319 15320 15321 15322 15323 15324 15325 15326 15327 15328 15329 15330 15331 15332 15333 15334 15335 15336 15337 15338 15339 15340 15341 15342 15343 15344 15345 15346 15347 15348 15349 15350 15351 15352 15353 15354 15355 15356 15357 15358 15359 15360 15361 15362 15363 15364 15365 15366 15367 15368 15369 15370 15371 15372 15373 15374 15375 15376 15377 15378 15379 15380 15381 15382 15383 15384 15385 15386 15387 15388 15389 15390 15391 15392 15393 15394 15395 15396 15397 15398 15399 15400 15401 15402 15403 15404 15405 15406 15407 15408 15409 15410 15411 15412 15413 15414 15415 15416 15417 15418 15419 15420 15421 15422 15423 15424 15425 15426 15427 15428 15429 15430 15431 15432 15433 15434 15435 15436 15437 15438 15439 15440 15441 15442 15443 15444 15445 15446 15447 15448 15449 15450 15451 15452 15453 15454 15455 15456 15457 15458 15459 15460 15461 15462 15463 15464 15465 15466 15467 15468 15469 15470 15471 15472 15473 15474 15475 15476 15477 15478 15479 15480 15481 15482 15483 15484 15485 15486 15487 15488 15489 15490 15491 15492 15493 15494 15495 15496 15497 15498 15499 15500 15501 15502 15503 15504 15505 15506 15507 15508 15509 15510 15511 15512 15513 15514 15515 15516 15517 15518 15519 15520 15521 15522 15523 15524 15525 15526 15527 15528 15529 15530 15531 15532 15533 15534 15535 15536 15537 15538 15539 15540 15541 15542 15543 15544 15545 15546 15547 15548 15549 15550 15551 15552 15553 15554 15555 15556 15557 15558 15559 15560 15561 15562 15563 15564 15565 15566 15567 15568 15569 15570 15571 15572 15573 15574 15575 15576 15577 15578 15579 15580 15581 15582 15583 15584 15585 15586 15587 15588 15589 15590 15591 15592 15593 15594 15595 15596 15597 15598 15599 15600 15601 15602 15603 15604 15605 15606 15607 15608 15609 15610 15611 15612 15613 15614 15615 15616 15617 15618 15619 15620 15621 15622 15623 15624 15625 15626 15627 15628 15629 15630 15631 15632 15633 15634 15635 15636 15637 15638 15639 15640 15641 15642 15643 15644 15645 15646 15647 15648 15649 15650 15651 15652 15653 15654 15655 15656 15657 15658 15659 15660 15661 15662 15663 15664 15665 15666 15667 15668 15669 15670 15671 15672 15673 15674 15675 15676 15677 15678 15679 15680 15681 15682 15683 15684 15685 15686 15687 15688 15689 15690 15691 15692 15693 15694 15695 15696 15697 15698 15699 15700 15701 15702 15703 15704 15705 15706 15707 15708 15709 15710 15711 15712 15713 15714 15715 15716 15717 15718 15719 15720 15721 15722 15723 15724 15725 15726 15727 15728 15729 15730 15731 15732 15733 15734 15735 15736 15737 15738 15739 15740 15741 15742 15743 15744 15745 15746 15747 15748 15749 15750 15751 15752 15753 15754 15755 15756 15757 15758 15759 15760 15761 15762 15763 15764 15765 15766 15767 15768 15769 15770 15771 15772 15773 15774 15775 15776 15777 15778 15779 15780 15781 15782 15783 15784 15785 15786 15787 15788 15789 15790 15791 15792 15793 15794 15795 15796 15797 15798 15799 15800 15801 15802 15803 15804 15805 15806 15807 15808 15809 15810 15811 15812 15813 15814 15815 15816 15817 15818 15819 15820 15821 15822 15823 15824 15825 15826 15827 15828 15829 15830 15831 15832 15833 15834 15835 15836 15837 15838 15839 15840 15841 15842 15843 15844 15845 15846 15847 15848 15849 15850 15851 15852 15853 15854 15855 15856 15857 15858 15859 15860 15861 15862 15863 15864 15865 15866 15867 15868 15869 15870 15871 15872 15873 15874 15875 15876 15877 15878 15879 15880 15881 15882 15883 15884 15885 15886 15887 15888 15889 15890 15891 15892 15893 15894 15895 15896 15897 15898 15899 15900 15901 15902 15903 15904 15905 15906 15907 15908 15909 15910 15911 15912 15913 15914 15915 15916 15917 15918 15919 15920 15921 15922 15923 15924 15925 15926 15927 15928 15929 15930 15931 15932 15933 15934 15935 15936 15937 15938 15939 15940 15941 15942 15943 15944 15945 15946 15947 15948 15949 15950 15951 15952 15953 15954 15955 15956 15957 15958 15959 15960 15961 15962 15963 15964 15965 15966 15967 15968 15969 15970 15971 15972 15973 15974 15975 15976 15977 15978 15979 15980 15981 15982 15983 15984 15985 15986 15987 15988 15989 15990 15991 15992 15993 15994 15995 15996 15997 15998 15999 16000 16001 16002 16003 16004 16005 16006 16007 16008 16009 16010 16011 16012 16013 16014 16015 16016 16017 16018 16019 16020 16021 16022 16023 16024 16025 16026 16027 16028 16029 16030 16031 16032 16033 16034 16035 16036 16037 16038 16039 16040 16041 16042 16043 16044 16045 16046 16047 16048 16049 16050 16051 16052 16053 16054 16055 16056 16057 16058 16059 16060 16061 16062 16063 16064 16065 16066 16067 16068 16069 16070 16071 16072 16073 16074 16075 16076 16077 16078 16079 16080 16081 16082 16083 16084 16085 16086 16087 16088 16089 16090 16091 16092 16093 16094 16095 16096 16097 16098 16099 16100 16101 16102 16103 16104 16105 16106 16107 16108 16109 16110 16111 16112 16113 16114 16115 16116 16117 16118 16119 16120 16121 16122 16123 16124 16125 16126 16127 16128 16129 16130 16131 16132 16133 16134 16135 16136 16137 16138 16139 16140 16141 16142 16143 16144 16145 16146 16147 16148 16149 16150 16151 16152 16153 16154 16155 16156 16157 16158 16159 16160 16161 16162 16163 16164 16165 16166 16167 16168 16169 16170 16171 16172 16173 16174 16175 16176 16177 16178 16179 16180 16181 16182 16183 16184 16185 16186 16187 16188 16189 16190 16191 16192 16193 16194 16195 16196 16197 16198 16199 16200 16201 16202 16203 16204 16205 16206 16207 16208 16209 16210 16211 16212 16213 16214 16215 16216 16217 16218 16219 16220 16221 16222 16223 16224 16225 16226 16227 16228 16229 16230 16231 16232 16233 16234 16235 16236 16237 16238 16239 16240 16241 16242 16243 16244 16245 16246 16247 16248 16249 16250 16251 16252 16253 16254 16255 16256 16257 16258 16259 16260 16261 16262 16263 16264 16265 16266 16267 16268 16269 16270 16271 16272 16273 16274 16275 16276 16277 16278 16279 16280 16281 16282 16283 16284 16285 16286 16287 16288 16289 16290 16291 16292 16293 16294 16295 16296 16297 16298 16299 16300 16301 16302 16303 16304 16305 16306 16307 16308 16309 16310 16311 16312 16313 16314 16315 16316 16317 16318 16319 16320 16321 16322 16323 16324 16325 16326 16327 16328 16329 16330 16331 16332 16333 16334 16335 16336 16337 16338 16339 16340 16341 16342 16343 16344 16345 16346 16347 16348 16349 16350 16351 16352 16353 16354 16355 16356 16357 16358 16359 16360 16361 16362 16363 16364 16365 16366 16367 16368 16369 16370 16371 16372 16373 16374 16375 16376 16377 16378 16379 16380 16381 16382 16383 16384 16385 16386 16387 16388 16389 16390 16391 16392 16393 16394 16395 16396 16397 16398 16399 16400 16401 16402 16403 16404 16405 16406 16407 16408 16409 16410 16411 16412 16413 16414 16415 16416 16417 16418 16419 16420 16421 16422 16423 16424 16425 16426 16427 16428 16429 16430 16431 16432 16433 16434 16435 16436 16437 16438 16439 16440 16441 16442 16443 16444 16445 16446 16447 16448 16449 16450 16451 16452 16453 16454 16455 16456 16457 16458 16459 16460 16461 16462 16463 16464 16465 16466 16467 16468 16469 16470 16471 16472 16473 16474 16475 16476 16477 16478 16479 16480 16481 16482 16483 16484 16485 16486 16487 16488 16489 16490 16491 16492 16493 16494 16495 16496 16497 16498 16499 16500 16501 16502 16503 16504 16505 16506 16507 16508 16509 16510 16511 16512 16513 16514 16515 16516 16517 16518 16519 16520 16521 16522 16523 16524 16525 16526 16527 16528 16529 16530 16531 16532 16533 16534 16535 16536 16537 16538 16539 16540 16541 16542 16543 16544 16545 16546 16547 16548 16549 16550 16551 16552 16553 16554 16555 16556 16557 16558 16559 16560 16561 16562 16563 16564 16565 16566 16567 16568 16569 16570 16571 16572 16573 16574 16575 16576 16577 16578 16579 16580 16581 16582 16583 16584 16585 16586 16587 16588 16589 16590 16591 16592 16593 16594 16595 16596 16597 16598 16599 16600 16601 16602 16603 16604 16605 16606 16607 16608 16609 16610 16611 16612 16613 16614 16615 16616 16617 16618 16619 16620 16621 16622 16623 16624 16625 16626 16627 16628 16629 16630 16631 16632 16633 16634 16635 16636 16637 16638 16639 16640 16641 16642 16643 16644 16645 16646 16647 16648 16649 16650 16651 16652 16653 16654 16655 16656 16657 16658 16659 16660 16661 16662 16663 16664 16665 16666 16667 16668 16669 16670 16671 16672 16673 16674 16675 16676 16677 16678 16679 16680 16681 16682 16683 16684 16685 16686 16687 16688 16689 16690 16691 16692 16693 16694 16695 16696 16697 16698 16699 16700 16701 16702 16703 16704 16705 16706 16707 16708 16709 16710 16711 16712 16713 16714 16715 16716 16717 16718 16719 16720 16721 16722 16723 16724 16725 16726 16727 16728 16729 16730 16731 16732 16733 16734 16735 16736 16737 16738 16739 16740 16741 16742 16743 16744 16745 16746 16747 16748 16749 16750 16751 16752 16753 16754 16755 16756 16757 16758 16759 16760 16761 16762 16763 16764 16765 16766 16767 16768 16769 16770 16771 16772 16773 16774 16775 16776 16777 16778 16779 16780 16781 16782 16783 16784 16785 16786 16787 16788 16789 16790 16791 16792 16793 16794 16795 16796 16797 16798 16799 16800 16801 16802 16803 16804 16805 16806 16807 16808 16809 16810 16811 16812 16813 16814 16815 16816 16817 16818 16819 16820 16821 16822 16823 16824 16825 16826 16827 16828 16829 16830 16831 16832 16833 16834 16835 16836 16837 16838 16839 16840 16841 16842 16843 16844 16845 16846 16847 16848 16849 16850 16851 16852 16853 16854 16855 16856 16857 16858 16859 16860 16861 16862 16863 16864 16865 16866 16867 16868 16869 16870 16871 16872 16873 16874 16875 16876 16877 16878 16879 16880 16881 16882 16883 16884 16885 16886 16887 16888 16889 16890 16891 16892 16893 16894 16895 16896 16897 16898 16899 16900 16901 16902 16903 16904 16905 16906 16907 16908 16909 16910 16911 16912 16913 16914 16915 16916 16917 16918 16919 16920 16921 16922 16923 16924 16925 16926 16927 16928 16929 16930 16931 16932 16933 16934 16935 16936 16937 16938 16939 16940 16941 16942 16943 16944 16945 16946 16947 16948 16949 16950 16951 16952 16953 16954 16955 16956 16957 16958 16959 16960 16961 16962 16963 16964 16965 16966 16967 16968 16969 16970 16971 16972 16973 16974 16975 16976 16977 16978 16979 16980 16981 16982 16983 16984 16985 16986 16987 16988 16989 16990 16991 16992 16993 16994 16995 16996 16997 16998 16999 17000 17001 17002 17003 17004 17005 17006 17007 17008 17009 17010 17011 17012 17013 17014 17015 17016 17017 17018 17019 17020 17021 17022 17023 17024 17025 17026 17027 17028 17029 17030 17031 17032 17033 17034 17035 17036 17037 17038 17039 17040 17041 17042 17043 17044 17045 17046 17047 17048 17049 17050 17051 17052 17053 17054 17055 17056 17057 17058 17059 17060 17061 17062 17063 17064 17065 17066 17067 17068 17069 17070 17071 17072 17073 17074 17075 17076 17077 17078 17079 17080 17081 17082 17083 17084 17085 17086 17087 17088 17089 17090 17091 17092 17093 17094 17095 17096 17097 17098 17099 17100 17101 17102 17103 17104 17105 17106 17107 17108 17109 17110 17111 17112 17113 17114 17115 17116 17117 17118 17119 17120 17121 17122 17123 17124 17125 17126 17127 17128 17129 17130 17131 17132 17133 17134 17135 17136 17137 17138 17139 17140 17141 17142 17143 17144 17145 17146 17147 17148 17149 17150 17151 17152 17153 17154 17155 17156 17157 17158 17159 17160 17161 17162 17163 17164 17165 17166 17167 17168 17169 17170 17171 17172 17173 17174 17175 17176 17177 17178 17179 17180 17181 17182 17183 17184 17185 17186 17187 17188 17189 17190 17191 17192 17193 17194 17195 17196 17197 17198 17199 17200 17201 17202 17203 17204 17205 17206 17207 17208 17209 17210 17211 17212 17213 17214 17215 17216 17217 17218 17219 17220 17221 17222 17223 17224 17225 17226 17227 17228 17229 17230 17231 17232 17233 17234 17235 17236 17237 17238 17239 17240 17241 17242 17243 17244 17245 17246 17247 17248 17249 17250 17251 17252 17253 17254 17255 17256 17257 17258 17259 17260 17261 17262 17263 17264 17265 17266 17267 17268 17269 17270 17271 17272 17273 17274 17275 17276 17277 17278 17279 17280 17281 17282 17283 17284 17285 17286 17287 17288 17289 17290 17291 17292 17293 17294 17295 17296 17297 17298 17299 17300 17301 17302 17303 17304 17305 17306 17307 17308 17309 17310 17311 17312 17313 17314 17315 17316 17317 17318 17319 17320 17321 17322 17323 17324 17325 17326 17327 17328 17329 17330 17331 17332 17333 17334 17335 17336 17337 17338 17339 17340 17341 17342 17343 17344 17345 17346 17347 17348 17349 17350 17351 17352 17353 17354 17355 17356 17357 17358 17359 17360 17361 17362 17363 17364 17365 17366 17367 17368 17369 17370 17371 17372 17373 17374 17375 17376 17377 17378 17379 17380 17381 17382 17383 17384 17385 17386 17387 17388 17389 17390 17391 17392 17393 17394 17395 17396 17397 17398 17399 17400 17401 17402 17403 17404 17405 17406 17407 17408 17409 17410 17411 17412 17413 17414 17415 17416 17417 17418 17419 17420 17421 17422 17423 17424 17425 17426 17427 17428 17429 17430 17431 17432 17433 17434 17435 17436 17437 17438 17439 17440 17441 17442 17443 17444 17445 17446 17447 17448 17449 17450 17451 17452 17453 17454 17455 17456 17457 17458 17459 17460 17461 17462 17463 17464 17465 17466 17467 17468 17469 17470 17471 17472 17473 17474 17475 17476 17477 17478 17479 17480 17481 17482 17483 17484 17485 17486 17487 17488 17489 17490 17491 17492 17493 17494 17495 17496 17497 17498 17499 17500 17501 17502 17503 17504 17505 17506 17507 17508 17509 17510 17511 17512 17513 17514 17515 17516 17517 17518 17519 17520 17521 17522 17523 17524 17525 17526 17527 17528 17529 17530 17531 17532 17533 17534 17535 17536 17537 17538 17539 17540 17541 17542 17543 17544 17545 17546 17547 17548 17549 17550 17551 17552 17553 17554 17555 17556 17557 17558 17559 17560 17561 17562 17563 17564 17565 17566 17567 17568 17569 17570 17571 17572 17573 17574 17575 17576 17577 17578 17579 17580 17581 17582 17583 17584 17585 17586 17587 17588 17589 17590 17591 17592 17593 17594 17595 17596 17597 17598 17599 17600 17601 17602 17603 17604 17605 17606 17607 17608 17609 17610 17611 17612 17613 17614 17615 17616 17617 17618 17619 17620 17621 17622 17623 17624 17625 17626 17627 17628 17629 17630 17631 17632 17633 17634 17635 17636 17637 17638 17639 17640 17641 17642 17643 17644 17645 17646 17647 17648 17649 17650 17651 17652 17653 17654 17655 17656 17657 17658 17659 17660 17661 17662 17663 17664 17665 17666 17667 17668 17669 17670 17671 17672 17673 17674 17675 17676 17677 17678 17679 17680 17681 17682 17683 17684 17685 17686 17687 17688 17689 17690 17691 17692 17693 17694 17695 17696 17697 17698 17699 17700 17701 17702 17703 17704 17705 17706 17707 17708 17709 17710 17711 17712 17713 17714 17715 17716 17717 17718 17719 17720 17721 17722 17723 17724 17725 17726 17727 17728 17729 17730 17731 17732 17733 17734 17735 17736 17737 17738 17739 17740 17741 17742 17743 17744 17745 17746 17747 17748 17749 17750 17751 17752 17753 17754 17755 17756 17757 17758 17759 17760 17761 17762 17763 17764 17765 17766 17767 17768 17769 17770 17771 17772 17773 17774 17775 17776 17777 17778 17779 17780 17781 17782 17783 17784 17785 17786 17787 17788 17789 17790 17791 17792 17793 17794 17795 17796 17797 17798 17799 17800 17801 17802 17803 17804 17805 17806 17807 17808 17809 17810 17811 17812 17813 17814 17815 17816 17817 17818 17819 17820 17821 17822 17823 17824 17825 17826 17827 17828 17829 17830 17831 17832 17833 17834 17835 17836 17837 17838 17839 17840 17841 17842 17843 17844 17845 17846 17847 17848 17849 17850 17851 17852 17853 17854 17855 17856 17857 17858 17859 17860 17861 17862 17863 17864 17865 17866 17867 17868 17869 17870 17871 17872 17873 17874 17875 17876 17877 17878 17879 17880 17881 17882 17883 17884 17885 17886 17887 17888 17889 17890 17891 17892 17893 17894 17895 17896 17897 17898 17899 17900 17901 17902 17903 17904 17905 17906 17907 17908 17909 17910 17911 17912 17913 17914 17915 17916 17917 17918 17919 17920 17921 17922 17923 17924 17925 17926 17927 17928 17929 17930 17931 17932 17933 17934 17935 17936 17937 17938 17939 17940 17941 17942 17943 17944 17945 17946 17947 17948 17949 17950 17951 17952 17953 17954 17955 17956 17957 17958 17959 17960 17961 17962 17963 17964 17965 17966 17967 17968 17969 17970 17971 17972 17973 17974 17975 17976 17977 17978 17979 17980 17981 17982 17983 17984 17985 17986 17987 17988 17989 17990 17991 17992 17993 17994 17995 17996 17997 17998 17999 18000 18001 18002 18003 18004 18005 18006 18007 18008 18009 18010 18011 18012 18013 18014 18015 18016 18017 18018 18019 18020 18021 18022 18023 18024 18025 18026 18027 18028 18029 18030 18031 18032 18033 18034 18035 18036 18037 18038 18039 18040 18041 18042 18043 18044 18045 18046 18047 18048 18049 18050 18051 18052 18053 18054 18055 18056 18057 18058 18059 18060 18061 18062 18063 18064 18065 18066 18067 18068 18069 18070 18071 18072 18073 18074 18075 18076 18077 18078 18079 18080 18081 18082 18083 18084 18085 18086 18087 18088 18089 18090 18091 18092 18093 18094 18095 18096 18097 18098 18099 18100 18101 18102 18103 18104 18105 18106 18107 18108 18109 18110 18111 18112 18113 18114 18115 18116 18117 18118 18119 18120 18121 18122 18123 18124 18125 18126 18127 18128 18129 18130 18131 18132 18133 18134 18135 18136 18137 18138 18139 18140 18141 18142 18143 18144 18145 18146 18147 18148 18149 18150 18151 18152 18153 18154 18155 18156 18157 18158 18159 18160 18161 18162 18163 18164 18165 18166 18167 18168 18169 18170 18171 18172 18173 18174 18175 18176 18177 18178 18179 18180 18181 18182 18183 18184 18185 18186 18187 18188 18189 18190 18191 18192 18193 18194 18195 18196 18197 18198 18199 18200 18201 18202 18203 18204 18205 18206 18207 18208 18209 18210 18211 18212 18213 18214 18215 18216 18217 18218 18219 18220 18221 18222 18223 18224 18225 18226 18227 18228 18229 18230 18231 18232 18233 18234 18235 18236 18237 18238 18239 18240 18241 18242 18243 18244 18245 18246 18247 18248 18249 18250 18251 18252 18253 18254 18255 18256 18257 18258 18259 18260 18261 18262 18263 18264 18265 18266 18267 18268 18269 18270 18271 18272 18273 18274 18275 18276 18277 18278 18279 18280 18281 18282 18283 18284 18285 18286 18287 18288 18289 18290 18291 18292 18293 18294 18295 18296 18297 18298 18299 18300 18301 18302 18303 18304 18305 18306 18307 18308 18309 18310 18311 18312 18313 18314 18315 18316 18317 18318 18319 18320 18321 18322 18323 18324 18325 18326 18327 18328 18329 18330 18331 18332 18333 18334 18335 18336 18337 18338 18339 18340 18341 18342 18343 18344 18345 18346 18347 18348 18349 18350 18351 18352 18353 18354 18355 18356 18357 18358 18359 18360 18361 18362 18363 18364 18365 18366 18367 18368 18369 18370 18371 18372 18373 18374 18375 18376 18377 18378 18379 18380 18381 18382 18383 18384 18385 18386 18387 18388 18389 18390 18391 18392 18393 18394 18395 18396 18397 18398 18399 18400 18401 18402 18403 18404 18405 18406 18407 18408 18409 18410 18411 18412 18413 18414 18415 18416 18417 18418 18419 18420 18421 18422 18423 18424 18425 18426 18427 18428 18429 18430 18431 18432 18433 18434 18435 18436 18437 18438 18439 18440 18441 18442 18443 18444 18445 18446 18447 18448 18449 18450 18451 18452 18453 18454 18455 18456 18457 18458 18459 18460 18461 18462 18463 18464 18465 18466 18467 18468 18469 18470 18471 18472 18473 18474 18475 18476 18477 18478 18479 18480 18481 18482 18483 18484 18485 18486 18487 18488 18489 18490 18491 18492 18493 18494 18495 18496 18497 18498 18499 18500 18501 18502 18503 18504 18505 18506 18507 18508 18509 18510 18511 18512 18513 18514 18515 18516 18517 18518 18519 18520 18521 18522 18523 18524 18525 18526 18527 18528 18529 18530 18531 18532 18533 18534 18535 18536 18537 18538 18539 18540 18541 18542 18543 18544 18545 18546 18547 18548 18549 18550 18551 18552 18553 18554 18555 18556 18557 18558 18559 18560 18561 18562 18563 18564 18565 18566 18567 18568 18569 18570 18571 18572 18573 18574 18575 18576 18577 18578 18579 18580 18581 18582 18583 18584 18585 18586 18587 18588 18589 18590 18591 18592 18593 18594 18595 18596 18597 18598 18599 18600 18601 18602 18603 18604 18605 18606 18607 18608 18609 18610 18611 18612 18613 18614 18615 18616 18617 18618 18619 18620 18621 18622 18623 18624 18625 18626 18627 18628 18629 18630 18631 18632 18633 18634 18635 18636 18637 18638 18639 18640 18641 18642 18643 18644 18645 18646 18647 18648 18649 18650 18651 18652 18653 18654 18655 18656 18657 18658 18659 18660 18661 18662 18663 18664 18665 18666 18667 18668 18669 18670 18671 18672 18673 18674 18675 18676 18677 18678 18679 18680 18681 18682 18683 18684 18685 18686 18687 18688 18689 18690 18691 18692 18693 18694 18695 18696 18697 18698 18699 18700 18701 18702 18703 18704 18705 18706 18707 18708 18709 18710 18711 18712 18713 18714 18715 18716 18717 18718 18719 18720 18721 18722 18723 18724 18725 18726 18727 18728 18729 18730 18731 18732 18733 18734 18735 18736 18737 18738 18739 18740 18741 18742 18743 18744 18745 18746 18747 18748 18749 18750 18751 18752 18753 18754 18755 18756 18757 18758 18759 18760 18761 18762 18763 18764 18765 18766 18767 18768 18769 18770 18771 18772 18773 18774 18775 18776 18777 18778 18779 18780 18781 18782 18783 18784 18785 18786 18787 18788 18789 18790 18791 18792 18793 18794 18795 18796 18797 18798 18799 18800 18801 18802 18803 18804 18805 18806 18807 18808 18809 18810 18811 18812 18813 18814 18815 18816 18817 18818 18819 18820 18821 18822 18823 18824 18825 18826 18827 18828 18829 18830 18831 18832 18833 18834 18835 18836 18837 18838 18839 18840 18841 18842 18843 18844 18845 18846 18847 18848 18849 18850 18851 18852 18853 18854 18855 18856 18857 18858 18859 18860 18861 18862 18863 18864 18865 18866 18867 18868 18869 18870 18871 18872 18873 18874 18875 18876 18877 18878 18879 18880 18881 18882 18883 18884 18885 18886 18887 18888 18889 18890 18891 18892 18893 18894 18895 18896 18897 18898 18899 18900 18901 18902 18903 18904 18905 18906 18907 18908 18909 18910 18911 18912 18913 18914 18915 18916 18917 18918 18919 18920 18921 18922 18923 18924 18925 18926 18927 18928 18929 18930 18931 18932 18933 18934 18935 18936 18937 18938 18939 18940 18941 18942 18943 18944 18945 18946 18947 18948 18949 18950 18951 18952 18953 18954 18955 18956 18957 18958 18959 18960 18961 18962 18963 18964 18965 18966 18967 18968 18969 18970 18971 18972 18973 18974 18975 18976 18977 18978 18979 18980 18981 18982 18983 18984 18985 18986 18987 18988 18989 18990 18991 18992 18993 18994 18995 18996 18997 18998 18999 19000 19001 19002 19003 19004 19005 19006 19007 19008 19009 19010 19011 19012 19013 19014 19015 19016 19017 19018 19019 19020 19021 19022 19023 19024 19025 19026 19027 19028 19029 19030 19031 19032 19033 19034 19035 19036 19037 19038 19039 19040 19041 19042 19043 19044 19045 19046 19047 19048 19049 19050 19051 19052 19053 19054 19055 19056 19057 19058 19059 19060 19061 19062 19063 19064 19065 19066 19067 19068 19069 19070 19071 19072 19073 19074 19075 19076 19077 19078 19079 19080 19081 19082 19083 19084 19085 19086 19087 19088 19089 19090 19091 19092 19093 19094 19095 19096 19097 19098 19099 19100 19101 19102 19103 19104 19105 19106 19107 19108 19109 19110 19111 19112 19113 19114 19115 19116 19117 19118 19119 19120 19121 19122 19123 19124 19125 19126 19127 19128 19129 19130 19131 19132 19133 19134 19135 19136 19137 19138 19139 19140 19141 19142 19143 19144 19145 19146 19147 19148 19149 19150 19151 19152 19153 19154 19155 19156 19157 19158 19159 19160 19161 19162 19163 19164 19165 19166 19167 19168 19169 19170 19171 19172 19173 19174 19175 19176 19177 19178 19179 19180 19181 19182 19183 19184 19185 19186 19187 19188 19189 19190 19191 19192 19193 19194 19195 19196 19197 19198 19199 19200 19201 19202 19203 19204 19205 19206 19207 19208 19209 19210 19211 19212 19213 19214 19215 19216 19217 19218 19219 19220 19221 19222 19223 19224 19225 19226 19227 19228 19229 19230 19231 19232 19233 19234 19235 19236 19237 19238 19239 19240 19241 19242 19243 19244 19245 19246 19247 19248 19249 19250 19251 19252 19253 19254 19255 19256 19257 19258 19259 19260 19261 19262 19263 19264 19265 19266 19267 19268 19269 19270 19271 19272 19273 19274 19275 19276 19277 19278 19279 19280 19281 19282 19283 19284 19285 19286 19287 19288 19289 19290 19291 19292 19293 19294 19295 19296 19297 19298 19299 19300 19301 19302 19303 19304 19305 19306 19307 19308 19309 19310 19311 19312 19313 19314 19315 19316 19317 19318 19319 19320 19321 19322 19323 19324 19325 19326 19327 19328 19329 19330 19331 19332 19333 19334 19335 19336 19337 19338 19339 19340 19341 19342 19343 19344 19345 19346 19347 19348 19349 19350 19351 19352 19353 19354 19355 19356 19357 19358 19359 19360 19361 19362 19363 19364 19365 19366 19367 19368 19369 19370 19371 19372 19373 19374 19375 19376 19377 19378 19379 19380 19381 19382 19383 19384 19385 19386 19387 19388 19389 19390 19391 19392 19393 19394 19395 19396 19397 19398 19399 19400 19401 19402 19403 19404 19405 19406 19407 19408 19409 19410 19411 19412 19413 19414 19415 19416 19417 19418 19419 19420 19421 19422 19423 19424 19425 19426 19427 19428 19429 19430 19431 19432 19433 19434 19435 19436 19437 19438 19439 19440 19441 19442 19443 19444 19445 19446 19447 19448 19449 19450 19451 19452 19453 19454 19455 19456 19457 19458 19459 19460 19461 19462 19463 19464 19465 19466 19467 19468 19469 19470 19471 19472 19473 19474 19475 19476 19477 19478 19479 19480 19481 19482 19483 19484 19485 19486 19487 19488 19489 19490 19491 19492 19493 19494 19495 19496 19497 19498 19499 19500 19501 19502 19503 19504 19505 19506 19507 19508 19509 19510 19511 19512 19513 19514 19515 19516 19517 19518 19519 19520 19521 19522 19523 19524 19525 19526 19527 19528 19529 19530 19531 19532 19533 19534 19535 19536 19537 19538 19539 19540 19541 19542 19543 19544 19545 19546 19547 19548 19549 19550 19551 19552 19553 19554 19555 19556 19557 19558 19559 19560 19561 19562 19563 19564 19565 19566 19567 19568 19569 19570 19571 19572 19573 19574 19575 19576 19577 19578 19579 19580 19581 19582 19583 19584 19585 19586 19587 19588 19589 19590 19591 19592 19593 19594 19595 19596 19597 19598 19599 19600 19601 19602 19603 19604 19605 19606 19607 19608 19609 19610 19611 19612 19613 19614 19615 19616 19617 19618 19619 19620 19621 19622 19623 19624 19625 19626 19627 19628 19629 19630 19631 19632 19633 19634 19635 19636 19637 19638 19639 19640 19641 19642 19643 19644 19645 19646 19647 19648 19649 19650 19651 19652 19653 19654 19655 19656 19657 19658 19659 19660 19661 19662 19663 19664 19665 19666 19667 19668 19669 19670 19671 19672 19673 19674 19675 19676 19677 19678 19679 19680 19681 19682 19683 19684 19685 19686 19687 19688 19689 19690 19691 19692 19693 19694 19695 19696 19697 19698 19699 19700 19701 19702 19703 19704 19705 19706 19707 19708 19709 19710 19711 19712 19713 19714 19715 19716 19717 19718 19719 19720 19721 19722 19723 19724 19725 19726 19727 19728 19729 19730 19731 19732 19733 19734 19735 19736 19737 19738 19739 19740 19741 19742 19743 19744 19745 19746 19747 19748 19749 19750 19751 19752 19753 19754 19755 19756 19757 19758 19759 19760 19761 19762 19763 19764 19765 19766 19767 19768 19769 19770 19771 19772 19773 19774 19775 19776 19777 19778 19779 19780 19781 19782 19783 19784 19785 19786 19787 19788 19789 19790 19791 19792 19793 19794 19795 19796 19797 19798 19799 19800 19801 19802 19803 19804 19805 19806 19807 19808 19809 19810 19811 19812 19813 19814 19815 19816 19817 19818 19819 19820 19821 19822 19823 19824 19825 19826 19827 19828 19829 19830 19831 19832 19833 19834 19835 19836 19837 19838 19839 19840 19841 19842 19843 19844 19845 19846 19847 19848 19849 19850 19851 19852 19853 19854 19855 19856 19857 19858 19859 19860 19861 19862 19863 19864 19865 19866 19867 19868 19869 19870 19871 19872 19873 19874 19875 19876 19877 19878 19879 19880 19881 19882 19883 19884 19885 19886 19887 19888 19889 19890 19891 19892 19893 19894 19895 19896 19897 19898 19899 19900 19901 19902 19903 19904 19905 19906 19907 19908 19909 19910 19911 19912 19913 19914 19915 19916 19917 19918 19919 19920 19921 19922 19923 19924 19925 19926 19927 19928 19929 19930 19931 19932 19933 19934 19935 19936 19937 19938 19939 19940 19941 19942 19943 19944 19945 19946 19947 19948 19949 19950 19951 19952 19953 19954 19955 19956 19957 19958 19959 19960 19961 19962 19963 19964 19965 19966 19967 19968 19969 19970 19971 19972 19973 19974 19975 19976 19977 19978 19979 19980 19981 19982 19983 19984 19985 19986 19987 19988 19989 19990 19991 19992 19993 19994 19995 19996 19997 19998 19999 20000 20001 20002 20003 20004 20005 20006 20007 20008 20009 20010 20011 20012 20013 20014 20015 20016 20017 20018 20019 20020 20021 20022 20023 20024 20025 20026 20027 20028 20029 20030 20031 20032 20033 20034 20035 20036 20037 20038 20039 20040 20041 20042 20043 20044 20045 20046 20047 20048 20049 20050 20051 20052 20053 20054 20055 20056 20057 20058 20059 20060 20061 20062 20063 20064 20065 20066 20067 20068 20069 20070 20071 20072 20073 20074 20075 20076 20077 20078 20079 20080 20081 20082 20083 20084 20085 20086 20087 20088 20089 20090 20091 20092 20093 20094 20095 20096 20097 20098 20099 20100 20101 20102 20103 20104 20105 20106 20107 20108 20109 20110 20111 20112 20113 20114 20115 20116 20117 20118 20119 20120 20121 20122 20123 20124 20125 20126 20127 20128 20129 20130 20131 20132 20133 20134 20135 20136 20137 20138 20139 20140 20141 20142 20143 20144 20145 20146 20147 20148 20149 20150 20151 20152 20153 20154 20155 20156 20157 20158 20159 20160 20161 20162 20163 20164 20165 20166 20167 20168 20169 20170 20171 20172 20173 20174 20175 20176 20177 20178 20179 20180 20181 20182 20183 20184 20185 20186 20187 20188 20189 20190 20191 20192 20193 20194 20195 20196 20197 20198 20199 20200 20201 20202 20203 20204 20205 20206 20207 20208 20209 20210 20211 20212 20213 20214 20215 20216 20217 20218 20219 20220 20221 20222 20223 20224 20225 20226 20227 20228 20229 20230 20231 20232 20233 20234 20235 20236 20237 20238 20239 20240 20241 20242 20243 20244 20245 20246 20247 20248 20249 20250 20251 20252 20253 20254 20255 20256 20257 20258 20259 20260 20261 20262 20263 20264 20265 20266 20267 20268 20269 20270 20271 20272 20273 20274 20275 20276 20277 20278 20279 20280 20281 20282 20283 20284 20285 20286 20287 20288 20289 20290 20291 20292 20293 20294 20295 20296 20297 20298 20299 20300 20301 20302 20303 20304 20305 20306 20307 20308 20309 20310 20311 20312 20313 20314 20315 20316 20317 20318 20319 20320 20321 20322 20323 20324 20325 20326 20327 20328 20329 20330 20331 20332 20333 20334 20335 20336 20337 20338 20339 20340 20341 20342 20343 20344 20345 20346 20347 20348 20349 20350 20351 20352 20353 20354 20355 20356 20357 20358 20359 20360 20361 20362 20363 20364 20365 20366 20367 20368 20369 20370 20371 20372 20373 20374 20375 20376 20377 20378 20379 20380 20381 20382 20383 20384 20385 20386 20387 20388 20389 20390 20391 20392 20393 20394 20395 20396 20397 20398 20399 20400 20401 20402 20403 20404 20405 20406 20407 20408 20409 20410 20411 20412 20413 20414 20415 20416 20417 20418 20419 20420 20421 20422 20423 20424 20425 20426 20427 20428 20429 20430 20431 20432 20433 20434 20435 20436 20437 20438 20439 20440 20441 20442 20443 20444 20445 20446 20447 20448 20449 20450 20451 20452 20453 20454 20455 20456 20457 20458 20459 20460 20461 20462 20463 20464 20465 20466 20467 20468 20469 20470 20471 20472 20473 20474 20475 20476 20477 20478 20479 20480 20481 20482 20483 20484 20485 20486 20487 20488 20489 20490 20491 20492 20493 20494 20495 20496 20497 20498 20499 20500 20501 20502 20503 20504 20505 20506 20507 20508 20509 20510 20511 20512 20513 20514 20515 20516 20517 20518 20519 20520 20521 20522 20523 20524 20525 20526 20527 20528 20529 20530 20531 20532 20533 20534 20535 20536 20537 20538 20539 20540 20541 20542 20543 20544 20545 20546 20547 20548 20549 20550 20551 20552 20553 20554 20555 20556 20557 20558 20559 20560 20561 20562 20563 20564 20565 20566 20567 20568 20569 20570 20571 20572 20573 20574 20575 20576 20577 20578 20579 20580 20581 20582 20583 20584 20585 20586 20587 20588 20589 20590 20591 20592 20593 20594 20595 20596 20597 20598 20599 20600 20601 20602 20603 20604 20605 20606 20607 20608 20609 20610 20611 20612 20613 20614 20615 20616 20617 20618 20619 20620 20621 20622 20623 20624 20625 20626 20627 20628 20629 20630 20631 20632 20633 20634 20635 20636 20637 20638 20639 20640 20641 20642 20643 20644 20645 20646 20647 20648 20649 20650 20651 20652 20653 20654 20655 20656 20657 20658 20659 20660 20661 20662 20663 20664 20665 20666 20667 20668 20669 20670 20671 20672 20673 20674 20675 20676 20677 20678 20679 20680 20681 20682 20683 20684 20685 20686 20687 20688 20689 20690 20691 20692 20693 20694 20695 20696 20697 20698 20699 20700 20701 20702 20703 20704 20705 20706 20707 20708 20709 20710 20711 20712 20713 20714 20715 20716 20717 20718 20719 20720 20721 20722 20723 20724 20725 20726 20727 20728 20729 20730 20731 20732 20733 20734 20735 20736 20737 20738 20739 20740 20741 20742 20743 20744 20745 20746 20747 20748 20749 20750 20751 20752 20753 20754 20755 20756 20757 20758 20759 20760 20761 20762 20763 20764 20765 20766 20767 20768 20769 20770 20771 20772 20773 20774 20775 20776 20777 20778 20779 20780 20781 20782 20783 20784 20785 20786 20787 20788 20789 20790 20791 20792 20793 20794 20795 20796 20797 20798 20799 20800 20801 20802 20803 20804 20805 20806 20807 20808 20809 20810 20811 20812 20813 20814 20815 20816 20817 20818 20819 20820 20821 20822 20823 20824 20825 20826 20827 20828 20829 20830 20831 20832 20833 20834 20835 20836 20837 20838 20839 20840 20841 20842 20843 20844 20845 20846 20847 20848 20849 20850 20851 20852 20853 20854 20855 20856 20857 20858 20859 20860 20861 20862 20863 20864 20865 20866 20867 20868 20869 20870 20871 20872 20873 20874 20875 20876 20877 20878 20879 20880 20881 20882 20883 20884 20885 20886 20887 20888 20889 20890 20891 20892 20893 20894 20895 20896 20897 20898 20899 20900 20901 20902 20903 20904 20905 20906 20907 20908 20909 20910 20911 20912 20913 20914 20915 20916 20917 20918 20919 20920 20921 20922 20923 20924 20925 20926 20927 20928 20929 20930 20931 20932 20933 20934 20935 20936 20937 20938 20939 20940 20941 20942 20943 20944 20945 20946 20947 20948 20949 20950 20951 20952 20953 20954 20955 20956 20957 20958 20959 20960 20961 20962 20963 20964 20965 20966 20967 20968 20969 20970 20971 20972 20973 20974 20975 20976 20977 20978 20979 20980 20981 20982 20983 20984 20985 20986 20987 20988 20989 20990 20991 20992 20993 20994 20995 20996 20997 20998 20999 21000 21001 21002 21003 21004 21005 21006 21007 21008 21009 21010 21011 21012 21013 21014 21015 21016 21017 21018 21019 21020 21021 21022 21023 21024 21025 21026 21027 21028 21029 21030 21031 21032 21033 21034 21035 21036 21037 21038 21039 21040 21041 21042 21043 21044 21045 21046 21047 21048 21049 21050 21051 21052 21053 21054 21055 21056 21057 21058 21059 21060 21061 21062 21063 21064 21065 21066 21067 21068 21069 21070 21071 21072 21073 21074 21075 21076 21077 21078 21079 21080 21081 21082 21083 21084 21085 21086 21087 21088 21089 21090 21091 21092 21093 21094 21095 21096 21097 21098 21099 21100 21101 21102 21103 21104 21105 21106 21107 21108 21109 21110 21111 21112 21113 21114 21115 21116 21117 21118 21119 21120 21121 21122 21123 21124 21125 21126 21127 21128 21129 21130 21131 21132 21133 21134 21135 21136 21137 21138 21139 21140 21141 21142 21143 21144 21145 21146 21147 21148 21149 21150 21151 21152 21153 21154 21155 21156 21157 21158 21159 21160 21161 21162 21163 21164 21165 21166 21167 21168 21169 21170 21171 21172 21173 21174 21175 21176 21177 21178 21179 21180 21181 21182 21183 21184 21185 21186 21187 21188 21189 21190 21191 21192 21193 21194 21195 21196 21197 21198 21199 21200 21201 21202 21203 21204 21205 21206 21207 21208 21209 21210 21211 21212 21213 21214 21215 21216 21217 21218 21219 21220 21221 21222 21223 21224 21225 21226 21227 21228 21229 21230 21231 21232 21233 21234 21235 21236 21237 21238 21239 21240 21241 21242 21243 21244 21245 21246 21247 21248 21249 21250 21251 21252 21253 21254 21255 21256 21257 21258 21259 21260 21261 21262 21263 21264 21265 21266 21267 21268 21269 21270 21271 21272 21273 21274 21275 21276 21277 21278 21279 21280 21281 21282 21283 21284 21285 21286 21287 21288 21289 21290 21291 21292 21293 21294 21295 21296 21297 21298 21299 21300 21301 21302 21303 21304 21305 21306 21307 21308 21309 21310 21311 21312 21313 21314 21315 21316 21317 21318 21319 21320 21321 21322 21323 21324 21325 21326 21327 21328 21329 21330 21331 21332 21333 21334 21335 21336 21337 21338 21339 21340 21341 21342 21343 21344 21345 21346 21347 21348 21349 21350 21351 21352 21353 21354 21355 21356 21357 21358 21359 21360 21361 21362 21363 21364 21365 21366 21367 21368 21369 21370 21371 21372 21373 21374 21375 21376 21377 21378 21379 21380 21381 21382 21383 21384 21385 21386 21387 21388 21389 21390 21391 21392 21393 21394 21395 21396 21397 21398 21399 21400 21401 21402 21403 21404 21405 21406 21407 21408 21409 21410 21411 21412 21413 21414 21415 21416 21417 21418 21419 21420 21421 21422 21423 21424 21425 21426 21427 21428 21429 21430 21431 21432 21433 21434 21435 21436 21437 21438 21439 21440 21441 21442 21443 21444 21445 21446 21447 21448 21449 21450 21451 21452 21453 21454 21455 21456 21457 21458 21459 21460 21461 21462 21463 21464 21465 21466 21467 21468 21469 21470 21471 21472 21473 21474 21475 21476 21477 21478 21479 21480 21481 21482 21483 21484 21485 21486 21487 21488 21489 21490 21491 21492 21493 21494 21495 21496 21497 21498 21499 21500 21501 21502 21503 21504 21505 21506 21507 21508 21509 21510 21511 21512 21513 21514 21515 21516 21517 21518 21519 21520 21521 21522 21523 21524 21525 21526 21527 21528 21529 21530 21531 21532 21533 21534 21535 21536 21537 21538 21539 21540 21541 21542 21543 21544 21545 21546 21547 21548 21549 21550 21551 21552 21553 21554 21555 21556 21557 21558 21559 21560 21561 21562 21563 21564 21565 21566 21567 21568 21569 21570 21571 21572 21573 21574 21575 21576 21577 21578 21579 21580 21581 21582 21583 21584 21585 21586 21587 21588 21589 21590 21591 21592 21593 21594 21595 21596 21597 21598 21599 21600 21601 21602 21603 21604 21605 21606 21607 21608 21609 21610 21611 21612 21613 21614 21615 21616 21617 21618 21619 21620 21621 21622 21623 21624 21625 21626 21627 21628 21629 21630 21631 21632 21633 21634 21635 21636 21637 21638 21639 21640 21641 21642 21643 21644 21645 21646 21647 21648 21649 21650 21651 21652 21653 21654 21655 21656 21657 21658 21659 21660 21661 21662 21663 21664 21665 21666 21667 21668 21669 21670 21671 21672 21673 21674 21675 21676 21677 21678 21679 21680 21681 21682 21683 21684 21685 21686 21687 21688 21689 21690 21691 21692 21693 21694 21695 21696 21697 21698 21699 21700 21701 21702 21703 21704 21705 21706 21707 21708 21709 21710 21711 21712 21713 21714 21715 21716 21717 21718 21719 21720 21721 21722 21723 21724 21725 21726 21727 21728 21729 21730 21731 21732 21733 21734 21735 21736 21737 21738 21739 21740 21741 21742 21743 21744 21745 21746 21747 21748 21749 21750 21751 21752 21753 21754 21755 21756 21757 21758 21759 21760 21761 21762 21763 21764 21765 21766 21767 21768 21769 21770 21771 21772 21773 21774 21775 21776 21777 21778 21779 21780 21781 21782 21783 21784 21785 21786 21787 21788 21789 21790 21791 21792 21793 21794 21795 21796 21797 21798 21799 21800 21801 21802 21803 21804 21805 21806 21807 21808 21809 21810 21811 21812 21813 21814 21815 21816 21817 21818 21819 21820 21821 21822 21823 21824 21825 21826 21827 21828 21829 21830 21831 21832 21833 21834 21835 21836 21837 21838 21839 21840 21841 21842 21843 21844 21845 21846 21847 21848 21849 21850 21851 21852 21853 21854 21855 21856 21857 21858 21859 21860 21861 21862 21863 21864 21865 21866 21867 21868 21869 21870 21871 21872 21873 21874 21875 21876 21877 21878 21879 21880 21881 21882 21883 21884 21885 21886 21887 21888 21889 21890 21891 21892 21893 21894 21895 21896 21897 21898 21899 21900 21901 21902 21903 21904 21905 21906 21907 21908 21909 21910 21911 21912 21913 21914 21915 21916 21917 21918 21919 21920 21921 21922 21923 21924 21925 21926 21927 21928 21929 21930 21931 21932 21933 21934 21935 21936 21937 21938 21939 21940 21941 21942 21943 21944 21945 21946 21947 21948 21949 21950 21951 21952 21953 21954 21955 21956 21957 21958 21959 21960 21961 21962 21963 21964 21965 21966 21967 21968 21969 21970 21971 21972 21973 21974 21975 21976 21977 21978 21979 21980 21981 21982 21983 21984 21985 21986 21987 21988 21989 21990 21991 21992 21993 21994 21995 21996 21997 21998 21999 22000 22001 22002 22003 22004 22005 22006 22007 22008 22009 22010 22011 22012 22013 22014 22015 22016 22017 22018 22019 22020 22021 22022 22023 22024 22025 22026 22027 22028 22029 22030 22031 22032 22033 22034 22035 22036 22037 22038 22039 22040 22041 22042 22043 22044 22045 22046 22047 22048 22049 22050 22051 22052 22053 22054 22055 22056 22057 22058 22059 22060 22061 22062 22063 22064 22065 22066 22067 22068 22069 22070 22071 22072 22073 22074 22075 22076 22077 22078 22079 22080 22081 22082 22083 22084 22085 22086 22087 22088 22089 22090 22091 22092 22093 22094 22095 22096 22097 22098 22099 22100 22101 22102 22103 22104 22105 22106 22107 22108 22109 22110 22111 22112 22113 22114 22115 22116 22117 22118 22119 22120 22121 22122 22123 22124 22125 22126 22127 22128 22129 22130 22131 22132 22133 22134 22135 22136 22137 22138 22139 22140 22141 22142 22143 22144 22145 22146 22147 22148 22149 22150 22151 22152 22153 22154 22155 22156 22157 22158 22159 22160 22161 22162 22163 22164 22165 22166 22167 22168 22169 22170 22171 22172 22173 22174 22175 22176 22177 22178 22179 22180 22181 22182 22183 22184 22185 22186 22187 22188 22189 22190 22191 22192 22193 22194 22195 22196 22197 22198 22199 22200 22201 22202 22203 22204 22205 22206 22207 22208 22209 22210 22211 22212 22213 22214 22215 22216 22217 22218 22219 22220 22221 22222 22223 22224 22225 22226 22227 22228 22229 22230 22231 22232 22233 22234 22235 22236 22237 22238 22239 22240 22241 22242 22243 22244 22245 22246 22247 22248 22249 22250 22251 22252 22253 22254 22255 22256 22257 22258 22259 22260 22261 22262 22263 22264 22265 22266 22267 22268 22269 22270 22271 22272 22273 22274 22275 22276 22277 22278 22279 22280 22281 22282 22283 22284 22285 22286 22287 22288 22289 22290 22291 22292 22293 22294 22295 22296 22297 22298 22299 22300 22301 22302 22303 22304 22305 22306 22307 22308 22309 22310 22311 22312 22313 22314 22315 22316 22317 22318 22319 22320 22321 22322 22323 22324 22325 22326 22327 22328 22329 22330 22331 22332 22333 22334 22335 22336 22337 22338 22339 22340 22341 22342 22343 22344 22345 22346 22347 22348 22349 22350 22351 22352 22353 22354 22355 22356 22357 22358 22359 22360 22361 22362 22363 22364 22365 22366 22367 22368 22369 22370 22371 22372 22373 22374 22375 22376 22377 22378 22379 22380 22381 22382 22383 22384 22385 22386 22387 22388 22389 22390 22391 22392 22393 22394 22395 22396 22397 22398 22399 22400 22401 22402 22403 22404 22405 22406 22407 22408 22409 22410 22411 22412 22413 22414 22415 22416 22417 22418 22419 22420 22421 22422 22423 22424 22425 22426 22427 22428 22429 22430 22431 22432 22433 22434 22435 22436 22437 22438 22439 22440 22441 22442 22443 22444 22445 22446 22447 22448 22449 22450 22451 22452 22453 22454 22455 22456 22457 22458 22459 22460 22461 22462 22463 22464 22465 22466 22467 22468 22469 22470 22471 22472 22473 22474 22475 22476 22477 22478 22479 22480 22481 22482 22483 22484 22485 22486 22487 22488 22489 22490 22491 22492 22493 22494 22495 22496 22497 22498 22499 22500 22501 22502 22503 22504 22505 22506 22507 22508 22509 22510 22511 22512 22513 22514 22515 22516 22517 22518 22519 22520 22521 22522 22523 22524 22525 22526 22527 22528 22529 22530 22531 22532 22533 22534 22535 22536 22537 22538 22539 22540 22541 22542 22543 22544 22545 22546 22547 22548 22549 22550 22551 22552 22553 22554 22555 22556 22557 22558 22559 22560 22561 22562 22563 22564 22565 22566 22567 22568 22569 22570 22571 22572 22573 22574 22575 22576 22577 22578 22579 22580 22581 22582 22583 22584 22585 22586 22587 22588 22589 22590 22591 22592 22593 22594 22595 22596 22597 22598 22599 22600 22601 22602 22603 22604 22605 22606 22607 22608 22609 22610 22611 22612 22613 22614 22615 22616 22617 22618 22619 22620 22621 22622 22623 22624 22625 22626 22627 22628 22629 22630 22631 22632 22633 22634 22635 22636 22637 22638 22639 22640 22641 22642 22643 22644 22645 22646 22647 22648 22649 22650 22651 22652 22653 22654 22655 22656 22657 22658 22659 22660 22661 22662 22663 22664 22665 22666 22667 22668 22669 22670 22671 22672 22673 22674 22675 22676 22677 22678 22679 22680 22681 22682 22683 22684 22685 22686 22687 22688 22689 22690 22691 22692 22693 22694 22695 22696 22697 22698 22699 22700 22701 22702 22703 22704 22705 22706 22707 22708 22709 22710 22711 22712 22713 22714 22715 22716 22717 22718 22719 22720 22721 22722 22723 22724 22725 22726 22727 22728 22729 22730 22731 22732 22733 22734 22735 22736 22737 22738 22739 22740 22741 22742 22743 22744 22745 22746 22747 22748 22749 22750 22751 22752 22753 22754 22755 22756 22757 22758 22759 22760 22761 22762 22763 22764 22765 22766 22767 22768 22769 22770 22771 22772 22773 22774 22775 22776 22777 22778 22779 22780 22781 22782 22783 22784 22785 22786 22787 22788 22789 22790 22791 22792 22793 22794 22795 22796 22797 22798 22799 22800 22801 22802 22803 22804 22805 22806 22807 22808 22809 22810 22811 22812 22813 22814 22815 22816 22817 22818 22819 22820 22821 22822 22823 22824 22825 22826 22827 22828 22829 22830 22831 22832 22833 22834 22835 22836 22837 22838 22839 22840 22841 22842 22843 22844 22845 22846 22847 22848 22849 22850 22851 22852 22853 22854 22855 22856 22857 22858 22859 22860 22861 22862 22863 22864 22865 22866 22867 22868 22869 22870 22871 22872 22873 22874 22875 22876 22877 22878 22879 22880 22881 22882 22883 22884 22885 22886 22887 22888 22889 22890 22891 22892 22893 22894 22895 22896 22897 22898 22899 22900 22901 22902 22903 22904 22905 22906 22907 22908 22909 22910 22911 22912 22913 22914 22915 22916 22917 22918 22919 22920 22921 22922 22923 22924 22925 22926 22927 22928 22929 22930 22931 22932 22933 22934 22935 22936 22937 22938 22939 22940 22941 22942 22943 22944 22945 22946 22947 22948 22949 22950 22951 22952 22953 22954 22955 22956 22957 22958 22959 22960 22961 22962 22963 22964 22965 22966 22967 22968 22969 22970 22971 22972 22973 22974 22975 22976 22977 22978 22979 22980 22981 22982 22983 22984 22985 22986 22987 22988 22989 22990 22991 22992 22993 22994 22995 22996 22997 22998 22999 23000 23001 23002 23003 23004 23005 23006 23007 23008 23009 23010 23011 23012 23013 23014 23015 23016 23017 23018 23019 23020 23021 23022 23023 23024 23025 23026 23027 23028 23029 23030 23031 23032 23033 23034 23035 23036 23037 23038 23039 23040 23041 23042 23043 23044 23045 23046 23047 23048 23049 23050 23051 23052 23053 23054 23055 23056 23057 23058 23059 23060 23061 23062 23063 23064 23065 23066 23067 23068 23069 23070 23071 23072 23073 23074 23075 23076 23077 23078 23079 23080 23081 23082 23083 23084 23085 23086 23087 23088 23089 23090 23091 23092 23093 23094 23095 23096 23097 23098 23099 23100 23101 23102 23103 23104 23105 23106 23107 23108 23109 23110 23111 23112 23113 23114 23115 23116 23117 23118 23119 23120 23121 23122 23123 23124 23125 23126 23127 23128 23129 23130 23131 23132 23133 23134 23135 23136 23137 23138 23139 23140 23141 23142 23143 23144 23145 23146 23147 23148 23149 23150 23151 23152 23153 23154 23155 23156 23157 23158 23159 23160 23161 23162 23163 23164 23165 23166 23167 23168 23169 23170 23171 23172 23173 23174 23175 23176 23177 23178 23179 23180 23181 23182 23183 23184 23185 23186 23187 23188 23189 23190 23191 23192 23193 23194 23195 23196 23197 23198 23199 23200 23201 23202 23203 23204 23205 23206 23207 23208 23209 23210 23211 23212 23213 23214 23215 23216 23217 23218 23219 23220 23221 23222 23223 23224 23225 23226 23227 23228 23229 23230 23231 23232 23233 23234 23235 23236 23237 23238 23239 23240 23241 23242 23243 23244 23245 23246 23247 23248 23249 23250 23251 23252 23253 23254 23255 23256 23257 23258 23259 23260 23261 23262 23263 23264 23265 23266 23267 23268 23269 23270 23271 23272 23273 23274 23275 23276 23277 23278 23279 23280 23281 23282 23283 23284 23285 23286 23287 23288 23289 23290 23291 23292 23293 23294 23295 23296 23297 23298 23299 23300 23301 23302 23303 23304 23305 23306 23307 23308 23309 23310 23311 23312 23313 23314 23315 23316 23317 23318 23319 23320 23321 23322 23323 23324 23325 23326 23327 23328 23329 23330 23331 23332 23333 23334 23335 23336 23337 23338 23339 23340 23341 23342 23343 23344 23345 23346 23347 23348 23349 23350 23351 23352 23353 23354 23355 23356 23357 23358 23359 23360 23361 23362 23363 23364 23365 23366 23367 23368 23369 23370 23371 23372 23373 23374 23375 23376 23377 23378 23379 23380 23381 23382 23383 23384 23385 23386 23387 23388 23389 23390 23391 23392 23393 23394 23395 23396 23397 23398 23399 23400 23401 23402 23403 23404 23405 23406 23407 23408 23409 23410 23411 23412 23413 23414 23415 23416 23417 23418 23419 23420 23421 23422 23423 23424 23425 23426 23427 23428 23429 23430 23431 23432 23433 23434 23435 23436 23437 23438 23439 23440 23441 23442 23443 23444 23445 23446 23447 23448 23449 23450 23451 23452 23453 23454 23455 23456 23457 23458 23459 23460 23461 23462 23463 23464 23465 23466 23467 23468 23469 23470 23471 23472 23473 23474 23475 23476 23477 23478 23479 23480 23481 23482 23483 23484 23485 23486 23487 23488 23489 23490 23491 23492 23493 23494 23495 23496 23497 23498 23499 23500 23501 23502 23503 23504 23505 23506 23507 23508 23509 23510 23511 23512 23513 23514 23515 23516 23517 23518 23519 23520 23521 23522 23523 23524 23525 23526 23527 23528 23529 23530 23531 23532 23533 23534 23535 23536 23537 23538 23539 23540 23541 23542 23543 23544 23545 23546 23547 23548 23549 23550 23551 23552 23553 23554 23555 23556 23557 23558 23559 23560 23561 23562 23563 23564 23565 23566 23567 23568 23569 23570 23571 23572 23573 23574 23575 23576 23577 23578 23579 23580 23581 23582 23583 23584 23585 23586 23587 23588 23589 23590 23591 23592 23593 23594 23595 23596 23597 23598 23599 23600 23601 23602 23603 23604 23605 23606 23607 23608 23609 23610 23611 23612 23613 23614 23615 23616 23617 23618 23619 23620 23621 23622 23623 23624 23625 23626 23627 23628 23629 23630 23631 23632 23633 23634 23635 23636 23637 23638 23639 23640 23641 23642 23643 23644 23645 23646 23647 23648 23649 23650 23651 23652 23653 23654 23655 23656 23657 23658 23659 23660 23661 23662 23663 23664 23665 23666 23667 23668 23669 23670 23671 23672 23673 23674 23675 23676 23677 23678 23679 23680 23681 23682 23683 23684 23685 23686 23687 23688 23689 23690 23691 23692 23693 23694 23695 23696 23697 23698 23699 23700 23701 23702 23703 23704 23705 23706 23707 23708 23709 23710 23711 23712 23713 23714 23715 23716 23717 23718 23719 23720 23721 23722 23723 23724 23725 23726 23727 23728 23729 23730 23731 23732 23733 23734 23735 23736 23737 23738 23739 23740 23741 23742 23743 23744 23745 23746 23747 23748 23749 23750 23751 23752 23753 23754 23755 23756 23757 23758 23759 23760 23761 23762 23763 23764 23765 23766 23767 23768 23769 23770 23771 23772 23773 23774 23775 23776 23777 23778 23779 23780 23781 23782 23783 23784 23785 23786 23787 23788 23789 23790 23791 23792 23793 23794 23795 23796 23797 23798 23799 23800 23801 23802 23803 23804 23805 23806 23807 23808 23809 23810 23811 23812 23813 23814 23815 23816 23817 23818 23819 23820 23821 23822 23823 23824 23825 23826 23827 23828 23829 23830 23831 23832 23833 23834 23835 23836 23837 23838 23839 23840 23841 23842 23843 23844 23845 23846 23847 23848 23849 23850 23851 23852 23853 23854 23855 23856 23857 23858 23859 23860 23861 23862 23863 23864 23865 23866 23867 23868 23869 23870 23871 23872 23873 23874 23875 23876 23877 23878 23879 23880 23881 23882 23883 23884 23885 23886 23887 23888 23889 23890 23891 23892 23893 23894 23895 23896 23897 23898 23899 23900 23901 23902 23903 23904 23905 23906 23907 23908 23909 23910 23911 23912 23913 23914 23915 23916 23917 23918 23919 23920 23921 23922 23923 23924 23925 23926 23927 23928 23929 23930 23931 23932 23933 23934 23935 23936 23937 23938 23939 23940 23941 23942 23943 23944 23945 23946 23947 23948 23949 23950 23951 23952 23953 23954 23955 23956 23957 23958 23959 23960 23961 23962 23963 23964 23965 23966 23967 23968 23969 23970 23971 23972 23973 23974 23975 23976 23977 23978 23979 23980 23981 23982 23983 23984 23985 23986 23987 23988 23989 23990 23991 23992 23993 23994 23995 23996 23997 23998 23999 24000 24001 24002 24003 24004 24005 24006 24007 24008 24009 24010 24011 24012 24013 24014 24015 24016 24017 24018 24019 24020 24021 24022 24023 24024 24025 24026 24027 24028 24029 24030 24031 24032 24033 24034 24035 24036 24037 24038 24039 24040 24041 24042 24043 24044 24045 24046 24047 24048 24049 24050 24051 24052 24053 24054 24055 24056 24057 24058 24059 24060 24061 24062 24063 24064 24065 24066 24067 24068 24069 24070 24071 24072 24073 24074 24075 24076 24077 24078 24079 24080 24081 24082 24083 24084 24085 24086 24087 24088 24089 24090 24091 24092 24093 24094 24095 24096 24097 24098 24099 24100 24101 24102 24103 24104 24105 24106 24107 24108 24109 24110 24111 24112 24113 24114 24115 24116 24117 24118 24119 24120 24121 24122 24123 24124 24125 24126 24127 24128 24129 24130 24131 24132 24133 24134 24135 24136 24137 24138 24139 24140 24141 24142 24143 24144 24145 24146 24147 24148 24149 24150 24151 24152 24153 24154 24155 24156 24157 24158 24159 24160 24161 24162 24163 24164 24165 24166 24167 24168 24169 24170 24171 24172 24173 24174 24175 24176 24177 24178 24179 24180 24181 24182 24183 24184 24185 24186 24187 24188 24189 24190 24191 24192 24193 24194 24195 24196 24197 24198 24199 24200 24201 24202 24203 24204 24205 24206 24207 24208 24209 24210 24211 24212 24213 24214 24215 24216 24217 24218 24219 24220 24221 24222 24223 24224 24225 24226 24227 24228 24229 24230 24231 24232 24233 24234 24235 24236 24237 24238 24239 24240 24241 24242 24243 24244 24245 24246 24247 24248 24249 24250 24251 24252 24253 24254 24255 24256 24257 24258 24259 24260 24261 24262 24263 24264 24265 24266 24267 24268 24269 24270 24271 24272 24273 24274 24275 24276 24277 24278 24279 24280 24281 24282 24283 24284 24285 24286 24287 24288 24289 24290 24291 24292 24293 24294 24295 24296 24297 24298 24299 24300 24301 24302 24303 24304 24305 24306 24307 24308 24309 24310 24311 24312 24313 24314 24315 24316 24317 24318 24319 24320 24321 24322 24323 24324 24325 24326 24327 24328 24329 24330 24331 24332 24333 24334 24335 24336 24337 24338 24339 24340 24341 24342 24343 24344 24345 24346 24347 24348 24349 24350 24351 24352 24353 24354 24355 24356 24357 24358 24359 24360 24361 24362 24363 24364 24365 24366 24367 24368 24369 24370 24371 24372 24373 24374 24375 24376 24377 24378 24379 24380 24381 24382 24383 24384 24385 24386 24387 24388 24389 24390 24391 24392 24393 24394 24395 24396 24397 24398 24399 24400 24401 24402 24403 24404 24405 24406 24407 24408 24409 24410 24411 24412 24413 24414 24415 24416 24417 24418 24419 24420 24421 24422 24423 24424 24425 24426 24427 24428 24429 24430 24431 24432 24433 24434 24435 24436 24437 24438 24439 24440 24441 24442 24443 24444 24445 24446 24447 24448 24449 24450 24451 24452 24453 24454 24455 24456 24457 24458 24459 24460 24461 24462 24463 24464 24465 24466 24467 24468 24469 24470 24471 24472 24473 24474 24475 24476 24477 24478 24479 24480 24481 24482 24483 24484 24485 24486 24487 24488 24489 24490 24491 24492 24493 24494 24495 24496 24497 24498 24499 24500 24501 24502 24503 24504 24505 24506 24507 24508 24509 24510 24511 24512 24513 24514 24515 24516 24517 24518 24519 24520 24521 24522 24523 24524 24525 24526 24527 24528 24529 24530 24531 24532 24533 24534 24535 24536 24537 24538 24539 24540 24541 24542 24543 24544 24545 24546 24547 24548 24549 24550 24551 24552 24553 24554 24555 24556 24557 24558 24559 24560 24561 24562 24563 24564 24565 24566 24567 24568 24569 24570 24571 24572 24573 24574 24575 24576 24577 24578 24579 24580 24581 24582 24583 24584 24585 24586 24587 24588 24589 24590 24591 24592 24593 24594 24595 24596 24597 24598 24599 24600 24601 24602 24603 24604 24605 24606 24607 24608 24609 24610 24611 24612 24613 24614 24615 24616 24617 24618 24619 24620 24621 24622 24623 24624 24625 24626 24627 24628 24629 24630 24631 24632 24633 24634 24635 24636 24637 24638 24639 24640 24641 24642 24643 24644 24645 24646 24647 24648 24649 24650 24651 24652 24653 24654 24655 24656 24657 24658 24659 24660 24661 24662 24663 24664 24665 24666 24667 24668 24669 24670 24671 24672 24673 24674 24675 24676 24677 24678 24679 24680 24681 24682 24683 24684 24685 24686 24687 24688 24689 24690 24691 24692 24693 24694 24695 24696 24697 24698 24699 24700 24701 24702 24703 24704 24705 24706 24707 24708 24709 24710 24711 24712 24713 24714 24715 24716 24717 24718 24719 24720 24721 24722 24723 24724 24725 24726 24727 24728 24729 24730 24731 24732 24733 24734 24735 24736 24737 24738 24739 24740 24741 24742 24743 24744 24745 24746 24747 24748 24749 24750 24751 24752 24753 24754 24755 24756 24757 24758 24759 24760 24761 24762 24763 24764 24765 24766 24767 24768 24769 24770 24771 24772 24773 24774 24775 24776 24777 24778 24779 24780 24781 24782 24783 24784 24785 24786 24787 24788 24789 24790 24791 24792 24793 24794 24795 24796 24797 24798 24799 24800 24801 24802 24803 24804 24805 24806 24807 24808 24809 24810 24811 24812 24813 24814 24815 24816 24817 24818 24819 24820 24821 24822 24823 24824 24825 24826 24827 24828 24829 24830 24831 24832 24833 24834 24835 24836 24837 24838 24839 24840 24841 24842 24843 24844 24845 24846 24847 24848 24849 24850 24851 24852 24853 24854 24855 24856 24857 24858 24859 24860 24861 24862 24863 24864 24865 24866 24867 24868 24869 24870 24871 24872 24873 24874 24875 24876 24877 24878 24879 24880 24881 24882 24883 24884 24885 24886 24887 24888 24889 24890 24891 24892 24893 24894 24895 24896 24897 24898 24899 24900 24901 24902 24903 24904 24905 24906 24907 24908 24909 24910 24911 24912 24913 24914 24915 24916 24917 24918 24919 24920 24921 24922 24923 24924 24925 24926 24927 24928 24929 24930 24931 24932 24933 24934 24935 24936 24937 24938 24939 24940 24941 24942 24943 24944 24945 24946 24947 24948 24949 24950 24951 24952 24953 24954 24955 24956 24957 24958 24959 24960 24961 24962 24963 24964 24965 24966 24967 24968 24969 24970 24971 24972 24973 24974 24975 24976 24977 24978 24979 24980 24981 24982 24983 24984 24985 24986 24987 24988 24989 24990 24991 24992 24993 24994 24995 24996 24997 24998 24999 25000 25001 25002 25003 25004 25005 25006 25007 25008 25009 25010 25011 25012 25013 25014 25015 25016 25017 25018 25019 25020 25021 25022 25023 25024 25025 25026 25027 25028 25029 25030 25031 25032 25033 25034 25035 25036 25037 25038 25039 25040 25041 25042 25043 25044 25045 25046 25047 25048 25049 25050 25051 25052 25053 25054 25055 25056 25057 25058 25059 25060 25061 25062 25063 25064 25065 25066 25067 25068 25069 25070 25071 25072 25073 25074 25075 25076 25077 25078 25079 25080 25081 25082 25083 25084 25085 25086 25087 25088 25089 25090 25091 25092 25093 25094 25095 25096 25097 25098 25099 25100 25101 25102 25103 25104 25105 25106 25107 25108 25109 25110 25111 25112 25113 25114 25115 25116 25117 25118 25119 25120 25121 25122 25123 25124 25125 25126 25127 25128 25129 25130 25131 25132 25133 25134 25135 25136 25137 25138 25139 25140 25141 25142 25143 25144 25145 25146 25147 25148 25149 25150 25151 25152 25153 25154 25155 25156 25157 25158 25159 25160 25161 25162 25163 25164 25165 25166 25167 25168 25169 25170 25171 25172 25173 25174 25175 25176 25177 25178 25179 25180 25181 25182 25183 25184 25185 25186 25187 25188 25189 25190 25191 25192 25193 25194 25195 25196 25197 25198 25199 25200 25201 25202 25203 25204 25205 25206 25207 25208 25209 25210 25211 25212 25213 25214 25215 25216 25217 25218 25219 25220 25221 25222 25223 25224 25225 25226 25227 25228 25229 25230 25231 25232 25233 25234 25235 25236 25237 25238 25239 25240 25241 25242 25243 25244 25245 25246 25247 25248 25249 25250 25251 25252 25253 25254 25255 25256 25257 25258 25259 25260 25261 25262 25263 25264 25265 25266 25267 25268 25269 25270 25271 25272 25273 25274 25275 25276 25277 25278 25279 25280 25281 25282 25283 25284 25285 25286 25287 25288 25289 25290 25291 25292 25293 25294 25295 25296 25297 25298 25299 25300 25301 25302 25303 25304 25305 25306 25307 25308 25309 25310 25311 25312 25313 25314 25315 25316 25317 25318 25319 25320 25321 25322 25323 25324 25325 25326 25327 25328 25329 25330 25331 25332 25333 25334 25335 25336 25337 25338 25339 25340 25341 25342 25343 25344 25345 25346 25347 25348 25349 25350 25351 25352 25353 25354 25355 25356 25357 25358 25359 25360 25361 25362 25363 25364 25365 25366 25367 25368 25369 25370 25371 25372 25373 25374 25375 25376 25377 25378 25379 25380 25381 25382 25383 25384 25385 25386 25387 25388 25389 25390 25391 25392 25393 25394 25395 25396 25397 25398 25399 25400 25401 25402 25403 25404 25405 25406 25407 25408 25409 25410 25411 25412 25413 25414 25415 25416 25417 25418 25419 25420 25421 25422 25423 25424 25425 25426 25427 25428 25429 25430 25431 25432 25433 25434 25435 25436 25437 25438 25439 25440 25441 25442 25443 25444 25445 25446 25447 25448 25449 25450 25451 25452 25453 25454 25455 25456 25457 25458 25459 25460 25461 25462 25463 25464 25465 25466 25467 25468 25469 25470 25471 25472 25473 25474 25475 25476 25477 25478 25479 25480 25481 25482 25483 25484 25485 25486 25487 25488 25489 25490 25491 25492 25493 25494 25495 25496 25497 25498 25499 25500 25501 25502 25503 25504 25505 25506 25507 25508 25509 25510 25511 25512 25513 25514 25515 25516 25517 25518 25519 25520 25521 25522 25523 25524 25525 25526 25527 25528 25529 25530 25531 25532 25533 25534 25535 25536 25537 25538 25539 25540 25541 25542 25543 25544 25545 25546 25547 25548 25549 25550 25551 25552 25553 25554 25555 25556 25557 25558 25559 25560 25561 25562 25563 25564 25565 25566 25567 25568 25569 25570 25571 25572 25573 25574 25575 25576 25577 25578 25579 25580 25581 25582 25583 25584 25585 25586 25587 25588 25589 25590 25591 25592 25593 25594 25595 25596 25597 25598 25599 25600 25601 25602 25603 25604 25605 25606 25607 25608 25609 25610 25611 25612 25613 25614 25615 25616 25617 25618 25619 25620 25621 25622 25623 25624 25625 25626 25627 25628 25629 25630 25631 25632 25633 25634 25635 25636 25637 25638 25639 25640 25641 25642 25643 25644 25645 25646 25647 25648 25649 25650 25651 25652 25653 25654 25655 25656 25657 25658 25659 25660 25661 25662 25663 25664 25665 25666 25667 25668 25669 25670 25671 25672 25673 25674 25675 25676 25677 25678 25679 25680 25681 25682 25683 25684 25685 25686 25687 25688 25689 25690 25691 25692 25693 25694 25695 25696 25697 25698 25699 25700 25701 25702 25703 25704 25705 25706 25707 25708 25709 25710 25711 25712 25713 25714 25715 25716 25717 25718 25719 25720 25721 25722 25723 25724 25725 25726 25727 25728 25729 25730 25731 25732 25733 25734 25735 25736 25737 25738 25739 25740 25741 25742 25743 25744 25745 25746 25747 25748 25749 25750 25751 25752 25753 25754 25755 25756 25757 25758 25759 25760 25761 25762 25763 25764 25765 25766 25767 25768 25769 25770 25771 25772 25773 25774 25775 25776 25777 25778 25779 25780 25781 25782 25783 25784 25785 25786 25787 25788 25789 25790 25791 25792 25793 25794 25795 25796 25797 25798 25799 25800 25801 25802 25803 25804 25805 25806 25807 25808 25809 25810 25811 25812 25813 25814 25815 25816 25817 25818 25819 25820 25821 25822 25823 25824 25825 25826 25827 25828 25829 25830 25831 25832 25833 25834 25835 25836 25837 25838 25839 25840 25841 25842 25843 25844 25845 25846 25847 25848 25849 25850 25851 25852 25853 25854 25855 25856 25857 25858 25859 25860 25861 25862 25863 25864 25865 25866 25867 25868 25869 25870 25871 25872 25873 25874 25875 25876 25877 25878 25879 25880 25881 25882 25883 25884 25885 25886 25887 25888 25889 25890 25891 25892 25893 25894 25895 25896 25897 25898 25899 25900 25901 25902 25903 25904 25905 25906 25907 25908 25909 25910 25911 25912 25913 25914 25915 25916 25917 25918 25919 25920 25921 25922 25923 25924 25925 25926 25927 25928 25929 25930 25931 25932 25933 25934 25935 25936 25937 25938 25939 25940 25941 25942 25943 25944 25945 25946 25947 25948 25949 25950 25951 25952 25953 25954 25955 25956 25957 25958 25959 25960 25961 25962 25963 25964 25965 25966 25967 25968 25969 25970 25971 25972 25973 25974 25975 25976 25977 25978 25979 25980 25981 25982 25983 25984 25985 25986 25987 25988 25989 25990 25991 25992 25993 25994 25995 25996 25997 25998 25999 26000 26001 26002 26003 26004 26005 26006 26007 26008 26009 26010 26011 26012 26013 26014 26015 26016 26017 26018 26019 26020 26021 26022 26023 26024 26025 26026 26027 26028 26029 26030 26031 26032 26033 26034 26035 26036 26037 26038 26039 26040 26041 26042 26043 26044 26045 26046 26047 26048 26049 26050 26051 26052 26053 26054 26055 26056 26057 26058 26059 26060 26061 26062 26063 26064 26065 26066 26067 26068 26069 26070 26071 26072 26073 26074 26075 26076 26077 26078 26079 26080 26081 26082 26083 26084 26085 26086 26087 26088 26089 26090 26091 26092 26093 26094 26095 26096 26097 26098 26099 26100 26101 26102 26103 26104 26105 26106 26107 26108 26109 26110 26111 26112 26113 26114 26115 26116 26117 26118 26119 26120 26121 26122 26123 26124 26125 26126 26127 26128 26129 26130 26131 26132 26133 26134 26135 26136 26137 26138 26139 26140 26141 26142 26143 26144 26145 26146 26147 26148 26149 26150 26151 26152 26153 26154 26155 26156 26157 26158 26159 26160 26161 26162 26163 26164 26165 26166 26167 26168 26169 26170 26171 26172 26173 26174 26175 26176 26177 26178 26179 26180 26181 26182 26183 26184 26185 26186 26187 26188 26189 26190 26191 26192 26193 26194 26195 26196 26197 26198 26199 26200 26201 26202 26203 26204 26205 26206 26207 26208 26209 26210 26211 26212 26213 26214 26215 26216 26217 26218 26219 26220 26221 26222 26223 26224 26225 26226 26227 26228 26229 26230 26231 26232 26233 26234 26235 26236 26237 26238 26239 26240 26241 26242 26243 26244 26245 26246 26247 26248 26249 26250 26251 26252 26253 26254 26255 26256 26257 26258 26259 26260 26261 26262 26263 26264 26265 26266 26267 26268 26269 26270 26271 26272 26273 26274 26275 26276 26277 26278 26279 26280 26281 26282 26283 26284 26285 26286 26287 26288 26289 26290 26291 26292 26293 26294 26295 26296 26297 26298 26299 26300 26301 26302 26303 26304 26305 26306 26307 26308 26309 26310 26311 26312 26313 26314 26315 26316 26317 26318 26319 26320 26321 26322 26323 26324 26325 26326 26327 26328 26329 26330 26331 26332 26333 26334 26335 26336 26337 26338 26339 26340 26341 26342 26343 26344 26345 26346 26347 26348 26349 26350 26351 26352 26353 26354 26355 26356 26357 26358 26359 26360 26361 26362 26363 26364 26365 26366 26367 26368 26369 26370 26371 26372 26373 26374 26375 26376 26377 26378 26379 26380 26381 26382 26383 26384 26385 26386 26387 26388 26389 26390 26391 26392 26393 26394 26395 26396 26397 26398 26399 26400 26401 26402 26403 26404 26405 26406 26407 26408 26409 26410 26411 26412 26413 26414 26415 26416 26417 26418 26419 26420 26421 26422 26423 26424 26425 26426 26427 26428 26429 26430 26431 26432 26433 26434 26435 26436 26437 26438 26439 26440 26441 26442 26443 26444 26445 26446 26447 26448 26449 26450 26451 26452 26453 26454 26455 26456 26457 26458 26459 26460 26461 26462 26463 26464 26465 26466 26467 26468 26469 26470 26471 26472 26473 26474 26475 26476 26477 26478 26479 26480 26481 26482 26483 26484 26485 26486 26487 26488 26489 26490 26491 26492 26493 26494 26495 26496 26497 26498 26499 26500 26501 26502 26503 26504 26505 26506 26507 26508 26509 26510 26511 26512 26513 26514 26515 26516 26517 26518 26519 26520 26521 26522 26523 26524 26525 26526 26527 26528 26529 26530 26531 26532 26533 26534 26535 26536 26537 26538 26539 26540 26541 26542 26543 26544 26545 26546 26547 26548 26549 26550 26551 26552 26553 26554 26555 26556 26557 26558 26559 26560 26561 26562 26563 26564 26565 26566 26567 26568 26569 26570 26571 26572 26573 26574 26575 26576 26577 26578 26579 26580 26581 26582 26583 26584 26585 26586 26587 26588 26589 26590 26591 26592 26593 26594 26595 26596 26597 26598 26599 26600 26601 26602 26603 26604 26605 26606 26607 26608 26609 26610 26611 26612 26613 26614 26615 26616 26617 26618 26619 26620 26621 26622 26623 26624 26625 26626 26627 26628 26629 26630 26631 26632 26633 26634 26635 26636 26637 26638 26639 26640 26641 26642 26643 26644 26645 26646 26647 26648 26649 26650 26651 26652 26653 26654 26655 26656 26657 26658 26659 26660 26661 26662 26663 26664 26665 26666 26667 26668 26669 26670 26671 26672 26673 26674 26675 26676 26677 26678 26679 26680 26681 26682 26683 26684 26685 26686 26687 26688 26689 26690 26691 26692 26693 26694 26695 26696 26697 26698 26699 26700 26701 26702 26703 26704 26705 26706 26707 26708 26709 26710 26711 26712 26713 26714 26715 26716 26717 26718 26719 26720 26721 26722 26723 26724 26725 26726 26727 26728 26729 26730 26731 26732 26733 26734 26735 26736 26737 26738 26739 26740 26741 26742 26743 26744 26745 26746 26747 26748 26749 26750 26751 26752 26753 26754 26755 26756 26757 26758 26759 26760 26761 26762 26763 26764 26765 26766 26767 26768 26769 26770 26771 26772 26773 26774 26775 26776 26777 26778 26779 26780 26781 26782 26783 26784 26785 26786 26787 26788 26789 26790 26791 26792 26793 26794 26795 26796 26797 26798 26799 26800 26801 26802 26803 26804 26805 26806 26807 26808 26809 26810 26811 26812 26813 26814 26815 26816 26817 26818 26819 26820 26821 26822 26823 26824 26825 26826 26827 26828 26829 26830 26831 26832 26833 26834 26835 26836 26837 26838 26839 26840 26841 26842 26843 26844 26845 26846 26847 26848 26849 26850 26851 26852 26853 26854 26855 26856 26857 26858 26859 26860 26861 26862 26863 26864 26865 26866 26867 26868 26869 26870 26871 26872 26873 26874 26875 26876 26877 26878 26879 26880 26881 26882 26883 26884 26885 26886 26887 26888 26889 26890 26891 26892 26893 26894 26895 26896 26897 26898 26899 26900 26901 26902 26903 26904 26905 26906 26907 26908 26909 26910 26911 26912 26913 26914 26915 26916 26917 26918 26919 26920 26921 26922 26923 26924 26925 26926 26927 26928 26929 26930 26931 26932 26933 26934 26935 26936 26937 26938 26939 26940 26941 26942 26943 26944 26945 26946 26947 26948 26949 26950 26951 26952 26953 26954 26955 26956 26957 26958 26959 26960 26961 26962 26963 26964 26965 26966 26967 26968 26969 26970 26971 26972 26973 26974 26975 26976 26977 26978 26979 26980 26981 26982 26983 26984 26985 26986 26987 26988 26989 26990 26991 26992 26993 26994 26995 26996 26997 26998 26999 27000 27001 27002 27003 27004 27005 27006 27007 27008 27009 27010 27011 27012 27013 27014 27015 27016 27017 27018 27019 27020 27021 27022 27023 27024 27025 27026 27027 27028 27029 27030 27031 27032 27033 27034 27035 27036 27037 27038 27039 27040 27041 27042 27043 27044 27045 27046 27047 27048 27049 27050 27051 27052 27053 27054 27055 27056 27057 27058 27059 27060 27061 27062 27063 27064 27065 27066 27067 27068 27069 27070 27071 27072 27073 27074 27075 27076 27077 27078 27079 27080 27081 27082 27083 27084 27085 27086 27087 27088 27089 27090 27091 27092 27093 27094 27095 27096 27097 27098 27099 27100 27101 27102 27103 27104 27105 27106 27107 27108 27109 27110 27111 27112 27113 27114 27115 27116 27117 27118 27119 27120 27121 27122 27123 27124 27125 27126 27127 27128 27129 27130 27131 27132 27133 27134 27135 27136 27137 27138 27139 27140 27141 27142 27143 27144 27145 27146 27147 27148 27149 27150 27151 27152 27153 27154 27155 27156 27157 27158 27159 27160 27161 27162 27163 27164 27165 27166 27167 27168 27169 27170 27171 27172 27173 27174 27175 27176 27177 27178 27179 27180 27181 27182 27183 27184 27185 27186 27187 27188 27189 27190 27191 27192 27193 27194 27195 27196 27197 27198 27199 27200 27201 27202 27203 27204 27205 27206 27207 27208 27209 27210 27211 27212 27213 27214 27215 27216 27217 27218 27219 27220 27221 27222 27223 27224 27225 27226 27227 27228 27229 27230 27231 27232 27233 27234 27235 27236 27237 27238 27239 27240 27241 27242 27243 27244 27245 27246 27247 27248 27249 27250 27251 27252 27253 27254 27255 27256 27257 27258 27259 27260 27261 27262 27263 27264 27265 27266 27267 27268 27269 27270 27271 27272 27273 27274 27275 27276 27277 27278 27279 27280 27281 27282 27283 27284 27285 27286 27287 27288 27289 27290 27291 27292 27293 27294 27295 27296 27297 27298 27299 27300 27301 27302 27303 27304 27305 27306 27307 27308 27309 27310 27311 27312 27313 27314 27315 27316 27317 27318 27319 27320 27321 27322 27323 27324 27325 27326 27327 27328 27329 27330 27331 27332 27333 27334 27335 27336 27337 27338 27339 27340 27341 27342 27343 27344 27345 27346 27347 27348 27349 27350 27351 27352 27353 27354 27355 27356 27357 27358 27359 27360 27361 27362 27363 27364 27365 27366 27367 27368 27369 27370 27371 27372 27373 27374 27375 27376 27377 27378 27379 27380 27381 27382 27383 27384 27385 27386 27387 27388 27389 27390 27391 27392 27393 27394 27395 27396 27397 27398 27399 27400 27401 27402 27403 27404 27405 27406 27407 27408 27409 27410 27411 27412 27413 27414 27415 27416 27417 27418 27419 27420 27421 27422 27423 27424 27425 27426 27427 27428 27429 27430 27431 27432 27433 27434 27435 27436 27437 27438 27439 27440 27441 27442 27443 27444 27445 27446 27447 27448 27449 27450 27451 27452 27453 27454 27455 27456 27457 27458 27459 27460 27461 27462 27463 27464 27465 27466 27467 27468 27469 27470 27471 27472 27473 27474 27475 27476 27477 27478 27479 27480 27481 27482 27483 27484 27485 27486 27487 27488 27489 27490 27491 27492 27493 27494 27495 27496 27497 27498 27499 27500 27501 27502 27503 27504 27505 27506 27507 27508 27509 27510 27511 27512 27513 27514 27515 27516 27517 27518 27519 27520 27521 27522 27523 27524 27525 27526 27527 27528 27529 27530 27531 27532 27533 27534 27535 27536 27537 27538 27539 27540 27541 27542 27543 27544 27545 27546 27547 27548 27549 27550 27551 27552 27553 27554 27555 27556 27557 27558 27559 27560 27561 27562 27563 27564 27565 27566 27567 27568 27569 27570 27571 27572 27573 27574 27575 27576 27577 27578 27579 27580 27581 27582 27583 27584 27585 27586 27587 27588 27589 27590 27591 27592 27593 27594 27595 27596 27597 27598 27599 27600 27601 27602 27603 27604 27605 27606 27607 27608 27609 27610 27611 27612 27613 27614 27615 27616 27617 27618 27619 27620 27621 27622 27623 27624 27625 27626 27627 27628 27629 27630 27631 27632 27633 27634 27635 27636 27637 27638 27639 27640 27641 27642 27643 27644 27645 27646 27647 27648 27649 27650 27651 27652 27653 27654 27655 27656 27657 27658 27659 27660 27661 27662 27663 27664 27665 27666 27667 27668 27669 27670 27671 27672 27673 27674 27675 27676 27677 27678 27679 27680 27681 27682 27683 27684 27685 27686 27687 27688 27689 27690 27691 27692 27693 27694 27695 27696 27697 27698 27699 27700 27701 27702 27703 27704 27705 27706 27707 27708 27709 27710 27711 27712 27713 27714 27715 27716 27717 27718 27719 27720 27721 27722 27723 27724 27725 27726 27727 27728 27729 27730 27731 27732 27733 27734 27735 27736 27737 27738 27739 27740 27741 27742 27743 27744 27745 27746 27747 27748 27749 27750 27751 27752 27753 27754 27755 27756 27757 27758 27759 27760 27761 27762 27763 27764 27765 27766 27767 27768 27769 27770 27771 27772 27773 27774 27775 27776 27777 27778 27779 27780 27781 27782 27783 27784 27785 27786 27787 27788 27789 27790 27791 27792 27793 27794 27795 27796 27797 27798 27799 27800 27801 27802 27803 27804 27805 27806 27807 27808 27809 27810 27811 27812 27813 27814 27815 27816 27817 27818 27819 27820 27821 27822 27823 27824 27825 27826 27827 27828 27829 27830 27831 27832 27833 27834 27835 27836 27837 27838 27839 27840 27841 27842 27843 27844 27845 27846 27847 27848 27849 27850 27851 27852 27853 27854 27855 27856 27857 27858 27859 27860 27861 27862 27863 27864 27865 27866 27867 27868 27869 27870 27871 27872 27873 27874 27875 27876 27877 27878 27879 27880 27881 27882 27883 27884 27885 27886 27887 27888 27889 27890 27891 27892 27893 27894 27895 27896 27897 27898 27899 27900 27901 27902 27903 27904 27905 27906 27907 27908 27909 27910 27911 27912 27913 27914 27915 27916 27917 27918 27919 27920 27921 27922 27923 27924 27925 27926 27927 27928 27929 27930 27931 27932 27933 27934 27935 27936 27937 27938 27939 27940 27941 27942 27943 27944 27945 27946 27947 27948 27949 27950 27951 27952 27953 27954 27955 27956 27957 27958 27959 27960 27961 27962 27963 27964 27965 27966 27967 27968 27969 27970 27971 27972 27973 27974 27975 27976 27977 27978 27979 27980 27981 27982 27983 27984 27985 27986 27987 27988 27989 27990 27991 27992 27993 27994 27995 27996 27997 27998 27999 28000 28001 28002 28003 28004 28005 28006 28007 28008 28009 28010 28011 28012 28013 28014 28015 28016 28017 28018 28019 28020 28021 28022 28023 28024 28025 28026 28027 28028 28029 28030 28031 28032 28033 28034 28035 28036 28037 28038 28039 28040 28041 28042 28043 28044 28045 28046 28047 28048 28049 28050 28051 28052 28053 28054 28055 28056 28057 28058 28059 28060 28061 28062 28063 28064 28065 28066 28067 28068 28069 28070 28071 28072 28073 28074 28075 28076 28077 28078 28079 28080 28081 28082 28083 28084 28085 28086 28087 28088 28089 28090 28091 28092 28093 28094 28095 28096 28097 28098 28099 28100 28101 28102 28103 28104 28105 28106 28107 28108 28109 28110 28111 28112 28113 28114 28115 28116 28117 28118 28119 28120 28121 28122 28123 28124 28125 28126 28127 28128 28129 28130 28131 28132 28133 28134 28135 28136 28137 28138 28139 28140 28141 28142 28143 28144 28145 28146 28147 28148 28149 28150 28151 28152 28153 28154 28155 28156 28157 28158 28159 28160 28161 28162 28163 28164 28165 28166 28167 28168 28169 28170 28171 28172 28173 28174 28175 28176 28177 28178 28179 28180 28181 28182 28183 28184 28185 28186 28187 28188 28189 28190 28191 28192 28193 28194 28195 28196 28197 28198 28199 28200 28201 28202 28203 28204 28205 28206 28207 28208 28209 28210 28211 28212 28213 28214 28215 28216 28217 28218 28219 28220 28221 28222 28223 28224 28225 28226 28227 28228 28229 28230 28231 28232 28233 28234 28235 28236 28237 28238 28239 28240 28241 28242 28243 28244 28245 28246 28247 28248 28249 28250 28251 28252 28253 28254 28255 28256 28257 28258 28259 28260 28261 28262 28263 28264 28265 28266 28267 28268 28269 28270 28271 28272 28273 28274 28275 28276 28277 28278 28279 28280 28281 28282 28283 28284 28285 28286 28287 28288 28289 28290 28291 28292 28293 28294 28295 28296 28297 28298 28299 28300 28301 28302 28303 28304 28305 28306 28307 28308 28309 28310 28311 28312 28313 28314 28315 28316 28317 28318 28319 28320 28321 28322 28323 28324 28325 28326 28327 28328 28329 28330 28331 28332 28333 28334 28335 28336 28337 28338 28339 28340 28341 28342 28343 28344 28345 28346 28347 28348 28349 28350 28351 28352 28353 28354 28355 28356 28357 28358 28359 28360 28361 28362 28363 28364 28365 28366 28367 28368 28369 28370 28371 28372 28373 28374 28375 28376 28377 28378 28379 28380 28381 28382 28383 28384 28385 28386 28387 28388 28389 28390 28391 28392 28393 28394 28395 28396 28397 28398 28399 28400 28401 28402 28403 28404 28405 28406 28407 28408 28409 28410 28411 28412 28413 28414 28415 28416 28417 28418 28419 28420 28421 28422 28423 28424 28425 28426 28427 28428 28429 28430 28431 28432 28433 28434 28435 28436 28437 28438 28439 28440 28441 28442 28443 28444 28445 28446 28447 28448 28449 28450 28451 28452 28453 28454 28455 28456 28457 28458 28459 28460 28461 28462 28463 28464 28465 28466 28467 28468 28469 28470 28471 28472 28473 28474 28475 28476 28477 28478 28479 28480 28481 28482 28483 28484 28485 28486 28487 28488 28489 28490 28491 28492 28493 28494 28495 28496 28497 28498 28499 28500 28501 28502 28503 28504 28505 28506 28507 28508 28509 28510 28511 28512 28513 28514 28515 28516 28517 28518 28519 28520 28521 28522 28523 28524 28525 28526 28527 28528 28529 28530 28531 28532 28533 28534 28535 28536 28537 28538 28539 28540 28541 28542 28543 28544 28545 28546 28547 28548 28549 28550 28551 28552 28553 28554 28555 28556 28557 28558 28559 28560 28561 28562 28563 28564 28565 28566 28567 28568 28569 28570 28571 28572 28573 28574 28575 28576 28577 28578 28579 28580 28581 28582 28583 28584 28585 28586 28587 28588 28589 28590 28591 28592 28593 28594 28595 28596 28597 28598 28599 28600 28601 28602 28603 28604 28605 28606 28607 28608 28609 28610 28611 28612 28613 28614 28615 28616 28617 28618 28619 28620 28621 28622 28623 28624 28625 28626 28627 28628 28629 28630 28631 28632 28633 28634 28635 28636 28637 28638 28639 28640 28641 28642 28643 28644 28645 28646 28647 28648 28649 28650 28651 28652 28653 28654 28655 28656 28657 28658 28659 28660 28661 28662 28663 28664 28665 28666 28667 28668 28669 28670 28671 28672 28673 28674 28675 28676 28677 28678 28679 28680 28681 28682 28683 28684 28685 28686 28687 28688 28689 28690 28691 28692 28693 28694 28695 28696 28697 28698 28699 28700 28701 28702 28703 28704 28705 28706 28707 28708 28709 28710 28711 28712 28713 28714 28715 28716 28717 28718 28719 28720 28721 28722 28723 28724 28725 28726 28727 28728 28729 28730 28731 28732 28733 28734 28735 28736 28737 28738 28739 28740 28741 28742 28743 28744 28745 28746 28747 28748 28749 28750 28751 28752 28753 28754 28755 28756 28757 28758 28759 28760 28761 28762 28763 28764 28765 28766 28767 28768 28769 28770 28771 28772 28773 28774 28775 28776 28777 28778 28779 28780 28781 28782 28783 28784 28785 28786 28787 28788 28789 28790 28791 28792 28793 28794 28795 28796 28797 28798 28799 28800 28801 28802 28803 28804 28805 28806 28807 28808 28809 28810 28811 28812 28813 28814 28815 28816 28817 28818 28819 28820 28821 28822 28823 28824 28825 28826 28827 28828 28829 28830 28831 28832 28833 28834 28835 28836 28837 28838 28839 28840 28841 28842 28843 28844 28845 28846 28847 28848 28849 28850 28851 28852 28853 28854 28855 28856 28857 28858 28859 28860 28861 28862 28863 28864 28865 28866 28867 28868 28869 28870 28871 28872 28873 28874 28875 28876 28877 28878 28879 28880 28881 28882 28883 28884 28885 28886 28887 28888 28889 28890 28891 28892 28893 28894 28895 28896 28897 28898 28899 28900 28901 28902 28903 28904 28905 28906 28907 28908 28909 28910 28911 28912 28913 28914 28915 28916 28917 28918 28919 28920 28921 28922 28923 28924 28925 28926 28927 28928 28929 28930 28931 28932 28933 28934 28935 28936 28937 28938 28939 28940 28941 28942 28943 28944 28945 28946 28947 28948 28949 28950 28951 28952 28953 28954 28955 28956 28957 28958 28959 28960 28961 28962 28963 28964 28965 28966 28967 28968 28969 28970 28971 28972 28973 28974 28975 28976 28977 28978 28979 28980 28981 28982 28983 28984 28985 28986 28987 28988 28989 28990 28991 28992 28993 28994 28995 28996 28997 28998 28999 29000 29001 29002 29003 29004 29005 29006 29007 29008 29009 29010 29011 29012 29013 29014 29015 29016 29017 29018 29019 29020 29021 29022 29023 29024 29025 29026 29027 29028 29029 29030 29031 29032 29033 29034 29035 29036 29037 29038 29039 29040 29041 29042 29043 29044 29045 29046 29047 29048 29049 29050 29051 29052 29053 29054 29055 29056 29057 29058 29059 29060 29061 29062 29063 29064 29065 29066 29067 29068 29069 29070 29071 29072 29073 29074 29075 29076 29077 29078 29079 29080 29081 29082 29083 29084 29085 29086 29087 29088 29089 29090 29091 29092 29093 29094 29095 29096 29097 29098 29099 29100 29101 29102 29103 29104 29105 29106 29107 29108 29109 29110 29111 29112 29113 29114 29115 29116 29117 29118 29119 29120 29121 29122 29123 29124 29125 29126 29127 29128 29129 29130 29131 29132 29133 29134 29135 29136 29137 29138 29139 29140 29141 29142 29143 29144 29145 29146 29147 29148 29149 29150 29151 29152 29153 29154 29155 29156 29157 29158 29159 29160 29161 29162 29163 29164 29165 29166 29167 29168 29169 29170 29171 29172 29173 29174 29175 29176 29177 29178 29179 29180 29181 29182 29183 29184 29185 29186 29187 29188 29189 29190 29191 29192 29193 29194 29195 29196 29197 29198 29199 29200 29201 29202 29203 29204 29205 29206 29207 29208 29209 29210 29211 29212 29213 29214 29215 29216 29217 29218 29219 29220 29221 29222 29223 29224 29225 29226 29227 29228 29229 29230 29231 29232 29233 29234 29235 29236 29237 29238 29239 29240 29241 29242 29243 29244 29245 29246 29247 29248 29249 29250 29251 29252 29253 29254 29255 29256 29257 29258 29259 29260 29261 29262 29263 29264 29265 29266 29267 29268 29269 29270 29271 29272 29273 29274 29275 29276 29277 29278 29279 29280 29281 29282 29283 29284 29285 29286 29287 29288 29289 29290 29291 29292 29293 29294 29295 29296 29297 29298 29299 29300 29301 29302 29303 29304 29305 29306 29307 29308 29309 29310 29311 29312 29313 29314 29315 29316 29317 29318 29319 29320 29321 29322 29323 29324 29325 29326 29327 29328 29329 29330 29331 29332 29333 29334 29335 29336 29337 29338 29339 29340 29341 29342 29343 29344 29345 29346 29347 29348 29349 29350 29351 29352 29353 29354 29355 29356 29357 29358 29359 29360 29361 29362 29363 29364 29365 29366 29367 29368 29369 29370 29371 29372 29373 29374 29375 29376 29377 29378 29379 29380 29381 29382 29383 29384 29385 29386 29387 29388 29389 29390 29391 29392 29393 29394 29395 29396 29397 29398 29399 29400 29401 29402 29403 29404 29405 29406 29407 29408 29409 29410 29411 29412 29413 29414 29415 29416 29417 29418 29419 29420 29421 29422 29423 29424 29425 29426 29427 29428 29429 29430 29431 29432 29433 29434 29435 29436 29437 29438 29439 29440 29441 29442 29443 29444 29445 29446 29447 29448 29449 29450 29451 29452 29453 29454 29455 29456 29457 29458 29459 29460 29461 29462 29463 29464 29465 29466 29467 29468 29469 29470 29471 29472 29473 29474 29475 29476 29477 29478 29479 29480 29481 29482 29483 29484 29485 29486 29487 29488 29489 29490 29491 29492 29493 29494 29495 29496 29497 29498 29499 29500 29501 29502 29503 29504 29505 29506 29507 29508 29509 29510 29511 29512 29513 29514 29515 29516 29517 29518 29519 29520 29521 29522 29523 29524 29525 29526 29527 29528 29529 29530 29531 29532 29533 29534 29535 29536 29537 29538 29539 29540 29541 29542 29543 29544 29545 29546 29547 29548 29549 29550 29551 29552 29553 29554 29555 29556 29557 29558 29559 29560 29561 29562 29563 29564 29565 29566 29567 29568 29569 29570 29571 29572 29573 29574 29575 29576 29577 29578 29579 29580 29581 29582 29583 29584 29585 29586 29587 29588 29589 29590 29591 29592 29593 29594 29595 29596 29597 29598 29599 29600 29601 29602 29603 29604 29605 29606 29607 29608 29609 29610 29611 29612 29613 29614 29615 29616 29617 29618 29619 29620 29621 29622 29623 29624 29625 29626 29627 29628 29629 29630 29631 29632 29633 29634 29635 29636 29637 29638 29639 29640 29641 29642 29643 29644 29645 29646 29647 29648 29649 29650 29651 29652 29653 29654 29655 29656 29657 29658 29659 29660 29661 29662 29663 29664 29665 29666 29667 29668 29669 29670 29671 29672 29673 29674 29675 29676 29677 29678 29679 29680 29681 29682 29683 29684 29685 29686 29687 29688 29689 29690 29691 29692 29693 29694 29695 29696 29697 29698 29699 29700 29701 29702 29703 29704 29705 29706 29707 29708 29709 29710 29711 29712 29713 29714 29715 29716 29717 29718 29719 29720 29721 29722 29723 29724 29725 29726 29727 29728 29729 29730 29731 29732 29733 29734 29735 29736 29737 29738 29739 29740 29741 29742 29743 29744 29745 29746 29747 29748 29749 29750 29751 29752 29753 29754 29755 29756 29757 29758 29759 29760 29761 29762 29763 29764 29765 29766 29767 29768 29769 29770 29771 29772 29773 29774 29775 29776 29777 29778 29779 29780 29781 29782 29783 29784 29785 29786 29787 29788 29789 29790 29791 29792 29793 29794 29795 29796 29797 29798 29799 29800 29801 29802 29803 29804 29805 29806 29807 29808 29809 29810 29811 29812 29813 29814 29815 29816 29817 29818 29819 29820 29821 29822 29823 29824 29825 29826 29827 29828 29829 29830 29831 29832 29833 29834 29835 29836 29837 29838 29839 29840 29841 29842 29843 29844 29845 29846 29847 29848 29849 29850 29851 29852 29853 29854 29855 29856 29857 29858 29859 29860 29861 29862 29863 29864 29865 29866 29867 29868 29869 29870 29871 29872 29873 29874 29875 29876 29877 29878 29879 29880 29881 29882 29883 29884 29885 29886 29887 29888 29889 29890 29891 29892 29893 29894 29895 29896 29897 29898 29899 29900 29901 29902 29903 29904 29905 29906 29907 29908 29909 29910 29911 29912 29913 29914 29915 29916 29917 29918 29919 29920 29921 29922 29923 29924 29925 29926 29927 29928 29929 29930 29931 29932 29933 29934 29935 29936 29937 29938 29939 29940 29941 29942 29943 29944 29945 29946 29947 29948 29949 29950 29951 29952 29953 29954 29955 29956 29957 29958 29959 29960 29961 29962 29963 29964 29965 29966 29967 29968 29969 29970 29971 29972 29973 29974 29975 29976 29977 29978 29979 29980 29981 29982 29983 29984 29985 29986 29987 29988 29989 29990 29991 29992 29993 29994 29995 29996 29997 29998 29999 30000 30001 30002 30003 30004 30005 30006 30007 30008 30009 30010 30011 30012 30013 30014 30015 30016 30017 30018 30019 30020 30021 30022 30023 30024 30025 30026 30027 30028 30029 30030 30031 30032 30033 30034 30035 30036 30037 30038 30039 30040 30041 30042 30043 30044 30045 30046 30047 30048 30049 30050 30051 30052 30053 30054 30055 30056 30057 30058 30059 30060 30061 30062 30063 30064 30065 30066 30067 30068 30069 30070 30071 30072 30073 30074 30075 30076 30077 30078 30079 30080 30081 30082 30083 30084 30085 30086 30087 30088 30089 30090 30091 30092 30093 30094 30095 30096 30097 30098 30099 30100 30101 30102 30103 30104 30105 30106 30107 30108 30109 30110 30111 30112 30113 30114 30115 30116 30117 30118 30119 30120 30121 30122 30123 30124 30125 30126 30127 30128 30129 30130 30131 30132 30133 30134 30135 30136 30137 30138 30139 30140 30141 30142 30143 30144 30145 30146 30147 30148 30149 30150 30151 30152 30153 30154 30155 30156 30157 30158 30159 30160 30161 30162 30163 30164 30165 30166 30167 30168 30169 30170 30171 30172 30173 30174 30175 30176 30177 30178 30179 30180 30181 30182 30183 30184 30185 30186 30187 30188 30189 30190 30191 30192 30193 30194 30195 30196 30197 30198 30199 30200 30201 30202 30203 30204 30205 30206 30207 30208 30209 30210 30211 30212 30213 30214 30215 30216 30217 30218 30219 30220 30221 30222 30223 30224 30225 30226 30227 30228 30229 30230 30231 30232 30233 30234 30235 30236 30237 30238 30239 30240 30241 30242 30243 30244 30245 30246 30247 30248 30249 30250 30251 30252 30253 30254 30255 30256 30257 30258 30259 30260 30261 30262 30263 30264 30265 30266 30267 30268 30269 30270 30271 30272 30273 30274 30275 30276 30277 30278 30279 30280 30281 30282 30283 30284 30285 30286 30287 30288 30289 30290 30291 30292 30293 30294 30295 30296 30297 30298 30299 30300 30301 30302 30303 30304 30305 30306 30307 30308 30309 30310 30311 30312 30313 30314 30315 30316 30317 30318 30319 30320 30321 30322 30323 30324 30325 30326 30327 30328 30329 30330 30331 30332 30333 30334 30335 30336 30337 30338 30339 30340 30341 30342 30343 30344 30345 30346 30347 30348 30349 30350 30351 30352 30353 30354 30355 30356 30357 30358 30359 30360 30361 30362 30363 30364 30365 30366 30367 30368 30369 30370 30371 30372 30373 30374 30375 30376 30377 30378 30379 30380 30381 30382 30383 30384 30385 30386 30387 30388 30389 30390 30391 30392 30393 30394 30395 30396 30397 30398 30399 30400 30401 30402 30403 30404 30405 30406 30407 30408 30409 30410 30411 30412 30413 30414 30415 30416 30417 30418 30419 30420 30421 30422 30423 30424 30425 30426 30427 30428 30429 30430 30431 30432 30433 30434 30435 30436 30437 30438 30439 30440 30441 30442 30443 30444 30445 30446 30447 30448 30449 30450 30451 30452 30453 30454 30455 30456 30457 30458 30459 30460 30461 30462 30463 30464 30465 30466 30467 30468 30469 30470 30471 30472 30473 30474 30475 30476 30477 30478 30479 30480 30481 30482 30483 30484 30485 30486 30487 30488 30489 30490 30491 30492 30493 30494 30495 30496 30497 30498 30499 30500 30501 30502 30503 30504 30505 30506 30507 30508 30509 30510 30511 30512 30513 30514 30515 30516 30517 30518 30519 30520 30521 30522 30523 30524 30525 30526 30527 30528 30529 30530 30531 30532 30533 30534 30535 30536 30537 30538 30539 30540 30541 30542 30543 30544 30545 30546 30547 30548 30549 30550 30551 30552 30553 30554 30555 30556 30557 30558 30559 30560 30561 30562 30563 30564 30565 30566 30567 30568 30569 30570 30571 30572 30573 30574 30575 30576 30577 30578 30579 30580 30581 30582 30583 30584 30585 30586 30587 30588 30589 30590 30591 30592 30593 30594 30595 30596 30597 30598 30599 30600 30601 30602 30603 30604 30605 30606 30607 30608 30609 30610 30611 30612 30613 30614 30615 30616 30617 30618 30619 30620 30621 30622 30623 30624 30625 30626 30627 30628 30629 30630 30631 30632 30633 30634 30635 30636 30637 30638 30639 30640 30641 30642 30643 30644 30645 30646 30647 30648 30649 30650 30651 30652 30653 30654 30655 30656 30657 30658 30659 30660 30661 30662 30663 30664 30665 30666 30667 30668 30669 30670 30671 30672 30673 30674 30675 30676 30677 30678 30679 30680 30681 30682 30683 30684 30685 30686 30687 30688 30689 30690 30691 30692 30693 30694 30695 30696 30697 30698 30699 30700 30701 30702 30703 30704 30705 30706 30707 30708 30709 30710 30711 30712 30713 30714 30715 30716 30717 30718 30719 30720 30721 30722 30723 30724 30725 30726 30727 30728 30729 30730 30731 30732 30733 30734 30735 30736 30737 30738 30739 30740 30741 30742 30743 30744 30745 30746 30747 30748 30749 30750 30751 30752 30753 30754 30755 30756 30757 30758 30759 30760 30761 30762 30763 30764 30765 30766 30767 30768 30769 30770 30771 30772 30773 30774 30775 30776 30777 30778 30779 30780 30781 30782 30783 30784 30785 30786 30787 30788 30789 30790 30791 30792 30793 30794 30795 30796 30797 30798 30799 30800 30801 30802 30803 30804 30805 30806 30807 30808 30809 30810 30811 30812 30813 30814 30815 30816 30817 30818 30819 30820 30821 30822 30823 30824 30825 30826 30827 30828 30829 30830 30831 30832 30833 30834 30835 30836 30837 30838 30839 30840 30841 30842 30843 30844 30845 30846 30847 30848 30849 30850 30851 30852 30853 30854 30855 30856 30857 30858 30859 30860 30861 30862 30863 30864 30865 30866 30867 30868 30869 30870 30871 30872 30873 30874 30875 30876 30877 30878 30879 30880 30881 30882 30883 30884 30885 30886 30887 30888 30889 30890 30891 30892 30893 30894 30895 30896 30897 30898 30899 30900 30901 30902 30903 30904 30905 30906 30907 30908 30909 30910 30911 30912 30913 30914 30915 30916 30917 30918 30919 30920 30921 30922 30923 30924 30925 30926 30927 30928 30929 30930 30931 30932 30933 30934 30935 30936 30937 30938 30939 30940 30941 30942 30943 30944 30945 30946 30947 30948 30949 30950 30951 30952 30953 30954 30955 30956 30957 30958 30959 30960 30961 30962 30963 30964 30965 30966 30967 30968 30969 30970 30971 30972 30973 30974 30975 30976 30977 30978 30979 30980 30981 30982 30983 30984 30985 30986 30987 30988 30989 30990 30991 30992 30993 30994 30995 30996 30997 30998 30999 31000 31001 31002 31003 31004 31005 31006 31007 31008 31009 31010 31011 31012 31013 31014 31015 31016 31017 31018 31019 31020 31021 31022 31023 31024 31025 31026 31027 31028 31029 31030 31031 31032 31033 31034 31035 31036 31037 31038 31039 31040 31041 31042 31043 31044 31045 31046 31047 31048 31049 31050 31051 31052 31053 31054 31055 31056 31057 31058 31059 31060 31061 31062 31063 31064 31065 31066 31067 31068 31069 31070 31071 31072 31073 31074 31075 31076 31077 31078 31079 31080 31081 31082 31083 31084 31085 31086 31087 31088 31089 31090 31091 31092 31093 31094 31095 31096 31097 31098 31099 31100 31101 31102 31103 31104 31105 31106 31107 31108 31109 31110 31111 31112 31113 31114 31115 31116 31117 31118 31119 31120 31121 31122 31123 31124 31125 31126 31127 31128 31129 31130 31131 31132 31133 31134 31135 31136 31137 31138 31139 31140 31141 31142 31143 31144 31145 31146 31147 31148 31149 31150 31151 31152 31153 31154 31155 31156 31157 31158 31159 31160 31161 31162 31163 31164 31165 31166 31167 31168 31169 31170 31171 31172 31173 31174 31175 31176 31177 31178 31179 31180 31181 31182 31183 31184 31185 31186 31187 31188 31189 31190 31191 31192 31193 31194 31195 31196 31197 31198 31199 31200 31201 31202 31203 31204 31205 31206 31207 31208 31209 31210 31211 31212 31213 31214 31215 31216 31217 31218 31219 31220 31221 31222 31223 31224 31225 31226 31227 31228 31229 31230 31231 31232 31233 31234 31235 31236 31237 31238 31239 31240 31241 31242 31243 31244 31245 31246 31247 31248 31249 31250 31251 31252 31253 31254 31255 31256 31257 31258 31259 31260 31261 31262 31263 31264 31265 31266 31267 31268 31269 31270 31271 31272 31273 31274 31275 31276 31277 31278 31279 31280 31281 31282 31283 31284 31285 31286 31287 31288 31289 31290 31291 31292 31293 31294 31295 31296 31297 31298 31299 31300 
</DataArray>
<DataArray type="UInt32" Name="offsets" format="ascii">
3 6 9 12 15 18 20 23 26 29 32 35 37 40 43 46 48 51 54 57 59 62 65 68 71 74 76 78 81 84 87 90 92 95 98 101 103 106 109 112 115 118 121 124 127 130 133 136 139 142 145 148 151 154 157 160 163 166 169 172 175 178 180 183 186 189 192 195 198 201 204 206 209 212 215 218 221 223 226 229 232 235 238 241 244 247 250 253 256 259 262 265 268 271 274 277 280 283 286 289 292 295 298 301 304 307 310 313 315 317 320 323 325 328 331 334 337 340 343 346 348 351 354 357 360 363 366 369 372 375 378 381 384 387 390 392 395 398 400 403 406 409 412 415 418 421 424 427 430 433 436 439 442 445 448 451 453 456 458 461 464 467 470 473 476 479 482 485 488 491 494 497 500 503 506 509 511 514 517 520 523 526 529 532 535 538 541 544 547 550 553 556 559 562 564 567 570 572 575 578 581 583 586 589 592 595 598 601 604 607 610 613 616 619 621 624 627 629 632 634 637 639 642 645 648 651 654 657 660 663 665 667 670 673 675 678 681 684 686 689 691 693 695 698 701 704 707 710 713 716 719 722 725 728 731 734 737 740 742 745 748 751 754 756 759 762 765 768 771 774 777 780 783 786 789 792 795 798 800 803 806 809 812 815 818 821 824 826 829 832 835 838 840 843 845 848 850 853 856 859 862 865 868 871 874 877 880 883 886 889 892 895 898 901 904 907 910 913 916 919 922 925 928 930 933 936 939 942 945 947 950 953 956 959 962 965 968 971 974 976 979 982 985 987 989 991 994 997 1000 1002 1004 1006 1009 1012 1015 1018 1021 1024 1027 1030 1033 1036 1039 1042 1044 1047 1050 1053 1056 1059 1062 1065 1068 1071 1074 1077 1080 1083 1086 1089 1092 1095 1098 1101 1104 1107 1110 1113 1116 1119 1122 1125 1128 1131 1134 1137 1140 1143 1146 1149 1152 1155 1158 1160 1163 1166 1168 1171 1174 1177 1179 1182 1185 1187 1190 1193 1196 1198 1201 1204 1206 1209 1211 1214 1217 1220 1223 1226 1229 1231 1234 1237 1240 1243 1245 1248 1251 1253 1256 1259 1262 1265 1268 1271 1274 1276 1279 1282 1285 1288 1291 1294 1296 1299 1302 1305 1308 1311 1313 1316 1319 1322 1325 1328 1331 1334 1337 1340 1343 1346 1349 1352 1355 1358 1360 1363 1365 1368 1371 1374 1377 1380 1383 1386 1389 1392 1395 1398 1401 1404 1407 1409 1412 1415 1418 1421 1424 1427 1430 1433 1436 1439 1442 1445 1448 1451 1454 1457 1460 1463 1465 1468 1471 1474 1477 1480 1483 1486 1489 1492 1495 1498 1501 1504 1507 1510 1513 1516 1519 1522 1525 1528 1531 1534 1536 1539 1542 1545 1548 1550 1553 1556 1559 1562 1565 1568 1571 1574 1577 1579 1582 1585 1588 1591 1593 1596 1599 1602 1605 1608 1611 1614 1617 1620 1623 1626 1629 1632 1635 1638 1641 1644 1647 1650 1653 1656 1659 1662 1665 1668 1670 1673 1676 1679 1682 1685 1688 1691 1694 1697 1700 1703 1706 1709 1712 1715 1718 1721 1724 1726 1729 1732 1734 1737 1740 1743 1746 1749 1752 1754 1757 1760 1763 1766 1769 1772 1775 1778 1781 1784 1787 1790 1793 1795 1798 1801 1803 1806 1809 1812 1815 1817 1820 1823 1826 1829 1832 1835 1838 1841 1844 1847 1850 1853 1856 1858 1860 1863 1866 1869 1872 1875 1878 1881 1884 1886 1889 1892 1895 1897 1900 1903 1906 1909 1912 1915 1917 1920 1923 1926 1929 1931 1933 1936 1939 1942 1945 1948 1951 1954 1957 1960 1963 1966 1969 1972 1975 1978 1981 1984 1987 1990 1993 1995 1998 2001 2004 2007 2010 2013 2015 2018 2020 2023 2026 2029 2032 2035 2038 2040 2043 2046 2049 2052 2055 2058 2061 2064 2067 2070 2073 2076 2079 2082 2084 2087 2090 2093 2095 2098 2101 2104 2107 2110 2113 2115 2118 2121 2124 2127 2130 2133 2135 2138 2141 2144 2146 2148 2151 2154 2156 2159 2162 2165 2168 2171 2174 2176 2179 2182 2185 2187 2190 2193 2195 2198 2201 2204 2206 2209 2212 2215 2217 2220 2223 2226 2229 2231 2234 2237 2240 2242 2245 2248 2251 2254 2257 2259 2262 2265 2268 2271 2274 2277 2280 2283 2286 2288 2291 2294 2297 2300 2303 2306 2309 2312 2315 2318 2321 2323 2325 2328 2331 2334 2337 2340 2343 2346 2349 2352 2355 2358 2361 2364 2367 2370 2372 2375 2377 2380 2382 2385 2388 2391 2394 2397 2400 2403 2406 2408 2411 2414 2417 2420 2423 2426 2429 2432 2435 2438 2440 2443 2446 2449 2452 2454 2457 2460 2463 2466 2469 2472 2475 2478 2481 2484 2487 2490 2492 2495 2498 2501 2504 2507 2510 2513 2516 2519 2522 2525 2528 2531 2534 2537 2539 2542 2545 2548 2551 2554 2557 2560 2563 2566 2569 2572 2575 2578 2581 2584 2587 2590 2593 2596 2599 2601 2603 2606 2609 2612 2614 2617 2620 2623 2626 2629 2632 2635 2638 2641 2644 2647 2650 2653 2656 2659 2662 2665 2668 2671 2674 2677 2680 2683 2686 2689 2692 2695 2698 2701 2704 2707 2710 2713 2716 2719 2722 2725 2728 2731 2734 2737 2740 2743 2746 2748 2751 2754 2757 2760 2763 2766 2769 2772 2775 2777 2780 2783 2786 2789 2792 2795 2798 2801 2804 2806 2809 2812 2815 2818 2821 2824 2827 2829 2831 2834 2837 2840 2842 2844 2847 2850 2852 2855 2858 2861 2863 2866 2869 2872 2875 2878 2881 2884 2887 2890 2892 2895 2898 2901 2904 2907 2910 2913 2915 2918 2921 2924 2926 2929 2932 2935 2938 2941 2944 2947 2950 2953 2956 2959 2962 2965 2968 2971 2974 2977 2980 2983 2986 2989 2992 2995 2997 3000 3002 3005 3008 3011 3014 3017 3019 3022 3025 3028 3031 3034 3036 3039 3042 3045 3048 3051 3053 3055 3058 3060 3063 3066 3069 3072 3075 3078 3081 3084 3087 3090 3093 3096 3099 3102 3105 3108 3110 3113 3116 3119 3122 3125 3127 3130 3133 3135 3138 3141 3144 3147 3150 3153 3156 3159 3162 3165 3168 3171 3174 3176 3179 3182 3185 3187 3190 3192 3195 3198 3201 3204 3207 3210 3213 3216 3219 3222 3225 3228 3231 3234 3237 3240 3243 3246 3248 3251 3254 3257 3260 3263 3266 3269 3272 3275 3278 3280 3283 3286 3289 3292 3295 3298 3301 3304 3307 3310 3313 3316 3319 3322 3325 3328 3331 3334 3337 3339 3342 3345 3348 3351 3354 3357 3360 3363 3366 3369 3372 3375 3377 3380 3383 3386 3389 3392 3395 3398 3401 3404 3407 3410 3412 3415 3418 3421 3424 3426 3429 3432 3434 3437 3439 3442 3444 3447 3450 3453 3456 3459 3462 3465 3468 3471 3473 3475 3478 3481 3484 3486 3489 3492 3495 3498 3501 3503 3506 3509 3512 3515 3517 3520 3523 3526 3529 3532 3535 3538 3541 3544 3547 3550 3553 3556 3559 3562 3565 3568 3570 3573 3576 3578 3581 3584 3587 3590 3593 3595 3598 3601 3603 3606 3609 3612 3615 3618 3621 3624 3627 3630 3633 3635 3638 3641 3644 3647 3650 3653 3656 3658 3661 3663 3666 3668 3671 3673 3676 3679 3681 3684 3687 3690 3692 3695 3698 3701 3704 3707 3710 3712 3715 3718 3721 3724 3727 3730 3733 3736 3738 3741 3744 3747 3749 3752 3755 3758 3760 3763 3766 3768 3771 3774 3776 3779 3782 3784 3786 3789 3792 3795 3797 3800 3803 3806 3809 3812 3815 3817 3819 3822 3825 3827 3830 3833 3836 3839 3841 3844 3847 3850 3853 3855 3858 3860 3862 3865 3868 3871 3874 3877 3880 3882 3885 3888 3890 3893 3896 3899 3902 3905 3907 3910 3913 3916 3919 3921 3923 3926 3929 3932 3935 3938 3941 3944 3946 3949 3952 3955 3958 3961 3964 3967 3970 3973 3976 3979 3982 3984 3987 3990 3993 3996 3999 4002 4004 4007 4010 4013 4016 4019 4022 4025 4027 4030 4033 4036 4039 4041 4044 4047 4050 4052 4055 4058 4061 4064 4067 4070 4072 4075 4078 4080 4083 4086 4089 4091 4094 4096 4099 4101 4104 4107 4110 4112 4115 4118 4121 4124 4127 4129 4132 4135 4138 4141 4144 4147 4149 4152 4155 4158 4161 4164 4167 4170 4173 4175 4178 4181 4184 4186 4189 4192 4195 4198 4201 4204 4207 4210 4213 4216 4218 4221 4223 4226 4229 4232 4235 4237 4240 4243 4246 4249 4252 4255 4258 4261 4264 4267 4270 4273 4276 4278 4281 4284 4286 4289 4292 4294 4297 4300 4303 4306 4309 4312 4315 4318 4321 4324 4327 4330 4333 4336 4339 4342 4345 4348 4351 4354 4357 4360 4363 4366 4369 4372 4375 4378 4381 4384 4386 4389 4392 4395 4398 4401 4404 4407 4410 4413 4416 4419 4422 4425 4428 4431 4434 4437 4440 4443 4446 4448 4451 4454 4457 4460 4463 4466 4469 4472 4475 4478 4481 4483 4486 4489 4492 4495 4498 4501 4504 4507 4510 4513 4516 4519 4522 4525 4528 4531 4534 4537 4540 4543 4546 4549 4552 4555 4557 4560 4563 4566 4568 4571 4574 4576 4579 4582 4585 4588 4591 4594 4596 4599 4601 4604 4607 4610 4612 4615 4618 4621 4624 4627 4629 4631 4634 4637 4639 4642 4645 4648 4651 4654 4657 4660 4663 4666 4669 4672 4675 4678 4681 4683 4686 4688 4691 4694 4696 4698 4701 4704 4706 4709 4712 4715 4717 4720 4723 4726 4729 4731 4734 4736 4739 4741 4744 4747 4750 4753 4756 4759 4762 4765 4768 4771 4774 4777 4780 4783 4785 4787 4790 4793 4796 4799 4802 4805 4808 4811 4814 4817 4820 4823 4825 4828 4830 4833 4836 4839 4842 4845 4848 4851 4853 4855 4858 4861 4864 4867 4870 4873 4876 4879 4882 4885 4888 4891 4894 4897 4899 4902 4905 4908 4911 4914 4917 4920 4923 4926 4929 4932 4934 4937 4940 4943 4946 4949 4952 4955 4958 4960 4963 4966 4969 4972 4975 4977 4980 4983 4986 4989 4991 4994 4997 5000 5003 5006 5009 5011 5014 5017 5020 5023 5026 5029 5032 5035 5038 5041 5044 5047 5050 5053 5056 5058 5061 5063 5066 5069 5072 5075 5078 5081 5084 5087 5090 5092 5095 5098 5101 5104 5106 5109 5112 5115 5118 5121 5124 5126 5129 5132 5134 5137 5139 5142 5145 5147 5150 5153 5156 5159 5162 5165 5167 5170 5173 5175 5178 5181 5184 5186 5189 5192 5195 5198 5200 5202 5205 5208 5210 5213 5216 5219 5222 5225 5228 5231 5234 5237 5240 5243 5246 5249 5252 5255 5258 5261 5263 5266 5269 5272 5275 5278 5281 5284 5287 5290 5293 5296 5298 5301 5304 5307 5309 5312 5315 5318 5321 5324 5327 5330 5333 5335 5338 5341 5344 5347 5350 5353 5356 5359 5362 5365 5368 5371 5374 5377 5380 5383 5386 5389 5392 5395 5398 5401 5404 5407 5410 5413 5416 5419 5422 5425 5428 5431 5434 5437 5440 5443 5446 5449 5452 5455 5458 5461 5464 5467 5470 5473 5476 5479 5482 5485 5488 5491 5494 5497 5500 5503 5506 5509 5512 5515 5518 5521 5524 5527 5530 5533 5536 5539 5542 5545 5548 5551 5554 5557 5560 5563 5566 5569 5572 5575 5578 5581 5584 5587 5590 5593 5596 5599 5602 5604 5607 5610 5613 5616 5618 5621 5624 5626 5629 5632 5635 5638 5641 5644 5647 5650 5653 5656 5658 5661 5664 5667 5670 5673 5676 5679 5682 5685 5688 5691 5694 5697 5700 5703 5706 5709 5711 5714 5717 5719 5722 5725 5727 5730 5732 5735 5738 5741 5744 5747 5750 5753 5755 5758 5760 5763 5766 5769 5772 5775 5778 5781 5784 5787 5790 5793 5796 5799 5802 5805 5808 5811 5813 5816 5819 5822 5824 5827 5830 5832 5835 5838 5841 5843 5846 5849 5852 5855 5858 5861 5863 5866 5869 5872 5874 5877 5879 5882 5884 5887 5890 5893 5895 5898 5901 5903 5906 5909 5911 5914 5916 5919 5922 5925 5928 5930 5933 5936 5939 5942 5945 5948 5951 5954 5957 5959 5962 5965 5968 5971 5974 5977 5979 5982 5985 5987 5990 5993 5996 5999 6002 6005 6008 6011 6014 6017 6020 6023 6026 6029 6032 6035 6038 6041 6044 6046 6049 6052 6055 6058 6061 6064 6067 6070 6073 6076 6079 6082 6084 6087 6090 6092 6095 6098 6100 6103 6105 6108 6110 6113 6116 6119 6122 6125 6128 6131 6134 6137 6140 6143 6146 6149 6152 6155 6158 6161 6164 6167 6170 6173 6176 6179 6182 6185 6188 6191 6194 6196 6199 6202 6205 6208 6210 6213 6216 6219 6222 6225 6228 6231 6234 6237 6240 6243 6246 6249 6252 6255 6258 6261 6264 6267 6269 6272 6275 6278 6281 6283 6286 6289 6292 6295 6298 6300 6303 6306 6309 6312 6315 6318 6321 6324 6327 6330 6333 6335 6338 6341 6344 6346 6349 6351 6354 6357 6360 6363 6366 6368 6370 6373 6376 6379 6382 6384 6387 6390 6392 6395 6397 6400 6403 6405 6408 6410 6413 6416 6419 6422 6424 6427 6430 6433 6436 6439 6442 6445 6448 6451 6454 6457 6460 6463 6466 6469 6472 6475 6478 6480 6483 6486 6489 6492 6495 6498 6501 6504 6507 6510 6512 6515 6518 6521 6524 6527 6529 6532 6535 6538 6541 6544 6547 6549 6552 6555 6558 6561 6563 6566 6568 6571 6574 6577 6580 6583 6586 6589 6591 6594 6597 6600 6602 6605 6608 6611 6614 6617 6620 6623 6625 6628 6630 6633 6636 6639 6642 6644 6647 6650 6653 6656 6659 6661 6664 6667 6670 6673 6676 6679 6682 6685 6688 6691 6694 6697 6700 6703 6706 6709 6712 6715 6718 6721 6724 6727 6730 6733 6736 6739 6741 6744 6747 6750 6753 6756 6758 6761 6764 6767 6770 6773 6776 6779 6782 6785 6788 6791 6794 6796 6799 6802 6805 6808 6811 6814 6817 6820 6823 6826 6829 6832 6835 6838 6841 6844 6847 6850 6853 6856 6859 6862 6865 6868 6871 6874 6877 6880 6883 6886 6888 6891 6893 6896 6898 6901 6904 6907 6910 6912 6915 6918 6921 6924 6927 6930 6932 6935 6938 6940 6943 6946 6948 6950 6953 6956 6959 6962 6964 6966 6969 6972 6975 6978 6980 6982 6985 6988 6991 6994 6997 7000 7003 7005 7008 7010 7013 7016 7019 7022 7025 7028 7031 7034 7037 7039 7042 7045 7047 7050 7053 7055 7058 7060 7063 7065 7067 7070 7072 7075 7078 7081 7084 7087 7090 7093 7095 7097 7099 7102 7105 7108 7111 7114 7117 7120 7123 7125 7128 7131 7133 7135 7137 7140 7142 7145 7148 7151 7154 7157 7160 7163 7165 7168 7171 7174 7176 7179 7182 7184 7187 7190 7193 7196 7199 7202 7204 7207 7210 7213 7216 7219 7221 7224 7227 7230 7233 7235 7238 7240 7243 7246 7249 7251 7253 7256 7259 7262 7264 7267 7270 7273 7276 7279 7282 7285 7288 7291 7294 7296 7299 7302 7305 7308 7311 7314 7317 7319 7322 7325 7328 7330 7333 7336 7339 7342 7345 7348 7350 7353 7356 7359 7362 7365 7368 7371 7374 7377 7380 7383 7386 7388 7391 7394 7397 7400 7402 7405 7408 7411 7414 7417 7420 7423 7426 7429 7432 7435 7438 7441 7444 7447 7450 7453 7456 7458 7461 7464 7467 7469 7472 7474 7477 7480 7483 7486 7488 7491 7494 7497 7500 7502 7504 7507 7510 7512 7515 7518 7520 7523 7526 7529 7531 7534 7537 7539 7542 7545 7548 7551 7554 7557 7560 7563 7565 7568 7570 7573 7576 7578 7581 7584 7587 7590 7593 7596 7598 7600 7603 7606 7609 7612 7615 7618 7621 7624 7627 7630 7633 7636 7639 7642 7644 7647 7650 7653 7656 7659 7662 7665 7668 7671 7674 7677 7680 7683 7686 7689 7692 7695 7698 7701 7704 7707 7710 7713 7716 7719 7722 7725 7728 7731 7734 7737 7740 7743 7746 7749 7752 7755 7758 7761 7764 7767 7770 7773 7776 7779 7782 7785 7788 7791 7794 7797 7800 7803 7806 7809 7812 7815 7818 7821 7824 7827 7830 7833 7836 7839 7842 7845 7848 7851 7854 7857 7860 7863 7866 7869 7872 7875 7878 7881 7884 7887 7890 7893 7896 7899 7902 7905 7908 7911 7914 7917 7920 7923 7926 7929 7932 7935 7938 7941 7943 7945 7948 7951 7954 7957 7960 7963 7966 7969 7972 7975 7978 7981 7984 7987 7990 7993 7996 7999 8002 8005 8008 8011 8014 8017 8020 8023 8026 8029 8032 8035 8038 8041 8044 8047 8050 8053 8056 8059 8062 8065 8068 8071 8074 8077 8080 8083 8086 8089 8092 8095 8098 8101 8104 8107 8110 8113 8116 8119 8122 8125 8128 8131 8134 8137 8140 8143 8146 8149 8152 8155 8158 8161 8164 8167 8170 8173 8176 8179 8182 8185 8188 8191 8194 8197 8200 8203 8206 8208 8211 8214 8217 8220 8223 8226 8228 8231 8234 8236 8239 8242 8244 8247 8250 8253 8256 8258 8260 8263 8266 8268 8271 8274 8277 8279 8282 8284 8287 8290 8293 8296 8299 8302 8304 8307 8310 8313 8315 8317 8320 8323 8326 8329 8332 8334 8337 8339 8342 8344 8347 8350 8353 8355 8358 8361 8364 8367 8369 8372 8374 8377 8379 8382 8385 8388 8391 8394 8397 8400 8402 8405 8408 8411 8414 8417 8420 8423 8426 8429 8432 8435 8438 8441 8444 8447 8450 8453 8456 8459 8462 8465 8468 8471 8474 8477 8480 8483 8486 8489 8492 8495 8498 8501 8504 8507 8510 8513 8516 8519 8522 8525 8527 8530 8533 8536 8539 8542 8545 8548 8551 8553 8556 8558 8561 8564 8567 8570 8572 8574 8577 8580 8583 8586 8589 8592 8595 8598 8601 8604 8607 8610 8613 8616 8619 8622 8625 8628 8630 8633 8635 8638 8641 8644 8647 8650 8653 8656 8659 8661 8664 8667 8670 8673 8676 8678 8681 8683 8686 8688 8691 8693 8696 8699 8702 8705 8708 8710 8713 8716 8719 8722 8725 8728 8731 8734 8737 8740 8743 8746 8749 8751 8754 8756 8759 8762 8764 8767 8769 8772 8775 8778 8781 8784 8787 8790 8793 8796 8799 8802 8805 8808 8811 8814 8817 8820 8823 8826 8829 8831 8834 8837 8839 8842 8845 8848 8850 8852 8854 8856 8859 8862 8865 8867 8870 8873 8876 8878 8880 8883 8885 8888 8891 8893 8896 8899 8902 8904 8906 8909 8912 8914 8917 8920 8923 8925 8928 8931 8934 8936 8939 8942 8945 8947 8950 8953 8956 8959 8961 8964 8967 8969 8972 8975 8978 8980 8982 8985 8988 8991 8994 8997 9000 9003 9006 9009 9012 9015 9018 9020 9023 9026 9028 9031 9034 9037 9040 9043 9045 9048 9051 9053 9056 9059 9062 9065 9068 9071 9074 9077 9080 9083 9086 9089 9092 9095 9098 9101 9103 9106 9109 9112 9114 9117 9119 9122 9125 9128 9131 9134 9137 9140 9142 9145 9148 9151 9154 9157 9159 9162 9164 9167 9170 9173 9176 9179 9182 9185 9188 9191 9194 9197 9199 9202 9204 9206 9209 9212 9214 9217 9220 9223 9226 9228 9231 9234 9237 9240 9242 9245 9248 9251 9253 9256 9259 9261 9264 9267 9269 9272 9274 9277 9280 9282 9285 9288 9291 9294 9296 9299 9302 9305 9308 9311 9314 9316 9319 9322 9325 9328 9330 9333 9336 9339 9342 9345 9347 9350 9353 9356 9359 9362 9365 9368 9371 9374 9377 9380 9383 9386 9389 9392 9395 9398 9401 9404 9407 9410 9413 9416 9419 9421 9424 9427 9430 9432 9435 9438 9440 9443 9446 9449 9452 9455 9458 9460 9463 9466 9469 9472 9475 9478 9481 9484 9487 9489 9492 9495 9498 9501 9504 9506 9509 9512 9515 9518 9521 9524 9527 9530 9533 9536 9538 9541 9544 9547 9550 9553 9556 9559 9562 9564 9567 9570 9573 9576 9579 9582 9585 9588 9591 9593 9595 9598 9601 9604 9607 9610 9613 9616 9619 9622 9624 9627 9630 9632 9635 9638 9641 9644 9647 9650 9652 9655 9658 9661 9664 9667 9670 9673 9676 9678 9681 9684 9687 9690 9693 9696 9699 9701 9704 9706 9709 9712 9715 9718 9721 9724 9727 9730 9733 9736 9739 9742 9745 9748 9751 9754 9757 9760 9763 9766 9769 9772 9775 9778 9781 9784 9787 9790 9793 9796 9799 9802 9805 9808 9811 9814 9817 9820 9823 9826 9829 9832 9835 9838 9841 9844 9846 9849 9852 9854 9857 9860 9863 9865 9868 9871 9873 9876 9879 9882 9885 9888 9891 9894 9897 9900 9903 9906 9909 9912 9915 9918 9921 9923 9926 9929 9931 9934 9937 9940 9942 9945 9948 9950 9952 9955 9958 9960 9963 9966 9969 9972 9975 9978 9981 9984 9987 9990 9993 9996 9999 10002 10005 10008 10011 10014 10017 10020 10023 10026 10029 10031 10034 10037 10040 10043 10046 10049 10052 10055 10058 10061 10064 10067 10070 10073 10076 10079 10082 10085 10088 10091 10094 10097 10100 10103 10106 10109 10111 10114 10117 10120 10123 10126 10129 10131 10134 10137 10140 10143 10146 10149 10151 10153 10156 10159 10162 10165 10168 10170 10173 10175 10178 10181 10184 10187 10190 10193 10195 10198 10201 10204 10207 10209 10212 10215 10218 10221 10224 10227 10230 10232 10235 10238 10241 10243 10246 10249 10252 10254 10257 10260 10263 10266 10269 10272 10275 10278 10281 10284 10286 10289 10292 10294 10296 10299 10302 10305 10308 10310 10313 10316 10319 10321 10324 10327 10330 10332 10335 10338 10341 10344 10347 10350 10353 10356 10359 10362 10365 10368 10371 10374 10377 10380 10382 10385 10388 10391 10394 10397 10400 10403 10406 10408 10411 10413 10416 10419 10421 10424 10427 10429 10432 10435 10438 10441 10444 10447 10450 10453 10456 10458 10461 10464 10467 10470 10473 10476 10479 10482 10485 10488 10491 10494 10497 10500 10503 10506 10508 10511 10514 10516 10518 10521 10524 10527 10529 10532 10535 10538 10541 10543 10546 10549 10551 10554 10557 10560 10563 10566 10569 10572 10574 10577 10580 10583 10586 10589 10592 10595 10598 10600 10602 10605 10608 10611 10613 10616 10619 10622 10625 10628 10631 10633 10636 10639 10642 10645 10648 10651 10654 10657 10660 10662 10665 10668 10671 10674 10677 10679 10682 10685 10688 10691 10694 10697 10700 10703 10706 10709 10712 10715 10718 10720 10723 10726 10729 10732 10735 10738 10741 10744 10746 10749 10752 10755 10758 10761 10764 10766 10769 10771 10774 10776 10779 10782 10785 10788 10791 10794 10797 10800 10803 10805 10808 10811 10814 10817 10820 10823 10826 10829 10832 10835 10838 10840 10843 10846 10849 10852 10855 10858 10860 10863 10866 10869 10872 10875 10878 10881 10884 10887 10890 10893 10896 10899 10902 10905 10907 10910 10913 10916 10919 10922 10925 10928 10931 10934 10937 10940 10943 10946 10949 10952 10954 10957 10960 10963 10966 10969 10972 10975 10978 10981 10984 10986 10989 10992 10995 10998 11001 11003 11006 11009 11012 11015 11018 11021 11024 11027 11030 11033 11036 11039 11042 11045 11048 11051 11054 11057 11059 11062 11065 11068 11071 11074 11077 11080 11082 11085 11088 11091 11094 11097 11100 11102 11105 11108 11111 11114 11117 11120 11123 11126 11129 11132 11135 11138 11141 11144 11147 11150 11153 11156 11159 11162 11165 11168 11171 11173 11176 11179 11182 11185 11188 11191 11194 11197 11200 11203 11206 11209 11212 11215 11218 11221 11224 11227 11230 11233 11236 11239 11242 11245 11248 11251 11254 11257 11260 11263 11265 11268 11271 11274 11277 11279 11282 11285 11288 11290 11293 11296 11298 11301 11303 11306 11308 11311 11314 11316 11319 11321 11324 11327 11330 11333 11335 11337 11340 11343 11346 11348 11350 11353 11356 11359 11362 11365 11368 11371 11374 11377 11380 11383 11386 11389 11392 11395 11398 11400 11403 11406 11409 11412 11414 11417 11419 11422 11425 11428 11431 11434 11437 11440 11443 11446 11449 11452 11455 11458 11461 11463 11466 11469 11472 11474 11477 11480 11483 11486 11489 11492 11495 11498 11501 11504 11507 11510 11513 11516 11519 11522 11525 11528 11531 11534 11537 11540 11543 11546 11549 11552 11555 11558 11561 11564 11567 11570 11573 11575 11578 11581 11584 11587 11590 11593 11596 11599 11602 11605 11607 11610 11613 11616 11619 11622 11625 11628 11631 11634 11637 11640 11643 11646 11649 11652 11655 11658 11661 11664 11667 11670 11673 11676 11679 11682 11685 11688 11691 11694 11697 11700 11703 11706 11709 11712 11715 11718 11721 11724 11727 11729 11732 11735 11738 11740 11743 11746 11748 11751 11754 11757 11760 11762 11764 11766 11769 11772 11775 11778 11781 11783 11786 11789 11792 11794 11796 11799 11801 11804 11807 11810 11813 11816 11819 11822 11825 11828 11830 11833 11836 11839 11842 11845 11848 11851 11854 11857 11860 11862 11865 11868 11871 11874 11877 11880 11883 11886 11889 11892 11895 11898 11901 11903 11906 11909 11912 11914 11917 11919 11922 11925 11927 11930 11933 11936 11939 11942 11945 11948 11951 11954 11956 11959 11962 11965 11968 11971 11974 11977 11980 11983 11986 11989 11992 11995 11998 12001 12004 12007 12010 12013 12016 12019 12022 12025 12027 12030 12032 12035 12038 12041 12043 12045 12048 12051 12054 12057 12060 12063 12065 12068 12071 12074 12077 12079 12082 12085 12088 12091 12093 12096 12099 12102 12105 12108 12111 12114 12117 12120 12123 12126 12129 12131 12134 12136 12139 12141 12144 12147 12150 12153 12156 12159 12161 12164 12167 12170 12173 12176 12179 12182 12184 12187 12190 12193 12195 12198 12200 12203 12206 12209 12211 12214 12217 12220 12223 12226 12229 12232 12235 12238 12241 12244 12247 12249 12252 12254 12257 12260 12263 12266 12269 12272 12275 12277 12280 12283 12286 12289 12292 12295 12298 12301 12304 12307 12310 12313 12316 12318 12321 12324 12327 12330 12332 12335 12338 12341 12344 12347 12349 12352 12354 12357 12360 12362 12365 12368 12371 12374 12376 12378 12381 12384 12387 12389 12392 12395 12398 12401 12403 12406 12408 12411 12414 12417 12419 12422 12425 12427 12430 12433 12436 12439 12441 12444 12446 12449 12452 12455 12458 12461 12464 12467 12470 12473 12476 12479 12482 12485 12488 12491 12494 12497 12500 12503 12506 12509 12512 12515 12518 12520 12523 12525 12528 12531 12534 12537 12540 12543 12545 12548 12551 12554 12557 12559 12561 12564 12567 12570 12573 12576 12579 12582 12585 12588 12591 12594 12597 12600 12603 12606 12609 12612 12615 12618 12621 12624 12627 12630 12633 12636 12639 12642 12645 12648 12651 12654 12657 12660 12663 12666 12669 12672 12674 12676 12679 12682 12685 12688 12691 12694 12697 12700 12703 12706 12709 12712 12715 12718 12720 12723 12726 12728 12731 12734 12737 12740 12743 12746 12749 12752 12755 12758 12761 12764 12767 12770 12773 12776 12779 12782 12785 12788 12791 12794 12797 12799 12802 12805 12808 12811 12814 12817 12820 12823 12826 12829 12832 12835 12838 12841 12844 12847 12850 12853 12856 12859 12862 12864 12867 12870 12873 12876 12878 12881 12884 12887 12890 12893 12896 12899 12902 12905 12908 12910 12913 12916 12919 12922 12925 12928 12931 12934 12937 12940 12943 12946 12949 12952 12955 12958 12961 12964 12967 12970 12973 12975 12978 12980 12983 12986 12989 12992 12995 12998 13001 13004 13007 13010 13012 13015 13018 13021 13024 13027 13030 13033 13036 13039 13042 13045 13048 13051 13054 13057 13060 13063 13066 13069 13072 13075 13078 13081 13084 13087 13090 13093 13096 13099 13102 13104 13107 13110 13113 13116 13119 13121 13124 13127 13130 13133 13135 13137 13139 13142 13145 13148 13151 13154 13157 13160 13163 13166 13168 13171 13173 13176 13179 13181 13184 13187 13190 13193 13195 13198 13201 13204 13207 13210 13213 13216 13219 13222 13225 13227 13229 13231 13234 13237 13240 13243 13246 13249 13251 13254 13257 13260 13263 13266 13269 13272 13275 13278 13281 13284 13286 13288 13291 13294 13297 13300 13303 13305 13308 13311 13314 13317 13320 13323 13326 13329 13332 13335 13338 13341 13344 13347 13350 13352 13355 13358 13361 13364 13366 13369 13372 13375 13378 13381 13384 13387 13390 13393 13396 13399 13402 13405 13408 13411 13414 13416 13419 13422 13425 13428 13431 13434 13437 13440 13443 13446 13449 13452 13455 13458 13461 13464 13467 13469 13472 13475 13478 13481 13484 13487 13490 13492 13495 13498 13501 13504 13506 13509 13512 13515 13518 13520 13523 13525 13528 13531 13534 13537 13539 13541 13544 13546 13549 13552 13554 13557 13560 13563 13566 13569 13572 13575 13578 13581 13584 13587 13590 13593 13596 13599 13602 13605 13608 13611 13614 13617 13620 13623 13625 13628 13631 13634 13637 13639 13642 13645 13647 13650 13653 13656 13659 13662 13665 13668 13670 13673 13676 13679 13682 13684 13686 13689 13692 13695 13697 13699 13701 13703 13705 13708 13711 13714 13717 13720 13723 13726 13729 13732 13735 13737 13740 13743 13745 13748 13751 13754 13756 13759 13762 13765 13768 13771 13774 13777 13780 13783 13785 13787 13790 13793 13796 13799 13802 13805 13807 13809 13812 13815 13817 13820 13822 13825 13827 13830 13833 13836 13839 13842 13844 13847 13849 13852 13854 13857 13860 13863 13866 13869 13872 13875 13878 13880 13883 13886 13889 13892 13894 13897 13899 13902 13905 13908 13911 13914 13917 13920 13923 13926 13928 13931 13934 13937 13940 13943 13945 13948 13951 13954 13956 13959 13962 13964 13966 13969 13972 13975 13978 13980 13983 13985 13988 13991 13994 13997 14000 14003 14006 14009 14012 14015 14018 14021 14024 14027 14030 14032 14035 14037 14040 14043 14045 14047 14050 14052 14054 14057 14060 14062 14065 14068 14071 14074 14076 14079 14082 14084 14087 14089 14092 14094 14097 14099 14102 14105 14108 14110 14113 14115 14118 14120 14123 14126 14129 14131 14134 14137 14139 14142 14145 14148 14151 14154 14157 14160 14163 14166 14169 14172 14175 14178 14181 14184 14186 14188 14191 14194 14197 14200 14203 14206 14209 14212 14214 14217 14220 14223 14226 14229 14232 14235 14238 14241 14244 14247 14250 14253 14256 14259 14261 14264 14267 14270 14273 14275 14278 14281 14284 14287 14290 14293 14295 14298 14301 14304 14307 14309 14312 14315 14317 14320 14323 14326 14329 14332 14334 14337 14340 14343 14346 14349 14352 14355 14357 14360 14363 14366 14369 14371 14374 14377 14380 14383 14386 14389 14392 14395 14397 14400 14402 14405 14408 14411 14413 14416 14419 14422 14425 14428 14430 14433 14435 14438 14440 14443 14446 14449 14452 14455 14458 14461 14464 14467 14470 14473 14476 14479 14482 14485 14488 14491 14494 14497 14500 14503 14506 14509 14512 14515 14518 14521 14524 14527 14529 14532 14534 14537 14540 14543 14546 14549 14551 14554 14557 14560 14563 14566 14569 14572 14575 14578 14581 14584 14587 14590 14593 14596 14599 14602 14605 14608 14611 14614 14617 14620 14623 14626 14629 14632 14635 14638 14641 14644 14647 14650 14653 14656 14659 14661 14664 14667 14670 14673 14676 14679 14682 14685 14688 14691 14694 14697 14700 14703 14706 14709 14712 14715 14718 14721 14724 14727 14730 14733 14736 14739 14742 14745 14748 14751 14754 14757 14760 14763 14766 14769 14772 14775 14778 14781 14784 14787 14790 14793 14796 14799 14802 14805 14808 14811 14814 14817 14820 14823 14826 14829 14832 14835 14838 14841 14844 14847 14850 14852 14854 14857 14860 14863 14866 14869 14872 14875 14878 14881 14884 14887 14890 14893 14896 14899 14902 14905 14908 14911 14914 14917 14920 14922 14925 14928 14931 14934 14937 14940 14943 14945 14948 14951 14954 14956 14959 14962 14965 14968 14971 14973 14975 14977 14980 14983 14986 14989 14992 14995 14998 15001 15003 15006 15009 15011 15013 15016 15019 15022 15024 15027 15030 15032 15035 15038 15041 15044 15047 15050 15053 15055 15058 15060 15063 15066 15069 15071 15074 15077 15080 15083 15086 15089 15092 15095 15098 15101 15104 15107 15110 15113 15116 15118 15121 15123 15126 15129 15132 15135 15138 15141 15144 15147 15150 15153 15156 15159 15162 15165 15168 15171 15174 15177 15180 15182 15185 15188 15191 15193 15196 15199 15202 15205 15208 15211 15214 15217 15220 15223 15226 15229 15232 15235 15238 15241 15244 15247 15250 15253 15256 15259 15262 15265 15268 15271 15274 15277 15280 15283 15286 15289 15292 15295 15297 15300 15303 15306 15309 15312 15315 15318 15321 15324 15327 15330 15332 15335 15338 15341 15344 15347 15350 15353 15356 15359 15362 15365 15368 15371 15374 15377 15380 15382 15385 15387 15390 15393 15396 15399 15402 15405 15408 15411 15414 15417 15420 15423 15426 15428 15431 15434 15437 15440 15443 15446 15448 15451 15454 15457 15460 15463 15466 15469 15471 15474 15477 15480 15483 15485 15488 15490 15493 15496 15499 15502 15505 15508 15511 15513 15516 15519 15521 15524 15526 15529 15532 15535 15537 15540 15543 15546 15549 15552 15555 15558 15561 15564 15567 15569 15571 15573 15576 15579 15581 15584 15587 15589 15592 15595 15598 15601 15604 15606 15609 15612 15615 15617 15620 15623 15625 15628 15630 15633 15636 15639 15642 15645 15648 15651 15654 15657 15660 15663 15666 15669 15672 15675 15678 15681 15684 15687 15690 15692 15695 15697 15700 15702 15704 15707 15710 15713 15716 15719 15722 15725 15728 15731 15734 15737 15740 15743 15746 15749 15752 15755 15758 15761 15764 15767 15770 15773 15776 15779 15782 15785 15788 15791 15793 15796 15799 15802 15805 15808 15811 15814 15817 15820 15823 15826 15829 15832 15835 15837 15840 15843 15846 15849 15852 15854 15857 15860 15863 15866 15869 15872 15875 15878 15881 15883 15886 15889 15892 15895 15897 15900 15903 15906 15909 15912 15915 15917 15919 15922 15925 15927 15930 15933 15936 15939 15942 15945 15948 15951 15954 15957 15960 15963 15966 15969 15972 15975 15978 15981 15984 15987 15990 15992 15995 15998 16001 16004 16006 16009 16012 16015 16018 16021 16024 16026 16029 16032 16035 16038 16041 16044 16047 16050 16053 16056 16059 16062 16065 16068 16071 16074 16077 16080 16083 16086 16089 16092 16095 16098 16101 16104 16107 16110 16113 16116 16119 16122 16125 16128 16131 16134 16137 16140 16143 16146 16149 16152 16155 16158 16161 16164 16167 16170 16173 16176 16179 16182 16185 16188 16191 16194 16197 16200 16203 16205 16208 16211 16214 16217 16220 16223 16226 16229 16231 16234 16236 16239 16242 16245 16248 16251 16254 16257 16259 16262 16265 16268 16271 16274 16277 16280 16283 16286 16289 16291 16294 16297 16300 16303 16306 16309 16312 16315 16318 16321 16324 16327 16330 16333 16336 16339 16342 16345 16348 16351 16353 16356 16359 16362 16365 16367 16370 16373 16376 16379 16381 16384 16387 16390 16393 16396 16399 16402 16405 16407 16410 16413 16416 16419 16422 16425 16428 16431 16434 16437 16440 16443 16445 16448 16451 16454 16456 16459 16462 16465 16468 16471 16473 16476 16479 16482 16485 16487 16490 16493 16496 16498 16501 16504 16507 16510 16513 16516 16519 16522 16524 16527 16530 16533 16536 16539 16541 16544 16547 16550 16552 16555 16558 16560 16563 16566 16568 16571 16574 16577 16580 16583 16585 16588 16591 16594 16597 16600 16603 16606 16609 16612 16615 16618 16621 16624 16627 16630 16633 16635 16638 16640 16643 16646 16649 16652 16655 16657 16660 16663 16666 16669 16672 16675 16677 16680 16683 16686 16689 16692 16695 16698 16701 16703 16705 16708 16711 16714 16716 16719 16722 16725 16728 16730 16733 16736 16738 16741 16743 16746 16749 16752 16754 16757 16759 16761 16764 16767 16769 16772 16775 16777 16780 16783 16786 16789 16791 16794 16797 16799 16802 16804 16806 16809 16812 16815 16818 16821 16824 16827 16830 16833 16836 16839 16842 16845 16848 16851 16854 16857 16859 16862 16864 16867 16870 16873 16875 16878 16881 16883 16886 16888 16890 16893 16896 16898 16901 16904 16906 16908 16911 16913 16915 16918 16921 16924 16927 16930 16933 16936 16939 16942 16945 16947 16950 16953 16956 16959 16962 16965 16968 16971 16974 16976 16979 16982 16985 16988 16991 16994 16997 17000 17003 17006 17009 17012 17015 17018 17021 17024 17027 17030 17033 17036 17039 17042 17045 17048 17051 17054 17057 17060 17063 17066 17069 17072 17075 17078 17081 17084 17087 17090 17093 17096 17099 17102 17105 17108 17111 17114 17116 17119 17122 17125 17128 17130 17133 17136 17139 17142 17145 17148 17150 17153 17156 17159 17162 17164 17167 17170 17173 17175 17177 17180 17183 17186 17189 17192 17195 17198 17201 17204 17206 17209 17211 17214 17217 17220 17223 17226 17229 17232 17235 17238 17241 17244 17247 17250 17253 17256 17259 17262 17265 17268 17271 17274 17277 17280 17283 17286 17289 17292 17295 17298 17301 17304 17307 17310 17313 17316 17319 17322 17324 17327 17330 17332 17335 17338 17341 17344 17347 17350 17353 17356 17359 17362 17365 17368 17371 17373 17375 17377 17380 17383 17386 17388 17390 17392 17395 17398 17401 17404 17407 17410 17413 17416 17419 17422 17425 17428 17431 17434 17437 17440 17442 17445 17448 17450 17453 17456 17459 17462 17465 17468 17471 17473 17476 17479 17482 17485 17488 17491 17494 17497 17500 17503 17506 17509 17512 17515 17518 17521 17524 17527 17530 17533 17536 17539 17542 17545 17548 17551 17554 17557 17560 17563 17566 17569 17571 17574 17577 17580 17583 17586 17589 17592 17595 17598 17601 17603 17606 17609 17612 17614 17617 17620 17623 17626 17629 17632 17634 17636 17639 17642 17645 17648 17650 17653 17655 17658 17661 17664 17667 17670 17673 17676 17679 17682 17685 17688 17691 17693 17696 17699 17702 17705 17708 17711 17714 17717 17720 17723 17726 17729 17731 17734 17737 17740 17743 17746 17749 17752 17755 17758 17761 17764 17767 17770 17773 17775 17778 17781 17784 17786 17788 17791 17794 17797 17800 17803 17806 17808 17811 17814 17817 17820 17823 17826 17829 17832 17835 17838 17841 17844 17847 17850 17853 17856 17859 17862 17865 17867 17870 17873 17876 17879 17882 17885 17888 17891 17894 17897 17900 17903 17906 17909 17912 17915 17918 17921 17924 17927 17930 17933 17935 17938 17941 17944 17947 17950 17953 17956 17959 17961 17964 17967 17970 17973 17976 17979 17982 17985 17988 17991 17994 17997 18000 18003 18006 18009 18012 18015 18018 18021 18024 18026 18029 18032 18034 18037 18040 18043 18046 18049 18052 18055 18058 18061 18064 18067 18070 18073 18076 18079 18082 18085 18088 18091 18094 18097 18100 18103 18106 18109 18112 18115 18118 18121 18123 18126 18129 18132 18135 18138 18141 18144 18147 18149 18152 18155 18158 18160 18163 18166 18169 18171 18174 18177 18180 18183 18186 18188 18191 18194 18197 18200 18203 18206 18208 18210 18213 18215 18217 18220 18223 18225 18228 18231 18234 18237 18240 18243 18246 18249 18252 18255 18258 18261 18264 18267 18270 18273 18276 18279 18282 18285 18288 18291 18294 18297 18300 18303 18306 18309 18312 18315 18318 18321 18324 18327 18330 18333 18336 18339 18342 18345 18348 18351 18354 18357 18360 18363 18366 18369 18372 18375 18378 18381 18384 18387 18390 18393 18396 18399 18402 18405 18408 18411 18414 18417 18420 18423 18426 18429 18432 18435 18438 18441 18444 18447 18450 18453 18456 18459 18462 18465 18468 18471 18474 18477 18480 18483 18486 18489 18492 18495 18498 18501 18504 18507 18509 18512 18515 18518 18521 18524 18527 18530 18533 18536 18539 18542 18545 18548 18551 18554 18557 18560 18563 18566 18569 18572 18575 18578 18581 18584 18587 18590 18593 18596 18599 18602 18605 18608 18611 18614 18617 18620 18623 18625 18628 18631 18634 18637 18640 18643 18646 18649 18652 18655 18658 18661 18664 18667 18670 18673 18675 18678 18681 18684 18687 18690 18693 18695 18697 18700 18703 18705 18708 18711 18713 18716 18719 18722 18725 18727 18730 18733 18736 18739 18742 18745 18748 18751 18754 18757 18760 18763 18766 18769 18772 18775 18778 18781 18784 18787 18790 18793 18796 18799 18802 18805 18808 18811 18814 18817 18820 18823 18826 18828 18831 18834 18837 18840 18842 18845 18848 18851 18853 18856 18859 18862 18865 18868 18871 18873 18876 18879 18882 18885 18888 18891 18894 18897 18900 18902 18905 18908 18911 18914 18917 18920 18923 18926 18929 18932 18934 18937 18940 18943 18945 18948 18950 18953 18956 18958 18960 18962 18965 18968 18971 18974 18976 18979 18982 18985 18988 18991 18994 18997 19000 19003 19006 19009 19012 19015 19018 19020 19023 19026 19029 19032 19035 19037 19040 19042 19045 19048 19050 19053 19056 19059 19062 19065 19068 19070 19073 19076 19079 19082 19084 19087 19090 19093 19096 19099 19101 19103 19106 19109 19111 19114 19117 19120 19123 19126 19129 19132 19134 19136 19139 19141 19144 19147 19150 19152 19155 19158 19161 19163 19166 19169 19172 19174 19177 19180 19183 19186 19189 19192 19194 19196 19199 19202 19205 19208 19211 19213 19216 19218 19221 19224 19226 19228 19231 19234 19236 19239 19241 19243 19246 19249 19251 19254 19256 19259 19262 19264 19266 19269 19272 19275 19278 19281 19284 19287 19289 19292 19294 19297 19299 19302 19305 19308 19311 19313 19316 19319 19322 19325 19328 19331 19334 19337 19340 19342 19345 19348 19351 19354 19357 19360 19363 19365 19368 19371 19374 19376 19379 19381 19384 19387 19390 19393 19395 19398 19400 19403 19405 19408 19410 19413 19416 19419 19421 19424 19427 19430 19433 19435 19438 19441 19444 19447 19450 19453 19455 19458 19460 19463 19466 19468 19471 19474 19477 19480 19483 19486 19488 19491 19494 19497 19500 19503 19506 19509 19512 19515 19518 19521 19523 19526 19528 19531 19534 19536 19538 19541 19544 19547 19550 19552 19555 19557 19559 19562 19564 19567 19570 19572 19575 19578 19581 19584 19586 19589 19592 19595 19598 19601 19604 19606 19609 19612 19615 19618 19621 19624 19627 19630 19633 19635 19638 19641 19644 19646 19649 19652 19655 19658 19661 19664 19667 19670 19673 19676 19679 19682 19685 19688 19691 19694 19697 19700 19702 19705 19708 19711 19714 19717 19719 19721 19724 19727 19730 19732 19735 19738 19741 19743 19746 19749 19752 19755 19758 19761 19764 19767 19770 19773 19776 19779 19782 19785 19788 19791 19794 19797 19800 19803 19806 19809 19812 19815 19818 19821 19824 19827 19830 19833 19836 19838 19841 19844 19847 19850 19853 19855 19858 19861 19864 19867 19870 19873 19876 19879 19882 19885 19888 19891 19894 19897 19900 19902 19905 19908 19911 19913 19916 19919 19922 19925 19928 19931 19934 19937 19940 19943 19946 19949 19952 19955 19958 19961 19964 19967 19970 19973 19976 19979 19982 19985 19988 19991 19994 19996 19999 20002 20005 20008 20011 20014 20016 20019 20022 20024 20027 20030 20033 20036 20038 20041 20044 20046 20048 20051 20054 20057 20059 20062 20065 20068 20070 20073 20076 20079 20082 20085 20088 20091 20094 20097 20100 20103 20106 20109 20111 20114 20117 20120 20123 20126 20129 20132 20135 20138 20141 20144 20147 20150 20153 20156 20159 20162 20165 20168 20171 20173 20176 20179 20182 20185 20188 20191 20194 20197 20199 20202 20205 20208 20210 20213 20216 20219 20222 20225 20228 20231 20234 20237 20240 20242 20245 20248 20251 20254 20257 20260 20263 20266 20269 20271 20274 20277 20279 20282 20284 20287 20290 20293 20296 20299 20302 20305 20308 20311 20313 20315 20318 20321 20324 20327 20330 20332 20335 20338 20340 20342 20344 20347 20350 20353 20356 20359 20362 20364 20367 20369 20372 20375 20377 20379 20382 20385 20387 20390 20393 20396 20399 20402 20404 20407 20410 20413 20416 20419 20422 20425 20428 20431 20434 20437 20439 20442 20445 20448 20450 20452 20455 20458 20461 20464 20467 20470 20473 20476 20479 20482 20484 20487 20490 20492 20495 20497 20499 20502 20504 20507 20509 20512 20514 20517 20520 20523 20526 20529 20532 20534 20536 20539 20542 20545 20548 20551 20554 20557 20559 20562 20564 20567 20570 20573 20576 20579 20582 20585 20587 20590 20593 20596 20599 20602 20605 20607 20610 20613 20616 20619 20622 20625 20628 20631 20634 20636 20639 20642 20645 20648 20650 20653 20656 20659 20662 20665 20668 20671 20674 20677 20680 20683 20686 20689 20692 20695 20698 20701 20704 20707 20710 20713 20716 20719 20722 20725 20728 20731 20734 20737 20740 20743 20746 20748 20751 20754 20757 20760 20763 20766 20769 20772 20775 20778 20780 20783 20785 20788 20791 20793 20796 20799 20802 20805 20808 20811 20814 20817 20820 20823 20826 20829 20831 20834 20836 20839 20842 20845 20848 20851 20854 20857 20860 20863 20866 20869 20872 20875 20878 20881 20883 20886 20889 20892 20895 20898 20900 20902 20905 20908 20910 20913 20916 20919 20922 20925 20928 20931 20934 20937 20940 20943 20945 20948 20951 20954 20957 20959 20962 20965 20968 20971 20974 20977 20979 20981 20983 20986 20988 20991 20993 20995 20998 21000 21002 21004 21007 21010 21013 21015 21018 21020 21023 21026 21028 21031 21034 21037 21040 21043 21046 21048 21051 21053 21056 21059 21062 21065 21068 21071 21073 21076 21079 21082 21084 21087 21090 21093 21095 21098 21100 21103 21106 21109 21111 21114 21117 21120 21123 21126 21128 21131 21134 21137 21140 21143 21146 21149 21152 21155 21158 21161 21164 21166 21168 21171 21174 21177 21180 21183 21186 21188 21191 21193 21196 21199 21201 21204 21207 21210 21213 21216 21219 21222 21225 21228 21231 21234 21237 21239 21242 21245 21248 21251 21254 21257 21260 21263 21265 21268 21270 21273 21275 21278 21281 21283 21286 21289 21292 21295 21298 21301 21304 21307 21310 21313 21316 21319 21321 21324 21327 21330 21333 21336 21338 21341 21344 21347 21350 21353 21356 21358 21361 21364 21367 21370 21373 21376 21379 21382 21385 21388 21391 21394 21397 21399 21402 21404 21407 21410 21413 21415 21418 21421 21424 21427 21430 21432 21435 21438 21441 21444 21446 21449 21451 21454 21457 21460 21463 21465 21468 21471 21474 21477 21479 21482 21485 21488 21491 21494 21497 21499 21502 21504 21506 21508 21511 21514 21516 21518 21521 21524 21527 21530 21532 21535 21537 21540 21543 21546 21548 21551 21554 21557 21560 21563 21566 21569 21572 21575 21578 21581 21584 21587 21590 21593 21596 21599 21602 21605 21608 21611 21614 21617 21620 21623 21626 21629 21632 21635 21637 21640 21643 21645 21647 21650 21653 21656 21659 21661 21663 21665 21668 21671 21674 21677 21679 21682 21684 21687 21690 21692 21694 21697 21700 21703 21706 21708 21711 21713 21715 21718 21721 21724 21727 21730 21733 21736 21739 21742 21745 21747 21750 21753 21755 21758 21761 21764 21767 21770 21772 21775 21778 21781 21784 21787 21790 21793 21795 21798 21800 21803 21806 21808 21811 21814 21817 21820 21823 21826 21829 21832 21835 21838 21840 21843 21846 21849 21852 21855 21858 21861 21864 21867 21869 21872 21874 21877 21880 21883 21886 21889 21892 21895 21898 21901 21904 21907 21910 21913 21916 21919 21921 21924 21927 21930 21933 21936 21939 21942 21945 21948 21951 21954 21957 21960 21963 21965 21968 21971 21974 21976 21979 21982 21985 21988 21991 21994 21997 21999 22002 22005 22008 22011 22014 22017 22020 22023 22026 22029 22031 22034 22037 22040 22043 22046 22049 22052 22055 22058 22061 22064 22067 22070 22073 22075 22078 22081 22084 22086 22089 22092 22095 22098 22101 22103 22106 22109 22112 22115 22118 22121 22124 22127 22130 22133 22136 22139 22142 22145 22148 22151 22154 22157 22159 22162 22165 22168 22171 22174 22177 22180 22183 22186 22189 22192 22195 22198 22201 22204 22206 22209 22212 22215 22218 22221 22224 22227 22230 22232 22235 22238 22241 22243 22246 22249 22252 22255 22257 22260 22263 22266 22269 22272 22275 22278 22281 22284 22287 22289 22291 22294 22297 22300 22302 22305 22308 22311 22313 22316 22319 22322 22325 22328 22330 22333 22336 22339 22342 22345 22348 22351 22354 22357 22359 22362 22365 22367 22370 22373 22376 22379 22382 22385 22388 22390 22393 22395 22398 22401 22403 22406 22408 22411 22413 22416 22419 22422 22425 22428 22431 22433 22436 22439 22442 22445 22448 22451 22453 22456 22459 22461 22464 22467 22470 22472 22475 22477 22480 22482 22485 22487 22490 22493 22495 22498 22500 22503 22506 22508 22510 22512 22515 22518 22521 22524 22527 22530 22532 22535 22538 22540 22543 22546 22548 22551 22553 22556 22559 22562 22565 22568 22571 22574 22577 22579 22582 22585 22587 22590 22592 22595 22598 22601 22604 22607 22610 22613 22616 22619 22622 22625 22628 22631 22634 22637 22640 22642 22645 22647 22650 22653 22656 22659 22661 22664 22666 22669 22672 22675 22678 22681 22683 22686 22688 22691 22694 22697 22700 22703 22706 22709 22711 22714 22717 22720 22723 22726 22729 22731 22734 22736 22739 22741 22744 22747 22750 22753 22755 22758 22761 22764 22767 22770 22773 22776 22778 22781 22783 22786 22788 22791 22794 22797 22799 22802 22805 22808 22811 22814 22817 22820 22823 22826 22829 22832 22835 22838 22840 22843 22846 22849 22852 22855 22858 22861 22864 22867 22869 22872 22875 22877 22880 22883 22886 22888 22891 22894 22896 22899 22902 22904 22907 22909 22912 22915 22918 22921 22924 22927 22930 22933 22936 22939 22942 22945 22948 22950 22953 22955 22958 22961 22964 22967 22970 22972 22975 22978 22980 22983 22986 22989 22992 22994 22997 23000 23003 23006 23009 23011 23014 23017 23019 23022 23024 23027 23029 23031 23034 23037 23040 23042 23045 23048 23051 23054 23056 23059 23061 23064 23067 23070 23073 23076 23079 23082 23085 23088 23091 23094 23097 23100 23103 23106 23109 23112 23115 23118 23121 23123 23126 23129 23132 23134 23137 23140 23143 23146 23149 23152 23155 23158 23161 23164 23167 23170 23173 23176 23178 23181 23184 23187 23190 23193 23196 23199 23202 23205 23208 23211 23214 23217 23220 23223 23226 23229 23232 23235 23238 23241 23244 23247 23250 23253 23255 23258 23261 23264 23267 23270 23273 23276 23279 23282 23285 23288 23291 23294 23297 23300 23303 23306 23309 23312 23315 23318 23321 23323 23325 23328 23331 23334 23337 23339 23342 23345 23348 23351 23354 23357 23360 23363 23366 23369 23372 23375 23378 23381 23384 23387 23389 23391 23394 23397 23399 23401 23404 23406 23409 23412 23415 23417 23420 23423 23425 23428 23431 23434 23436 23439 23442 23445 23447 23450 23453 23456 23459 23461 23464 23466 23469 23472 23475 23478 23480 23482 23485 23488 23491 23494 23497 23500 23502 23505 23508 23511 23513 23516 23519 23522 23525 23528 23531 23534 23537 23539 23542 23545 23548 23550 23552 23555 23558 23560 23563 23566 23569 23571 23574 23577 23580 23583 23586 23589 23592 23594 23597 23600 23603 23606 23608 23611 23614 23617 23619 23621 23624 23627 23629 23631 23634 23637 23640 23643 23646 23649 23652 23655 23658 23661 23664 23667 23670 23673 23676 23679 23682 23685 23688 23691 23693 23696 23699 23701 23704 23707 23710 23712 23715 23718 23721 23724 23726 23729 23731 23734 23736 23738 23741 23744 23746 23749 23752 23754 23756 23759 23762 23765 23768 23771 23774 23777 23780 23783 23786 23789 23791 23794 23797 23799 23802 23804 23807 23810 23812 23815 23818 23820 23823 23826 23829 23832 23834 23837 23840 23843 23845 23848 23851 23854 23856 23859 23862 23865 23868 23871 23874 23877 23880 23882 23885 23888 23891 23894 23897 23900 23903 23906 23909 23912 23914 23917 23920 23923 23926 23929 23932 23935 23938 23940 23943 23946 23949 23952 23955 23958 23960 23963 23966 23969 23972 23975 23978 23981 23983 23986 23989 23992 23995 23998 24001 24004 24007 24010 24013 24016 24019 24022 24024 24027 24030 24033 24036 24039 24041 24044 24047 24050 24053 24056 24059 24062 24065 24068 24071 24074 24077 24080 24083 24086 24089 24092 24095 24098 24101 24104 24107 24110 24113 24116 24118 24121 24124 24127 24130 24133 24136 24139 24142 24145 24147 24150 24153 24156 24159 24162 24165 24167 24170 24173 24176 24179 24182 24185 24188 24191 24194 24197 24200 24203 24206 24209 24212 24215 24218 24221 24224 24227 24230 24233 24236 24239 24241 24243 24246 24249 24252 24254 24257 24260 24263 24265 24268 24271 24274 24277 24280 24283 24286 24289 24292 24295 24298 24301 24304 24307 24310 24313 24316 24319 24321 24324 24327 24330 24333 24336 24339 24342 24345 24348 24351 24354 24357 24360 24363 24366 24369 24371 24374 24377 24380 24383 24386 24389 24392 24395 24398 24401 24404 24407 24410 24412 24414 24417 24420 24423 24426 24429 24432 24435 24438 24441 24443 24446 24449 24452 24455 24458 24461 24463 24466 24469 24472 24475 24477 24480 24483 24486 24489 24492 24495 24497 24500 24503 24506 24509 24512 24515 24518 24521 24524 24527 24530 24533 24536 24539 24542 24545 24548 24550 24553 24556 24558 24561 24564 24567 24570 24572 24574 24577 24580 24583 24586 24589 24592 24594 24596 24599 24602 24605 24607 24610 24612 24615 24618 24621 24623 24626 24629 24632 24635 24638 24641 24644 24647 24650 24653 24655 24658 24660 24663 24666 24669 24671 24674 24677 24680 24683 24686 24689 24692 24695 24698 24701 24704 24707 24710 24713 24716 24719 24722 24725 24728 24731 24734 24737 24740 24743 24746 24749 24752 24755 24758 24761 24764 24767 24770 24772 24774 24777 24780 24782 24785 24788 24791 24794 24797 24800 24802 24804 24807 24810 24813 24816 24819 24822 24825 24828 24831 24834 24837 24840 24843 24845 24848 24851 24854 24857 24860 24863 24866 24869 24872 24875 24878 24881 24884 24887 24890 24893 24896 24899 24902 24905 24908 24911 24914 24917 24920 24923 24926 24929 24932 24935 24938 24941 24944 24947 24950 24953 24956 24959 24962 24965 24968 24971 24974 24977 24980 24983 24986 24989 24992 24995 24998 25001 25004 25007 25010 25013 25016 25019 25022 25025 25028 25031 25034 25037 25040 25043 25046 25049 25052 25055 25057 25060 25063 25066 25068 25071 25074 25077 25080 25083 25086 25089 25092 25095 25098 25101 25104 25107 25110 25113 25116 25118 25121 25124 25127 25130 25133 25136 25139 25142 25145 25148 25151 25154 25157 25160 25163 25166 25169 25172 25175 25178 25180 25183 25186 25189 25192 25195 25198 25201 25203 25206 25209 25211 25214 25217 25220 25223 25226 25229 25231 25234 25237 25240 25243 25246 25249 25252 25255 25258 25261 25264 25266 25269 25272 25275 25278 25281 25284 25287 25289 25292 25295 25298 25301 25303 25306 25309 25311 25314 25317 25320 25323 25326 25329 25332 25335 25338 25341 25344 25347 25349 25352 25355 25358 25360 25363 25366 25369 25372 25375 25378 25381 25384 25387 25390 25392 25395 25398 25401 25404 25407 25410 25413 25416 25419 25421 25424 25427 25430 25433 25436 25439 25442 25445 25448 25451 25454 25457 25460 25463 25466 25468 25471 25474 25476 25478 25481 25484 25487 25490 25492 25495 25498 25501 25504 25507 25509 25512 25515 25517 25520 25523 25526 25529 25532 25535 25538 25541 25544 25547 25550 25553 25556 25559 25562 25565 25568 25571 25574 25577 25579 25582 25585 25588 25591 25594 25597 25600 25603 25606 25609 25611 25614 25617 25619 25622 25625 25628 25630 25633 25636 25638 25641 25644 25647 25650 25653 25655 25658 25661 25664 25666 25669 25672 25675 25677 25680 25682 25685 25688 25691 25694 25697 25700 25703 25705 25708 25711 25714 25717 25719 25722 25725 25727 25730 25733 25736 25739 25742 25744 25747 25750 25753 25755 25757 25760 25763 25766 25769 25772 25774 25777 25780 25783 25786 25789 25792 25794 25797 25800 25803 25806 25809 25812 25815 25818 25821 25824 25827 25830 25832 25835 25837 25840 25843 25846 25849 25851 25854 25857 25860 25863 25865 25868 25871 25873 25876 25879 25882 25884 25887 25890 25893 25896 25899 25902 25905 25908 25910 25913 25916 25919 25922 25925 25928 25931 25934 25937 25940 25943 25946 25949 25952 25955 25958 25961 25964 25967 25969 25972 25975 25978 25981 25984 25987 25989 25992 25995 25998 26001 26004 26007 26010 26013 26016 26019 26022 26024 26027 26030 26033 26036 26039 26042 26045 26048 26051 26054 26057 26059 26062 26065 26068 26071 26074 26076 26079 26082 26085 26088 26090 26092 26095 26098 26100 26103 26105 26108 26110 26112 26114 26116 26119 26122 26125 26128 26131 26134 26136 26138 26141 26144 26147 26150 26152 26155 26158 26161 26164 26167 26169 26172 26175 26178 26181 26184 26186 26189 26192 26195 26198 26200 26203 26206 26208 26211 26214 26217 26219 26222 26224 26227 26230 26232 26235 26238 26241 26244 26247 26250 26253 26256 26259 26262 26265 26268 26271 26274 26277 26280 26283 26286 26289 26292 26295 26297 26300 26303 26306 26309 26312 26315 26318 26320 26323 26326 26329 26331 26334 26337 26340 26343 26345 26348 26351 26354 26357 26360 26362 26365 26368 26371 26374 26377 26380 26383 26386 26389 26392 26395 26398 26401 26404 26407 26410 26413 26416 26419 26422 26425 26428 26430 26433 26436 26439 26442 26445 26447 26450 26453 26456 26458 26461 26463 26466 26469 26472 26474 26477 26479 26482 26485 26488 26491 26494 26497 26500 26503 26506 26509 26512 26515 26518 26521 26524 26527 26530 26533 26535 26538 26541 26544 26547 26549 26552 26555 26557 26560 26563 26566 26569 26572 26575 26578 26581 26584 26587 26590 26593 26596 26598 26601 26604 26607 26610 26613 26615 26618 26621 26624 26627 26630 26632 26635 26638 26641 26643 26646 26648 26650 26653 26656 26659 26662 26665 26668 26671 26674 26677 26680 26683 26686 26689 26692 26695 26698 26700 26703 26706 26708 26711 26713 26716 26719 26722 26725 26728 26731 26734 26737 26740 26743 26746 26749 26752 26755 26757 26760 26763 26766 26768 26771 26774 26776 26779 26782 26784 26787 26789 26792 26795 26798 26801 26804 26807 26810 26813 26816 26819 26822 26825 26828 26831 26833 26836 26839 26841 26844 26847 26850 26853 26855 26858 26861 26864 26867 26870 26873 26876 26879 26882 26885 26888 26891 26894 26897 26900 26903 26906 26909 26912 26915 26918 26921 26924 26926 26929 26931 26934 26937 26939 26942 26945 26948 26951 26954 26956 26959 26962 26965 26968 26971 26974 26977 26980 26983 26986 26989 26992 26995 26998 27000 27003 27006 27009 27012 27015 27017 27020 27023 27026 27029 27032 27035 27038 27041 27044 27047 27050 27053 27056 27059 27062 27065 27068 27071 27074 27077 27080 27083 27086 27089 27091 27093 27095 27098 27100 27103 27106 27109 27112 27115 27118 27120 27123 27126 27128 27130 27133 27136 27139 27142 27145 27148 27151 27154 27157 27160 27163 27165 27168 27171 27174 27177 27179 27181 27184 27187 27190 27193 27196 27199 27201 27204 27207 27210 27213 27216 27218 27221 27224 27226 27228 27230 27233 27236 27238 27241 27244 27247 27250 27253 27255 27257 27260 27262 27265 27268 27271 27274 27277 27280 27283 27285 27288 27291 27294 27297 27300 27303 27306 27309 27312 27315 27318 27321 27324 27327 27330 27333 27336 27339 27342 27345 27348 27351 27354 27357 27360 27363 27366 27369 27371 27374 27377 27380 27383 27386 27389 27391 27393 27396 27399 27402 27405 27408 27411 27414 27417 27420 27422 27425 27428 27431 27434 27437 27440 27443 27446 27448 27451 27454 27457 27459 27462 27465 27468 27470 27473 27476 27478 27481 27484 27487 27490 27493 27495 27498 27501 27504 27507 27509 27511 27514 27517 27520 27523 27526 27528 27531 27534 27537 27540 27543 27546 27549 27552 27555 27558 27561 27564 27567 27569 27572 27575 27578 27581 27584 27587 27590 27593 27596 27599 27602 27605 27608 27611 27614 27617 27620 27623 27626 27629 27632 27635 27638 27641 27644 27647 27650 27653 27656 27659 27662 27665 27668 27671 27674 27677 27680 27683 27686 27689 27692 27695 27698 27701 27704 27707 27710 27713 27716 27719 27722 27725 27728 27731 27734 27736 27738 27741 27744 27747 27750 27753 27756 27759 27762 27765 27768 27771 27774 27776 27779 27782 27785 27788 27791 27794 27797 27800 27803 27805 27808 27811 27814 27817 27820 27823 27826 27829 27832 27835 27838 27841 27844 27847 27849 27852 27855 27858 27860 27863 27866 27869 27871 27873 27875 27878 27881 27883 27886 27889 27891 27894 27897 27899 27902 27905 27907 27909 27912 27915 27918 27920 27923 27926 27929 27932 27934 27937 27939 27942 27944 27947 27949 27952 27955 27958 27961 27964 27966 27969 27972 27975 27978 27981 27984 27987 27990 27993 27996 27999 28002 28005 28008 28011 28014 28017 28020 28023 28026 28029 28032 28035 28038 28041 28044 28047 28050 28053 28056 28059 28062 28065 28068 28070 28073 28075 28078 28081 28084 28086 28089 28092 28095 28098 28101 28104 28107 28110 28113 28116 28119 28122 28125 28128 28130 28133 28136 28138 28141 28143 28146 28149 28152 28155 28158 28161 28164 28167 28170 28173 28175 28178 28181 28184 28187 28190 28193 28196 28198 28201 28204 28207 28209 28212 28215 28218 28221 28224 28227 28230 28233 28236 28239 28242 28245 28248 28251 28254 28257 28260 28263 28266 28269 28271 28274 28277 28280 28283 28286 28289 28291 28294 28296 28299 28302 28305 28308 28310 28313 28316 28319 28322 28324 28327 28330 28332 28335 28338 28341 28344 28346 28349 28352 28355 28358 28361 28364 28367 28370 28373 28376 28379 28382 28385 28388 28391 28394 28397 28400 28403 28406 28408 28411 28414 28417 28420 28423 28426 28429 28431 28434 28437 28440 28443 28446 28449 28452 28455 28458 28461 28464 28467 28469 28472 28474 28477 28480 28483 28486 28489 28492 28495 28498 28501 28504 28507 28510 28513 28516 28518 28521 28524 28527 28530 28533 28536 28539 28542 28544 28547 28550 28553 28555 28558 28561 28564 28567 28570 28573 28576 28579 28582 28585 28588 28591 28594 28597 28600 28603 28606 28609 28612 28615 28618 28621 28624 28627 28630 28633 28636 28639 28642 28645 28648 28651 28654 28657 28660 28663 28666 28669 28671 28674 28677 28680 28683 28685 28688 28690 28693 28696 28699 28702 28705 28708 28710 28713 28716 28719 28722 28725 28728 28731 28734 28737 28740 28743 28746 28749 28752 28755 28758 28761 28764 28767 28770 28773 28776 28779 28782 28785 28788 28791 28794 28797 28800 28802 28805 28808 28811 28814 28817 28820 28823 28826 28829 28832 28835 28838 28841 28844 28847 28849 28852 28855 28858 28861 28864 28867 28869 28872 28875 28878 28881 28883 28886 28889 28892 28895 28898 28900 28903 28906 28909 28912 28915 28918 28920 28923 28926 28929 28932 28935 28938 28941 28944 28946 28949 28952 28955 28957 28960 28963 28966 28969 28972 28975 28978 28981 28984 28987 28990 28993 28996 28999 29002 29005 29008 29011 29014 29016 29019 29022 29025 29028 29030 29033 29036 29039 29042 29044 29046 29049 29052 29055 29058 29061 29064 29067 29070 29073 29076 29079 29082 29085 29088 29090 29092 29095 29098 29101 29104 29107 29110 29113 29116 29119 29121 29124 29127 29130 29133 29136 29139 29142 29145 29148 29151 29154 29157 29160 29162 29165 29168 29171 29174 29177 29180 29183 29186 29189 29192 29195 29198 29201 29204 29207 29210 29213 29216 29219 29222 29225 29228 29231 29234 29237 29239 29242 29245 29248 29251 29254 29257 29259 29262 29265 29267 29270 29273 29276 29279 29282 29285 29288 29290 29293 29295 29298 29301 29304 29306 29309 29312 29315 29318 29321 29324 29327 29330 29333 29336 29339 29341 29344 29347 29350 29353 29356 29359 29362 29365 29368 29371 29374 29377 29379 29381 29384 29386 29389 29391 29393 29396 29399 29402 29404 29407 29410 29412 29415 29418 29420 29423 29425 29428 29430 29433 29436 29439 29442 29445 29448 29451 29454 29457 29460 29463 29466 29469 29472 29475 29478 29481 29483 29486 29489 29492 29495 29498 29500 29503 29506 29509 29512 29515 29518 29521 29524 29527 29530 29533 29536 29539 29542 29545 29548 29550 29553 29556 29559 29562 29564 29567 29570 29573 29576 29579 29582 29585 29588 29591 29594 29596 29599 29602 29605 29608 29611 29614 29617 29619 29621 29624 29627 29630 29633 29636 29639 29642 29645 29648 29651 29654 29656 29659 29662 29664 29667 29670 29673 29676 29679 29682 29685 29688 29691 29693 29696 29699 29702 29704 29707 29710 29713 29716 29719 29722 29725 29728 29731 29734 29737 29740 29742 29745 29748 29751 29754 29757 29760 29763 29765 29768 29771 29774 29777 29779 29782 29785 29788 29791 29794 29797 29800 29803 29806 29809 29812 29815 29818 29821 29824 29827 29830 29833 29836 29839 29842 29845 29848 29851 29854 29857 29860 29862 29865 29868 29871 29874 29877 29880 29883 29886 29889 29892 29895 29897 29900 29903 29905 29908 29911 29914 29916 29919 29921 29924 29927 29930 29933 29936 29939 29942 29945 29948 29951 29954 29957 29960 29963 29966 29969 29972 29975 29977 29980 29983 29985 29988 29991 29994 29997 30000 30003 30006 30009 30012 30015 30018 30020 30023 30025 30028 30031 30034 30037 30040 30043 30046 30049 30052 30055 30058 30061 30064 30067 30070 30073 30076 30079 30081 30084 30087 30090 30093 30095 30098 30101 30104 30107 30110 30113 30116 30119 30121 30124 30127 30130 30133 30136 30139 30142 30145 30148 30151 30154 30157 30160 30163 30166 30169 30172 30175 30177 30180 30183 30185 30188 30191 30194 30197 30200 30203 30206 30208 30211 30214 30217 30219 30222 30225 30228 30231 30234 30237 30240 30243 30246 30249 30252 30255 30258 30261 30264 30267 30270 30273 30276 30279 30282 30285 30287 30290 30293 30296 30299 30302 30305 30308 30311 30314 30317 30320 30323 30325 30327 30330 30332 30335 30338 30340 30343 30346 30349 30352 30354 30357 30360 30363 30366 30369 30372 30375 30378 30381 30384 30387 30390 30393 30396 30399 30402 30405 30408 30411 30414 30417 30420 30423 30426 30429 30432 30435 30438 30441 30444 30447 30450 30453 30456 30459 30462 30464 30467 30470 30473 30476 30479 30482 30485 30488 30490 30493 30496 30498 30501 30503 30506 30509 30512 30515 30518 30521 30524 30527 30530 30533 30536 30539 30542 30545 30548 30551 30554 30557 30560 30563 30566 30569 30572 30575 30578 30581 30584 30587 30590 30593 30596 30599 30602 30605 30608 30610 30613 30616 30619 30621 30624 30627 30630 30633 30636 30639 30642 30644 30646 30649 30651 30654 30657 30660 30663 30666 30669 30672 30675 30678 30681 30684 30687 30690 30693 30696 30699 30702 30705 30708 30711 30714 30717 30720 30723 30726 30729 30731 30733 30736 30739 30742 30745 30748 30751 30754 30757 30760 30763 30766 30769 30772 30775 30778 30781 30784 30787 30790 30793 30796 30799 30802 30805 30808 30811 30814 30817 30820 30823 30826 30829 30832 30835 30837 30840 30843 30846 30849 30852 30854 30857 30860 30863 30866 30869 30871 30874 30877 30880 30883 30886 30889 30892 30895 30898 30901 30903 30906 30909 30912 30914 30917 30919 30922 30925 30928 30930 30933 30936 30938 30941 30943 30946 30949 30952 30955 30958 30961 30964 30967 30969 30972 30974 30977 30980 30983 30986 30988 30991 30993 30996 30999 31001 31004 31007 31010 31013 31016 31019 31022 31025 31028 31031 31033 31036 31039 31042 31044 31047 31049 31052 31054 31056 31059 31062 31065 31068 31071 31074 31077 31080 31083 31086 31088 31091 31093 31096 31098 31101 31104 31107 31110 31113 31116 31119 31122 31125 31127 31130 31133 31136 31139 31142 31145 31148 31151 31153 31156 31158 31161 31164 31167 31170 31173 31176 31179 31182 31185 31188 31191 31194 31197 31200 31203 31205 31208 31211 31214 31217 31220 31223 31226 31229 31232 31235 31238 31241 31244 31247 31250 31253 31256 31259 31262 31265 31268 31271 31274 31277 31280 31283 31286 31289 31292 31295 31298 31301 
</DataArray>
<DataArray type="UInt32" Name="types" format="ascii">
5 5 5 5 5 5 3 5 5 5 5 5 3 5 5 5 3 5 5 5 3 5 5 5 5 5 3 3 5 5 5 5 3 5 5 5 3 5 5 5 5 5 5 5 5 5 5 5 5 5 5 5 5 5 5 5 5 5 5 5 5 5 3 5 5 5 5 5 5 5 5 3 5 5 5 5 5 3 5 5 5 5 5 5 5 5 5 5 5 5 5 5 5 5 5 5 5 5 5 5 5 5 5 5 5 5 5 5 3 3 5 5 3 5 5 5 5 5 5 5 3 5 5 5 5 5 5 5 5 5 5 5 5 5 5 3 5 5 3 5 5 5 5 5 5 5 5 5 5 5 5 5 5 5 5 5 3 5 3 5 5 5 5 5 5 5 5 5 5 5 5 5 5 5 5 5 3 5 5 5 5 5 5 5 5 5 5 5 5 5 5 5 5 5 3 5 5 3 5 5 5 3 5 5 5 5 5 5 5 5 5 5 5 5 3 5 5 3 5 3 5 3 5 5 5 5 5 5 5 5 3 3 5 5 3 5 5 5 3 5 3 3 3 5 5 5 5 5 5 5 5 5 5 5 5 5 5 5 3 5 5 5 5 3 5 5 5 5 5 5 5 5 5 5 5 5 5 5 3 5 5 5 5 5 5 5 5 3 5 5 5 5 3 5 3 5 3 5 5 5 5 5 5 5 5 5 5 5 5 5 5 5 5 5 5 5 5 5 5 5 5 5 5 3 5 5 5 5 5 3 5 5 5 5 5 5 5 5 5 3 5 5 5 3 3 3 5 5 5 3 3 3 5 5 5 5 5 5 5 5 5 5 5 5 3 5 5 5 5 5 5 5 5 5 5 5 5 5 5 5 5 5 5 5 5 5 5 5 5 5 5 5 5 5 5 5 5 5 5 5 5 5 5 3 5 5 3 5 5 5 3 5 5 3 5 5 5 3 5 5 3 5 3 5 5 5 5 5 5 3 5 5 5 5 3 5 5 3 5 5 5 5 5 5 5 3 5 5 5 5 5 5 3 5 5 5 5 5 3 5 5 5 5 5 5 5 5 5 5 5 5 5 5 5 3 5 3 5 5 5 5 5 5 5 5 5 5 5 5 5 5 3 5 5 5 5 5 5 5 5 5 5 5 5 5 5 5 5 5 5 3 5 5 5 5 5 5 5 5 5 5 5 5 5 5 5 5 5 5 5 5 5 5 5 3 5 5 5 5 3 5 5 5 5 5 5 5 5 5 3 5 5 5 5 3 5 5 5 5 5 5 5 5 5 5 5 5 5 5 5 5 5 5 5 5 5 5 5 5 5 3 5 5 5 5 5 5 5 5 5 5 5 5 5 5 5 5 5 5 3 5 5 3 5 5 5 5 5 5 3 5 5 5 5 5 5 5 5 5 5 5 5 5 3 5 5 3 5 5 5 5 3 5 5 5 5 5 5 5 5 5 5 5 5 5 3 3 5 5 5 5 5 5 5 5 3 5 5 5 3 5 5 5 5 5 5 3 5 5 5 5 3 3 5 5 5 5 5 5 5 5 5 5 5 5 5 5 5 5 5 5 5 5 3 5 5 5 5 5 5 3 5 3 5 5 5 5 5 5 3 5 5 5 5 5 5 5 5 5 5 5 5 5 5 3 5 5 5 3 5 5 5 5 5 5 3 5 5 5 5 5 5 3 5 5 5 3 3 5 5 3 5 5 5 5 5 5 3 5 5 5 3 5 5 3 5 5 5 3 5 5 5 3 5 5 5 5 3 5 5 5 3 5 5 5 5 5 3 5 5 5 5 5 5 5 5 5 3 5 5 5 5 5 5 5 5 5 5 5 3 3 5 5 5 5 5 5 5 5 5 5 5 5 5 5 5 3 5 3 5 3 5 5 5 5 5 5 5 5 3 5 5 5 5 5 5 5 5 5 5 3 5 5 5 5 3 5 5 5 5 5 5 5 5 5 5 5 5 3 5 5 5 5 5 5 5 5 5 5 5 5 5 5 5 3 5 5 5 5 5 5 5 5 5 5 5 5 5 5 5 5 5 5 5 5 3 3 5 5 5 3 5 5 5 5 5 5 5 5 5 5 5 5 5 5 5 5 5 5 5 5 5 5 5 5 5 5 5 5 5 5 5 5 5 5 5 5 5 5 5 5 5 5 5 5 3 5 5 5 5 5 5 5 5 5 3 5 5 5 5 5 5 5 5 5 3 5 5 5 5 5 5 5 3 3 5 5 5 3 3 5 5 3 5 5 5 3 5 5 5 5 5 5 5 5 5 3 5 5 5 5 5 5 5 3 5 5 5 3 5 5 5 5 5 5 5 5 5 5 5 5 5 5 5 5 5 5 5 5 5 5 5 3 5 3 5 5 5 5 5 3 5 5 5 5 5 3 5 5 5 5 5 3 3 5 3 5 5 5 5 5 5 5 5 5 5 5 5 5 5 5 5 3 5 5 5 5 5 3 5 5 3 5 5 5 5 5 5 5 5 5 5 5 5 5 3 5 5 5 3 5 3 5 5 5 5 5 5 5 5 5 5 5 5 5 5 5 5 5 5 3 5 5 5 5 5 5 5 5 5 5 3 5 5 5 5 5 5 5 5 5 5 5 5 5 5 5 5 5 5 5 3 5 5 5 5 5 5 5 5 5 5 5 5 3 5 5 5 5 5 5 5 5 5 5 5 3 5 5 5 5 3 5 5 3 5 3 5 3 5 5 5 5 5 5 5 5 5 3 3 5 5 5 3 5 5 5 5 5 3 5 5 5 5 3 5 5 5 5 5 5 5 5 5 5 5 5 5 5 5 5 5 3 5 5 3 5 5 5 5 5 3 5 5 3 5 5 5 5 5 5 5 5 5 5 3 5 5 5 5 5 5 5 3 5 3 5 3 5 3 5 5 3 5 5 5 3 5 5 5 5 5 5 3 5 5 5 5 5 5 5 5 3 5 5 5 3 5 5 5 3 5 5 3 5 5 3 5 5 3 3 5 5 5 3 5 5 5 5 5 5 3 3 5 5 3 5 5 5 5 3 5 5 5 5 3 5 3 3 5 5 5 5 5 5 3 5 5 3 5 5 5 5 5 3 5 5 5 5 3 3 5 5 5 5 5 5 5 3 5 5 5 5 5 5 5 5 5 5 5 5 3 5 5 5 5 5 5 3 5 5 5 5 5 5 5 3 5 5 5 5 3 5 5 5 3 5 5 5 5 5 5 3 5 5 3 5 5 5 3 5 3 5 3 5 5 5 3 5 5 5 5 5 3 5 5 5 5 5 5 3 5 5 5 5 5 5 5 5 3 5 5 5 3 5 5 5 5 5 5 5 5 5 5 3 5 3 5 5 5 5 3 5 5 5 5 5 5 5 5 5 5 5 5 5 3 5 5 3 5 5 3 5 5 5 5 5 5 5 5 5 5 5 5 5 5 5 5 5 5 5 5 5 5 5 5 5 5 5 5 5 5 3 5 5 5 5 5 5 5 5 5 5 5 5 5 5 5 5 5 5 5 5 3 5 5 5 5 5 5 5 5 5 5 5 3 5 5 5 5 5 5 5 5 5 5 5 5 5 5 5 5 5 5 5 5 5 5 5 5 3 5 5 5 3 5 5 3 5 5 5 5 5 5 3 5 3 5 5 5 3 5 5 5 5 5 3 3 5 5 3 5 5 5 5 5 5 5 5 5 5 5 5 5 5 3 5 3 5 5 3 3 5 5 3 5 5 5 3 5 5 5 5 3 5 3 5 3 5 5 5 5 5 5 5 5 5 5 5 5 5 5 3 3 5 5 5 5 5 5 5 5 5 5 5 5 3 5 3 5 5 5 5 5 5 5 3 3 5 5 5 5 5 5 5 5 5 5 5 5 5 5 3 5 5 5 5 5 5 5 5 5 5 5 3 5 5 5 5 5 5 5 5 3 5 5 5 5 5 3 5 5 5 5 3 5 5 5 5 5 5 3 5 5 5 5 5 5 5 5 5 5 5 5 5 5 5 3 5 3 5 5 5 5 5 5 5 5 5 3 5 5 5 5 3 5 5 5 5 5 5 3 5 5 3 5 3 5 5 3 5 5 5 5 5 5 3 5 5 3 5 5 5 3 5 5 5 5 3 3 5 5 3 5 5 5 5 5 5 5 5 5 5 5 5 5 5 5 5 5 3 5 5 5 5 5 5 5 5 5 5 5 3 5 5 5 3 5 5 5 5 5 5 5 5 3 5 5 5 5 5 5 5 5 5 5 5 5 5 5 5 5 5 5 5 5 5 5 5 5 5 5 5 5 5 5 5 5 5 5 5 5 5 5 5 5 5 5 5 5 5 5 5 5 5 5 5 5 5 5 5 5 5 5 5 5 5 5 5 5 5 5 5 5 5 5 5 5 5 5 5 5 5 5 5 5 5 5 5 5 5 5 5 5 5 3 5 5 5 5 3 5 5 3 5 5 5 5 5 5 5 5 5 5 3 5 5 5 5 5 5 5 5 5 5 5 5 5 5 5 5 5 3 5 5 3 5 5 3 5 3 5 5 5 5 5 5 5 3 5 3 5 5 5 5 5 5 5 5 5 5 5 5 5 5 5 5 5 3 5 5 5 3 5 5 3 5 5 5 3 5 5 5 5 5 5 3 5 5 5 3 5 3 5 3 5 5 5 3 5 5 3 5 5 3 5 3 5 5 5 5 3 5 5 5 5 5 5 5 5 5 3 5 5 5 5 5 5 3 5 5 3 5 5 5 5 5 5 5 5 5 5 5 5 5 5 5 5 5 5 5 3 5 5 5 5 5 5 5 5 5 5 5 5 3 5 5 3 5 5 3 5 3 5 3 5 5 5 5 5 5 5 5 5 5 5 5 5 5 5 5 5 5 5 5 5 5 5 5 5 5 5 5 3 5 5 5 5 3 5 5 5 5 5 5 5 5 5 5 5 5 5 5 5 5 5 5 5 3 5 5 5 5 3 5 5 5 5 5 3 5 5 5 5 5 5 5 5 5 5 5 3 5 5 5 3 5 3 5 5 5 5 5 3 3 5 5 5 5 3 5 5 3 5 3 5 5 3 5 3 5 5 5 5 3 5 5 5 5 5 5 5 5 5 5 5 5 5 5 5 5 5 5 3 5 5 5 5 5 5 5 5 5 5 3 5 5 5 5 5 3 5 5 5 5 5 5 3 5 5 5 5 3 5 3 5 5 5 5 5 5 5 3 5 5 5 3 5 5 5 5 5 5 5 3 5 3 5 5 5 5 3 5 5 5 5 5 3 5 5 5 5 5 5 5 5 5 5 5 5 5 5 5 5 5 5 5 5 5 5 5 5 5 5 3 5 5 5 5 5 3 5 5 5 5 5 5 5 5 5 5 5 5 3 5 5 5 5 5 5 5 5 5 5 5 5 5 5 5 5 5 5 5 5 5 5 5 5 5 5 5 5 5 5 3 5 3 5 3 5 5 5 5 3 5 5 5 5 5 5 3 5 5 3 5 5 3 3 5 5 5 5 3 3 5 5 5 5 3 3 5 5 5 5 5 5 5 3 5 3 5 5 5 5 5 5 5 5 5 3 5 5 3 5 5 3 5 3 5 3 3 5 3 5 5 5 5 5 5 5 3 3 3 5 5 5 5 5 5 5 5 3 5 5 3 3 3 5 3 5 5 5 5 5 5 5 3 5 5 5 3 5 5 3 5 5 5 5 5 5 3 5 5 5 5 5 3 5 5 5 5 3 5 3 5 5 5 3 3 5 5 5 3 5 5 5 5 5 5 5 5 5 5 3 5 5 5 5 5 5 5 3 5 5 5 3 5 5 5 5 5 5 3 5 5 5 5 5 5 5 5 5 5 5 5 3 5 5 5 5 3 5 5 5 5 5 5 5 5 5 5 5 5 5 5 5 5 5 5 3 5 5 5 3 5 3 5 5 5 5 3 5 5 5 5 3 3 5 5 3 5 5 3 5 5 5 3 5 5 3 5 5 5 5 5 5 5 5 3 5 3 5 5 3 5 5 5 5 5 5 3 3 5 5 5 5 5 5 5 5 5 5 5 5 5 5 3 5 5 5 5 5 5 5 5 5 5 5 5 5 5 5 5 5 5 5 5 5 5 5 5 5 5 5 5 5 5 5 5 5 5 5 5 5 5 5 5 5 5 5 5 5 5 5 5 5 5 5 5 5 5 5 5 5 5 5 5 5 5 5 5 5 5 5 5 5 5 5 5 5 5 5 5 5 5 5 5 5 5 5 5 5 5 5 5 5 5 5 5 5 5 5 5 5 5 5 3 3 5 5 5 5 5 5 5 5 5 5 5 5 5 5 5 5 5 5 5 5 5 5 5 5 5 5 5 5 5 5 5 5 5 5 5 5 5 5 5 5 5 5 5 5 5 5 5 5 5 5 5 5 5 5 5 5 5 5 5 5 5 5 5 5 5 5 5 5 5 5 5 5 5 5 5 5 5 5 5 5 5 5 5 5 5 5 5 3 5 5 5 5 5 5 3 5 5 3 5 5 3 5 5 5 5 3 3 5 5 3 5 5 5 3 5 3 5 5 5 5 5 5 3 5 5 5 3 3 5 5 5 5 5 3 5 3 5 3 5 5 5 3 5 5 5 5 3 5 3 5 3 5 5 5 5 5 5 5 3 5 5 5 5 5 5 5 5 5 5 5 5 5 5 5 5 5 5 5 5 5 5 5 5 5 5 5 5 5 5 5 5 5 5 5 5 5 5 5 5 5 3 5 5 5 5 5 5 5 5 3 5 3 5 5 5 5 3 3 5 5 5 5 5 5 5 5 5 5 5 5 5 5 5 5 5 5 3 5 3 5 5 5 5 5 5 5 5 3 5 5 5 5 5 3 5 3 5 3 5 3 5 5 5 5 5 3 5 5 5 5 5 5 5 5 5 5 5 5 5 3 5 3 5 5 3 5 3 5 5 5 5 5 5 5 5 5 5 5 5 5 5 5 5 5 5 5 5 3 5 5 3 5 5 5 3 3 3 3 5 5 5 3 5 5 5 3 3 5 3 5 5 3 5 5 5 3 3 5 5 3 5 5 5 3 5 5 5 3 5 5 5 3 5 5 5 5 3 5 5 3 5 5 5 3 3 5 5 5 5 5 5 5 5 5 5 5 5 3 5 5 3 5 5 5 5 5 3 5 5 3 5 5 5 5 5 5 5 5 5 5 5 5 5 5 5 5 3 5 5 5 3 5 3 5 5 5 5 5 5 5 3 5 5 5 5 5 3 5 3 5 5 5 5 5 5 5 5 5 5 5 3 5 3 3 5 5 3 5 5 5 5 3 5 5 5 5 3 5 5 5 3 5 5 3 5 5 3 5 3 5 5 3 5 5 5 5 3 5 5 5 5 5 5 3 5 5 5 5 3 5 5 5 5 5 3 5 5 5 5 5 5 5 5 5 5 5 5 5 5 5 5 5 5 5 5 5 5 5 5 3 5 5 5 3 5 5 3 5 5 5 5 5 5 3 5 5 5 5 5 5 5 5 5 3 5 5 5 5 5 3 5 5 5 5 5 5 5 5 5 5 3 5 5 5 5 5 5 5 5 3 5 5 5 5 5 5 5 5 5 3 3 5 5 5 5 5 5 5 5 5 3 5 5 3 5 5 5 5 5 5 3 5 5 5 5 5 5 5 5 3 5 5 5 5 5 5 5 3 5 3 5 5 5 5 5 5 5 5 5 5 5 5 5 5 5 5 5 5 5 5 5 5 5 5 5 5 5 5 5 5 5 5 5 5 5 5 5 5 5 5 5 5 5 5 5 5 3 5 5 3 5 5 5 3 5 5 3 5 5 5 5 5 5 5 5 5 5 5 5 5 5 5 5 3 5 5 3 5 5 5 3 5 5 3 3 5 5 3 5 5 5 5 5 5 5 5 5 5 5 5 5 5 5 5 5 5 5 5 5 5 5 3 5 5 5 5 5 5 5 5 5 5 5 5 5 5 5 5 5 5 5 5 5 5 5 5 5 5 3 5 5 5 5 5 5 3 5 5 5 5 5 5 3 3 5 5 5 5 5 3 5 3 5 5 5 5 5 5 3 5 5 5 5 3 5 5 5 5 5 5 5 3 5 5 5 3 5 5 5 3 5 5 5 5 5 5 5 5 5 5 3 5 5 3 3 5 5 5 5 3 5 5 5 3 5 5 5 3 5 5 5 5 5 5 5 5 5 5 5 5 5 5 5 5 3 5 5 5 5 5 5 5 5 3 5 3 5 5 3 5 5 3 5 5 5 5 5 5 5 5 5 3 5 5 5 5 5 5 5 5 5 5 5 5 5 5 5 5 3 5 5 3 3 5 5 5 3 5 5 5 5 3 5 5 3 5 5 5 5 5 5 5 3 5 5 5 5 5 5 5 5 3 3 5 5 5 3 5 5 5 5 5 5 3 5 5 5 5 5 5 5 5 5 3 5 5 5 5 5 3 5 5 5 5 5 5 5 5 5 5 5 5 5 3 5 5 5 5 5 5 5 5 3 5 5 5 5 5 5 3 5 3 5 3 5 5 5 5 5 5 5 5 5 3 5 5 5 5 5 5 5 5 5 5 5 3 5 5 5 5 5 5 3 5 5 5 5 5 5 5 5 5 5 5 5 5 5 5 3 5 5 5 5 5 5 5 5 5 5 5 5 5 5 5 3 5 5 5 5 5 5 5 5 5 5 3 5 5 5 5 5 3 5 5 5 5 5 5 5 5 5 5 5 5 5 5 5 5 5 5 3 5 5 5 5 5 5 5 3 5 5 5 5 5 5 3 5 5 5 5 5 5 5 5 5 5 5 5 5 5 5 5 5 5 5 5 5 5 5 3 5 5 5 5 5 5 5 5 5 5 5 5 5 5 5 5 5 5 5 5 5 5 5 5 5 5 5 5 5 5 3 5 5 5 5 3 5 5 5 3 5 5 3 5 3 5 3 5 5 3 5 3 5 5 5 5 3 3 5 5 5 3 3 5 5 5 5 5 5 5 5 5 5 5 5 5 5 5 5 3 5 5 5 5 3 5 3 5 5 5 5 5 5 5 5 5 5 5 5 5 5 3 5 5 5 3 5 5 5 5 5 5 5 5 5 5 5 5 5 5 5 5 5 5 5 5 5 5 5 5 5 5 5 5 5 5 5 5 5 3 5 5 5 5 5 5 5 5 5 5 3 5 5 5 5 5 5 5 5 5 5 5 5 5 5 5 5 5 5 5 5 5 5 5 5 5 5 5 5 5 5 5 5 5 5 5 5 5 5 5 5 3 5 5 5 3 5 5 3 5 5 5 5 3 3 3 5 5 5 5 5 3 5 5 5 3 3 5 3 5 5 5 5 5 5 5 5 5 3 5 5 5 5 5 5 5 5 5 5 3 5 5 5 5 5 5 5 5 5 5 5 5 5 3 5 5 5 3 5 3 5 5 3 5 5 5 5 5 5 5 5 5 3 5 5 5 5 5 5 5 5 5 5 5 5 5 5 5 5 5 5 5 5 5 5 5 3 5 3 5 5 5 3 3 5 5 5 5 5 5 3 5 5 5 5 3 5 5 5 5 3 5 5 5 5 5 5 5 5 5 5 5 5 3 5 3 5 3 5 5 5 5 5 5 3 5 5 5 5 5 5 5 3 5 5 5 3 5 3 5 5 5 3 5 5 5 5 5 5 5 5 5 5 5 5 3 5 3 5 5 5 5 5 5 5 3 5 5 5 5 5 5 5 5 5 5 5 5 5 3 5 5 5 5 3 5 5 5 5 5 3 5 3 5 5 3 5 5 5 5 3 3 5 5 5 3 5 5 5 5 3 5 3 5 5 5 3 5 5 3 5 5 5 5 3 5 3 5 5 5 5 5 5 5 5 5 5 5 5 5 5 5 5 5 5 5 5 5 5 5 5 3 5 3 5 5 5 5 5 5 3 5 5 5 5 3 3 5 5 5 5 5 5 5 5 5 5 5 5 5 5 5 5 5 5 5 5 5 5 5 5 5 5 5 5 5 5 5 5 5 5 5 5 5 3 3 5 5 5 5 5 5 5 5 5 5 5 5 5 5 3 5 5 3 5 5 5 5 5 5 5 5 5 5 5 5 5 5 5 5 5 5 5 5 5 5 5 3 5 5 5 5 5 5 5 5 5 5 5 5 5 5 5 5 5 5 5 5 5 3 5 5 5 5 3 5 5 5 5 5 5 5 5 5 5 3 5 5 5 5 5 5 5 5 5 5 5 5 5 5 5 5 5 5 5 5 5 3 5 3 5 5 5 5 5 5 5 5 5 5 3 5 5 5 5 5 5 5 5 5 5 5 5 5 5 5 5 5 5 5 5 5 5 5 5 5 5 5 5 5 5 3 5 5 5 5 5 3 5 5 5 5 3 3 3 5 5 5 5 5 5 5 5 5 3 5 3 5 5 3 5 5 5 5 3 5 5 5 5 5 5 5 5 5 5 3 3 3 5 5 5 5 5 5 3 5 5 5 5 5 5 5 5 5 5 5 3 3 5 5 5 5 5 3 5 5 5 5 5 5 5 5 5 5 5 5 5 5 5 3 5 5 5 5 3 5 5 5 5 5 5 5 5 5 5 5 5 5 5 5 5 3 5 5 5 5 5 5 5 5 5 5 5 5 5 5 5 5 5 3 5 5 5 5 5 5 5 3 5 5 5 5 3 5 5 5 5 3 5 3 5 5 5 5 3 3 5 3 5 5 3 5 5 5 5 5 5 5 5 5 5 5 5 5 5 5 5 5 5 5 5 5 5 5 3 5 5 5 5 3 5 5 3 5 5 5 5 5 5 5 3 5 5 5 5 3 3 5 5 5 3 3 3 3 3 5 5 5 5 5 5 5 5 5 5 3 5 5 3 5 5 5 3 5 5 5 5 5 5 5 5 5 3 3 5 5 5 5 5 5 3 3 5 5 3 5 3 5 3 5 5 5 5 5 3 5 3 5 3 5 5 5 5 5 5 5 5 3 5 5 5 5 3 5 3 5 5 5 5 5 5 5 5 5 3 5 5 5 5 5 3 5 5 5 3 5 5 3 3 5 5 5 5 3 5 3 5 5 5 5 5 5 5 5 5 5 5 5 5 5 5 3 5 3 5 5 3 3 5 3 3 5 5 3 5 5 5 5 3 5 5 3 5 3 5 3 5 3 5 5 5 3 5 3 5 3 5 5 5 3 5 5 3 5 5 5 5 5 5 5 5 5 5 5 5 5 5 5 3 3 5 5 5 5 5 5 5 5 3 5 5 5 5 5 5 5 5 5 5 5 5 5 5 5 3 5 5 5 5 3 5 5 5 5 5 5 3 5 5 5 5 3 5 5 3 5 5 5 5 5 3 5 5 5 5 5 5 5 3 5 5 5 5 3 5 5 5 5 5 5 5 5 3 5 3 5 5 5 3 5 5 5 5 5 3 5 3 5 3 5 5 5 5 5 5 5 5 5 5 5 5 5 5 5 5 5 5 5 5 5 5 5 5 5 5 5 5 5 3 5 3 5 5 5 5 5 3 5 5 5 5 5 5 5 5 5 5 5 5 5 5 5 5 5 5 5 5 5 5 5 5 5 5 5 5 5 5 5 5 5 5 5 5 3 5 5 5 5 5 5 5 5 5 5 5 5 5 5 5 5 5 5 5 5 5 5 5 5 5 5 5 5 5 5 5 5 5 5 5 5 5 5 5 5 5 5 5 5 5 5 5 5 5 5 5 5 5 5 5 5 5 5 5 5 5 5 5 3 3 5 5 5 5 5 5 5 5 5 5 5 5 5 5 5 5 5 5 5 5 5 5 3 5 5 5 5 5 5 5 3 5 5 5 3 5 5 5 5 5 3 3 3 5 5 5 5 5 5 5 5 3 5 5 3 3 5 5 5 3 5 5 3 5 5 5 5 5 5 5 3 5 3 5 5 5 3 5 5 5 5 5 5 5 5 5 5 5 5 5 5 5 3 5 3 5 5 5 5 5 5 5 5 5 5 5 5 5 5 5 5 5 5 5 3 5 5 5 3 5 5 5 5 5 5 5 5 5 5 5 5 5 5 5 5 5 5 5 5 5 5 5 5 5 5 5 5 5 5 5 5 5 5 3 5 5 5 5 5 5 5 5 5 5 5 3 5 5 5 5 5 5 5 5 5 5 5 5 5 5 5 5 3 5 3 5 5 5 5 5 5 5 5 5 5 5 5 5 3 5 5 5 5 5 5 3 5 5 5 5 5 5 5 3 5 5 5 5 3 5 3 5 5 5 5 5 5 5 3 5 5 3 5 3 5 5 5 3 5 5 5 5 5 5 5 5 5 5 3 3 3 5 5 3 5 5 3 5 5 5 5 5 3 5 5 5 3 5 5 3 5 3 5 5 5 5 5 5 5 5 5 5 5 5 5 5 5 5 5 5 5 5 3 5 3 5 3 3 5 5 5 5 5 5 5 5 5 5 5 5 5 5 5 5 5 5 5 5 5 5 5 5 5 5 5 5 5 3 5 5 5 5 5 5 5 5 5 5 5 5 5 5 3 5 5 5 5 5 3 5 5 5 5 5 5 5 5 5 3 5 5 5 5 3 5 5 5 5 5 5 3 3 5 5 3 5 5 5 5 5 5 5 5 5 5 5 5 5 5 5 5 5 5 5 5 5 3 5 5 5 5 3 5 5 5 5 5 5 3 5 5 5 5 5 5 5 5 5 5 5 5 5 5 5 5 5 5 5 5 5 5 5 5 5 5 5 5 5 5 5 5 5 5 5 5 5 5 5 5 5 5 5 5 5 5 5 5 5 5 5 5 5 5 5 5 5 5 5 3 5 5 5 5 5 5 5 5 3 5 3 5 5 5 5 5 5 5 3 5 5 5 5 5 5 5 5 5 5 3 5 5 5 5 5 5 5 5 5 5 5 5 5 5 5 5 5 5 5 5 3 5 5 5 5 3 5 5 5 5 3 5 5 5 5 5 5 5 5 3 5 5 5 5 5 5 5 5 5 5 5 5 3 5 5 5 3 5 5 5 5 5 3 5 5 5 5 3 5 5 5 3 5 5 5 5 5 5 5 5 3 5 5 5 5 5 3 5 5 5 3 5 5 3 5 5 3 5 5 5 5 5 3 5 5 5 5 5 5 5 5 5 5 5 5 5 5 5 5 3 5 3 5 5 5 5 5 3 5 5 5 5 5 5 3 5 5 5 5 5 5 5 5 3 3 5 5 5 3 5 5 5 5 3 5 5 3 5 3 5 5 5 3 5 3 3 5 5 3 5 5 3 5 5 5 5 3 5 5 3 5 3 3 5 5 5 5 5 5 5 5 5 5 5 5 5 5 5 5 5 3 5 3 5 5 5 3 5 5 3 5 3 3 5 5 3 5 5 3 3 5 3 3 5 5 5 5 5 5 5 5 5 5 3 5 5 5 5 5 5 5 5 5 3 5 5 5 5 5 5 5 5 5 5 5 5 5 5 5 5 5 5 5 5 5 5 5 5 5 5 5 5 5 5 5 5 5 5 5 5 5 5 5 5 5 5 5 5 5 5 3 5 5 5 5 3 5 5 5 5 5 5 3 5 5 5 5 3 5 5 5 3 3 5 5 5 5 5 5 5 5 5 3 5 3 5 5 5 5 5 5 5 5 5 5 5 5 5 5 5 5 5 5 5 5 5 5 5 5 5 5 5 5 5 5 5 5 5 5 5 5 5 3 5 5 3 5 5 5 5 5 5 5 5 5 5 5 5 5 3 3 3 5 5 5 3 3 3 5 5 5 5 5 5 5 5 5 5 5 5 5 5 5 5 3 5 5 3 5 5 5 5 5 5 5 3 5 5 5 5 5 5 5 5 5 5 5 5 5 5 5 5 5 5 5 5 5 5 5 5 5 5 5 5 5 5 5 5 3 5 5 5 5 5 5 5 5 5 5 3 5 5 5 3 5 5 5 5 5 5 3 3 5 5 5 5 3 5 3 5 5 5 5 5 5 5 5 5 5 5 5 3 5 5 5 5 5 5 5 5 5 5 5 5 3 5 5 5 5 5 5 5 5 5 5 5 5 5 5 3 5 5 5 3 3 5 5 5 5 5 5 3 5 5 5 5 5 5 5 5 5 5 5 5 5 5 5 5 5 5 5 3 5 5 5 5 5 5 5 5 5 5 5 5 5 5 5 5 5 5 5 5 5 5 3 5 5 5 5 5 5 5 5 3 5 5 5 5 5 5 5 5 5 5 5 5 5 5 5 5 5 5 5 5 5 3 5 5 3 5 5 5 5 5 5 5 5 5 5 5 5 5 5 5 5 5 5 5 5 5 5 5 5 5 5 5 5 5 3 5 5 5 5 5 5 5 5 3 5 5 5 3 5 5 5 3 5 5 5 5 5 3 5 5 5 5 5 5 3 3 5 3 3 5 5 3 5 5 5 5 5 5 5 5 5 5 5 5 5 5 5 5 5 5 5 5 5 5 5 5 5 5 5 5 5 5 5 5 5 5 5 5 5 5 5 5 5 5 5 5 5 5 5 5 5 5 5 5 5 5 5 5 5 5 5 5 5 5 5 5 5 5 5 5 5 5 5 5 5 5 5 5 5 5 5 5 5 5 5 5 5 5 5 5 5 5 5 5 5 5 3 5 5 5 5 5 5 5 5 5 5 5 5 5 5 5 5 5 5 5 5 5 5 5 5 5 5 5 5 5 5 5 5 5 5 5 5 5 5 3 5 5 5 5 5 5 5 5 5 5 5 5 5 5 5 5 3 5 5 5 5 5 5 3 3 5 5 3 5 5 3 5 5 5 5 3 5 5 5 5 5 5 5 5 5 5 5 5 5 5 5 5 5 5 5 5 5 5 5 5 5 5 5 5 5 5 5 5 5 3 5 5 5 5 3 5 5 5 3 5 5 5 5 5 5 3 5 5 5 5 5 5 5 5 5 3 5 5 5 5 5 5 5 5 5 5 3 5 5 5 3 5 3 5 5 3 3 3 5 5 5 5 3 5 5 5 5 5 5 5 5 5 5 5 5 5 5 3 5 5 5 5 5 3 5 3 5 5 3 5 5 5 5 5 5 3 5 5 5 5 3 5 5 5 5 5 3 3 5 5 3 5 5 5 5 5 5 5 3 3 5 3 5 5 5 3 5 5 5 3 5 5 5 3 5 5 5 5 5 5 3 3 5 5 5 5 5 3 5 3 5 5 3 3 5 5 3 5 3 3 5 5 3 5 3 5 5 3 3 5 5 5 5 5 5 5 3 5 3 5 3 5 5 5 5 3 5 5 5 5 5 5 5 5 5 3 5 5 5 5 5 5 5 3 5 5 5 3 5 3 5 5 5 5 3 5 3 5 3 5 3 5 5 5 3 5 5 5 5 3 5 5 5 5 5 5 3 5 3 5 5 3 5 5 5 5 5 5 3 5 5 5 5 5 5 5 5 5 5 5 3 5 3 5 5 3 3 5 5 5 5 3 5 3 3 5 3 5 5 3 5 5 5 5 3 5 5 5 5 5 5 3 5 5 5 5 5 5 5 5 5 3 5 5 5 3 5 5 5 5 5 5 5 5 5 5 5 5 5 5 5 5 5 5 3 5 5 5 5 5 3 3 5 5 5 3 5 5 5 3 5 5 5 5 5 5 5 5 5 5 5 5 5 5 5 5 5 5 5 5 5 5 5 5 5 5 5 5 5 5 5 3 5 5 5 5 5 3 5 5 5 5 5 5 5 5 5 5 5 5 5 5 5 3 5 5 5 3 5 5 5 5 5 5 5 5 5 5 5 5 5 5 5 5 5 5 5 5 5 5 5 5 5 5 5 3 5 5 5 5 5 5 3 5 5 3 5 5 5 5 3 5 5 3 3 5 5 5 3 5 5 5 3 5 5 5 5 5 5 5 5 5 5 5 5 5 3 5 5 5 5 5 5 5 5 5 5 5 5 5 5 5 5 5 5 5 5 3 5 5 5 5 5 5 5 5 3 5 5 5 3 5 5 5 5 5 5 5 5 5 5 3 5 5 5 5 5 5 5 5 5 3 5 5 3 5 3 5 5 5 5 5 5 5 5 5 3 3 5 5 5 5 5 3 5 5 3 3 3 5 5 5 5 5 5 3 5 3 5 5 3 3 5 5 3 5 5 5 5 5 3 5 5 5 5 5 5 5 5 5 5 5 3 5 5 5 3 3 5 5 5 5 5 5 5 5 5 5 3 5 5 3 5 3 3 5 3 5 3 5 3 5 5 5 5 5 5 3 3 5 5 5 5 5 5 5 3 5 3 5 5 5 5 5 5 5 3 5 5 5 5 5 5 3 5 5 5 5 5 5 5 5 5 3 5 5 5 5 3 5 5 5 5 5 5 5 5 5 5 5 5 5 5 5 5 5 5 5 5 5 5 5 5 5 5 5 5 5 5 5 5 3 5 5 5 5 5 5 5 5 5 5 3 5 3 5 5 3 5 5 5 5 5 5 5 5 5 5 5 5 3 5 3 5 5 5 5 5 5 5 5 5 5 5 5 5 5 5 3 5 5 5 5 5 3 3 5 5 3 5 5 5 5 5 5 5 5 5 5 5 3 5 5 5 5 3 5 5 5 5 5 5 3 3 3 5 3 5 3 3 5 3 3 3 5 5 5 3 5 3 5 5 3 5 5 5 5 5 5 3 5 3 5 5 5 5 5 5 3 5 5 5 3 5 5 5 3 5 3 5 5 5 3 5 5 5 5 5 3 5 5 5 5 5 5 5 5 5 5 5 5 3 3 5 5 5 5 5 5 3 5 3 5 5 3 5 5 5 5 5 5 5 5 5 5 5 5 3 5 5 5 5 5 5 5 5 3 5 3 5 3 5 5 3 5 5 5 5 5 5 5 5 5 5 5 5 3 5 5 5 5 5 3 5 5 5 5 5 5 3 5 5 5 5 5 5 5 5 5 5 5 5 5 3 5 3 5 5 5 3 5 5 5 5 5 3 5 5 5 5 3 5 3 5 5 5 5 3 5 5 5 5 3 5 5 5 5 5 5 3 5 3 3 3 5 5 3 3 5 5 5 5 3 5 3 5 5 5 3 5 5 5 5 5 5 5 5 5 5 5 5 5 5 5 5 5 5 5 5 5 5 5 5 5 5 5 5 5 3 5 5 3 3 5 5 5 5 3 3 3 5 5 5 5 3 5 3 5 5 3 3 5 5 5 5 3 5 3 3 5 5 5 5 5 5 5 5 5 5 3 5 5 3 5 5 5 5 5 3 5 5 5 5 5 5 5 3 5 3 5 5 3 5 5 5 5 5 5 5 5 5 5 3 5 5 5 5 5 5 5 5 5 3 5 3 5 5 5 5 5 5 5 5 5 5 5 5 5 5 5 3 5 5 5 5 5 5 5 5 5 5 5 5 5 5 3 5 5 5 3 5 5 5 5 5 5 5 3 5 5 5 5 5 5 5 5 5 5 3 5 5 5 5 5 5 5 5 5 5 5 5 5 5 3 5 5 5 3 5 5 5 5 5 3 5 5 5 5 5 5 5 5 5 5 5 5 5 5 5 5 5 5 3 5 5 5 5 5 5 5 5 5 5 5 5 5 5 5 3 5 5 5 5 5 5 5 5 3 5 5 5 3 5 5 5 5 3 5 5 5 5 5 5 5 5 5 5 3 3 5 5 5 3 5 5 5 3 5 5 5 5 5 3 5 5 5 5 5 5 5 5 5 3 5 5 3 5 5 5 5 5 5 5 3 5 3 5 5 3 5 3 5 3 5 5 5 5 5 5 3 5 5 5 5 5 5 3 5 5 3 5 5 5 3 5 3 5 3 5 3 5 5 3 5 3 5 5 3 3 3 5 5 5 5 5 5 3 5 5 3 5 5 3 5 3 5 5 5 5 5 5 5 5 3 5 5 3 5 3 5 5 5 5 5 5 5 5 5 5 5 5 5 5 5 5 3 5 3 5 5 5 5 3 5 3 5 5 5 5 5 3 5 3 5 5 5 5 5 5 5 3 5 5 5 5 5 5 3 5 3 5 3 5 5 5 5 3 5 5 5 5 5 5 5 3 5 3 5 3 5 5 5 3 5 5 5 5 5 5 5 5 5 5 5 5 5 3 5 5 5 5 5 5 5 5 5 3 5 5 3 5 5 5 3 5 5 3 5 5 3 5 3 5 5 5 5 5 5 5 5 5 5 5 5 5 3 5 3 5 5 5 5 5 3 5 5 3 5 5 5 5 3 5 5 5 5 5 3 5 5 3 5 3 5 3 3 5 5 5 3 5 5 5 5 3 5 3 5 5 5 5 5 5 5 5 5 5 5 5 5 5 5 5 5 5 5 5 3 5 5 5 3 5 5 5 5 5 5 5 5 5 5 5 5 5 5 3 5 5 5 5 5 5 5 5 5 5 5 5 5 5 5 5 5 5 5 5 5 5 5 5 5 3 5 5 5 5 5 5 5 5 5 5 5 5 5 5 5 5 5 5 5 5 5 5 3 3 5 5 5 5 3 5 5 5 5 5 5 5 5 5 5 5 5 5 5 5 5 3 3 5 5 3 3 5 3 5 5 5 3 5 5 3 5 5 5 3 5 5 5 3 5 5 5 5 3 5 3 5 5 5 5 3 3 5 5 5 5 5 5 3 5 5 5 3 5 5 5 5 5 5 5 5 3 5 5 5 3 3 5 5 3 5 5 5 3 5 5 5 5 5 5 5 3 5 5 5 5 3 5 5 5 3 3 5 5 3 3 5 5 5 5 5 5 5 5 5 5 5 5 5 5 5 5 5 5 5 5 3 5 5 3 5 5 5 3 5 5 5 5 3 5 3 5 3 3 5 5 3 5 5 3 3 5 5 5 5 5 5 5 5 5 5 5 3 5 5 3 5 3 5 5 3 5 5 3 5 5 5 5 3 5 5 5 3 5 5 5 3 5 5 5 5 5 5 5 5 3 5 5 5 5 5 5 5 5 5 5 3 5 5 5 5 5 5 5 5 3 5 5 5 5 5 5 3 5 5 5 5 5 5 5 3 5 5 5 5 5 5 5 5 5 5 5 5 5 3 5 5 5 5 5 3 5 5 5 5 5 5 5 5 5 5 5 5 5 5 5 5 5 5 5 5 5 5 5 5 5 3 5 5 5 5 5 5 5 5 5 3 5 5 5 5 5 5 3 5 5 5 5 5 5 5 5 5 5 5 5 5 5 5 5 5 5 5 5 5 5 5 5 3 3 5 5 5 3 5 5 5 3 5 5 5 5 5 5 5 5 5 5 5 5 5 5 5 5 5 5 3 5 5 5 5 5 5 5 5 5 5 5 5 5 5 5 5 3 5 5 5 5 5 5 5 5 5 5 5 5 5 3 3 5 5 5 5 5 5 5 5 5 3 5 5 5 5 5 5 3 5 5 5 5 3 5 5 5 5 5 5 3 5 5 5 5 5 5 5 5 5 5 5 5 5 5 5 5 5 3 5 5 3 5 5 5 5 3 3 5 5 5 5 5 5 3 3 5 5 5 3 5 3 5 5 5 3 5 5 5 5 5 5 5 5 5 5 3 5 3 5 5 5 3 5 5 5 5 5 5 5 5 5 5 5 5 5 5 5 5 5 5 5 5 5 5 5 5 5 5 5 5 5 5 5 5 5 3 3 5 5 3 5 5 5 5 5 5 3 3 5 5 5 5 5 5 5 5 5 5 5 5 5 3 5 5 5 5 5 5 5 5 5 5 5 5 5 5 5 5 5 5 5 5 5 5 5 5 5 5 5 5 5 5 5 5 5 5 5 5 5 5 5 5 5 5 5 5 5 5 5 5 5 5 5 5 5 5 5 5 5 5 5 5 5 5 5 5 5 5 5 5 5 5 3 5 5 5 3 5 5 5 5 5 5 5 5 5 5 5 5 5 5 5 5 3 5 5 5 5 5 5 5 5 5 5 5 5 5 5 5 5 5 5 5 5 3 5 5 5 5 5 5 5 3 5 5 3 5 5 5 5 5 5 3 5 5 5 5 5 5 5 5 5 5 5 3 5 5 5 5 5 5 5 3 5 5 5 5 3 5 5 3 5 5 5 5 5 5 5 5 5 5 5 5 3 5 5 5 3 5 5 5 5 5 5 5 5 5 5 3 5 5 5 5 5 5 5 5 5 3 5 5 5 5 5 5 5 5 5 5 5 5 5 5 5 3 5 5 3 3 5 5 5 5 3 5 5 5 5 5 3 5 5 3 5 5 5 5 5 5 5 5 5 5 5 5 5 5 5 5 5 5 5 5 3 5 5 5 5 5 5 5 5 5 5 3 5 5 3 5 5 5 3 5 5 3 5 5 5 5 5 3 5 5 5 3 5 5 5 3 5 3 5 5 5 5 5 5 5 3 5 5 5 5 3 5 5 3 5 5 5 5 5 3 5 5 5 3 3 5 5 5 5 5 3 5 5 5 5 5 5 3 5 5 5 5 5 5 5 5 5 5 5 5 3 5 3 5 5 5 5 3 5 5 5 5 3 5 5 3 5 5 5 3 5 5 5 5 5 5 5 5 3 5 5 5 5 5 5 5 5 5 5 5 5 5 5 5 5 5 5 5 3 5 5 5 5 5 5 3 5 5 5 5 5 5 5 5 5 5 5 3 5 5 5 5 5 5 5 5 5 5 5 3 5 5 5 5 5 3 5 5 5 5 3 3 5 5 3 5 3 5 3 3 3 3 5 5 5 5 5 5 3 3 5 5 5 5 3 5 5 5 5 5 3 5 5 5 5 5 3 5 5 5 5 3 5 5 3 5 5 5 3 5 3 5 5 3 5 5 5 5 5 5 5 5 5 5 5 5 5 5 5 5 5 5 5 5 5 3 5 5 5 5 5 5 5 3 5 5 5 3 5 5 5 5 3 5 5 5 5 5 3 5 5 5 5 5 5 5 5 5 5 5 5 5 5 5 5 5 5 5 5 5 5 3 5 5 5 5 5 3 5 5 5 3 5 3 5 5 5 3 5 3 5 5 5 5 5 5 5 5 5 5 5 5 5 5 5 5 5 5 3 5 5 5 5 3 5 5 3 5 5 5 5 5 5 5 5 5 5 5 5 5 3 5 5 5 5 5 3 5 5 5 5 5 3 5 5 5 3 5 3 3 5 5 5 5 5 5 5 5 5 5 5 5 5 5 5 5 3 5 5 3 5 3 5 5 5 5 5 5 5 5 5 5 5 5 5 5 3 5 5 5 3 5 5 3 5 5 3 5 3 5 5 5 5 5 5 5 5 5 5 5 5 5 5 3 5 5 3 5 5 5 5 3 5 5 5 5 5 5 5 5 5 5 5 5 5 5 5 5 5 5 5 5 5 5 5 3 5 3 5 5 3 5 5 5 5 5 3 5 5 5 5 5 5 5 5 5 5 5 5 5 5 3 5 5 5 5 5 3 5 5 5 5 5 5 5 5 5 5 5 5 5 5 5 5 5 5 5 5 5 5 5 5 3 3 3 5 3 5 5 5 5 5 5 3 5 5 3 3 5 5 5 5 5 5 5 5 5 5 5 3 5 5 5 5 3 3 5 5 5 5 5 5 3 5 5 5 5 5 3 5 5 3 3 3 5 5 3 5 5 5 5 5 3 3 5 3 5 5 5 5 5 5 5 3 5 5 5 5 5 5 5 5 5 5 5 5 5 5 5 5 5 5 5 5 5 5 5 5 5 5 5 5 3 5 5 5 5 5 5 3 3 5 5 5 5 5 5 5 5 5 3 5 5 5 5 5 5 5 5 3 5 5 5 3 5 5 5 3 5 5 3 5 5 5 5 5 3 5 5 5 5 3 3 5 5 5 5 5 3 5 5 5 5 5 5 5 5 5 5 5 5 5 3 5 5 5 5 5 5 5 5 5 5 5 5 5 5 5 5 5 5 5 5 5 5 5 5 5 5 5 5 5 5 5 5 5 5 5 5 5 5 5 5 5 5 5 5 5 5 5 5 5 5 5 5 5 5 5 3 3 5 5 5 5 5 5 5 5 5 5 5 5 3 5 5 5 5 5 5 5 5 5 3 5 5 5 5 5 5 5 5 5 5 5 5 5 5 3 5 5 5 3 5 5 5 3 3 3 5 5 3 5 5 3 5 5 3 5 5 3 3 5 5 5 3 5 5 5 5 3 5 3 5 3 5 3 5 5 5 5 5 3 5 5 5 5 5 5 5 5 5 5 5 5 5 5 5 5 5 5 5 5 5 5 5 5 5 5 5 5 5 5 5 5 5 5 3 5 3 5 5 5 3 5 5 5 5 5 5 5 5 5 5 5 5 5 5 3 5 5 3 5 3 5 5 5 5 5 5 5 5 5 5 3 5 5 5 5 5 5 5 3 5 5 5 3 5 5 5 5 5 5 5 5 5 5 5 5 5 5 5 5 5 5 5 5 3 5 5 5 5 5 5 3 5 3 5 5 5 5 3 5 5 5 5 3 5 5 3 5 5 5 5 3 5 5 5 5 5 5 5 5 5 5 5 5 5 5 5 5 5 5 5 5 3 5 5 5 5 5 5 5 3 5 5 5 5 5 5 5 5 5 5 5 5 3 5 3 5 5 5 5 5 5 5 5 5 5 5 5 5 5 3 5 5 5 5 5 5 5 5 3 5 5 5 3 5 5 5 5 5 5 5 5 5 5 5 5 5 5 5 5 5 5 5 5 5 5 5 5 5 5 5 5 5 5 5 5 5 5 5 5 5 5 3 5 5 5 5 3 5 3 5 5 5 5 5 5 3 5 5 5 5 5 5 5 5 5 5 5 5 5 5 5 5 5 5 5 5 5 5 5 5 5 5 5 5 5 5 3 5 5 5 5 5 5 5 5 5 5 5 5 5 5 5 3 5 5 5 5 5 5 3 5 5 5 5 3 5 5 5 5 5 3 5 5 5 5 5 5 3 5 5 5 5 5 5 5 5 3 5 5 5 3 5 5 5 5 5 5 5 5 5 5 5 5 5 5 5 5 5 5 5 3 5 5 5 5 3 5 5 5 5 3 3 5 5 5 5 5 5 5 5 5 5 5 5 5 5 3 3 5 5 5 5 5 5 5 5 5 3 5 5 5 5 5 5 5 5 5 5 5 5 5 3 5 5 5 5 5 5 5 5 5 5 5 5 5 5 5 5 5 5 5 5 5 5 5 5 5 3 5 5 5 5 5 5 3 5 5 3 5 5 5 5 5 5 5 3 5 3 5 5 5 3 5 5 5 5 5 5 5 5 5 5 5 3 5 5 5 5 5 5 5 5 5 5 5 5 3 3 5 3 5 3 3 5 5 5 3 5 5 3 5 5 3 5 3 5 3 5 5 5 5 5 5 5 5 5 5 5 5 5 5 5 5 5 3 5 5 5 5 5 3 5 5 5 5 5 5 5 5 5 5 5 5 5 5 5 5 3 5 5 5 5 3 5 5 5 5 5 5 5 5 5 5 3 5 5 5 5 5 5 5 3 3 5 5 5 5 5 5 5 5 5 5 5 3 5 5 3 5 5 5 5 5 5 5 5 5 3 5 5 5 3 5 5 5 5 5 5 5 5 5 5 5 5 3 5 5 5 5 5 5 5 3 5 5 5 5 3 5 5 5 5 5 5 5 5 5 5 5 5 5 5 5 5 5 5 5 5 5 5 5 5 5 5 5 3 5 5 5 5 5 5 5 5 5 5 5 3 5 5 3 5 5 5 3 5 3 5 5 5 5 5 5 5 5 5 5 5 5 5 5 5 5 5 5 3 5 5 3 5 5 5 5 5 5 5 5 5 5 5 3 5 3 5 5 5 5 5 5 5 5 5 5 5 5 5 5 5 5 5 5 3 5 5 5 5 3 5 5 5 5 5 5 5 5 3 5 5 5 5 5 5 5 5 5 5 5 5 5 5 5 5 5 5 3 5 5 3 5 5 5 5 5 5 5 3 5 5 5 3 5 5 5 5 5 5 5 5 5 5 5 5 5 5 5 5 5 5 5 5 5 5 3 5 5 5 5 5 5 5 5 5 5 5 5 3 3 5 3 5 5 3 5 5 5 5 3 5 5 5 5 5 5 5 5 5 5 5 5 5 5 5 5 5 5 5 5 5 5 5 5 5 5 5 5 5 5 5 5 5 5 5 5 3 5 5 5 5 5 5 5 5 3 5 5 3 5 3 5 5 5 5 5 5 5 5 5 5 5 5 5 5 5 5 5 5 5 5 5 5 5 5 5 5 5 5 5 5 5 5 5 5 5 3 5 5 5 3 5 5 5 5 5 5 5 3 3 5 3 5 5 5 5 5 5 5 5 5 5 5 5 5 5 5 5 5 5 5 5 5 5 5 5 5 5 3 3 5 5 5 5 5 5 5 5 5 5 5 5 5 5 5 5 5 5 5 5 5 5 5 5 5 5 5 5 5 5 5 5 5 5 3 5 5 5 5 5 3 5 5 5 5 5 3 5 5 5 5 5 5 5 5 5 5 3 5 5 5 3 5 3 5 5 5 3 5 5 3 5 3 5 5 5 5 5 5 5 5 3 5 3 5 5 5 5 3 5 3 5 5 3 5 5 5 5 5 5 5 5 5 5 3 5 5 5 3 5 3 5 3 3 5 5 5 5 5 5 5 5 5 5 3 5 3 5 3 5 5 5 5 5 5 5 5 5 3 5 5 5 5 5 5 5 5 3 5 3 5 5 5 5 5 5 5 5 5 5 5 5 5 5 5 3 5 5 5 5 5 5 5 5 5 5 5 5 5 5 5 5 5 5 5 5 5 5 5 5 5 5 5 5 5 5 5 5 
</DataArray>
</Cells>
<PointData Scalars="" Vectors="displacement," Tensors="">
<DataArray type="Float64" Name="displacement" NumberOfComponents="3" format="ascii">
2.5823460352451713e-07 -0.034998071814622958 0 0.0001450706152869714 -0.032046777037808671 0 0.00029831375703404811 -0.029769558441007263 0 2.5823460352451713e-07 -0.034998071814622958 0 7.9306924992135922e-06 -0.033821134039522645 0 0.0001450706152869714 -0.032046777037808671 0 2.5823460352451713e-07 -0.034998071814622958 0 7.9306924992135922e-06 -0.033821134039522645 0 -1.183374042930778e-07 -0.03499790693312084 0 -9.1975174257892796e-05 -0.033786120493472717 0 -6.9760613949077649e-05 -0.034295153297956918 0 0.0001140622492711379 -0.033951406774449355 0 -0.00014822934433032794 -0.032955788426406465 0 -9.1975174257892796e-05 -0.033786120493472717 0 0.0002065258522853918 -0.032997008602000458 0 -9.1975174257892796e-05 -0.033786120493472717 0 0.0002065258522853918 -0.032997008602000458 0 0.0001140622492711379 -0.033951406774449355 0 -1.0481139920885184e-05 -0.033341730262181367 0 -1.1993427104222915e-08 -0.03499938686610729 0 -9.1975174257892796e-05 -0.033786120493472717 0 -6.9760613949077649e-05 -0.034295153297956918 0 -6.9799565031990965e-07 -0.034998536573854225 0 -0.00014822934433032794 -0.032955788426406465 0 -9.1975174257892796e-05 -0.033786120493472717 0 -6.9799565031990965e-07 -0.034998536573854225 0 -6.9760613949077649e-05 -0.034295153297956918 0 -6.9799565031990965e-07 -0.034998536573854225 0 5.340140555237004e-08 -0.034998980973002497 0 0.00029904756364255265 -0.033843196990750474 0 9.5920556979086824e-05 -0.033917921142031029 0 0.00022719781257509478 -0.033871092059023764 0 0.00029904756364255265 -0.033843196990750474 0 0.00029156470164349847 -0.033769961712341763 0 0.00022719781257509478 -0.033871092059023764 0 0.00041672934122447675 -0.032221926656189094 0 4.1349422954098977e-05 -0.032791271275147742 0 0.00029904756364255265 -0.033843196990750474 0 0.00029156470164349847 -0.033769961712341763 0 0.0002065258522853918 -0.032997008602000458 0 0.00029156470164349847 -0.033769961712341763 0 0.0002065258522853918 -0.032997008602000458 0 0.0001140622492711379 -0.033951406774449355 0 -0.00014822934433032794 -0.032955788426406465 0 0.0002065258522853918 -0.032997008602000458 0 0.00081943992657234222 -0.030508658435358067 0 -1.0481139920885184e-05 -0.033341730262181367 0 0.00043402033556091041 -0.031295818836506215 0 0.00081437479955955743 -0.030625016802230638 0 0.0002065258522853918 -0.032997008602000458 0 0.00081943992657234222 -0.030508658435358067 0 0.00081943992657234222 -0.030508658435358067 0 0.00029831375703404811 -0.029769558441007263 0 0.00068523006909464591 -0.029890353250517337 0 0.00081437479955955743 -0.030625016802230638 0 0.00081943992657234222 -0.030508658435358067 0 0.00068523006909464591 -0.029890353250517337 0 0.00043402033556091041 -0.031295818836506215 0 0.00031532144395957117 -0.030047778992067065 0 2.5823460352451713e-07 -0.034998071814622958 0 0.00029831375703404811 -0.029769558441007263 0 3.7484548760668518e-08 -0.026596586594147181 0 3.7484548760668518e-08 -0.026596586594147181 0 0.00044262484754401974 -0.026727697339241664 0 -7.5005816466706558e-05 -0.025757034752328933 0 0.00029831375703404811 -0.029769558441007263 0 3.7484548760668518e-08 -0.026596586594147181 0 0.00044262484754401974 -0.026727697339241664 0 0.00044262484754401974 -0.026727697339241664 0 0.00044196823537409385 -0.024420823348039918 0 -7.5005816466706558e-05 -0.025757034752328933 0 0.00044262484754401974 -0.026727697339241664 0 0.00054252226890561439 -0.027617814777193772 0 0.00061919410595993646 -0.027050403184097249 0 0.00097480001315609964 -0.027510525630782084 0 0.0013953626817197284 -0.028090481242276609 0 0.0013953626817197284 -0.028090481242276609 0 0.00050605546303498551 -0.024149941424462616 0 0.00044262484754401974 -0.026727697339241664 0 0.00061919410595993646 -0.027050403184097249 0 0.00044196823537409385 -0.024420823348039918 0 0.00029831375703404811 -0.029769558441007263 0 0.00044262484754401974 -0.026727697339241664 0 0.00054252226890561439 -0.027617814777193772 0 0.00029831375703404811 -0.029769558441007263 0 0.00068523006909464591 -0.029890353250517337 0 0.0005356180504831041 -0.02885093453384081 0 0.00029831375703404811 -0.029769558441007263 0 0.00054252226890561439 -0.027617814777193772 0 0.0005356180504831041 -0.02885093453384081 0 0.0013953626817197284 -0.028090481242276609 0 -3.9035814784989405e-05 -0.031627946710231843 0 0.00054252226890561439 -0.027617814777193772 0 0.00056189176754141196 -0.027646693908107717 0 0.0005356180504831041 -0.02885093453384081 0 -0.00021424678022562778 -0.033988228270727311 0 -2.1677661941028848e-05 -0.034020229749312722 0 -0.00016976272771208515 -0.033942995821601561 0 -2.1677661941028848e-05 -0.034020229749312722 0 9.5920556979086824e-05 -0.033917921142031029 0 -4.7031091890766979e-05 -0.03393437805727198 0 0.00041672934122447675 -0.032221926656189094 0 -3.9035814784989405e-05 -0.031627946710231843 0 0.00029904756364255265 -0.033843196990750474 0 -2.1677661941028848e-05 -0.034020229749312722 0 9.5920556979086824e-05 -0.033917921142031029 0 0.00081437479955955743 -0.030625016802230638 0 0.00068523006909464591 -0.029890353250517337 0 0.0005356180504831041 -0.02885093453384081 0 9.5920556979086824e-05 -0.033917921142031029 0 -2.1830734527146524e-08 -0.033918827213524287 0 0.00013987656664153064 -0.033920201688848087 0 -4.7031091890766979e-05 -0.03393437805727198 0 -0.000140011994245002 -0.033926932448034457 0 -2.1830734527146524e-08 -0.033918827213524287 0 9.5920556979086824e-05 -0.033917921142031029 0 -4.7031091890766979e-05 -0.03393437805727198 0 -2.1830734527146524e-08 -0.033918827213524287 0 -2.1677661941028848e-05 -0.034020229749312722 0 -4.7031091890766979e-05 -0.03393437805727198 0 -0.00016976272771208515 -0.033942995821601561 0 -0.00016976272771208515 -0.033942995821601561 0 -0.000140011994245002 -0.033926932448034457 0 -0.00024649436553496871 -0.033927034811166296 0 -4.7031091890766979e-05 -0.03393437805727198 0 -0.00016976272771208515 -0.033942995821601561 0 -0.000140011994245002 -0.033926932448034457 0 -0.000140011994245002 -0.033926932448034457 0 -0.00021746167286217365 -0.03392572348361448 0 -0.00013897044252066199 -0.033908353216908611 0 -0.00024649436553496871 -0.033927034811166296 0 -0.00021746167286217365 -0.03392572348361448 0 -0.00028678659630657527 -0.033943779355697888 0 -0.000140011994245002 -0.033926932448034457 0 -0.00024649436553496871 -0.033927034811166296 0 -0.00021746167286217365 -0.03392572348361448 0 -0.00028678659630657527 -0.033943779355697888 0 -0.00024237889665202546 -0.03391893281965553 0 -0.00033975547866253372 -0.033984257104978301 0 -0.00021746167286217365 -0.03392572348361448 0 -0.00028678659630657527 -0.033943779355697888 0 -0.00024237889665202546 -0.03391893281965553 0 -0.00024237889665202546 -0.03391893281965553 0 -0.00013897044252066199 -0.033908353216908611 0 -0.00018631605498398328 -0.033815179991877421 0 -0.00021746167286217365 -0.03392572348361448 0 -0.00024237889665202546 -0.03391893281965553 0 -0.00013897044252066199 -0.033908353216908611 0 -0.00013897044252066199 -0.033908353216908611 0 -1.0387602415847626e-05 -0.033888714084211589 0 -0.00018631605498398328 -0.033815179991877421 0 -1.0387602415847626e-05 -0.033888714084211589 0 -0.00018631605498398328 -0.033815179991877421 0 0.00017303253191241816 -0.033889255119494005 0 -1.0387602415847626e-05 -0.033888714084211589 0 -2.1830734527146524e-08 -0.033918827213524287 0 9.6630255248992517e-05 -0.033913948818567984 0 -2.1830734527146524e-08 -0.033918827213524287 0 0.00013987656664153064 -0.033920201688848087 0 9.6630255248992517e-05 -0.033913948818567984 0 -0.000140011994245002 -0.033926932448034457 0 -0.00013897044252066199 -0.033908353216908611 0 -2.1830734527146524e-08 -0.033918827213524287 0 -0.00013897044252066199 -0.033908353216908611 0 -1.0387602415847626e-05 -0.033888714084211589 0 -2.1830734527146524e-08 -0.033918827213524287 0 0.00044196823537409385 -0.024420823348039918 0 0.00052663813112409504 -0.022307076277502846 0 0.0023006152430126068 -0.022203397707505804 0 -0.00016976272771208515 -0.033942995821601561 0 -0.00024649436553496871 -0.033927034811166296 0 -0.00028754418412470808 -0.033897467384974338 0 -0.00021424678022562778 -0.033988228270727311 0 -0.00016976272771208515 -0.033942995821601561 0 -0.00028754418412470808 -0.033897467384974338 0 0.0032119540920780253 -0.02469363320665291 0 0.00044196823537409385 -0.024420823348039918 0 0.0023006152430126068 -0.022203397707505804 0 0.0013953626817197284 -0.028090481242276609 0 0.0011266882170768231 -0.028318662199939948 0 -0.00028754418412470808 -0.033897467384974338 0 -0.0003288081242702989 -0.033957544223532823 0 -0.00035008899239114959 -0.034038904716471717 0 -0.00024649436553496871 -0.033927034811166296 0 -0.00028754418412470808 -0.033897467384974338 0 -0.0003288081242702989 -0.033957544223532823 0 -0.00024649436553496871 -0.033927034811166296 0 -0.00028678659630657527 -0.033943779355697888 0 -0.0003288081242702989 -0.033957544223532823 0 -0.0003288081242702989 -0.033957544223532823 0 -0.00038795146741969435 -0.034039722645769432 0 -0.00033975547866253372 -0.033984257104978301 0 -0.00028678659630657527 -0.033943779355697888 0 -0.0003288081242702989 -0.033957544223532823 0 -0.00033975547866253372 -0.033984257104978301 0 0.0023006152430126068 -0.022203397707505804 0 0.0010554140629578806 -0.021529614116443836 0 0.0013176969061120276 -0.020626010677380825 0 0.0010554140629578806 -0.021529614116443836 0 0.0013176969061120276 -0.020626010677380825 0 0.00023773412579841213 -0.021138464496532013 0 0.00052663813112409504 -0.022307076277502846 0 0.0023006152430126068 -0.022203397707505804 0 0.0010554140629578806 -0.021529614116443836 0 0.0011266882170768231 -0.028318662199939948 0 -0.00032098160717711904 -0.027511159736106704 0 -0.00037418745672687485 -0.027935486860852451 0 -0.00049936420052582194 -0.027602534914838377 0 -0.0011002311365218181 -0.027622273895418346 0 -0.00035008899239114959 -0.034038904716471717 0 -0.00041166853575065815 -0.034111367494725868 0 -0.00039909664877853078 -0.034075672463259488 0 -0.00035008899239114959 -0.034038904716471717 0 -0.00040287559904916495 -0.034154161894920036 0 -0.00041166853575065815 -0.034111367494725868 0 -0.00035008899239114959 -0.034038904716471717 0 -0.00040287559904916495 -0.034154161894920036 0 -0.00025350257301062903 -0.034357894753948508 0 -0.00040287559904916495 -0.034154161894920036 0 -0.00051258201680361084 -0.034245754449325032 0 -0.00025350257301062903 -0.034357894753948508 0 -0.00032098160717711904 -0.027511159736106704 0 -0.0012087513963923728 -0.032361909590945148 0 -0.00040287559904916495 -0.034154161894920036 0 -0.00045711188922142578 -0.034170812494873873 0 -0.00041166853575065815 -0.034111367494725868 0 -0.00043159565996617221 -0.034363258984408465 0 -0.00053508160543050117 -0.034301969090608599 0 -8.5171813842758621e-05 -0.034705607661989955 0 -0.00045636429866658697 -0.034152779947230497 0 -0.00053508160543050117 -0.034301969090608599 0 -0.00018631605498398328 -0.033815179991877421 0 -0.00048272182462907382 -0.034206029489433895 0 -0.00051258201680361084 -0.034245754449325032 0 -0.00045711188922142578 -0.034170812494873873 0 -0.00040287559904916495 -0.034154161894920036 0 -0.00051258201680361084 -0.034245754449325032 0 -0.00045711188922142578 -0.034170812494873873 0 -0.00048272182462907382 -0.034206029489433895 0 -0.00051258201680361084 -0.034245754449325032 0 -0.00053508160543050117 -0.034301969090608599 0 -0.00048272182462907382 -0.034206029489433895 0 -0.00045636429866658697 -0.034152779947230497 0 -0.00053508160543050117 -0.034301969090608599 0 -0.00048272182462907382 -0.034206029489433895 0 -0.00045636429866658697 -0.034152779947230497 0 -0.00044220955060513884 -0.034135173391435243 0 -0.00045636429866658697 -0.034152779947230497 0 -0.00044220955060513884 -0.034135173391435243 0 -0.00041913921926265037 -0.03408780198675939 0 -0.00044220955060513884 -0.034135173391435243 0 -0.00039909664877853078 -0.034075672463259488 0 -0.00041913921926265037 -0.03408780198675939 0 -0.00048272182462907382 -0.034206029489433895 0 -0.00044220955060513884 -0.034135173391435243 0 -0.00045711188922142578 -0.034170812494873873 0 -0.00044220955060513884 -0.034135173391435243 0 -0.00045711188922142578 -0.034170812494873873 0 -0.00041166853575065815 -0.034111367494725868 0 -0.00044220955060513884 -0.034135173391435243 0 -0.00041166853575065815 -0.034111367494725868 0 -0.00039909664877853078 -0.034075672463259488 0 -0.00035008899239114959 -0.034038904716471717 0 -0.00039909664877853078 -0.034075672463259488 0 -0.00038795146741969435 -0.034039722645769432 0 -0.0003288081242702989 -0.033957544223532823 0 -0.00035008899239114959 -0.034038904716471717 0 -0.00038795146741969435 -0.034039722645769432 0 -0.00039909664877853078 -0.034075672463259488 0 -0.00038795146741969435 -0.034039722645769432 0 -0.00041913921926265037 -0.03408780198675939 0 -0.00045636429866658697 -0.034152779947230497 0 -0.00041913921926265037 -0.03408780198675939 0 -0.00037701176721900313 -0.034033851966764936 0 -0.00038795146741969435 -0.034039722645769432 0 -0.00041913921926265037 -0.03408780198675939 0 -0.00037701176721900313 -0.034033851966764936 0 -0.00038795146741969435 -0.034039722645769432 0 -0.00033975547866253372 -0.033984257104978301 0 -0.00037701176721900313 -0.034033851966764936 0 -0.00043159565996617221 -0.034363258984408465 0 -0.0005731984916593992 -0.034216299889950869 0 -0.00033124097486204673 -0.034401561273776256 0 -0.0005731984916593992 -0.034216299889950869 0 -0.00033124097486204673 -0.034401561273776256 0 -0.00023141839851285105 -0.034353997113617543 0 -0.0005731984916593992 -0.034216299889950869 0 -0.00023141839851285105 -0.034353997113617543 0 -0.00060811725903251704 -0.033932985793525022 0 -0.0005731984916593992 -0.034216299889950869 0 -0.0007830312240104223 -0.034181907246538801 0 -0.00060811725903251704 -0.033932985793525022 0 -0.0005731984916593992 -0.034216299889950869 0 -0.00058128791200730767 -0.034288940713222298 0 -0.0007830312240104223 -0.034181907246538801 0 -0.00058128791200730767 -0.034288940713222298 0 -0.00055745966110853321 -0.034354585634407589 0 -0.0007830312240104223 -0.034181907246538801 0 -0.00043159565996617221 -0.034363258984408465 0 -0.0005731984916593992 -0.034216299889950869 0 -0.00058128791200730767 -0.034288940713222298 0 -0.00043159565996617221 -0.034363258984408465 0 -0.00058128791200730767 -0.034288940713222298 0 -0.00053508160543050117 -0.034301969090608599 0 -0.00058128791200730767 -0.034288940713222298 0 -0.00053508160543050117 -0.034301969090608599 0 -0.00055745966110853321 -0.034354585634407589 0 -0.00051258201680361084 -0.034245754449325032 0 -0.00053508160543050117 -0.034301969090608599 0 -0.00055745966110853321 -0.034354585634407589 0 -0.0007830312240104223 -0.034181907246538801 0 -0.0009982557651268347 -0.034403648280465292 0 -0.0014456152813823312 -0.033795077542992172 0 -0.0012087513963923728 -0.032361909590945148 0 -0.0017006328165332695 -0.033388293741107043 0 -0.00039757570153168583 -0.033592303609136495 0 -0.0012087513963923728 -0.032361909590945148 0 -0.00055745966110853321 -0.034354585634407589 0 -0.0007830312240104223 -0.034181907246538801 0 -0.0009982557651268347 -0.034403648280465292 0 -0.00051258201680361084 -0.034245754449325032 0 -0.00055745966110853321 -0.034354585634407589 0 -0.00025350257301062903 -0.034357894753948508 0 -0.00012682022161405936 -0.034284301493751661 0 0.00012854890220395884 -0.034383033455247826 0 1.9957283627691927e-06 -0.034707634616027411 0 -8.5171813842758621e-05 -0.034705607661989955 0 9.8549088173363408e-05 -0.034870395163676252 0 1.9957283627691927e-06 -0.034707634616027411 0 -8.5171813842758621e-05 -0.034705607661989955 0 -2.1959901320163349e-05 -0.03455237487014267 0 1.9957283627691927e-06 -0.034707634616027411 0 -2.1959901320163349e-05 -0.03455237487014267 0 5.3003826067630031e-05 -0.034610513881235247 0 1.9957283627691927e-06 -0.034707634616027411 0 5.3003826067630031e-05 -0.034610513881235247 0 9.2519556895931265e-05 -0.034668118928886181 0 -0.00043159565996617221 -0.034363258984408465 0 -8.5171813842758621e-05 -0.034705607661989955 0 -0.00033124097486204673 -0.034401561273776256 0 -0.00033975547866253372 -0.033984257104978301 0 -0.00037701176721900313 -0.034033851966764936 0 -0.00018631605498398328 -0.033815179991877421 0 -0.00045636429866658697 -0.034152779947230497 0 -0.00037701176721900313 -0.034033851966764936 0 -0.00018631605498398328 -0.033815179991877421 0 -0.000467975943621367 -0.034291630007439844 0 -0.00012682022161405936 -0.034284301493751661 0 -0.00024237889665202546 -0.03391893281965553 0 -0.00033975547866253372 -0.033984257104978301 0 -0.00018631605498398328 -0.033815179991877421 0 -0.00023141839851285105 -0.034353997113617543 0 -2.6298706165255975e-05 -0.034386700867366199 0 -2.1959901320163349e-05 -0.03455237487014267 0 -8.5171813842758621e-05 -0.034705607661989955 0 -0.00033124097486204673 -0.034401561273776256 0 -0.00023141839851285105 -0.034353997113617543 0 -8.5171813842758621e-05 -0.034705607661989955 0 -0.00023141839851285105 -0.034353997113617543 0 -2.1959901320163349e-05 -0.03455237487014267 0 -0.00023141839851285105 -0.034353997113617543 0 -2.6298706165255975e-05 -0.034386700867366199 0 3.3998584177991322e-05 -0.034219425236128143 0 -2.6298706165255975e-05 -0.034386700867366199 0 5.1189989268458432e-05 -0.034506428385834856 0 0.00012276640037381427 -0.03442288877208137 0 -2.6298706165255975e-05 -0.034386700867366199 0 -2.1959901320163349e-05 -0.03455237487014267 0 5.1189989268458432e-05 -0.034506428385834856 0 5.3003826067630031e-05 -0.034610513881235247 0 5.1189989268458432e-05 -0.034506428385834856 0 0.00011639129073108145 -0.034585956885272551 0 -2.1959901320163349e-05 -0.03455237487014267 0 5.3003826067630031e-05 -0.034610513881235247 0 5.1189989268458432e-05 -0.034506428385834856 0 5.1189989268458432e-05 -0.034506428385834856 0 0.00011639129073108145 -0.034585956885272551 0 0.00012276640037381427 -0.03442288877208137 0 0.00011639129073108145 -0.034585956885272551 0 9.2519556895931265e-05 -0.034668118928886181 0 0.00011408546515246512 -0.034713393090564086 0 5.3003826067630031e-05 -0.034610513881235247 0 0.00011639129073108145 -0.034585956885272551 0 9.2519556895931265e-05 -0.034668118928886181 0 1.9957283627691927e-06 -0.034707634616027411 0 9.2519556895931265e-05 -0.034668118928886181 0 0.00012051422902273707 -0.034746712540383529 0 1.9957283627691927e-06 -0.034707634616027411 0 0.00010827478211319426 -0.034868670222727813 0 9.8549088173363408e-05 -0.034870395163676252 0 2.5355538170168903e-06 -0.034724413273847204 0 0.00010324765744109008 -0.034806805961762693 0 9.2519556895931265e-05 -0.034668118928886181 0 0.00012051422902273707 -0.034746712540383529 0 0.00011408546515246512 -0.034713393090564086 0 0.00012051422902273707 -0.034746712540383529 0 9.5005235768712309e-05 -0.034792161363771223 0 6.5360638376888892e-05 -0.034850719550650715 0 0.00010324765744109008 -0.034806805961762693 0 6.6429160126674572e-05 -0.034904273829607577 0 0.00012051422902273707 -0.034746712540383529 0 9.5005235768712309e-05 -0.034792161363771223 0 0.00011408546515246512 -0.034713393090564086 0 9.5005235768712309e-05 -0.034792161363771223 0 9.1105832427921735e-05 -0.034782310782264292 0 0.00011408546515246512 -0.034713393090564086 0 9.1105832427921735e-05 -0.034782310782264292 0 0.00011408546515246512 -0.034713393090564086 0 0.00011099834846412965 -0.034691288589900025 0 0.00011639129073108145 -0.034585956885272551 0 0.00011408546515246512 -0.034713393090564086 0 0.00011099834846412965 -0.034691288589900025 0 9.1105832427921735e-05 -0.034782310782264292 0 0.00011099834846412965 -0.034691288589900025 0 5.3154264834585353e-05 -0.034841829261442671 0 9.1105832427921735e-05 -0.034782310782264292 0 5.7321242421873546e-05 -0.034866870894171065 0 5.3154264834585353e-05 -0.034841829261442671 0 5.9260361644996904e-08 -0.034999789536672155 0 5.7321242421873546e-05 -0.034866870894171065 0 5.3154264834585353e-05 -0.034841829261442671 0 5.9260361644996904e-08 -0.034999789536672155 0 3.1288233053826294e-05 -0.034928856862535038 0 5.7321242421873546e-05 -0.034866870894171065 0 3.1288233053826294e-05 -0.034928856862535038 0 6.5360638376888892e-05 -0.034850719550650715 0 2.7991712444845618e-08 -0.034999803461965684 0 5.9260361644996904e-08 -0.034999789536672155 0 3.1288233053826294e-05 -0.034928856862535038 0 2.7991712444845618e-08 -0.034999803461965684 0 9.5005235768712309e-05 -0.034792161363771223 0 5.7321242421873546e-05 -0.034866870894171065 0 6.5360638376888892e-05 -0.034850719550650715 0 3.1288233053826294e-05 -0.034928856862535038 0 5.7321242421873546e-05 -0.034866870894171065 0 6.5360638376888892e-05 -0.034850719550650715 0 9.5005235768712309e-05 -0.034792161363771223 0 9.1105832427921735e-05 -0.034782310782264292 0 5.7321242421873546e-05 -0.034866870894171065 0 5.4511661272976888e-05 -0.034955137512602069 0 6.0549413176854261e-05 -0.034935803865964933 0 8.3477747924090798e-05 -0.034905883715558916 0 5.4511661272976888e-05 -0.034955137512602069 0 6.0549413176854261e-05 -0.034935803865964933 0 2.9208477812428677e-05 -0.034970713983165036 0 5.4511661272976888e-05 -0.034955137512602069 0 3.5504268869539543e-08 -0.034999997010926973 0 2.9208477812428677e-05 -0.034970713983165036 0 3.5504268869539543e-08 -0.034999997010926973 0 2.9208477812428677e-05 -0.034970713983165036 0 -4.8175148879771148e-09 -0.034999926000730396 0 6.6429160126674572e-05 -0.034904273829607577 0 3.3514179329005774e-08 -0.034999960289460647 0 6.0549413176854261e-05 -0.034935803865964933 0 2.9208477812428677e-05 -0.034970713983165036 0 -4.8175148879771148e-09 -0.034999926000730396 0 3.2081263609518884e-05 -0.034534139036936057 0 -9.4248361522452659e-08 -0.03499977043475349 0 -6.9760613949077649e-05 -0.034295153297956918 0 5.340140555237004e-08 -0.034998980973002497 0 3.2878802362434725e-05 -0.034190766318275015 0 6.8729990242052865e-05 -0.034106376495024716 0 5.340140555237004e-08 -0.034998980973002497 0 3.2878802362434725e-05 -0.034190766318275015 0 -6.9760613949077649e-05 -0.034295153297956918 0 3.2878802362434725e-05 -0.034190766318275015 0 0.0001140622492711379 -0.033951406774449355 0 6.8729990242052865e-05 -0.034106376495024716 0 3.2878802362434725e-05 -0.034190766318275015 0 0.00013793803727017048 -0.034017306690059403 0 3.2878802362434725e-05 -0.034190766318275015 0 0.0001140622492711379 -0.033951406774449355 0 0.00013793803727017048 -0.034017306690059403 0 0.0001140622492711379 -0.033951406774449355 0 0.00013793803727017048 -0.034017306690059403 0 0.00021050028827562382 -0.033933266933599625 0 0.00013793803727017048 -0.034017306690059403 0 0.00021050028827562382 -0.033933266933599625 0 0.0001677345811049262 -0.03393846918406699 0 0.00029156470164349847 -0.033769961712341763 0 0.0001140622492711379 -0.033951406774449355 0 0.00021050028827562382 -0.033933266933599625 0 0.00021050028827562382 -0.033933266933599625 0 0.00022719781257509478 -0.033871092059023764 0 0.00013987656664153064 -0.033920201688848087 0 0.00029156470164349847 -0.033769961712341763 0 0.00021050028827562382 -0.033933266933599625 0 0.00022719781257509478 -0.033871092059023764 0 9.5920556979086824e-05 -0.033917921142031029 0 0.00022719781257509478 -0.033871092059023764 0 0.00013987656664153064 -0.033920201688848087 0 0.00021050028827562382 -0.033933266933599625 0 0.00013987656664153064 -0.033920201688848087 0 0.0001677345811049262 -0.03393846918406699 0 0.0001677345811049262 -0.03393846918406699 0 9.6630255248992517e-05 -0.033913948818567984 0 0.00017303253191241816 -0.033889255119494005 0 0.00013793803727017048 -0.034017306690059403 0 0.0001677345811049262 -0.03393846918406699 0 0.00017303253191241816 -0.033889255119494005 0 0.00013987656664153064 -0.033920201688848087 0 0.0001677345811049262 -0.03393846918406699 0 9.6630255248992517e-05 -0.033913948818567984 0 -1.0387602415847626e-05 -0.033888714084211589 0 9.6630255248992517e-05 -0.033913948818567984 0 0.00017303253191241816 -0.033889255119494005 0 0.00010827478211319426 -0.034868670222727813 0 9.8549088173363408e-05 -0.034870395163676252 0 8.3477747924090798e-05 -0.034905883715558916 0 3.2081263609518884e-05 -0.034534139036936057 0 0.00012854890220395884 -0.034383033455247826 0 0.00010827478211319426 -0.034868670222727813 0 5.4511661272976888e-05 -0.034955137512602069 0 8.3477747924090798e-05 -0.034905883715558916 0 6.8729990242052865e-05 -0.034106376495024716 0 0.00013793803727017048 -0.034017306690059403 0 0.00017303253191241816 -0.033889255119494005 0 6.0549413176854261e-05 -0.034935803865964933 0 9.8549088173363408e-05 -0.034870395163676252 0 8.3477747924090798e-05 -0.034905883715558916 0 -0.00038620642347069449 -0.018453503126423132 0 -0.00026941366127085245 -0.018954957137585368 0 -0.00039862393359461901 -0.017468401179500003 0 -0.00038620642347069449 -0.018453503126423132 0 -0.00032728495745951668 -0.01900411797730488 0 -0.00026941366127085245 -0.018954957137585368 0 -0.00026941366127085245 -0.018954957137585368 0 -9.181765538290638e-07 -0.020016485950170328 0 -0.00039862393359461901 -0.017468401179500003 0 -0.00026941366127085245 -0.018954957137585368 0 -9.181765538290638e-07 -0.020016485950170328 0 -0.00015352741362679873 -0.019865126582177737 0 -9.181765538290638e-07 -0.020016485950170328 0 1.0302663444048557e-06 -0.021633184206239917 0 -0.00015352741362679873 -0.019865126582177737 0 1.0302663444048557e-06 -0.021633184206239917 0 -0.00015352741362679873 -0.019865126582177737 0 0.00019323253649906354 -0.020156200353397997 0 -0.00015352741362679873 -0.019865126582177737 0 -0.00028515351883639384 -0.019588435039893569 0 -8.718623915282084e-05 -0.02006986574144826 0 -0.00026941366127085245 -0.018954957137585368 0 -0.00015352741362679873 -0.019865126582177737 0 -0.00028515351883639384 -0.019588435039893569 0 -0.00032728495745951668 -0.01900411797730488 0 -0.00026941366127085245 -0.018954957137585368 0 -0.00028515351883639384 -0.019588435039893569 0 3.7484548760668518e-08 -0.026596586594147181 0 2.547199043728194e-07 -0.021641854948652197 0 -0.00033423143297828278 -0.025075710260380229 0 -0.00028017332527558348 -0.020450330421295935 0 -0.00042203873663422157 -0.020527359371433462 0 -8.718623915282084e-05 -0.02006986574144826 0 -0.00028515351883639384 -0.019588435039893569 0 -0.00028017332527558348 -0.020450330421295935 0 -8.718623915282084e-05 -0.02006986574144826 0 -0.00028017332527558348 -0.020450330421295935 0 -0.00042203873663422157 -0.020527359371433462 0 -0.0005425348534424993 -0.021396388256803209 0 -0.00042203873663422157 -0.020527359371433462 0 -8.718623915282084e-05 -0.02006986574144826 0 0.00019323253649906354 -0.020156200353397997 0 -0.00054635429662241921 -0.022693542371442027 0 3.0428583801274703e-06 -0.022232045701076945 0 2.547199043728194e-07 -0.021641854948652197 0 3.370057331050445e-05 -0.024274583015881642 0 -0.00033423143297828278 -0.025075710260380229 0 -0.00015352741362679873 -0.019865126582177737 0 -8.718623915282084e-05 -0.02006986574144826 0 0.00019323253649906354 -0.020156200353397997 0 -1.0138398083052965e-05 -0.021804546080017379 0 3.0428583801274703e-06 -0.022232045701076945 0 -0.00084807777082372097 -0.024963536475914615 0 3.370057331050445e-05 -0.024274583015881642 0 -0.00033423143297828278 -0.025075710260380229 0 3.7484548760668518e-08 -0.026596586594147181 0 -0.00033423143297828278 -0.025075710260380229 0 -7.5005816466706558e-05 -0.025757034752328933 0 -0.00084807777082372097 -0.024963536475914615 0 -0.00033423143297828278 -0.025075710260380229 0 -7.5005816466706558e-05 -0.025757034752328933 0 -0.00054635429662241921 -0.022693542371442027 0 -0.00049083598364205346 -0.022609451212971032 0 -0.00042203873663422157 -0.020527359371433462 0 -0.00054498255365460389 -0.022708309341744465 0 -0.0005425348534424993 -0.021396388256803209 0 -0.00084807777082372097 -0.024963536475914615 0 -7.5005816466706558e-05 -0.025757034752328933 0 -0.00054498255365460389 -0.022708309341744465 0 0.00044196823537409385 -0.024420823348039918 0 -7.5005816466706558e-05 -0.025757034752328933 0 -0.00054498255365460389 -0.022708309341744465 0 0.00052663813112409504 -0.022307076277502846 0 -0.00054498255365460389 -0.022708309341744465 0 -0.00038951083174371581 -0.021562424586443987 0 0.00044196823537409385 -0.024420823348039918 0 0.00052663813112409504 -0.022307076277502846 0 -0.00054498255365460389 -0.022708309341744465 0 -0.00054498255365460389 -0.022708309341744465 0 -0.00038951083174371581 -0.021562424586443987 0 -0.0005425348534424993 -0.021396388256803209 0 -0.00038951083174371581 -0.021562424586443987 0 -0.00054587078762808618 -0.020884529888586304 0 -0.0005425348534424993 -0.021396388256803209 0 -0.00038951083174371581 -0.021562424586443987 0 -0.00033535221623396039 -0.020884711838944681 0 -0.00054587078762808618 -0.020884529888586304 0 -0.00038951083174371581 -0.021562424586443987 0 0.00023773412579841213 -0.021138464496532013 0 -0.00033535221623396039 -0.020884711838944681 0 0.00052663813112409504 -0.022307076277502846 0 -0.00038951083174371581 -0.021562424586443987 0 0.00023773412579841213 -0.021138464496532013 0 0.00052663813112409504 -0.022307076277502846 0 0.0010554140629578806 -0.021529614116443836 0 0.00023773412579841213 -0.021138464496532013 0 0.00023773412579841213 -0.021138464496532013 0 -0.00019284603514885452 -0.020333166122325986 0 -0.00033535221623396039 -0.020884711838944681 0 -0.00032098160717711904 -0.027511159736106704 0 -0.00053139443518264277 -0.023148249792048006 0 0.0013176969061120276 -0.020626010677380825 0 0.00023773412579841213 -0.021138464496532013 0 -0.00019284603514885452 -0.020333166122325986 0 -0.00206789652739267 -0.032475795412402773 0 -0.001888086022593894 -0.032496435614782229 0 -0.0020115495857786956 -0.032649807364621281 0 -0.0012087513963923728 -0.032361909590945148 0 -0.0015419152044558765 -0.030090883385821453 0 -0.00049936420052582194 -0.027602534914838377 0 -0.0011002311365218181 -0.027622273895418346 0 -0.0011620729613670234 -0.027453435862342897 0 -0.0015419152044558765 -0.030090883385821453 0 -0.0016458238155572574 -0.026454382421657503 0 -0.0011002311365218181 -0.027622273895418346 0 -0.0011620729613670234 -0.027453435862342897 0 -0.0018180916301539377 -0.027297384183623177 0 -0.00053139443518264277 -0.023148249792048006 0 -0.0016458238155572574 -0.026454382421657503 0 -0.001888086022593894 -0.032496435614782229 0 -0.0016882075815640215 -0.032476718473521168 0 -0.0018595239063202498 -0.032620234472059126 0 -0.00019284603514885452 -0.020333166122325986 0 -0.00033535221623396039 -0.020884711838944681 0 -0.00050439705105454467 -0.02058648102198081 0 -0.00019284603514885452 -0.020333166122325986 0 -0.00050439705105454467 -0.02058648102198081 0 -0.00062281904587782177 -0.020436570477599267 0 -0.00033535221623396039 -0.020884711838944681 0 -0.00050439705105454467 -0.02058648102198081 0 -0.00054587078762808618 -0.020884529888586304 0 -0.00059741627915434919 -0.020449742894726456 0 -0.00050439705105454467 -0.02058648102198081 0 -0.00054587078762808618 -0.020884529888586304 0 -0.00059741627915434919 -0.020449742894726456 0 -0.00050439705105454467 -0.02058648102198081 0 -0.00062281904587782177 -0.020436570477599267 0 -0.00019284603514885452 -0.020333166122325986 0 -0.00062281904587782177 -0.020436570477599267 0 -0.00064043482072753048 -0.020358952702133993 0 -0.00059741627915434919 -0.020449742894726456 0 -0.00062281904587782177 -0.020436570477599267 0 -0.00061136898096577643 -0.020455961505800951 0 -0.00093744133091743984 -0.021013987566852237 0 -0.0008908510288889699 -0.021422203308294828 0 -0.00223604689861806 -0.026107626835061053 0 -0.0008908510288889699 -0.021422203308294828 0 -0.00062281904587782177 -0.020436570477599267 0 -0.00064043482072753048 -0.020358952702133993 0 -0.00069715684429185062 -0.020401025519264274 0 -0.000665628945797792 -0.020352476739686324 0 -0.00064043482072753048 -0.020358952702133993 0 -0.00069715684429185062 -0.020401025519264274 0 -0.00223604689861806 -0.026107626835061053 0 -0.0016458238155572574 -0.026454382421657503 0 -0.00042588890145224474 -0.019965209975323743 0 -0.0005416837407890906 -0.020162885333629841 0 -0.0005281620232058668 -0.019987365643984747 0 -0.00049360571445949074 -0.019952692167275392 0 -0.00042588890145224474 -0.019965209975323743 0 -0.0005281620232058668 -0.019987365643984747 0 -0.00049360571445949074 -0.019952692167275392 0 -0.0005281620232058668 -0.019987365643984747 0 -0.00053150373231801191 -0.019970973744188183 0 -0.0024722665945286285 -0.022362724420205201 0 -0.0031618590993873919 -0.019970886966107382 0 -0.00082524997019751414 -0.023482426418694174 0 -0.0025661058612047542 -0.023220538555104576 0 -0.0012324393141468827 -0.02412181496030813 0 -0.0024722665945286285 -0.022362724420205201 0 -0.0008908510288889699 -0.021422203308294828 0 -0.00223604689861806 -0.026107626835061053 0 -0.0024722665945286285 -0.022362724420205201 0 -0.0008908510288889699 -0.021422203308294828 0 -0.0003248949194987799 -0.019723633455216494 0 -0.00059741627915434919 -0.020449742894726456 0 -0.00061136898096577643 -0.020455961505800951 0 -0.0005416837407890906 -0.020162885333629841 0 -0.0005416837407890906 -0.020162885333629841 0 -0.00054606020355665158 -0.020605141433414128 0 -0.00040045726786703157 -0.020070997771018374 0 -0.00059741627915434919 -0.020449742894726456 0 -0.0005416837407890906 -0.020162885333629841 0 -0.00054606020355665158 -0.020605141433414128 0 -0.00054606020355665158 -0.020605141433414128 0 -0.00054587078762808618 -0.020884529888586304 0 -0.0005425348534424993 -0.021396388256803209 0 -0.00059741627915434919 -0.020449742894726456 0 -0.00054606020355665158 -0.020605141433414128 0 -0.00054587078762808618 -0.020884529888586304 0 -0.00028017332527558348 -0.020450330421295935 0 -0.00054606020355665158 -0.020605141433414128 0 -0.0005425348534424993 -0.021396388256803209 0 -0.00028017332527558348 -0.020450330421295935 0 -0.00054606020355665158 -0.020605141433414128 0 -0.00040045726786703157 -0.020070997771018374 0 -0.00028515351883639384 -0.019588435039893569 0 -0.00028017332527558348 -0.020450330421295935 0 -0.00040045726786703157 -0.020070997771018374 0 -0.00028515351883639384 -0.019588435039893569 0 -0.00040045726786703157 -0.020070997771018374 0 -0.00042302736004715656 -0.019616419038705042 0 -0.00028515351883639384 -0.019588435039893569 0 -0.00042302736004715656 -0.019616419038705042 0 -0.00037963114040421339 -0.019056558115271065 0 -0.00032728495745951668 -0.01900411797730488 0 -0.00028515351883639384 -0.019588435039893569 0 -0.00037963114040421339 -0.019056558115271065 0 -0.00042302736004715656 -0.019616419038705042 0 -0.00038006427744230833 -0.019141861508369377 0 -0.00037963114040421339 -0.019056558115271065 0 -0.0005416837407890906 -0.020162885333629841 0 -0.00040045726786703157 -0.020070997771018374 0 -0.00042302736004715656 -0.019616419038705042 0 -0.0005416837407890906 -0.020162885333629841 0 -0.00042302736004715656 -0.019616419038705042 0 -0.00048846833408810889 -0.019838898918552228 0 -0.0005416837407890906 -0.020162885333629841 0 -0.0005281620232058668 -0.019987365643984747 0 -0.00048846833408810889 -0.019838898918552228 0 -1.7750246146466139e-05 -0.01913049265555692 0 -0.0031618590993873919 -0.019970886966107382 0 -0.0005281620232058668 -0.019987365643984747 0 -0.00048846833408810889 -0.019838898918552228 0 -0.00053150373231801191 -0.019970973744188183 0 -0.00038521975223955007 -0.018950509942145855 0 -0.00043302604361043903 -0.018893262561197759 0 -0.00040020461921945228 -0.018927783547951264 0 -0.00038521975223955007 -0.018950509942145855 0 -0.0004407260547286165 -0.018927691907106095 0 -0.00043302604361043903 -0.018893262561197759 0 -0.00042302736004715656 -0.019616419038705042 0 -0.00048846833408810889 -0.019838898918552228 0 -0.00038006427744230833 -0.019141861508369377 0 -1.7750246146466139e-05 -0.01913049265555692 0 -0.00055168527311782393 -0.01932889933789177 0 -0.00038521975223955007 -0.018950509942145855 0 -0.00038006427744230833 -0.019141861508369377 0 -0.0004407260547286165 -0.018927691907106095 0 -0.00038006427744230833 -0.019141861508369377 0 -0.00039531724264177506 -0.018857322540793267 0 -0.0004407260547286165 -0.018927691907106095 0 -0.00038006427744230833 -0.019141861508369377 0 -0.00039531724264177506 -0.018857322540793267 0 -0.00025326693485795167 -0.018669660259636543 0 -0.00039531724264177506 -0.018857322540793267 0 -0.0004407260547286165 -0.018927691907106095 0 -0.00055500873360915537 -0.018943041055670646 0 -0.0004407260547286165 -0.018927691907106095 0 -0.00055500873360915537 -0.018943041055670646 0 -0.00043302604361043903 -0.018893262561197759 0 -0.00010073440946967228 -0.018784090949106064 0 -0.00015647687311697069 -0.019203776424601054 0 0.0004909315252294191 -0.018810124991806496 0 -0.00055500873360915537 -0.018943041055670646 0 -0.00010073440946967228 -0.018784090949106064 0 -0.00015647687311697069 -0.019203776424601054 0 -0.00039531724264177506 -0.018857322540793267 0 -0.00055500873360915537 -0.018943041055670646 0 -0.00010073440946967228 -0.018784090949106064 0 -0.00039531724264177506 -0.018857322540793267 0 -0.00010073440946967228 -0.018784090949106064 0 -0.00025326693485795167 -0.018669660259636543 0 -0.00038006427744230833 -0.019141861508369377 0 -0.00025326693485795167 -0.018669660259636543 0 -0.0003252346604453644 -0.018478954759886587 0 -0.00038006427744230833 -0.019141861508369377 0 -0.0003252346604453644 -0.018478954759886587 0 -0.00037963114040421339 -0.019056558115271065 0 -0.00038620642347069449 -0.018453503126423132 0 -0.00032728495745951668 -0.01900411797730488 0 -0.00037963114040421339 -0.019056558115271065 0 -0.00038620642347069449 -0.018453503126423132 0 -0.0003252346604453644 -0.018478954759886587 0 -0.00037963114040421339 -0.019056558115271065 0 -0.00038620642347069449 -0.018453503126423132 0 -0.0003252346604453644 -0.018478954759886587 0 -0.00034728415427949148 -0.017796331580749145 0 0.0011253586246556938 -0.025424391745903878 0 0.0018627547759009254 -0.022138988123182154 0 0.0015026694193375279 -0.025287938215018794 0 0.0020876143366348556 -0.025406500551995129 0 0.0025422386524779159 -0.024937658720261071 0 0.0013552282883148865 -0.0244862398991804 0 0.00059772901047192354 -0.025080620355810872 0 0.0025941467640285764 -0.024840025384265642 0 0.00043095056178736276 -0.024843329103495921 0 0.00041766386966331378 -0.024391970239847748 0 0.00066679788047151807 -0.024425886581726199 0 0.00059772901047192354 -0.025080620355810872 0 0.00043095056178736276 -0.024843329103495921 0 0.00066679788047151807 -0.024425886581726199 0 0.0013552282883148865 -0.0244862398991804 0 0.00059772901047192354 -0.025080620355810872 0 0.00066679788047151807 -0.024425886581726199 0 0.0015026694193375279 -0.025287938215018794 0 0.0017409537837531695 -0.025908144301809637 0 0.0020876143366348556 -0.025406500551995129 0 0.00059772901047192354 -0.025080620355810872 0 0.00043095056178736276 -0.024843329103495921 0 0.00045230237283895602 -0.025649541008463159 0 0.0015026694193375279 -0.025287938215018794 0 0.00045230237283895602 -0.025649541008463159 0 0.0011645594439684186 -0.025789868964341565 0 0.0011253586246556938 -0.025424391745903878 0 0.00043718512118748614 -0.025548798698388109 0 0.00024849452300875098 -0.025051890000839586 0 0.00043095056178736276 -0.024843329103495921 0 0.00045230237283895602 -0.025649541008463159 0 0.00024849452300875098 -0.025051890000839586 0 0.00043095056178736276 -0.024843329103495921 0 0.00041766386966331378 -0.024391970239847748 0 -0.00080081639457170038 -0.028478521068745603 0 -0.00087182255163970393 -0.028457541154719029 0 -0.0007750582285008746 -0.028545874471689676 0 0.00024849452300875098 -0.025051890000839586 0 0.00041766386966331378 -0.024391970239847748 0 0.00038630409089616377 -0.023853594710958426 0 -0.00032320473428760414 -0.026818853681177098 0 -0.00026557307641411821 -0.024950758827651041 0 -0.00081681683520268712 -0.028415438958893497 0 -0.00080081639457170038 -0.028478521068745603 0 -0.00087182255163970393 -0.028457541154719029 0 -0.00026557307641411821 -0.024950758827651041 0 0.0011731926897904322 -0.022141890313718257 0 -0.00033301631340606493 -0.022242136306346152 0 0.00080031043345723824 -0.021775642972821575 0 1.9020113670329609e-05 -0.021540592184214408 0 -0.00026557307641411821 -0.024950758827651041 0 -0.0001978273007556662 -0.0246662791316575 0 -0.0002133366520827945 -0.023284485711257089 0 0.00044882258084593898 -0.023735959700033102 0 0.00073353627895743031 -0.023120598999532258 0 0.00041766386966331378 -0.024391970239847748 0 0.00038630409089616377 -0.023853594710958426 0 0.00044882258084593898 -0.023735959700033102 0 0.00041766386966331378 -0.024391970239847748 0 0.00044882258084593898 -0.023735959700033102 0 0.00066679788047151807 -0.024425886581726199 0 0.0013552282883148865 -0.0244862398991804 0 0.0010481146868191185 -0.023888144512990515 0 0.0018979483104080404 -0.024057476523293667 0 0.0013552282883148865 -0.0244862398991804 0 0.00066679788047151807 -0.024425886581726199 0 0.0010481146868191185 -0.023888144512990515 0 0.00044882258084593898 -0.023735959700033102 0 0.0010481146868191185 -0.023888144512990515 0 0.00073353627895743031 -0.023120598999532258 0 0.00044882258084593898 -0.023735959700033102 0 0.00066679788047151807 -0.024425886581726199 0 0.0010481146868191185 -0.023888144512990515 0 0.0010481146868191185 -0.023888144512990515 0 0.0014414633897702684 -0.023305859270525253 0 0.0018979483104080404 -0.024057476523293667 0 0.0010481146868191185 -0.023888144512990515 0 0.0014414633897702684 -0.023305859270525253 0 0.00073353627895743031 -0.023120598999532258 0 0.0014414633897702684 -0.023305859270525253 0 0.00073353627895743031 -0.023120598999532258 0 0.00080031043345723824 -0.021775642972821575 0 -0.0002133366520827945 -0.023284485711257089 0 0.00073353627895743031 -0.023120598999532258 0 0.00080031043345723824 -0.021775642972821575 0 0.00080031043345723824 -0.021775642972821575 0 1.9020113670329609e-05 -0.021540592184214408 0 8.1985469735312085e-05 -0.021017198570003795 0 0.00080031043345723824 -0.021775642972821575 0 8.1985469735312085e-05 -0.021017198570003795 0 0.00061960132851675439 -0.02071518271572096 0 -0.00033301631340606493 -0.022242136306346152 0 1.9020113670329609e-05 -0.021540592184214408 0 -0.00037696029533071059 -0.021108252698939359 0 1.9020113670329609e-05 -0.021540592184214408 0 8.1985469735312085e-05 -0.021017198570003795 0 -0.00037696029533071059 -0.021108252698939359 0 -5.8577844161275304e-05 -0.020503776108552293 0 0.0003468083768754223 -0.020180024686906481 0 -0.00033746359422944834 -0.019906568043403638 0 -0.00037696029533071059 -0.021108252698939359 0 -5.8577844161275304e-05 -0.020503776108552293 0 -0.00059030463094920179 -0.02050166526679181 0 8.1985469735312085e-05 -0.021017198570003795 0 -0.00037696029533071059 -0.021108252698939359 0 -5.8577844161275304e-05 -0.020503776108552293 0 -5.8577844161275304e-05 -0.020503776108552293 0 -0.00033746359422944834 -0.019906568043403638 0 -0.00059030463094920179 -0.02050166526679181 0 8.1985469735312085e-05 -0.021017198570003795 0 -5.8577844161275304e-05 -0.020503776108552293 0 0.00061960132851675439 -0.02071518271572096 0 -5.8577844161275304e-05 -0.020503776108552293 0 0.00061960132851675439 -0.02071518271572096 0 0.0003468083768754223 -0.020180024686906481 0 0.0003468083768754223 -0.020180024686906481 0 0.00028514316926988833 -0.019580065515715679 0 -0.00033746359422944834 -0.019906568043403638 0 0.00028514316926988833 -0.019580065515715679 0 -0.00015647687311697069 -0.019203776424601054 0 0.0004909315252294191 -0.018810124991806496 0 0.00028514316926988833 -0.019580065515715679 0 -0.00033746359422944834 -0.019906568043403638 0 -0.00015647687311697069 -0.019203776424601054 0 -0.00033746359422944834 -0.019906568043403638 0 -0.00015647687311697069 -0.019203776424601054 0 -0.00068962617616723297 -0.01950656474538761 0 -0.00055500873360915537 -0.018943041055670646 0 -0.0014240549093450332 -0.019465619916181526 0 -0.0021096169946549078 -0.019293432901578304 0 -0.00058798488183747473 -0.018899973267133479 0 -0.0017041338725920444 -0.018791837931646762 0 -0.00055500873360915537 -0.018943041055670646 0 -0.0014240549093450332 -0.019465619916181526 0 -0.00068962617616723297 -0.01950656474538761 0 -0.00055500873360915537 -0.018943041055670646 0 -0.00015647687311697069 -0.019203776424601054 0 -0.00068962617616723297 -0.01950656474538761 0 -0.00033746359422944834 -0.019906568043403638 0 -0.00068962617616723297 -0.01950656474538761 0 -0.0011167739059104974 -0.020175950839951023 0 -0.0014240549093450332 -0.019465619916181526 0 -0.00068962617616723297 -0.01950656474538761 0 -0.0011167739059104974 -0.020175950839951023 0 -0.0014240549093450332 -0.019465619916181526 0 -0.0011167739059104974 -0.020175950839951023 0 -0.0019480026329512779 -0.020046191767081872 0 -0.00026557307641411821 -0.024950758827651041 0 -0.00060268123420227236 -0.025240492015769923 0 -0.00033301631340606493 -0.022242136306346152 0 -0.00094325452069990391 -0.020927360493261171 0 -0.0018683663907225337 -0.020964847523877155 0 -0.0011167739059104974 -0.020175950839951023 0 -0.00094325452069990391 -0.020927360493261171 0 -0.0018683663907225337 -0.020964847523877155 0 -0.0011167739059104974 -0.020175950839951023 0 -0.0018683663907225337 -0.020964847523877155 0 -0.0019480026329512779 -0.020046191767081872 0 -0.0011167739059104974 -0.020175950839951023 0 -0.00059030463094920179 -0.02050166526679181 0 -0.00094325452069990391 -0.020927360493261171 0 -0.00033746359422944834 -0.019906568043403638 0 -0.0011167739059104974 -0.020175950839951023 0 -0.00059030463094920179 -0.02050166526679181 0 -0.00037696029533071059 -0.021108252698939359 0 -0.00059030463094920179 -0.02050166526679181 0 -0.00094325452069990391 -0.020927360493261171 0 -0.00033301631340606493 -0.022242136306346152 0 -0.00037696029533071059 -0.021108252698939359 0 -0.00094325452069990391 -0.020927360493261171 0 -0.0018683663907225337 -0.020964847523877155 0 -0.0019480026329512779 -0.020046191767081872 0 -0.0034586953786981032 -0.019905148432610265 0 -0.0007750582285008746 -0.028545874471689676 0 -0.00068754337729015874 -0.028553073667864859 0 -0.00066788453458335175 -0.028586303215437731 0 -0.00060268123420227236 -0.025240492015769923 0 -0.006045740151935727 -0.022319477731570472 0 -0.0007750582285008746 -0.028545874471689676 0 -0.00068754337729015874 -0.028553073667864859 0 -0.00072229876676732337 -0.02849123790723301 0 -0.0019480026329512779 -0.020046191767081872 0 -0.0021014856682788946 -0.019343416778443819 0 -0.0034586953786981032 -0.019905148432610265 0 -0.0014240549093450332 -0.019465619916181526 0 -0.0019480026329512779 -0.020046191767081872 0 -0.0021014856682788946 -0.019343416778443819 0 -0.0017041338725920444 -0.018791837931646762 0 -0.006045740151935727 -0.022319477731570472 0 -0.0015977632589623258 -0.019054532604109185 0 -0.0017041338725920444 -0.018791837931646762 0 -0.0017041338725920444 -0.018791837931646762 0 -0.0031618590993873919 -0.019970886966107382 0 -0.001994187088396362 -0.018620403560570008 0 -0.0085790217689463467 -0.017431616992210505 0 -0.0061353960025323116 -0.020259567835452019 0 -0.0085790217689463467 -0.017431616992210505 0 -0.0061353960025323116 -0.020259567835452019 0 -0.0095599598009238514 -0.018318007982473523 0 -0.0058396413429481894 -0.025576513856541035 0 -0.0063957019421897977 -0.025212074984863317 0 -0.005671315650913538 -0.025648055872906191 0 -0.006045740151935727 -0.022319477731570472 0 -0.0051476871347448652 -0.022153725327070304 0 0.0026305733688776443 -0.024154197659496376 0 -0.0051476871347448652 -0.022153725327070304 0 -0.0031618590993873919 -0.019970886966107382 0 -0.0051476871347448652 -0.022153725327070304 0 -0.00068754337729015874 -0.028553073667864859 0 -0.00066788453458335175 -0.028586303215437731 0 -0.00060107658373370664 -0.028537293597225389 0 -0.00066788453458335175 -0.028586303215437731 0 -0.00060107658373370664 -0.028537293597225389 0 -0.00053917873911854617 -0.028535571713512804 0 -0.00054997525116792334 -0.028516501378298965 0 -0.00060107658373370664 -0.028537293597225389 0 -0.00053012975489651136 -0.028547970428943598 0 -0.00054997525116792334 -0.028516501378298965 0 -0.00049024037172129835 -0.028513609726184594 0 -0.00053012975489651136 -0.028547970428943598 0 -0.00054997525116792334 -0.028516501378298965 0 -0.00049024037172129835 -0.028513609726184594 0 -0.00060340018336118651 -0.028458272793794738 0 -0.00060107658373370664 -0.028537293597225389 0 -0.00072229876676732337 -0.02849123790723301 0 -0.00060340018336118651 -0.028458272793794738 0 -0.00054997525116792334 -0.028516501378298965 0 -0.00060107658373370664 -0.028537293597225389 0 -0.00060340018336118651 -0.028458272793794738 0 -0.00068754337729015874 -0.028553073667864859 0 -0.00060107658373370664 -0.028537293597225389 0 -0.00072229876676732337 -0.02849123790723301 0 -0.00080081639457170038 -0.028478521068745603 0 -0.0007750582285008746 -0.028545874471689676 0 -0.00072229876676732337 -0.02849123790723301 0 -0.00081681683520268712 -0.028415438958893497 0 -0.00080081639457170038 -0.028478521068745603 0 -0.00072229876676732337 -0.02849123790723301 0 -0.00081681683520268712 -0.028415438958893497 0 -0.00072229876676732337 -0.02849123790723301 0 -0.00072347018180382648 -0.028352899245531093 0 -0.00072229876676732337 -0.02849123790723301 0 -0.00072347018180382648 -0.028352899245531093 0 -0.00060340018336118651 -0.028458272793794738 0 -0.00032320473428760414 -0.026818853681177098 0 -0.00021884809139328796 -0.026911834679981896 0 0.00024849452300875098 -0.025051890000839586 0 0.00030475667143989223 -0.025716482484058653 0 0.00013747332318046551 -0.025945557682048433 0 -0.00081681683520268712 -0.028415438958893497 0 -0.00072347018180382648 -0.028352899245531093 0 -0.00074168164516966867 -0.028043529272992251 0 0.00024849452300875098 -0.025051890000839586 0 0.00030475667143989223 -0.025716482484058653 0 0.00045230237283895602 -0.025649541008463159 0 -0.00072347018180382648 -0.028352899245531093 0 -0.00064438153560888892 -0.028311749010128884 0 -0.00074168164516966867 -0.028043529272992251 0 -0.00064438153560888892 -0.028311749010128884 0 -0.00050012814280050273 -0.02832831379308566 0 -0.00074168164516966867 -0.028043529272992251 0 -0.00050012814280050273 -0.02832831379308566 0 -0.00020836510806104792 -0.027555869589323809 0 -0.00074168164516966867 -0.028043529272992251 0 -0.00050012814280050273 -0.02832831379308566 0 -0.00049024037172129835 -0.028513609726184594 0 -0.00045829059226273878 -0.028569190342666483 0 -0.00050012814280050273 -0.02832831379308566 0 -0.00049024037172129835 -0.028513609726184594 0 -0.00060340018336118651 -0.028458272793794738 0 -0.00072347018180382648 -0.028352899245531093 0 -0.00064438153560888892 -0.028311749010128884 0 -0.00060340018336118651 -0.028458272793794738 0 -0.00064438153560888892 -0.028311749010128884 0 -0.00050012814280050273 -0.02832831379308566 0 -0.00060340018336118651 -0.028458272793794738 0 -0.00050012814280050273 -0.02832831379308566 0 -0.00045829059226273878 -0.028569190342666483 0 -0.00039949753581707432 -0.028866531116569522 0 -0.00049671025689884565 -0.028594393548616984 0 -0.00049346960763661514 -0.02870979636118496 0 -0.00053943731132291073 -0.028654586879768965 0 -0.00049671025689884565 -0.028594393548616984 0 -0.00046332148513428658 -0.028621980343241343 0 -0.00049346960763661514 -0.02870979636118496 0 -0.00049024037172129835 -0.028513609726184594 0 -0.00049671025689884565 -0.028594393548616984 0 -0.00046332148513428658 -0.028621980343241343 0 -0.00049024037172129835 -0.028513609726184594 0 -0.00046332148513428658 -0.028621980343241343 0 -0.00045829059226273878 -0.028569190342666483 0 -0.00046332148513428658 -0.028621980343241343 0 -0.00045829059226273878 -0.028569190342666483 0 -0.00044875343424824211 -0.028700900713265538 0 -0.00045829059226273878 -0.028569190342666483 0 -0.00044875343424824211 -0.028700900713265538 0 -0.00042869983630195927 -0.028756036472244333 0 -0.00044875343424824211 -0.028700900713265538 0 -0.00046828531781999925 -0.028721223915528726 0 -0.00046193001127169472 -0.02878447913814285 0 -0.00046332148513428658 -0.028621980343241343 0 -0.00044875343424824211 -0.028700900713265538 0 -0.00046828531781999925 -0.028721223915528726 0 -0.00046332148513428658 -0.028621980343241343 0 -0.00046828531781999925 -0.028721223915528726 0 -0.00049346960763661514 -0.02870979636118496 0 -0.00046828531781999925 -0.028721223915528726 0 -0.00049346960763661514 -0.02870979636118496 0 -0.00048444898910767576 -0.028799073708572702 0 -0.00046828531781999925 -0.028721223915528726 0 -0.00048444898910767576 -0.028799073708572702 0 -0.00046193001127169472 -0.02878447913814285 0 -0.00049346960763661514 -0.02870979636118496 0 -0.00048444898910767576 -0.028799073708572702 0 -0.0005262801951392669 -0.028842361018314017 0 -0.00049346960763661514 -0.02870979636118496 0 -0.0005262801951392669 -0.028842361018314017 0 -0.00055572689698888691 -0.028769716892758056 0 -0.0005262801951392669 -0.028842361018314017 0 -0.00055572689698888691 -0.028769716892758056 0 -0.00058580816875846971 -0.028881562946927203 0 -0.00055572689698888691 -0.028769716892758056 0 -0.00058580816875846971 -0.028881562946927203 0 -0.00063631048456351904 -0.02884651458257935 0 -0.00058580816875846971 -0.028881562946927203 0 -0.00063631048456351904 -0.02884651458257935 0 -0.00064614718378069825 -0.02898201980211788 0 -0.00055572689698888691 -0.028769716892758056 0 -0.00063631048456351904 -0.02884651458257935 0 -0.00060237557986869044 -0.028716739350198882 0 -0.00049346960763661514 -0.02870979636118496 0 -0.00055572689698888691 -0.028769716892758056 0 -0.00053943731132291073 -0.028654586879768965 0 -0.00055572689698888691 -0.028769716892758056 0 -0.00060237557986869044 -0.028716739350198882 0 -0.00053943731132291073 -0.028654586879768965 0 -0.00053943731132291073 -0.028654586879768965 0 -0.00059855289929060902 -0.028608675975317664 0 -0.00053887696383720686 -0.028574369664935442 0 -0.00059855289929060902 -0.028608675975317664 0 -0.00053887696383720686 -0.028574369664935442 0 -0.00053917873911854617 -0.028535571713512804 0 -0.00060237557986869044 -0.028716739350198882 0 -0.00059855289929060902 -0.028608675975317664 0 -0.00070827696178882001 -0.028742788008274379 0 -0.00060237557986869044 -0.028716739350198882 0 -0.00053943731132291073 -0.028654586879768965 0 -0.00059855289929060902 -0.028608675975317664 0 -0.00053887696383720686 -0.028574369664935442 0 -0.00053012975489651136 -0.028547970428943598 0 -0.00053917873911854617 -0.028535571713512804 0 -0.00049671025689884565 -0.028594393548616984 0 -0.00053943731132291073 -0.028654586879768965 0 -0.00053887696383720686 -0.028574369664935442 0 -0.00049671025689884565 -0.028594393548616984 0 -0.00053887696383720686 -0.028574369664935442 0 -0.00053012975489651136 -0.028547970428943598 0 -0.00049024037172129835 -0.028513609726184594 0 -0.00049671025689884565 -0.028594393548616984 0 -0.00053012975489651136 -0.028547970428943598 0 -0.006045740151935727 -0.022319477731570472 0 -0.0022794404185021919 -0.026925916509356985 0 -0.0049181349731148927 -0.024814966634262435 0 -0.0056670953517221571 -0.02564649131371196 0 -0.0044258569142823431 -0.024735188821686002 0 -0.00060107658373370664 -0.028537293597225389 0 -0.00053012975489651136 -0.028547970428943598 0 -0.00053917873911854617 -0.028535571713512804 0 -0.00223604689861806 -0.026107626835061053 0 -0.0051476871347448652 -0.022153725327070304 0 -0.001699980023230891 -0.024444226792221479 0 -0.0038607999764827543 -0.024110237144260482 0 -0.0049012209557244462 -0.023132926320955444 0 -0.0058396413429481894 -0.025576513856541035 0 -0.0063957019421897977 -0.025212074984863317 0 -0.0049181349731148927 -0.024814966634262435 0 -0.0058396413429481894 -0.025576513856541035 0 -0.0049181349731148927 -0.024814966634262435 0 -0.0056670953517221571 -0.02564649131371196 0 -0.0051476871347448652 -0.022153725327070304 0 -0.0048760318126871852 -0.026016076995729824 0 -0.0046269414329810207 -0.025937276128329155 0 -0.0053691744505245977 -0.025619722587168409 0 -0.0044258569142823431 -0.024735188821686002 0 -0.0030429459305840205 -0.02159274943909174 0 -0.0044299757446164571 -0.021333986175661977 0 -0.0038697119583937633 -0.020823996298222139 0 -0.0024722665945286285 -0.022362724420205201 0 -0.0051476871347448652 -0.022153725327070304 0 -0.0016689196500774535 -0.032480174295612056 0 -0.0016882075815640215 -0.032476718473521168 0 -0.0017827776620043757 -0.032682968786824224 0 -0.0016882075815640215 -0.032476718473521168 0 -0.0017827776620043757 -0.032682968786824224 0 -0.0018595239063202498 -0.032620234472059126 0 -0.0046269414329810207 -0.025937276128329155 0 -0.0041488718667455514 -0.025181063014081444 0 -0.0044258569142823431 -0.024735188821686002 0 -0.00223604689861806 -0.026107626835061053 0 -0.0032709253205285335 -0.029449532541934092 0 -0.00059855289929060902 -0.028608675975317664 0 -0.00053917873911854617 -0.028535571713512804 0 -0.00073687143530207309 -0.02854578462844987 0 -0.0041488718667455514 -0.025181063014081444 0 -0.0044258569142823431 -0.024735188821686002 0 -0.0035384680990141397 -0.024408093814891851 0 -0.0022794404185021919 -0.026925916509356985 0 -0.0022690143603370581 -0.02870547511890089 0 -0.0049181349731148927 -0.024814966634262435 0 -0.0044258569142823431 -0.024735188821686002 0 -0.0035384680990141397 -0.024408093814891851 0 -0.0032709253205285335 -0.029449532541934092 0 -0.0022690143603370581 -0.02870547511890089 0 -0.0017827776620043757 -0.032682968786824224 0 -0.0018960310558856163 -0.032775910997897444 0 -0.0019630512938014692 -0.032740365572170527 0 -0.0018960310558856163 -0.032775910997897444 0 -0.0020049900964495418 -0.032731156947441054 0 -0.0019630512938014692 -0.032740365572170527 0 -0.0017827776620043757 -0.032682968786824224 0 -0.0018960310558856163 -0.032775910997897444 0 -0.0018595239063202498 -0.032620234472059126 0 -0.0018960310558856163 -0.032775910997897444 0 -0.0018595239063202498 -0.032620234472059126 0 -0.0020115495857786956 -0.032649807364621281 0 -0.001888086022593894 -0.032496435614782229 0 -0.0018595239063202498 -0.032620234472059126 0 -0.0020115495857786956 -0.032649807364621281 0 -0.0018960310558856163 -0.032775910997897444 0 -0.0020115495857786956 -0.032649807364621281 0 -0.0018565668150138232 -0.032870118894754941 0 -0.0017006328165332695 -0.033388293741107043 0 -0.001868951141948613 -0.032824726529255159 0 -0.0018960310558856163 -0.032775910997897444 0 -0.0018565668150138232 -0.032870118894754941 0 -0.0020049900964495418 -0.032731156947441054 0 -0.0018565668150138232 -0.032870118894754941 0 -0.0020049900964495418 -0.032731156947441054 0 -0.0019119627131605756 -0.032112357382576347 0 -0.0018565668150138232 -0.032870118894754941 0 -0.0019119627131605756 -0.032112357382576347 0 -0.0014170279680783527 -0.03251630903582458 0 -0.00059855289929060902 -0.028608675975317664 0 -0.00073687143530207309 -0.02854578462844987 0 -0.00070827696178882001 -0.028742788008274379 0 -0.0022690143603370581 -0.02870547511890089 0 -0.001400229099964294 -0.030784497313011663 0 -0.0020049900964495418 -0.032731156947441054 0 -0.0020515930445159708 -0.032762983864630821 0 -0.0019119627131605756 -0.032112357382576347 0 -0.00073687143530207309 -0.02854578462844987 0 -0.00070827696178882001 -0.028742788008274379 0 -0.00094918167691453691 -0.028855888991766176 0 -0.0024392222988892888 -0.029036738607673158 0 -0.0022690143603370581 -0.02870547511890089 0 -0.00070827696178882001 -0.028742788008274379 0 -0.0007503671608660498 -0.029013991742270991 0 -0.00094918167691453691 -0.028855888991766176 0 -0.00063631048456351904 -0.02884651458257935 0 -0.00060237557986869044 -0.028716739350198882 0 -0.00070827696178882001 -0.028742788008274379 0 -0.00063631048456351904 -0.02884651458257935 0 -0.0007503671608660498 -0.029013991742270991 0 -0.00064614718378069825 -0.02898201980211788 0 -0.00063631048456351904 -0.02884651458257935 0 -0.00070827696178882001 -0.028742788008274379 0 -0.0007503671608660498 -0.029013991742270991 0 -0.0007503671608660498 -0.029013991742270991 0 -0.00094918167691453691 -0.028855888991766176 0 -0.00083165175049100949 -0.029340749259096365 0 -0.00094918167691453691 -0.028855888991766176 0 -0.00083165175049100949 -0.029340749259096365 0 -0.0011100715344490239 -0.029412848682837625 0 -0.00083165175049100949 -0.029340749259096365 0 -0.00093414765275696542 -0.029679079848924331 0 -0.0011100715344490239 -0.029412848682837625 0 -0.001400229099964294 -0.030784497313011663 0 -0.0012664488762000881 -0.030243106542637718 0 -0.0007503671608660498 -0.029013991742270991 0 -0.00083165175049100949 -0.029340749259096365 0 -0.00064403088766282711 -0.029139074014083714 0 -0.0007503671608660498 -0.029013991742270991 0 -0.00064614718378069825 -0.02898201980211788 0 -0.00064403088766282711 -0.029139074014083714 0 -0.00083165175049100949 -0.029340749259096365 0 -0.00064403088766282711 -0.029139074014083714 0 -0.00062686216959002285 -0.029478177898849742 0 -0.00083165175049100949 -0.029340749259096365 0 -0.00062686216959002285 -0.029478177898849742 0 -0.00093414765275696542 -0.029679079848924331 0 -0.00093484679540554463 -0.029786457204298296 0 -0.00093673171441090457 -0.029865534722095091 0 -0.00085660786199360736 -0.029843600808017963 0 -0.00062686216959002285 -0.029478177898849742 0 -0.00093414765275696542 -0.029679079848924331 0 -0.00095080881663671022 -0.02994438994099384 0 -0.00087733415349901906 -0.029769192681688865 0 -0.00091070853690236218 -0.02986800813358011 0 -0.00095080881663671022 -0.02994438994099384 0 -0.00096734326619535022 -0.029858114436766378 0 -0.00087750976374696709 -0.029810156668841528 0 -0.00095080881663671022 -0.02994438994099384 0 -0.00096734326619535022 -0.029858114436766378 0 -0.00093673171441090457 -0.029865534722095091 0 -0.00093484679540554463 -0.029786457204298296 0 -0.00095080881663671022 -0.02994438994099384 0 -0.00093673171441090457 -0.029865534722095091 0 -0.00096734326619535022 -0.029858114436766378 0 -0.00093673171441090457 -0.029865534722095091 0 -0.00085660786199360736 -0.029843600808017963 0 0.00017589779910804354 -0.027269298066469085 0 0.00017258257049477442 -0.027000437236420437 0 6.9303487709808246e-05 -0.026862545092527289 0 -0.00056365719758411027 -0.028623097370309564 0 -0.00036547054143239692 -0.028319551284396657 0 -0.00016993706784694586 -0.027386699314899388 0 0.00017589779910804354 -0.027269298066469085 0 6.9303487709808246e-05 -0.026862545092527289 0 0.00017258257049477442 -0.027000437236420437 0 0.00016550500401513247 -0.026887239208769224 0 6.9303487709808246e-05 -0.026862545092527289 0 -0.00016993706784694586 -0.027386699314899388 0 0.00017589779910804354 -0.027269298066469085 0 0.00013958803211867247 -0.027768554564505946 0 0.00017589779910804354 -0.027269298066469085 0 0.00026760716977425363 -0.026970584557414978 0 0.00050988255974197306 -0.027351638128972719 0 0.00017589779910804354 -0.027269298066469085 0 0.00050988255974197306 -0.027351638128972719 0 0.0003676757614040168 -0.027527500404298574 0 0.00017589779910804354 -0.027269298066469085 0 0.00017258257049477442 -0.027000437236420437 0 0.00026760716977425363 -0.026970584557414978 0 0.00017258257049477442 -0.027000437236420437 0 0.00026760716977425363 -0.026970584557414978 0 0.00016550500401513247 -0.026887239208769224 0 0.00026760716977425363 -0.026970584557414978 0 0.0001656206535377466 -0.026826409179975537 0 0.00016550500401513247 -0.026887239208769224 0 0.00016560794436864336 -0.026870933750419539 0 6.9303487709808246e-05 -0.026862545092527289 0 0.00030975789021358007 -0.027069010502855127 0 0.00026760716977425363 -0.026970584557414978 0 0.0001656206535377466 -0.026826409179975537 0 0.00021719866964825716 -0.026773595780967163 0 0.0001656206535377466 -0.026826409179975537 0 0.00016560794436864336 -0.026870933750419539 0 8.784346251362643e-05 -0.026797716850669503 0 0.0001656206535377466 -0.026826409179975537 0 8.784346251362643e-05 -0.026797716850669503 0 0.00021719866964825716 -0.026773595780967163 0 0.00016560794436864336 -0.026870933750419539 0 0.00016550500401513247 -0.026887239208769224 0 6.9303487709808246e-05 -0.026862545092527289 0 0.0001656206535377466 -0.026826409179975537 0 0.00016560794436864336 -0.026870933750419539 0 0.00016550500401513247 -0.026887239208769224 0 -0.00093484679540554463 -0.029786457204298296 0 -0.00085660786199360736 -0.029843600808017963 0 -0.00070003273395992166 -0.029597499548301643 0 -0.00036547054143239692 -0.028319551284396657 0 -0.00029300307932832897 -0.028560720454303686 0 -0.00062686216959002285 -0.029478177898849742 0 -0.00051982894391892703 -0.029062541061310395 0 -0.00039949753581707432 -0.028866531116569522 0 -0.00087733415349901906 -0.029769192681688865 0 -0.00029300307932832897 -0.028560720454303686 0 -0.00064403088766282711 -0.029139074014083714 0 -0.00062686216959002285 -0.029478177898849742 0 -0.00051982894391892703 -0.029062541061310395 0 -0.00064403088766282711 -0.029139074014083714 0 -0.00051982894391892703 -0.029062541061310395 0 -0.00057368871624124355 -0.028974821743263272 0 -0.00064614718378069825 -0.02898201980211788 0 -0.00064403088766282711 -0.029139074014083714 0 -0.00057368871624124355 -0.028974821743263272 0 -0.0005262801951392669 -0.028842361018314017 0 -0.00058580816875846971 -0.028881562946927203 0 -0.00057368871624124355 -0.028974821743263272 0 -0.00058580816875846971 -0.028881562946927203 0 -0.00064614718378069825 -0.02898201980211788 0 -0.00057368871624124355 -0.028974821743263272 0 -0.00051982894391892703 -0.029062541061310395 0 -0.00047873417814806631 -0.028947101565179306 0 -0.00045101375716158798 -0.028918304199914632 0 -0.00051982894391892703 -0.029062541061310395 0 -0.00047873417814806631 -0.028947101565179306 0 -0.00049994014586276917 -0.028920489116057577 0 -0.00047873417814806631 -0.028947101565179306 0 -0.00049994014586276917 -0.028920489116057577 0 -0.00045101375716158798 -0.028918304199914632 0 -0.00051982894391892703 -0.029062541061310395 0 -0.00057368871624124355 -0.028974821743263272 0 -0.00049994014586276917 -0.028920489116057577 0 -0.0005262801951392669 -0.028842361018314017 0 -0.00057368871624124355 -0.028974821743263272 0 -0.00049994014586276917 -0.028920489116057577 0 -0.00048444898910767576 -0.028799073708572702 0 -0.00049994014586276917 -0.028920489116057577 0 -0.0004681198980654804 -0.028852656998243888 0 -0.00048444898910767576 -0.028799073708572702 0 -0.0005262801951392669 -0.028842361018314017 0 -0.00049994014586276917 -0.028920489116057577 0 -0.00048444898910767576 -0.028799073708572702 0 -0.00046193001127169472 -0.02878447913814285 0 -0.0004681198980654804 -0.028852656998243888 0 -0.00051982894391892703 -0.029062541061310395 0 -0.00045101375716158798 -0.028918304199914632 0 -0.00039949753581707432 -0.028866531116569522 0 -0.00040304621528222548 -0.028193536312295868 0 -0.00029300307932832897 -0.028560720454303686 0 -0.00046193001127169472 -0.02878447913814285 0 -0.0004681198980654804 -0.028852656998243888 0 -0.00044784757364565872 -0.028850935075890982 0 -0.00046193001127169472 -0.02878447913814285 0 -0.00044784757364565872 -0.028850935075890982 0 -0.00043847560577578318 -0.028813867662049363 0 -0.00049994014586276917 -0.028920489116057577 0 -0.0004681198980654804 -0.028852656998243888 0 -0.00045101375716158798 -0.028918304199914632 0 -0.00044784757364565872 -0.028850935075890982 0 -0.00045101375716158798 -0.028918304199914632 0 -0.00043064948122140324 -0.028849463606045823 0 -0.0004681198980654804 -0.028852656998243888 0 -0.00044784757364565872 -0.028850935075890982 0 -0.00045101375716158798 -0.028918304199914632 0 -0.00045101375716158798 -0.028918304199914632 0 -0.00039949753581707432 -0.028866531116569522 0 -0.00043064948122140324 -0.028849463606045823 0 -0.00039949753581707432 -0.028866531116569522 0 -0.00041401376426938803 -0.028825903484489334 0 -0.00042869983630195927 -0.028756036472244333 0 -0.00043064948122140324 -0.028849463606045823 0 -0.00041401376426938803 -0.028825903484489334 0 -0.00043847560577578318 -0.028813867662049363 0 -0.00044784757364565872 -0.028850935075890982 0 -0.00043064948122140324 -0.028849463606045823 0 -0.00043847560577578318 -0.028813867662049363 0 -0.00039949753581707432 -0.028866531116569522 0 -0.00043064948122140324 -0.028849463606045823 0 -0.00041401376426938803 -0.028825903484489334 0 -0.00044875343424824211 -0.028700900713265538 0 -0.00043847560577578318 -0.028813867662049363 0 -0.00042869983630195927 -0.028756036472244333 0 -0.00044875343424824211 -0.028700900713265538 0 -0.00046193001127169472 -0.02878447913814285 0 -0.00043847560577578318 -0.028813867662049363 0 -0.00041401376426938803 -0.028825903484489334 0 -0.00043847560577578318 -0.028813867662049363 0 -0.00042869983630195927 -0.028756036472244333 0 -0.00045829059226273878 -0.028569190342666483 0 -0.00039949753581707432 -0.028866531116569522 0 -0.00042869983630195927 -0.028756036472244333 0 0.00030975789021358007 -0.027069010502855127 0 8.784346251362643e-05 -0.026797716850669503 0 -0.00020836510806104792 -0.027555869589323809 0 0.00016560794436864336 -0.026870933750419539 0 0.00030975789021358007 -0.027069010502855127 0 8.784346251362643e-05 -0.026797716850669503 0 -0.00050012814280050273 -0.02832831379308566 0 0.00030975789021358007 -0.027069010502855127 0 -0.00020836510806104792 -0.027555869589323809 0 8.784346251362643e-05 -0.026797716850669503 0 0.00021925956048501769 -0.026501819580032601 0 0.00013747332318046551 -0.025945557682048433 0 9.1416374380505093e-05 -0.026776661161852771 0 -0.00021884809139328796 -0.026911834679981896 0 8.784346251362643e-05 -0.026797716850669503 0 -0.00020836510806104792 -0.027555869589323809 0 -0.00074168164516966867 -0.028043529272992251 0 0.00021925956048501769 -0.026501819580032601 0 0.00013747332318046551 -0.025945557682048433 0 0.00036699697814612586 -0.026208084094087807 0 0.00030475667143989223 -0.025716482484058653 0 0.00013747332318046551 -0.025945557682048433 0 0.00036699697814612586 -0.026208084094087807 0 0.00036699697814612586 -0.026208084094087807 0 0.00064071124221386753 -0.026567995525254288 0 0.00095491264266532507 -0.026300034629741106 0 0.00045230237283895602 -0.025649541008463159 0 0.00036699697814612586 -0.026208084094087807 0 0.00095491264266532507 -0.026300034629741106 0 0.00030475667143989223 -0.025716482484058653 0 0.00045230237283895602 -0.025649541008463159 0 0.00036699697814612586 -0.026208084094087807 0 0.00021925956048501769 -0.026501819580032601 0 0.00036699697814612586 -0.026208084094087807 0 0.00041601592256923709 -0.026680988573502429 0 0.00036699697814612586 -0.026208084094087807 0 0.00064071124221386753 -0.026567995525254288 0 0.00041601592256923709 -0.026680988573502429 0 0.00064071124221386753 -0.026567995525254288 0 0.00061156290886195234 -0.026865327176236395 0 0.00090158856319265423 -0.026758137031424236 0 0.00064071124221386753 -0.026567995525254288 0 0.00041601592256923709 -0.026680988573502429 0 0.00061156290886195234 -0.026865327176236395 0 0.00041601592256923709 -0.026680988573502429 0 0.00021719866964825716 -0.026773595780967163 0 0.00047475201341050659 -0.027003501847294831 0 0.00021925956048501769 -0.026501819580032601 0 0.00041601592256923709 -0.026680988573502429 0 0.00021719866964825716 -0.026773595780967163 0 8.784346251362643e-05 -0.026797716850669503 0 0.00021925956048501769 -0.026501819580032601 0 0.00021719866964825716 -0.026773595780967163 0 0.00026760716977425363 -0.026970584557414978 0 0.00047475201341050659 -0.027003501847294831 0 0.00050988255974197306 -0.027351638128972719 0 0.00026760716977425363 -0.026970584557414978 0 0.00021719866964825716 -0.026773595780967163 0 0.00047475201341050659 -0.027003501847294831 0 0.00047475201341050659 -0.027003501847294831 0 0.00050988255974197306 -0.027351638128972719 0 0.00074973893334136037 -0.027144525417887828 0 0.00050988255974197306 -0.027351638128972719 0 0.00074973893334136037 -0.027144525417887828 0 0.00082695294099483039 -0.027529555286504179 0 0.00074973893334136037 -0.027144525417887828 0 0.00061156290886195234 -0.026865327176236395 0 0.00090158856319265423 -0.026758137031424236 0 0.00047475201341050659 -0.027003501847294831 0 0.00074973893334136037 -0.027144525417887828 0 0.00061156290886195234 -0.026865327176236395 0 0.00041601592256923709 -0.026680988573502429 0 0.00047475201341050659 -0.027003501847294831 0 0.00061156290886195234 -0.026865327176236395 0 0.0010472672648350601 -0.027039409068135983 0 0.0013486563838942002 -0.026822978649761513 0 0.00090158856319265423 -0.026758137031424236 0 0.00074973893334136037 -0.027144525417887828 0 0.0010472672648350601 -0.027039409068135983 0 0.00090158856319265423 -0.026758137031424236 0 0.00074973893334136037 -0.027144525417887828 0 0.0010228677493826866 -0.027366011240995625 0 0.00082695294099483039 -0.027529555286504179 0 0.00073752433017801886 -0.027135016399225456 0 0.0011462499631972715 -0.027424782192288302 0 0.00074973893334136037 -0.027144525417887828 0 0.0010472672648350601 -0.027039409068135983 0 0.0010400312529688276 -0.027313990652898978 0 0.0010472672648350601 -0.027039409068135983 0 0.0010400312529688276 -0.027313990652898978 0 0.0013141795644551371 -0.027150318631878206 0 0.0010400312529688276 -0.027313990652898978 0 0.0013141795644551371 -0.027150318631878206 0 0.001369447081095357 -0.027535853052277282 0 0.0013141795644551371 -0.027150318631878206 0 0.001369447081095357 -0.027535853052277282 0 0.0018248315202610834 -0.027047733662917503 0 0.0011462499631972715 -0.027424782192288302 0 0.0010375103168220906 -0.0263962274829397 0 0.0013141795644551371 -0.027150318631878206 0 0.0013486563838942002 -0.026822978649761513 0 0.0018248315202610834 -0.027047733662917503 0 0.0010472672648350601 -0.027039409068135983 0 0.0013141795644551371 -0.027150318631878206 0 0.0013486563838942002 -0.026822978649761513 0 0.0013486563838942002 -0.026822978649761513 0 0.0012945125398974157 -0.026463877695869741 0 0.00090158856319265423 -0.026758137031424236 0 0.0012945125398974157 -0.026463877695869741 0 0.0013867579133113022 -0.026064395440570504 0 0.0018282641300553918 -0.026476140182715185 0 0.0013486563838942002 -0.026822978649761513 0 0.0012945125398974157 -0.026463877695869741 0 0.0018282641300553918 -0.026476140182715185 0 0.0012945125398974157 -0.026463877695869741 0 0.00090158856319265423 -0.026758137031424236 0 0.00095491264266532507 -0.026300034629741106 0 0.00064071124221386753 -0.026567995525254288 0 0.00090158856319265423 -0.026758137031424236 0 0.00095491264266532507 -0.026300034629741106 0 0.00095491264266532507 -0.026300034629741106 0 0.0011645594439684186 -0.025789868964341565 0 0.0017409537837531695 -0.025908144301809637 0 0.00045230237283895602 -0.025649541008463159 0 0.00095491264266532507 -0.026300034629741106 0 0.0011645594439684186 -0.025789868964341565 0 0.0010609650731289283 -0.026240391991675775 0 0.0014478716593507076 -0.026077414360962135 0 0.0012945125398974157 -0.026463877695869741 0 0.00095491264266532507 -0.026300034629741106 0 0.0013867579133113022 -0.026064395440570504 0 0.0015026694193375279 -0.025287938215018794 0 0.0011645594439684186 -0.025789868964341565 0 0.0017409537837531695 -0.025908144301809637 0 9.6063970523616393e-05 -0.034728237545782296 0 7.714728100798557e-05 -0.034936432748843629 0 1.9172220897017524e-05 -0.034909133417108697 0 9.6063970523616393e-05 -0.034728237545782296 0 0.00018522305799815764 -0.034870943351530077 0 0.000225338674725002 -0.034442685828457012 0 0.0004687600862637368 -0.034004150247461444 0 0.00026513278128235506 -0.034418196724001808 0 0.00018522305799815764 -0.034870943351530077 0 7.714728100798557e-05 -0.034936432748843629 0 8.6764773506031631e-05 -0.034970304050221626 0 0.00078984970897950186 -0.033176449706969618 0 -0.00010150280167761874 -0.032390644704963327 0 0.0011117047074578903 -0.031453007017195236 0 9.6063970523616393e-05 -0.034728237545782296 0 0.00018522305799815764 -0.034870943351530077 0 7.714728100798557e-05 -0.034936432748843629 0 7.714728100798557e-05 -0.034936432748843629 0 1.9172220897017524e-05 -0.034909133417108697 0 2.8697996620708608e-05 -0.034972548798227546 0 -8.4258559058963312e-09 -0.034999913330315734 0 1.9172220897017524e-05 -0.034909133417108697 0 2.8697996620708608e-05 -0.034972548798227546 0 -8.4258559058963312e-09 -0.034999913330315734 0 1.9172220897017524e-05 -0.034909133417108697 0 8.6996693316150252e-10 -0.03499979748130904 0 9.6063970523616393e-05 -0.034728237545782296 0 1.9172220897017524e-05 -0.034909133417108697 0 3.7558053839501402e-05 -0.034852506072680998 0 1.9172220897017524e-05 -0.034909133417108697 0 3.7558053839501402e-05 -0.034852506072680998 0 8.6996693316150252e-10 -0.03499979748130904 0 3.7558053839501402e-05 -0.034852506072680998 0 8.6996693316150252e-10 -0.03499979748130904 0 5.3154264834585353e-05 -0.034841829261442671 0 5.9260361644996904e-08 -0.034999789536672155 0 8.6996693316150252e-10 -0.03499979748130904 0 5.3154264834585353e-05 -0.034841829261442671 0 3.7558053839501402e-05 -0.034852506072680998 0 5.3154264834585353e-05 -0.034841829261442671 0 8.1205930699920404e-05 -0.03472533879235995 0 0.00011099834846412965 -0.034691288589900025 0 5.3154264834585353e-05 -0.034841829261442671 0 8.1205930699920404e-05 -0.03472533879235995 0 0.00011099834846412965 -0.034691288589900025 0 8.1205930699920404e-05 -0.03472533879235995 0 0.00014516197766294126 -0.034553281895319476 0 9.6063970523616393e-05 -0.034728237545782296 0 8.1205930699920404e-05 -0.03472533879235995 0 0.00014516197766294126 -0.034553281895319476 0 9.6063970523616393e-05 -0.034728237545782296 0 3.7558053839501402e-05 -0.034852506072680998 0 8.1205930699920404e-05 -0.03472533879235995 0 9.6063970523616393e-05 -0.034728237545782296 0 0.000225338674725002 -0.034442685828457012 0 0.00014516197766294126 -0.034553281895319476 0 0.000225338674725002 -0.034442685828457012 0 0.00014516197766294126 -0.034553281895319476 0 0.00012276640037381427 -0.03442288877208137 0 0.00011639129073108145 -0.034585956885272551 0 0.00011099834846412965 -0.034691288589900025 0 0.00014516197766294126 -0.034553281895319476 0 0.00011639129073108145 -0.034585956885272551 0 0.00014516197766294126 -0.034553281895319476 0 0.00012276640037381427 -0.03442288877208137 0 0.000225338674725002 -0.034442685828457012 0 0.00012276640037381427 -0.03442288877208137 0 3.3998584177991322e-05 -0.034219425236128143 0 -2.6298706165255975e-05 -0.034386700867366199 0 0.00012276640037381427 -0.03442288877208137 0 3.3998584177991322e-05 -0.034219425236128143 0 3.3998584177991322e-05 -0.034219425236128143 0 -0.00041012520543066636 -0.033215482447758383 0 -0.00060811725903251704 -0.033932985793525022 0 -0.00023141839851285105 -0.034353997113617543 0 3.3998584177991322e-05 -0.034219425236128143 0 -0.00060811725903251704 -0.033932985793525022 0 3.3998584177991322e-05 -0.034219425236128143 0 -0.00041012520543066636 -0.033215482447758383 0 0.00035671613764411342 -0.032831938307321049 0 0.000225338674725002 -0.034442685828457012 0 3.3998584177991322e-05 -0.034219425236128143 0 -0.00018414644249079828 -0.033978067478932686 0 3.4030325755052915e-05 -0.034160202790553852 0 8.1852412330062063e-05 -0.033390511658862802 0 -0.0014456152813823312 -0.033795077542992172 0 -0.00060811725903251704 -0.033932985793525022 0 -0.0010865571849596489 -0.033174908469905784 0 -0.0007830312240104223 -0.034181907246538801 0 -0.0014456152813823312 -0.033795077542992172 0 -0.00060811725903251704 -0.033932985793525022 0 -0.00041012520543066636 -0.033215482447758383 0 -0.0010865571849596489 -0.033174908469905784 0 -0.00089008147212359871 -0.032588490090709424 0 -0.00041012520543066636 -0.033215482447758383 0 -0.00060811725903251704 -0.033932985793525022 0 -0.0010865571849596489 -0.033174908469905784 0 -0.0014456152813823312 -0.033795077542992172 0 -0.0018565668150138232 -0.032870118894754941 0 -0.0010865571849596489 -0.033174908469905784 0 -0.0018565668150138232 -0.032870118894754941 0 -0.0010865571849596489 -0.033174908469905784 0 -0.0014170279680783527 -0.03251630903582458 0 -0.0014170279680783527 -0.03251630903582458 0 -0.00089008147212359871 -0.032588490090709424 0 -0.0011674107792498051 -0.031939436233161748 0 -0.0010865571849596489 -0.033174908469905784 0 -0.0014170279680783527 -0.03251630903582458 0 -0.00089008147212359871 -0.032588490090709424 0 -0.00041012520543066636 -0.033215482447758383 0 -0.00089008147212359871 -0.032588490090709424 0 -0.00025347158003421761 -0.032176486084338853 0 -0.0011674107792498051 -0.031939436233161748 0 -0.00025347158003421761 -0.032176486084338853 0 -0.00050473119524239063 -0.031284390017906373 0 -0.00089008147212359871 -0.032588490090709424 0 -0.0011674107792498051 -0.031939436233161748 0 -0.00025347158003421761 -0.032176486084338853 0 -0.0019119627131605756 -0.032112357382576347 0 -0.0014170279680783527 -0.03251630903582458 0 -0.0011674107792498051 -0.031939436233161748 0 -0.0019119627131605756 -0.032112357382576347 0 -0.0011674107792498051 -0.031939436233161748 0 -0.0015321898458853078 -0.031209157695975216 0 0.00078984970897950186 -0.033176449706969618 0 0.000225338674725002 -0.034442685828457012 0 -0.00018414644249079828 -0.033978067478932686 0 -0.00041012520543066636 -0.033215482447758383 0 0.00035671613764411342 -0.032831938307321049 0 -0.00025347158003421761 -0.032176486084338853 0 0.00035671613764411342 -0.032831938307321049 0 -0.00025347158003421761 -0.032176486084338853 0 0.00038320398257006257 -0.031646551406180855 0 -0.00025347158003421761 -0.032176486084338853 0 0.00038320398257006257 -0.031646551406180855 0 -0.00050473119524239063 -0.031284390017906373 0 0.00078984970897950186 -0.033176449706969618 0 -0.00018414644249079828 -0.033978067478932686 0 -0.00010150280167761874 -0.032390644704963327 0 8.1852412330062063e-05 -0.033390511658862802 0 0.00014969357295842832 -0.032020171017886581 0 0.00038320398257006257 -0.031646551406180855 0 2.2558863060898732e-05 -0.03112078249502025 0 0.00027850052176913473 -0.030771725139585333 0 -0.00010150280167761874 -0.032390644704963327 0 0.00027850052176913473 -0.030771725139585333 0 0.0011117047074578903 -0.031453007017195236 0 0.00014969357295842832 -0.032020171017886581 0 0.00026964768566084714 -0.030856784129058772 0 0.00038320398257006257 -0.031646551406180855 0 2.2558863060898732e-05 -0.03112078249502025 0 -0.00050473119524239063 -0.031284390017906373 0 2.2558863060898732e-05 -0.03112078249502025 0 -0.00050473119524239063 -0.031284390017906373 0 -0.0002960831708071218 -0.03040917259750554 0 2.2558863060898732e-05 -0.03112078249502025 0 0.00027850052176913473 -0.030771725139585333 0 -0.0002960831708071218 -0.03040917259750554 0 -0.0011674107792498051 -0.031939436233161748 0 -0.0015321898458853078 -0.031209157695975216 0 -0.00050473119524239063 -0.031284390017906373 0 -0.0015321898458853078 -0.031209157695975216 0 -0.00050473119524239063 -0.031284390017906373 0 -0.00097397013789175054 -0.030194368345889823 0 -0.00050473119524239063 -0.031284390017906373 0 -0.00097397013789175054 -0.030194368345889823 0 -0.0002960831708071218 -0.03040917259750554 0 -0.0012664488762000881 -0.030243106542637718 0 -0.0010196455551635206 -0.030175623037742509 0 -0.00093414765275696542 -0.029679079848924331 0 -0.00095080881663671022 -0.02994438994099384 0 -0.00097397013789175054 -0.030194368345889823 0 -0.00093414765275696542 -0.029679079848924331 0 -0.0011100715344490239 -0.029412848682837625 0 -0.00097397013789175054 -0.030194368345889823 0 -0.00095080881663671022 -0.02994438994099384 0 -0.00097397013789175054 -0.030194368345889823 0 -0.00080313032271340937 -0.029962318182125268 0 -0.00097397013789175054 -0.030194368345889823 0 -0.00080313032271340937 -0.029962318182125268 0 -0.0002960831708071218 -0.03040917259750554 0 -0.00080313032271340937 -0.029962318182125268 0 -0.00032123447386094679 -0.029835095549582472 0 -0.00075392141205543768 -0.029726668656236185 0 -0.00095080881663671022 -0.02994438994099384 0 -0.00080313032271340937 -0.029962318182125268 0 -0.00087750976374696709 -0.029810156668841528 0 -0.00080313032271340937 -0.029962318182125268 0 -0.00087750976374696709 -0.029810156668841528 0 -0.00075392141205543768 -0.029726668656236185 0 0.00027850052176913473 -0.030771725139585333 0 0.000140047182299986 -0.030156210032942995 0 -0.0002960831708071218 -0.03040917259750554 0 -0.00080313032271340937 -0.029962318182125268 0 -0.0002960831708071218 -0.03040917259750554 0 -0.00032123447386094679 -0.029835095549582472 0 0.000140047182299986 -0.030156210032942995 0 -0.0002960831708071218 -0.03040917259750554 0 -0.00032123447386094679 -0.029835095549582472 0 0.000140047182299986 -0.030156210032942995 0 -0.00032123447386094679 -0.029835095549582472 0 0.00045948267721978875 -0.029694967876084905 0 0.00045948267721978875 -0.029694967876084905 0 0.0010978890906382472 -0.030269014140816713 0 0.0011290647530941323 -0.029475608482001259 0 0.000140047182299986 -0.030156210032942995 0 0.00045948267721978875 -0.029694967876084905 0 0.0010978890906382472 -0.030269014140816713 0 0.00055936913645804342 -0.032600902730268562 0 0.00071965192465063088 -0.032374357163814739 0 4.5439394671220039e-05 -0.034971037123737309 0 1.8204236072024072e-05 -0.034984035501905146 0 2.5219485410271969e-05 -0.034964450864416727 0 0.00027850052176913473 -0.030771725139585333 0 0.000140047182299986 -0.030156210032942995 0 0.0010978890906382472 -0.030269014140816713 0 0.00055936913645804342 -0.032600902730268562 0 0.00059322237038337796 -0.033227862904478829 0 0.00027850052176913473 -0.030771725139585333 0 0.0010978890906382472 -0.030269014140816713 0 0.0011117047074578903 -0.031453007017195236 0 8.6764773506031631e-05 -0.034970304050221626 0 2.8697996620708608e-05 -0.034972548798227546 0 2.5295317237326324e-05 -0.034987418862026734 0 4.5439394671220039e-05 -0.034971037123737309 0 8.6764773506031631e-05 -0.034970304050221626 0 2.5295317237326324e-05 -0.034987418862026734 0 7.714728100798557e-05 -0.034936432748843629 0 8.6764773506031631e-05 -0.034970304050221626 0 2.8697996620708608e-05 -0.034972548798227546 0 0.0004687600862637368 -0.034004150247461444 0 0.00059322237038337796 -0.033227862904478829 0 -8.4258559058963312e-09 -0.034999913330315734 0 2.8697996620708608e-05 -0.034972548798227546 0 1.906457097719128e-08 -0.034999989644948486 0 2.8697996620708608e-05 -0.034972548798227546 0 1.906457097719128e-08 -0.034999989644948486 0 2.5295317237326324e-05 -0.034987418862026734 0 1.906457097719128e-08 -0.034999989644948486 0 2.5295317237326324e-05 -0.034987418862026734 0 1.5026321586569103e-08 -0.034999981821906091 0 4.5439394671220039e-05 -0.034971037123737309 0 2.5295317237326324e-05 -0.034987418862026734 0 1.8204236072024072e-05 -0.034984035501905146 0 2.5295317237326324e-05 -0.034987418862026734 0 1.8204236072024072e-05 -0.034984035501905146 0 1.5026321586569103e-08 -0.034999981821906091 0 1.8204236072024072e-05 -0.034984035501905146 0 1.3613471938171219e-05 -0.034980006622874531 0 1.1657729003796334e-08 -0.034999967763560132 0 1.8204236072024072e-05 -0.034984035501905146 0 1.5026321586569103e-08 -0.034999981821906091 0 1.1657729003796334e-08 -0.034999967763560132 0 1.8204236072024072e-05 -0.034984035501905146 0 1.3613471938171219e-05 -0.034980006622874531 0 2.5219485410271969e-05 -0.034964450864416727 0 1.3613471938171219e-05 -0.034980006622874531 0 2.5219485410271969e-05 -0.034964450864416727 0 1.6225113494643325e-05 -0.034960723423831365 0 1.3613471938171219e-05 -0.034980006622874531 0 1.2434181001957683e-05 -0.034975256502367699 0 1.6225113494643325e-05 -0.034960723423831365 0 1.3613471938171219e-05 -0.034980006622874531 0 1.2434181001957683e-05 -0.034975256502367699 0 6.8693464913366412e-06 -0.03498765850983606 0 1.3613471938171219e-05 -0.034980006622874531 0 1.1657729003796334e-08 -0.034999967763560132 0 6.8693464913366412e-06 -0.03498765850983606 0 0.00045948267721978875 -0.029694967876084905 0 0.0011290647530941323 -0.029475608482001259 0 0.00057000867597741618 -0.029015521016411364 0 -0.00019348813627301123 -0.028455831701278706 0 -0.0005306320471442752 -0.031094418938482842 0 0.00071965192465063088 -0.032374357163814739 0 -0.0005306320471442752 -0.031094418938482842 0 0.0011290647530941323 -0.029475608482001259 0 0.00057000867597741618 -0.029015521016411364 0 0.0012242250686518848 -0.028771474831353297 0 -0.0012506011154890006 -0.028651340985028875 0 -0.0014089563115655974 -0.029214437720344613 0 -0.0018749734373430921 -0.028918831893183724 0 -0.0014089563115655974 -0.029214437720344613 0 -0.0018749734373430921 -0.028918831893183724 0 -0.001908041538459393 -0.029238516077305939 0 -0.0014089563115655974 -0.029214437720344613 0 -0.001908041538459393 -0.029238516077305939 0 -0.0018231550417081108 -0.029511867363586658 0 -0.0014089563115655974 -0.029214437720344613 0 -0.0018231550417081108 -0.029511867363586658 0 -0.0014130326709318119 -0.029782201089023869 0 -0.0014089563115655974 -0.029214437720344613 0 -0.0014130326709318119 -0.029782201089023869 0 -0.00087749225256527003 -0.029503762949806108 0 1.1657729003796334e-08 -0.034999967763560132 0 6.8693464913366412e-06 -0.03498765850983606 0 1.9608231952362359e-09 -0.034999986828013169 0 6.8693464913366412e-06 -0.03498765850983606 0 8.1447461170854042e-06 -0.034985627608888591 0 1.9608231952362359e-09 -0.034999986828013169 0 -0.00048657615872171672 -0.033022337668300386 0 -2.5923302359497382e-07 -0.035000196184990992 0 1.2434181001957683e-05 -0.034975256502367699 0 6.8693464913366412e-06 -0.03498765850983606 0 8.1447461170854042e-06 -0.034985627608888591 0 1.2434181001957683e-05 -0.034975256502367699 0 1.6225113494643325e-05 -0.034960723423831365 0 8.1447461170854042e-06 -0.034985627608888591 0 -0.0018749734373430921 -0.028918831893183724 0 -0.001908041538459393 -0.029238516077305939 0 -0.0023201246317289927 -0.029126302363402842 0 -0.0005306320471442752 -0.031094418938482842 0 -0.00048657615872171672 -0.033022337668300386 0 -0.001908041538459393 -0.029238516077305939 0 -0.0023201246317289927 -0.029126302363402842 0 -0.0021486192508429424 -0.029449554741173754 0 -0.0023201246317289927 -0.029126302363402842 0 -0.0021486192508429424 -0.029449554741173754 0 -0.0024490018782401426 -0.029705958477329347 0 -0.001908041538459393 -0.029238516077305939 0 -0.0018231550417081108 -0.029511867363586658 0 -0.0021486192508429424 -0.029449554741173754 0 -0.0018231550417081108 -0.029511867363586658 0 -0.0021486192508429424 -0.029449554741173754 0 -0.002126118428374874 -0.029713104509114428 0 -0.0021486192508429424 -0.029449554741173754 0 -0.0024490018782401426 -0.029705958477329347 0 -0.002126118428374874 -0.029713104509114428 0 -1.9605919342247184e-08 -0.034999958638304331 0 -8.9774273991489539e-06 -0.034991575370653887 0 -3.0444435856887524e-07 -0.03499733353356755 0 -0.00048657615872171672 -0.033022337668300386 0 -0.0013187389760740136 -0.031965939998685612 0 -1.2590132876589617e-06 -0.0349749909758146 0 -1.9605919342247184e-08 -0.034999958638304331 0 -8.9774273991489539e-06 -0.034991575370653887 0 -1.9605919342247184e-08 -0.034999958638304331 0 -3.0444435856887524e-07 -0.03499733353356755 0 -6.1657686711380934e-10 -0.034999960157629136 0 -0.0024490018782401426 -0.029705958477329347 0 -0.0025996481202480658 -0.03032756744919016 0 -0.002198504191773316 -0.030047024505005827 0 -8.9774273991489539e-06 -0.034991575370653887 0 -3.0444435856887524e-07 -0.03499733353356755 0 -2.5416163001355996e-05 -0.034954145724366864 0 -0.0013187389760740136 -0.031965939998685612 0 -0.00071405074286668205 -0.033692095207139637 0 0.00020929258511914069 -0.035404108702310352 0 -0.00071405074286668205 -0.033692095207139637 0 -6.1657686711380934e-10 -0.034999960157629136 0 -1.4477131966794398e-06 -0.034997101366421784 0 -2.6812727450003089e-09 -0.035000005937236511 0 -3.0444435856887524e-07 -0.03499733353356755 0 -6.1657686711380934e-10 -0.034999960157629136 0 -1.4477131966794398e-06 -0.034997101366421784 0 -0.0025996481202480658 -0.03032756744919016 0 -0.002214099760120511 -0.030443055646535593 0 -0.002198504191773316 -0.030047024505005827 0 -0.002214099760120511 -0.030443055646535593 0 -0.002198504191773316 -0.030047024505005827 0 -0.0018092168978899603 -0.030237850261541358 0 -0.002198504191773316 -0.030047024505005827 0 -0.002126118428374874 -0.029713104509114428 0 -0.0018742055076100786 -0.029856236290787892 0 -0.0024490018782401426 -0.029705958477329347 0 -0.002198504191773316 -0.030047024505005827 0 -0.002126118428374874 -0.029713104509114428 0 -0.0018231550417081108 -0.029511867363586658 0 -0.002126118428374874 -0.029713104509114428 0 -0.0018742055076100786 -0.029856236290787892 0 -0.0018231550417081108 -0.029511867363586658 0 -0.0018742055076100786 -0.029856236290787892 0 -0.0014130326709318119 -0.029782201089023869 0 -0.0018742055076100786 -0.029856236290787892 0 -0.0014130326709318119 -0.029782201089023869 0 -0.0018092168978899603 -0.030237850261541358 0 -0.0014130326709318119 -0.029782201089023869 0 -0.0013415034019355519 -0.030240686690744291 0 -0.00093814167503548733 -0.030020374100458769 0 -0.0014130326709318119 -0.029782201089023869 0 -0.0013415034019355519 -0.030240686690744291 0 -0.0018092168978899603 -0.030237850261541358 0 -0.002198504191773316 -0.030047024505005827 0 -0.0018742055076100786 -0.029856236290787892 0 -0.0018092168978899603 -0.030237850261541358 0 -0.0018092168978899603 -0.030237850261541358 0 -0.0020387975975557425 -0.030780694268191515 0 -0.0015742315481639009 -0.030869424733249124 0 -0.0013415034019355519 -0.030240686690744291 0 -0.0018092168978899603 -0.030237850261541358 0 -0.0015742315481639009 -0.030869424733249124 0 -0.002214099760120511 -0.030443055646535593 0 -0.0018092168978899603 -0.030237850261541358 0 -0.0020387975975557425 -0.030780694268191515 0 -0.0013415034019355519 -0.030240686690744291 0 -0.0015742315481639009 -0.030869424733249124 0 -0.0010937269468241956 -0.030590311410657257 0 -0.0015742315481639009 -0.030869424733249124 0 -0.0010180357546873474 -0.031274739220339381 0 -0.0014965231652960495 -0.031770822495176272 0 -0.0015742315481639009 -0.030869424733249124 0 -0.0010180357546873474 -0.031274739220339381 0 -0.0010937269468241956 -0.030590311410657257 0 -0.0020387975975557425 -0.030780694268191515 0 -0.0015742315481639009 -0.030869424733249124 0 -0.0022095419004287127 -0.031601742344341682 0 -0.0015742315481639009 -0.030869424733249124 0 -0.0022095419004287127 -0.031601742344341682 0 -0.0014965231652960495 -0.031770822495176272 0 -0.0014128056718823682 -0.032814635771557736 0 -0.0012204579852804348 -0.033417700981793273 0 -0.0020387975975557425 -0.030780694268191515 0 -0.0024017901704190183 -0.030892434555328925 0 -0.0022095419004287127 -0.031601742344341682 0 -0.00017048919908665275 -0.035138407007766922 0 -0.00016718289563582577 -0.035146002463567416 0 -0.00026891174836240047 -0.035128500415387662 0 -0.00014303885502191417 -0.035118051101608018 0 -0.00017048919908665275 -0.035138407007766922 0 -0.00015135421735684522 -0.035163041028601273 0 -0.00014303885502191417 -0.035118051101608018 0 -0.00015135421735684522 -0.035163041028601273 0 -9.3174581108088406e-05 -0.035068114149491944 0 -2.3599304462340605e-07 -0.035000227758121651 0 -2.6812727450003089e-09 -0.035000005937236511 0 -3.5296208740731688e-10 -0.035000000007753981 0 -0.00017048919908665275 -0.035138407007766922 0 -0.00015135421735684522 -0.035163041028601273 0 -0.00016718289563582577 -0.035146002463567416 0 -0.00071405074286668205 -0.033692095207139637 0 -0.0014128056718823682 -0.032814635771557736 0 -0.00018547252923061449 -0.035090449854021814 0 -0.00015135421735684522 -0.035163041028601273 0 -0.00016718289563582577 -0.035146002463567416 0 -0.00071405074286668205 -0.033692095207139637 0 -8.6893605484719047e-06 -0.035380246404977916 0 -1.4477131966794398e-06 -0.034997101366421784 0 -2.3599304462340605e-07 -0.035000227758121651 0 -2.6812727450003089e-09 -0.035000005937236511 0 -0.0025996481202480658 -0.03032756744919016 0 -0.002214099760120511 -0.030443055646535593 0 -0.0024017901704190183 -0.030892434555328925 0 -0.002214099760120511 -0.030443055646535593 0 -0.0020387975975557425 -0.030780694268191515 0 -0.0024017901704190183 -0.030892434555328925 0 -0.00017328343635018354 -0.030191330321724896 0 -0.00020349894075887351 -0.030929388037505581 0 -0.00048825009162553075 -0.030422884535786076 0 -0.00017328343635018354 -0.030191330321724896 0 -0.00048825009162553075 -0.030422884535786076 0 -0.00055723782842330655 -0.0300061445468108 0 -0.00017328343635018354 -0.030191330321724896 0 -0.00018662926737306523 -0.029725246947825495 0 -0.00017416814116725211 -0.029801612401038676 0 -0.0001615348182737736 -0.030159873258505242 0 0.0003289072951137728 -0.030183691518759419 0 0.00032886812946973816 -0.031111524942286944 0 0.0008783551362759888 -0.03052995927694609 0 0.00089151810605296946 -0.030957274685344118 0 -0.00017328343635018354 -0.030191330321724896 0 0.00032886812946973816 -0.031111524942286944 0 0.0008783551362759888 -0.03052995927694609 0 -0.00017328343635018354 -0.030191330321724896 0 0.00032886812946973816 -0.031111524942286944 0 -0.00020349894075887351 -0.030929388037505581 0 -0.00020349894075887351 -0.030929388037505581 0 -0.00067103632533545591 -0.030823242093095275 0 -0.00048433865496899648 -0.031555640112130162 0 -0.00020349894075887351 -0.030929388037505581 0 -0.00067103632533545591 -0.030823242093095275 0 -0.00048825009162553075 -0.030422884535786076 0 -0.00067103632533545591 -0.030823242093095275 0 -0.0010180357546873474 -0.031274739220339381 0 -0.00048433865496899648 -0.031555640112130162 0 -0.00067103632533545591 -0.030823242093095275 0 -0.0010180357546873474 -0.031274739220339381 0 -0.0010937269468241956 -0.030590311410657257 0 -0.00067103632533545591 -0.030823242093095275 0 -0.0010937269468241956 -0.030590311410657257 0 -0.00078402618081429643 -0.03029401500579797 0 -0.00067103632533545591 -0.030823242093095275 0 -0.00078402618081429643 -0.03029401500579797 0 -0.00048825009162553075 -0.030422884535786076 0 -0.00078402618081429643 -0.03029401500579797 0 -0.00048825009162553075 -0.030422884535786076 0 -0.00055723782842330655 -0.0300061445468108 0 -0.00055723782842330655 -0.0300061445468108 0 -0.00093814167503548733 -0.030020374100458769 0 -0.00069011905520053847 -0.029810324377411442 0 -0.00078402618081429643 -0.03029401500579797 0 -0.00055723782842330655 -0.0300061445468108 0 -0.00093814167503548733 -0.030020374100458769 0 -0.0013415034019355519 -0.030240686690744291 0 -0.0010937269468241956 -0.030590311410657257 0 -0.00093814167503548733 -0.030020374100458769 0 -0.0010937269468241956 -0.030590311410657257 0 -0.00078402618081429643 -0.03029401500579797 0 -0.00093814167503548733 -0.030020374100458769 0 -0.00092991582741046731 -0.029995655460028647 0 -0.00084195319702871745 -0.029634697438026908 0 -0.00093814167503548733 -0.030020374100458769 0 -0.00069011905520053847 -0.029810324377411442 0 -0.0008023951948174493 -0.029722303864346485 0 -0.0014130326709318119 -0.029782201089023869 0 -0.00093814167503548733 -0.030020374100458769 0 -0.00087749225256527003 -0.029503762949806108 0 -0.00055723782842330655 -0.0300061445468108 0 -0.00069011905520053847 -0.029810324377411442 0 -0.00063815982294988566 -0.029756617098974258 0 -0.00058280431334972608 -0.029952841299595266 0 -0.00056396061940387646 -0.02947996503907941 0 -0.00017328343635018354 -0.030191330321724896 0 -0.00033697091332824492 -0.029798571433049082 0 -0.00018662926737306523 -0.029725246947825495 0 -0.00055723782842330655 -0.0300061445468108 0 -0.00051054088376107439 -0.029188071838145303 0 -0.00033697091332824492 -0.029798571433049082 0 -0.00017328343635018354 -0.030191330321724896 0 -0.00055723782842330655 -0.0300061445468108 0 -0.00033697091332824492 -0.029798571433049082 0 -0.00051054088376107439 -0.029188071838145303 0 -0.00033697091332824492 -0.029798571433049082 0 -0.00018662926737306523 -0.029725246947825495 0 -0.00051054088376107439 -0.029188071838145303 0 -0.00018662926737306523 -0.029725246947825495 0 -0.00015671792818730865 -0.029248608795866569 0 -0.00051054088376107439 -0.029188071838145303 0 -0.00045416142140487038 -0.028558410005182829 0 -0.00015671792818730865 -0.029248608795866569 0 -0.00056396061940387646 -0.02947996503907941 0 -0.00059251109857508732 -0.029102933747085384 0 -0.00069011905520053847 -0.029810324377411442 0 -0.00063815982294988566 -0.029756617098974258 0 -0.00070399663369599143 -0.029685325605706848 0 -0.00063815982294988566 -0.029756617098974258 0 -0.00070399663369599143 -0.029685325605706848 0 -0.00073889528237041323 -0.029654764177994893 0 -0.00070399663369599143 -0.029685325605706848 0 -0.00073889528237041323 -0.029654764177994893 0 -0.0007348931168255716 -0.02967773751526534 0 -0.00069011905520053847 -0.029810324377411442 0 -0.00070399663369599143 -0.029685325605706848 0 -0.0008023951948174493 -0.029722303864346485 0 -0.00070399663369599143 -0.029685325605706848 0 -0.0008023951948174493 -0.029722303864346485 0 -0.00074060678820850475 -0.029665398899710035 0 -0.00070399663369599143 -0.029685325605706848 0 -0.00074060678820850475 -0.029665398899710035 0 -0.0007348931168255716 -0.02967773751526534 0 -0.00084195319702871745 -0.029634697438026908 0 -0.00076838484157574919 -0.029269588416146408 0 -0.0012506011154890006 -0.028651340985028875 0 -0.0014089563115655974 -0.029214437720344613 0 -0.00077071487757335614 -0.028949944267927952 0 -0.0014089563115655974 -0.029214437720344613 0 -0.00087749225256527003 -0.029503762949806108 0 -0.00077071487757335614 -0.028949944267927952 0 -0.0012506011154890006 -0.028651340985028875 0 -0.00077071487757335614 -0.028949944267927952 0 -0.00066051001174696332 -0.028400150756978035 0 -0.00019348813627301123 -0.028455831701278706 0 -0.00053407832979030293 -0.029248523656260957 0 -0.00076838484157574919 -0.029269588416146408 0 -0.00053407832979030293 -0.029248523656260957 0 -0.00074060678820850475 -0.029665398899710035 0 -0.0007213057430879861 -0.029691027052086361 0 -0.0007348931168255716 -0.02967773751526534 0 -0.00032123447386094679 -0.029835095549582472 0 -0.00025330648567803351 -0.029454594400878088 0 -0.00075392141205543768 -0.029726668656236185 0 -0.00029644907964750821 -0.029819658102145104 0 -0.00053407832979030293 -0.029248523656260957 0 0.00045948267721978875 -0.029694967876084905 0 0.00057000867597741618 -0.029015521016411364 0 -0.00018107526133455368 -0.029292669683587905 0 -0.00032123447386094679 -0.029835095549582472 0 0.00045948267721978875 -0.029694967876084905 0 -0.00018107526133455368 -0.029292669683587905 0 -0.00073889528237041323 -0.029654764177994893 0 -0.00079223895732480202 -0.029700272834245662 0 -0.00088854519748747388 -0.029706376931264215 0 -0.00073889528237041323 -0.029654764177994893 0 -0.00079223895732480202 -0.029700272834245662 0 -0.0007348931168255716 -0.02967773751526534 0 -0.00079223895732480202 -0.029700272834245662 0 -0.0007348931168255716 -0.02967773751526534 0 -0.00075392141205543768 -0.029726668656236185 0 -0.0007213057430879861 -0.029691027052086361 0 -0.0007348931168255716 -0.02967773751526534 0 -0.00075392141205543768 -0.029726668656236185 0 -0.00053407832979030293 -0.029248523656260957 0 -0.00074662038765335845 -0.029784017529007448 0 -0.00087750976374696709 -0.029810156668841528 0 -0.00079223895732480202 -0.029700272834245662 0 -0.00088854519748747388 -0.029706376931264215 0 -0.00087750976374696709 -0.029810156668841528 0 -0.00079223895732480202 -0.029700272834245662 0 -0.00075392141205543768 -0.029726668656236185 0 -0.00096734326619535022 -0.029858114436766378 0 -0.00087750976374696709 -0.029810156668841528 0 -0.00088854519748747388 -0.029706376931264215 0 -0.00059251109857508732 -0.029102933747085384 0 -0.00060364300533548819 -0.028826266151239135 0 -0.00045416142140487038 -0.028558410005182829 0 -0.00033592161907108979 -0.027950764298175716 0 -4.4764522409814491e-05 -0.028253156648312107 0 -0.00033592161907108979 -0.027950764298175716 0 0.00013958803211867247 -0.027768554564505946 0 -4.4764522409814491e-05 -0.028253156648312107 0 -0.00056365719758411027 -0.028623097370309564 0 -0.00060364300533548819 -0.028826266151239135 0 -0.00016993706784694586 -0.027386699314899388 0 -0.00033592161907108979 -0.027950764298175716 0 0.00013958803211867247 -0.027768554564505946 0 0.00017589779910804354 -0.027269298066469085 0 0.00013958803211867247 -0.027768554564505946 0 0.0003676757614040168 -0.027527500404298574 0 0.00013958803211867247 -0.027768554564505946 0 0.0003676757614040168 -0.027527500404298574 0 0.00060866827622344747 -0.027741590218326301 0 0.00034477160296427612 -0.028204111321447383 0 0.00060809670646019473 -0.027780444882692653 0 0.00013958803211867247 -0.027768554564505946 0 0.00032030735379846045 -0.028241455926161174 0 0.00060866827622344747 -0.027741590218326301 0 0.00013958803211867247 -0.027768554564505946 0 0.00032030735379846045 -0.028241455926161174 0 -4.4764522409814491e-05 -0.028253156648312107 0 0.00032030735379846045 -0.028241455926161174 0 6.2018783713130472e-05 -0.028735033734905518 0 -4.4764522409814491e-05 -0.028253156648312107 0 0.00034477160296427612 -0.028204111321447383 0 6.3859876564067289e-05 -0.028730190719780471 0 0.00036643300260550841 -0.028179299356130578 0 0.00039089469450374138 -0.02857781493337614 0 5.9956436050244428e-05 -0.028701430530831403 0 0.00036643300260550841 -0.028179299356130578 0 0.00060866827622344747 -0.027741590218326301 0 0.00076538894529954869 -0.028382278406795077 0 0.00036643300260550841 -0.028179299356130578 0 0.00039089469450374138 -0.02857781493337614 0 0.00076538894529954869 -0.028382278406795077 0 0.00039089469450374138 -0.02857781493337614 0 0.00076538894529954869 -0.028382278406795077 0 0.00055632529569870108 -0.028868122664584883 0 0.00091851238866356717 -0.028084489616652102 0 0.00084053841449082929 -0.028312211026451081 0 0.00039089469450374138 -0.02857781493337614 0 5.9956436050244428e-05 -0.028701430530831403 0 0.00028896623095705278 -0.028921337952983316 0 0.00039089469450374138 -0.02857781493337614 0 0.00028896623095705278 -0.028921337952983316 0 0.00055632529569870108 -0.028868122664584883 0 -0.00045416142140487038 -0.028558410005182829 0 6.2018783713130472e-05 -0.028735033734905518 0 -0.00015671792818730865 -0.029248608795866569 0 6.3859876564067289e-05 -0.028730190719780471 0 -0.00016469374131340285 -0.029198369597073174 0 -0.00045416142140487038 -0.028558410005182829 0 6.2018783713130472e-05 -0.028735033734905518 0 -4.4764522409814491e-05 -0.028253156648312107 0 0.00097512425606563252 -0.027710577843429018 0 0.0010371759499987923 -0.027708541872474044 0 0.00097422300195434779 -0.027705626499995854 0 0.0010371759499987923 -0.027708541872474044 0 0.00098328864488930463 -0.027783484779725809 0 0.00097422300195434779 -0.027705626499995854 0 0.0010228677493826866 -0.027366011240995625 0 0.0012186237840799195 -0.027522063770856368 0 0.0010371759499987923 -0.027708541872474044 0 0.00097512425606563252 -0.027710577843429018 0 0.00099161238893356548 -0.027742517025374985 0 0.0010371759499987923 -0.027708541872474044 0 0.0010375103168220906 -0.0263962274829397 0 0.00082507194527693391 -0.027845107655546424 0 0.0010228677493826866 -0.027366011240995625 0 0.0010371759499987923 -0.027708541872474044 0 0.00082695294099483039 -0.027529555286504179 0 0.0010371759499987923 -0.027708541872474044 0 0.00095061281146363976 -0.02774207744325358 0 0.00082695294099483039 -0.027529555286504179 0 0.0010371759499987923 -0.027708541872474044 0 0.00095061281146363976 -0.02774207744325358 0 0.00098328864488930463 -0.027783484779725809 0 0.00095061281146363976 -0.02774207744325358 0 0.0009563734760132703 -0.027896032489290429 0 0.00098328864488930463 -0.027783484779725809 0 0.00095061281146363976 -0.02774207744325358 0 0.00060866827622344747 -0.027741590218326301 0 0.0009563734760132703 -0.027896032489290429 0 0.00095061281146363976 -0.02774207744325358 0 0.00082695294099483039 -0.027529555286504179 0 0.00060866827622344747 -0.027741590218326301 0 0.00050988255974197306 -0.027351638128972719 0 0.0003676757614040168 -0.027527500404298574 0 0.00060866827622344747 -0.027741590218326301 0 0.00050988255974197306 -0.027351638128972719 0 0.00082695294099483039 -0.027529555286504179 0 0.00060866827622344747 -0.027741590218326301 0 0.00060866827622344747 -0.027741590218326301 0 0.00076538894529954869 -0.028382278406795077 0 0.0009563734760132703 -0.027896032489290429 0 0.00091851238866356717 -0.028084489616652102 0 0.0009596732490009534 -0.027927485739029697 0 0.0010941482963344685 -0.027776286035145127 0 0.001002820781705109 -0.027739097236564318 0 0.0011057488734644658 -0.027743296121708502 0 0.0010941482963344685 -0.027776286035145127 0 0.0011057488734644658 -0.027743296121708502 0 0.0011291792126451687 -0.027736664459625561 0 0.001002820781705109 -0.027739097236564318 0 0.0009563734760132703 -0.027896032489290429 0 0.00098328864488930463 -0.027783484779725809 0 0.0010941482963344685 -0.027776286035145127 0 0.001002820781705109 -0.027739097236564318 0 0.0009563734760132703 -0.027896032489290429 0 0.001002820781705109 -0.027739097236564318 0 0.00098328864488930463 -0.027783484779725809 0 0.00097305975188230996 -0.027670104462474417 0 0.001002820781705109 -0.027739097236564318 0 0.00097305975188230996 -0.027670104462474417 0 0.00098573845758079953 -0.027644801054947064 0 0.00097305975188230996 -0.027670104462474417 0 0.00093868007949887461 -0.027563001154707875 0 0.00095521877870795584 -0.027594359270932099 0 0.00098328864488930463 -0.027783484779725809 0 0.00097305975188230996 -0.027670104462474417 0 0.00097422300195434779 -0.027705626499995854 0 0.00097305975188230996 -0.027670104462474417 0 0.00097422300195434779 -0.027705626499995854 0 0.00095521877870795584 -0.027594359270932099 0 0.00091839374660690194 -0.027561882875240248 0 0.00095940926575615801 -0.027578565174613285 0 0.00093868007949887461 -0.027563001154707875 0 0.00092152899962638299 -0.027514330425049478 0 0.00095940926575615801 -0.027578565174613285 0 0.001002570321446085 -0.027579097063839243 0 0.00081112431104346722 -0.021136889501277702 0 0.00060624838637102078 -0.021301947059888471 0 0.00081112431104346722 -0.021136889501277702 0 0.0016625052147280093 -0.026896520052636225 0 0.00095940926575615801 -0.027578565174613285 0 0.00093868007949887461 -0.027563001154707875 0 0.00098573845758079953 -0.027644801054947064 0 0.00097305975188230996 -0.027670104462474417 0 0.00093868007949887461 -0.027563001154707875 0 0.00098573845758079953 -0.027644801054947064 0 0.00098573845758079953 -0.027644801054947064 0 0.0010091136328831277 -0.027632954904103498 0 0.0010347365714614889 -0.027684870968090972 0 0.00095940926575615801 -0.027578565174613285 0 0.00098573845758079953 -0.027644801054947064 0 0.0010091136328831277 -0.027632954904103498 0 0.00095940926575615801 -0.027578565174613285 0 0.0010091136328831277 -0.027632954904103498 0 0.001002570321446085 -0.027579097063839243 0 0.0010091136328831277 -0.027632954904103498 0 0.0010347365714614889 -0.027684870968090972 0 0.0010666013413705227 -0.027691452079508162 0 0.0010091136328831277 -0.027632954904103498 0 0.0010666013413705227 -0.027691452079508162 0 0.001002570321446085 -0.027579097063839243 0 0.001002820781705109 -0.027739097236564318 0 0.00098573845758079953 -0.027644801054947064 0 0.0010347365714614889 -0.027684870968090972 0 0.001002820781705109 -0.027739097236564318 0 0.0010347365714614889 -0.027684870968090972 0 0.0011057488734644658 -0.027743296121708502 0 0.0010347365714614889 -0.027684870968090972 0 0.0011057488734644658 -0.027743296121708502 0 0.0010666013413705227 -0.027691452079508162 0 0.0010666013413705227 -0.027691452079508162 0 0.001114095279194741 -0.027831629159321192 0 0.0011308243512467813 -0.027761135709839062 0 0.0011057488734644658 -0.027743296121708502 0 0.0010666013413705227 -0.027691452079508162 0 0.001114095279194741 -0.027831629159321192 0 0.0010188495457658061 -0.015747469080491211 0 0.0005533151297934134 -0.015795604060983046 0 0.00048487676561796917 -0.015505853239012567 0 0.0010188495457658061 -0.015747469080491211 0 0.00048487676561796917 -0.015505853239012567 0 0.00071743403020862009 -0.015374352710244243 0 0.0010666013413705227 -0.027691452079508162 0 0.0010938554093806062 -0.02761541349830348 0 0.0011308243512467813 -0.027761135709839062 0 0.0019836641650761064 -0.025031313105689037 0 0.0018043970324357361 -0.028907922363903053 0 0.0021774863688637158 -0.030281469433484226 0 0.0020463917129316693 -0.030502326975976036 0 0.0024934968643871291 -0.030670344142410745 0 0.0019836641650761064 -0.025031313105689037 0 0.0014959452879231682 -0.022372414700985874 0 0.0010666013413705227 -0.027691452079508162 0 0.0010938554093806062 -0.02761541349830348 0 0.001002570321446085 -0.027579097063839243 0 0.0019836641650761064 -0.025031313105689037 0 0.00060624838637102078 -0.021301947059888471 0 0.0005533151297934134 -0.015795604060983046 0 0.00048487676561796917 -0.015505853239012567 0 0.00027745538272210858 -0.015623997168185041 0 0.00048487676561796917 -0.015505853239012567 0 0.00034764360283968059 -0.015288176068255808 0 0.00071743403020862009 -0.015374352710244243 0 0.00048487676561796917 -0.015505853239012567 0 0.00016924795717172591 -0.015412890413524328 0 0.00027745538272210858 -0.015623997168185041 0 0.00048487676561796917 -0.015505853239012567 0 0.00016924795717172591 -0.015412890413524328 0 0.00034764360283968059 -0.015288176068255808 0 0.00013277996457465468 -0.015838999779116483 0 0.0005533151297934134 -0.015795604060983046 0 0.00027745538272210858 -0.015623997168185041 0 0.00013277996457465468 -0.015838999779116483 0 0.00027745538272210858 -0.015623997168185041 0 4.8975190236670239e-05 -0.015573303451271784 0 0.00016924795717172591 -0.015412890413524328 0 0.00027745538272210858 -0.015623997168185041 0 4.8975190236670239e-05 -0.015573303451271784 0 6.5470749541947723e-05 -0.02937584336907063 0 0.00010415786330373704 -0.029114081402854014 0 0.00029521913071493063 -0.029302189074435315 0 0.00060096227328568848 -0.028772393030546566 0 0.00012850462659377737 -0.029462079210133052 0 6.5470749541947723e-05 -0.02937584336907063 0 0.00029521913071493063 -0.029302189074435315 0 9.7615268538778067e-05 -0.029561245139854968 0 0.00091395440323003088 -0.028204934026730868 0 0.00096040229229379806 -0.02878703941836059 0 9.7615268538778067e-05 -0.029561245139854968 0 6.5470749541947723e-05 -0.02937584336907063 0 -7.1534531813030513e-05 -0.02957334374861454 0 -0.00015671792818730865 -0.029248608795866569 0 6.5470749541947723e-05 -0.02937584336907063 0 -7.1534531813030513e-05 -0.02957334374861454 0 9.7615268538778067e-05 -0.029561245139854968 0 -0.00018662926737306523 -0.029725246947825495 0 -7.1534531813030513e-05 -0.02957334374861454 0 -0.00015671792818730865 -0.029248608795866569 0 5.9956436050244428e-05 -0.028701430530831403 0 0.00010415786330373704 -0.029114081402854014 0 0.00028896623095705278 -0.028921337952983316 0 6.5470749541947723e-05 -0.02937584336907063 0 -0.00015671792818730865 -0.029248608795866569 0 0.00010415786330373704 -0.029114081402854014 0 5.9956436050244428e-05 -0.028701430530831403 0 -0.00015671792818730865 -0.029248608795866569 0 0.00010415786330373704 -0.029114081402854014 0 0.0011291792126451687 -0.027736664459625561 0 0.00091395440323003088 -0.028204934026730868 0 0.00099559225097092937 -0.028088056862863042 0 0.00010415786330373704 -0.029114081402854014 0 0.00028896623095705278 -0.028921337952983316 0 0.00029521913071493063 -0.029302189074435315 0 0.00084053841449082929 -0.028312211026451081 0 0.00060096227328568848 -0.028772393030546566 0 0.00028896623095705278 -0.028921337952983316 0 0.00055632529569870108 -0.028868122664584883 0 0.00029521913071493063 -0.029302189074435315 0 0.0011291792126451687 -0.027736664459625561 0 0.001114095279194741 -0.027831629159321192 0 0.00099559225097092937 -0.028088056862863042 0 0.0011057488734644658 -0.027743296121708502 0 0.0011291792126451687 -0.027736664459625561 0 0.001114095279194741 -0.027831629159321192 0 0.001114095279194741 -0.027831629159321192 0 0.00099559225097092937 -0.028088056862863042 0 0.0011308243512467813 -0.027761135709839062 0 0.00092311315663103457 -0.02790783114614245 0 0.0018043970324357361 -0.028907922363903053 0 0.00091395440323003088 -0.028204934026730868 0 0.00099559225097092937 -0.028088056862863042 0 0.00096040229229379806 -0.02878703941836059 0 0.00099559225097092937 -0.028088056862863042 0 0.00096040229229379806 -0.02878703941836059 0 0.0013341476715214376 -0.029018732786899006 0 0.00099559225097092937 -0.028088056862863042 0 0.0013341476715214376 -0.029018732786899006 0 0.0020011136440501185 -0.029022200878459678 0 0.00096040229229379806 -0.02878703941836059 0 0.00076003196245782295 -0.029406847431075692 0 0.0013341476715214376 -0.029018732786899006 0 0.00076003196245782295 -0.029406847431075692 0 0.0013341476715214376 -0.029018732786899006 0 0.0011878645266183221 -0.029578815626499735 0 0.0013341476715214376 -0.029018732786899006 0 0.0011878645266183221 -0.029578815626499735 0 0.0016831553780212042 -0.029671221280910209 0 0.0011878645266183221 -0.029578815626499735 0 0.00076313945986230636 -0.029760998060941863 0 0.0012057811876758286 -0.030015237663013825 0 0.0011878645266183221 -0.029578815626499735 0 0.0016831553780212042 -0.029671221280910209 0 0.0012057811876758286 -0.030015237663013825 0 0.00076003196245782295 -0.029406847431075692 0 0.0011878645266183221 -0.029578815626499735 0 0.00076313945986230636 -0.029760998060941863 0 0.0028789688049411723 -0.029919921865702335 0 0.0020011136440501185 -0.029022200878459678 0 0.0016831553780212042 -0.029671221280910209 0 0.0013341476715214376 -0.029018732786899006 0 0.0020011136440501185 -0.029022200878459678 0 0.0016831553780212042 -0.029671221280910209 0 0.0028789688049411723 -0.029919921865702335 0 0.0016831553780212042 -0.029671221280910209 0 0.0017575264497909121 -0.030402875975718266 0 0.0019836641650761064 -0.025031313105689037 0 0.0015016518302543979 -0.030914056220099333 0 0.0021774863688637158 -0.030281469433484226 0 0.0020463917129316693 -0.030502326975976036 0 0.0017575264497909121 -0.030402875975718266 0 0.0017575264497909121 -0.030402875975718266 0 0.0017806043884608937 -0.030561731180143072 0 0.0012057811876758286 -0.030015237663013825 0 0.0016831553780212042 -0.029671221280910209 0 0.0017575264497909121 -0.030402875975718266 0 0.0012057811876758286 -0.030015237663013825 0 0.0017341871355277248 -0.030634825297137024 0 0.0017806043884608937 -0.030561731180143072 0 0.001650803097281551 -0.030648616411459217 0 0.0017282186391740504 -0.030693963494962513 0 0.0017341871355277248 -0.030634825297137024 0 0.001650803097281551 -0.030648616411459217 0 0.0017282186391740504 -0.030693963494962513 0 0.0017341871355277248 -0.030634825297137024 0 0.0017816816779910019 -0.030636375087548594 0 0.0017816816779910019 -0.030636375087548594 0 0.0018364005724386548 -0.030672253167006971 0 0.0019043508926221146 -0.030563060837812722 0 0.0017282186391740504 -0.030693963494962513 0 0.0017816816779910019 -0.030636375087548594 0 0.0018364005724386548 -0.030672253167006971 0 0.0017341871355277248 -0.030634825297137024 0 0.0017816816779910019 -0.030636375087548594 0 0.0017806043884608937 -0.030561731180143072 0 0.0017575264497909121 -0.030402875975718266 0 0.0017806043884608937 -0.030561731180143072 0 0.0019043508926221146 -0.030563060837812722 0 0.0017816816779910019 -0.030636375087548594 0 0.0017806043884608937 -0.030561731180143072 0 0.0019043508926221146 -0.030563060837812722 0 0.0020463917129316693 -0.030502326975976036 0 0.0019043508926221146 -0.030563060837812722 0 0.0019323584357551931 -0.030734330428722319 0 0.0020463917129316693 -0.030502326975976036 0 0.0017575264497909121 -0.030402875975718266 0 0.0019043508926221146 -0.030563060837812722 0 0.0018364005724386548 -0.030672253167006971 0 0.0019043508926221146 -0.030563060837812722 0 0.0019323584357551931 -0.030734330428722319 0 0.001650803097281551 -0.030648616411459217 0 0.0014257673066598445 -0.030760199488151358 0 0.0013987471820267612 -0.030656069351319308 0 0.0017409761821307354 -0.030556657255877022 0 0.00093625443620766046 -0.030353523505904128 0 0.0017806043884608937 -0.030561731180143072 0 0.001650803097281551 -0.030648616411459217 0 0.0013987471820267612 -0.030656069351319308 0 0.0017806043884608937 -0.030561731180143072 0 0.0012057811876758286 -0.030015237663013825 0 0.00039950969725361963 -0.030050258032537323 0 0.00076313945986230636 -0.029760998060941863 0 0.0012057811876758286 -0.030015237663013825 0 0.00039950969725361963 -0.030050258032537323 0 0.0017282186391740504 -0.030693963494962513 0 0.001650803097281551 -0.030648616411459217 0 0.0016265054878323308 -0.030753144153205146 0 0.001650803097281551 -0.030648616411459217 0 0.0015377115577964648 -0.030781258114609297 0 0.0016265054878323308 -0.030753144153205146 0 0.001650803097281551 -0.030648616411459217 0 0.0014257673066598445 -0.030760199488151358 0 0.0015377115577964648 -0.030781258114609297 0 0.0012401218857637133 -0.030711235934005182 0 0.0013987471820267612 -0.030656069351319308 0 0.0008783551362759888 -0.03052995927694609 0 0.0014257673066598445 -0.030760199488151358 0 0.0012686354148292529 -0.030805748047207329 0 0.0013987471820267612 -0.030656069351319308 0 0.0012686354148292529 -0.030805748047207329 0 0.0012401218857637133 -0.030711235934005182 0 0.0013987471820267612 -0.030656069351319308 0 0.00096040229229379806 -0.02878703941836059 0 0.00076003196245782295 -0.029406847431075692 0 9.7615268538778067e-05 -0.029561245139854968 0 0.00076003196245782295 -0.029406847431075692 0 0.00076313945986230636 -0.029760998060941863 0 0.00026713740562777396 -0.029758881329133489 0 0.00076313945986230636 -0.029760998060941863 0 0.00039950969725361963 -0.030050258032537323 0 0.00026713740562777396 -0.029758881329133489 0 0.00039950969725361963 -0.030050258032537323 0 0.00026713740562777396 -0.029758881329133489 0 -0.00017416814116725211 -0.029801612401038676 0 0.00076003196245782295 -0.029406847431075692 0 0.00026713740562777396 -0.029758881329133489 0 9.7615268538778067e-05 -0.029561245139854968 0 -7.1534531813030513e-05 -0.02957334374861454 0 9.7615268538778067e-05 -0.029561245139854968 0 -0.00017416814116725211 -0.029801612401038676 0 -0.00018662926737306523 -0.029725246947825495 0 -7.1534531813030513e-05 -0.02957334374861454 0 -0.00017416814116725211 -0.029801612401038676 0 0.00026713740562777396 -0.029758881329133489 0 9.7615268538778067e-05 -0.029561245139854968 0 -0.00017416814116725211 -0.029801612401038676 0 0.0012686354148292529 -0.030805748047207329 0 0.0012401218857637133 -0.030711235934005182 0 0.0010277336919247426 -0.030975758143602667 0 0.0012401218857637133 -0.030711235934005182 0 0.0008783551362759888 -0.03052995927694609 0 0.00089151810605296946 -0.030957274685344118 0 0.0012401218857637133 -0.030711235934005182 0 0.00089151810605296946 -0.030957274685344118 0 0.00093828724871517215 -0.031439767719304478 0 0.00093625443620766046 -0.030353523505904128 0 0.0003289072951137728 -0.030183691518759419 0 0.0012029347473293418 -0.030792043450418898 0 0.0010285486233140816 -0.031113333171109227 0 0.0010277336919247426 -0.030975758143602667 0 0.0012185580679297697 -0.031032369034946407 0 0.0012835294650238838 -0.030899365279193854 0 0.0010277336919247426 -0.030975758143602667 0 0.0012185580679297697 -0.031032369034946407 0 0.0011555983566051648 -0.031308470069469747 0 0.0010277336919247426 -0.030975758143602667 0 0.0011555983566051648 -0.031308470069469747 0 0.00080715105754722164 -0.031318326943207915 0 0.0015477297842046501 -0.031600574516077624 0 0.0011516402946225197 -0.031702291757830653 0 0.0012749378523988766 -0.031186196191421746 0 0.0014775120910242232 -0.031326381162742001 0 0.0011555983566051648 -0.031308470069469747 0 0.0012749378523988766 -0.031186196191421746 0 0.0012185580679297697 -0.031032369034946407 0 0.0011555983566051648 -0.031308470069469747 0 0.0012749378523988766 -0.031186196191421746 0 0.0014218484949926502 -0.031182819828700772 0 0.0014775120910242232 -0.031326381162742001 0 0.0012749378523988766 -0.031186196191421746 0 0.00139179511119131 -0.031062817613014364 0 0.0012185580679297697 -0.031032369034946407 0 0.0012749378523988766 -0.031186196191421746 0 0.00139179511119131 -0.031062817613014364 0 0.0014218484949926502 -0.031182819828700772 0 0.00139179511119131 -0.031062817613014364 0 0.0013306906000489153 -0.030969158301298653 0 0.0014377075083423477 -0.030899013443032058 0 0.0012686354148292529 -0.030805748047207329 0 0.0010277336919247426 -0.030975758143602667 0 0.0012835294650238838 -0.030899365279193854 0 0.00139179511119131 -0.031062817613014364 0 0.0013306906000489153 -0.030969158301298653 0 0.0012185580679297697 -0.031032369034946407 0 0.0013306906000489153 -0.030969158301298653 0 0.0012185580679297697 -0.031032369034946407 0 0.0012835294650238838 -0.030899365279193854 0 0.0013306906000489153 -0.030969158301298653 0 0.0012835294650238838 -0.030899365279193854 0 0.0014377075083423477 -0.030899013443032058 0 0.0014257673066598445 -0.030760199488151358 0 0.0012686354148292529 -0.030805748047207329 0 0.0012835294650238838 -0.030899365279193854 0 0.0014257673066598445 -0.030760199488151358 0 0.0012835294650238838 -0.030899365279193854 0 0.0014377075083423477 -0.030899013443032058 0 0.0014377075083423477 -0.030899013443032058 0 0.0015377115577964648 -0.030781258114609297 0 0.0015796589363597266 -0.030894527131946153 0 0.0014257673066598445 -0.030760199488151358 0 0.0014377075083423477 -0.030899013443032058 0 0.0015377115577964648 -0.030781258114609297 0 0.0015377115577964648 -0.030781258114609297 0 0.0016265054878323308 -0.030753144153205146 0 0.0015796589363597266 -0.030894527131946153 0 0.0017282186391740504 -0.030693963494962513 0 0.0016265054878323308 -0.030753144153205146 0 0.001702482542126916 -0.030781346746701944 0 0.0015796589363597266 -0.030894527131946153 0 0.0016751359148094343 -0.030889703859053812 0 0.001702482542126916 -0.030781346746701944 0 0.0016265054878323308 -0.030753144153205146 0 0.0015796589363597266 -0.030894527131946153 0 0.001702482542126916 -0.030781346746701944 0 0.0015796589363597266 -0.030894527131946153 0 0.0016751359148094343 -0.030889703859053812 0 0.001686667164768002 -0.030996451503280516 0 0.001686667164768002 -0.030996451503280516 0 0.0015496294615647075 -0.031017755524690691 0 0.0016481829369415571 -0.031090031100296123 0 0.0015796589363597266 -0.030894527131946153 0 0.001686667164768002 -0.030996451503280516 0 0.0015496294615647075 -0.031017755524690691 0 0.0014377075083423477 -0.030899013443032058 0 0.0015796589363597266 -0.030894527131946153 0 0.0015496294615647075 -0.031017755524690691 0 0.00139179511119131 -0.031062817613014364 0 0.0014377075083423477 -0.030899013443032058 0 0.0015496294615647075 -0.031017755524690691 0 0.0018364005724386548 -0.030672253167006971 0 0.0019323584357551931 -0.030734330428722319 0 0.0017993575394982403 -0.030779415579715922 0 0.0019323584357551931 -0.030734330428722319 0 0.0017993575394982403 -0.030779415579715922 0 0.0018198866135740301 -0.030911328146760085 0 0.0017282186391740504 -0.030693963494962513 0 0.0018364005724386548 -0.030672253167006971 0 0.0017993575394982403 -0.030779415579715922 0 0.0017282186391740504 -0.030693963494962513 0 0.0017993575394982403 -0.030779415579715922 0 0.001702482542126916 -0.030781346746701944 0 0.0016751359148094343 -0.030889703859053812 0 0.0017993575394982403 -0.030779415579715922 0 0.001702482542126916 -0.030781346746701944 0 0.0016751359148094343 -0.030889703859053812 0 0.001686667164768002 -0.030996451503280516 0 0.0018198866135740301 -0.030911328146760085 0 0.0016751359148094343 -0.030889703859053812 0 0.0017993575394982403 -0.030779415579715922 0 0.0018198866135740301 -0.030911328146760085 0 0.001686667164768002 -0.030996451503280516 0 0.0018198866135740301 -0.030911328146760085 0 0.0017776483664730391 -0.031081898621565924 0 0.0019323584357551931 -0.030734330428722319 0 0.0018198866135740301 -0.030911328146760085 0 0.0019869708841882623 -0.030910185666135806 0 0.0018198866135740301 -0.030911328146760085 0 0.0019869708841882623 -0.030910185666135806 0 0.0019322917132488914 -0.031078505635817644 0 0.0017883048057187041 -0.031294366063085964 0 0.0019263587226151172 -0.031450476540335205 0 0.0014775120910242232 -0.031326381162742001 0 0.0019869708841882623 -0.030910185666135806 0 0.0019322917132488914 -0.031078505635817644 0 0.0021373569339423497 -0.031018013203765009 0 0.0019322917132488914 -0.031078505635817644 0 0.0018584367464026996 -0.031189546737931756 0 0.002014524220445321 -0.03121332852472751 0 0.0018584367464026996 -0.031189546737931756 0 0.0017776483664730391 -0.031081898621565924 0 0.0016929973660153724 -0.03120712839402218 0 0.0018198866135740301 -0.030911328146760085 0 0.0019322917132488914 -0.031078505635817644 0 0.0017776483664730391 -0.031081898621565924 0 0.0019322917132488914 -0.031078505635817644 0 0.0018584367464026996 -0.031189546737931756 0 0.0017776483664730391 -0.031081898621565924 0 0.001686667164768002 -0.030996451503280516 0 0.0017776483664730391 -0.031081898621565924 0 0.0016481829369415571 -0.031090031100296123 0 0.0017776483664730391 -0.031081898621565924 0 0.0016929973660153724 -0.03120712839402218 0 0.0016481829369415571 -0.031090031100296123 0 0.0018584367464026996 -0.031189546737931756 0 0.0016929973660153724 -0.03120712839402218 0 0.0017883048057187041 -0.031294366063085964 0 0.0018584367464026996 -0.031189546737931756 0 0.0017883048057187041 -0.031294366063085964 0 0.002014524220445321 -0.03121332852472751 0 0.0017883048057187041 -0.031294366063085964 0 0.0019263587226151172 -0.031450476540335205 0 0.002014524220445321 -0.03121332852472751 0 0.0019306257461320195 -0.031488225331930179 0 0.0015477297842046501 -0.031600574516077624 0 0.00139179511119131 -0.031062817613014364 0 0.0014218484949926502 -0.031182819828700772 0 0.0015491546998566193 -0.031153529520874568 0 0.00139179511119131 -0.031062817613014364 0 0.0015496294615647075 -0.031017755524690691 0 0.0015491546998566193 -0.031153529520874568 0 0.0015496294615647075 -0.031017755524690691 0 0.0016481829369415571 -0.031090031100296123 0 0.0015491546998566193 -0.031153529520874568 0 0.0016929973660153724 -0.03120712839402218 0 0.0016481829369415571 -0.031090031100296123 0 0.0015491546998566193 -0.031153529520874568 0 0.0016929973660153724 -0.03120712839402218 0 0.0017883048057187041 -0.031294366063085964 0 0.0014775120910242232 -0.031326381162742001 0 0.0016929973660153724 -0.03120712839402218 0 0.0015491546998566193 -0.031153529520874568 0 0.0014775120910242232 -0.031326381162742001 0 0.0014218484949926502 -0.031182819828700772 0 0.0015491546998566193 -0.031153529520874568 0 0.0014775120910242232 -0.031326381162742001 0 0.0013567183546272774 -0.032611086461605869 0 0.0014016444832297239 -0.032667184923976474 0 0.0013137990828173234 -0.032602509268055128 0 0.0015639179725249188 -0.031883774011750063 0 0.001846542681388012 -0.03156776129563104 0 0.001387116147201217 -0.032233532163458568 0 0.0015708029753601681 -0.032008164767898035 0 0.0013057318430914665 -0.032433871900347855 0 0.0013412195302601052 -0.032632374349946376 0 0.0013567183546272774 -0.032611086461605869 0 0.0013137990828173234 -0.032602509268055128 0 0.0019263587226151172 -0.031450476540335205 0 0.0015639179725249188 -0.031883774011750063 0 0.001846542681388012 -0.03156776129563104 0 0.0013412195302601052 -0.032632374349946376 0 0.0012606163046132073 -0.032562837959832711 0 0.0010878649365960562 -0.032518586667390881 0 0.0013412195302601052 -0.032632374349946376 0 0.0013567183546272774 -0.032611086461605869 0 0.0012606163046132073 -0.032562837959832711 0 0.0013567183546272774 -0.032611086461605869 0 0.0012606163046132073 -0.032562837959832711 0 0.0012318946459517911 -0.032504039442457396 0 0.0013567183546272774 -0.032611086461605869 0 0.0012318946459517911 -0.032504039442457396 0 0.0012963813171567111 -0.032484943077275535 0 0.0012963813171567111 -0.032484943077275535 0 0.0014016444832297239 -0.032667184923976474 0 0.0014738611109217162 -0.032500960705573158 0 0.0013567183546272774 -0.032611086461605869 0 0.0012963813171567111 -0.032484943077275535 0 0.0014016444832297239 -0.032667184923976474 0 0.0014016444832297239 -0.032667184923976474 0 0.0012856883753949765 -0.032806344524597533 0 0.0013798428457947043 -0.03315212705568886 0 0.0014780616962316911 -0.032566068717650679 0 0.00059036586803423794 -0.032961764020264565 0 0.0012856883753949765 -0.032806344524597533 0 0.001063429768727607 -0.032941731630329249 0 0.0013798428457947043 -0.03315212705568886 0 0.0012856883753949765 -0.032806344524597533 0 0.001063429768727607 -0.032941731630329249 0 0.0013137990828173234 -0.032602509268055128 0 0.0014016444832297239 -0.032667184923976474 0 0.0012856883753949765 -0.032806344524597533 0 0.0013137990828173234 -0.032602509268055128 0 0.001063429768727607 -0.032941731630329249 0 0.00068179086768961801 -0.032720969743106225 0 0.00051153755845231136 -0.03325461527411025 0 0.001063429768727607 -0.032941731630329249 0 0.00085163389230322997 -0.033459972613929329 0 0.00051153755845231136 -0.03325461527411025 0 0.001083023938697457 -0.032151337121629237 0 0.00068179086768961801 -0.032720969743106225 0 0.00043941687047376125 -0.032271691803427649 0 0.001063429768727607 -0.032941731630329249 0 0.00068179086768961801 -0.032720969743106225 0 0.0013137990828173234 -0.032602509268055128 0 0.0011516402946225197 -0.031702291757830653 0 0.00049400474272378084 -0.032101531846562455 0 0.00070763150362733809 -0.032687616939499613 0 0.0013057318430914665 -0.032433871900347855 0 0.001083023938697457 -0.032151337121629237 0 0.00068179086768961801 -0.032720969743106225 0 0.001387116147201217 -0.032233532163458568 0 0.0015639179725249188 -0.031883774011750063 0 0.001083023938697457 -0.032151337121629237 0 0.001387116147201217 -0.032233532163458568 0 -0.0011506461135517366 -0.021625675020437295 0 -0.0005455825232384792 -0.022260736636331772 0 -0.00010223644912983781 -0.021311362370655534 0 0.00056451010356269537 -0.025206318192873459 0 -0.00015870257790399949 -0.027646270969559603 0 0.00056451010356269537 -0.025206318192873459 0 -0.00015657335543207154 -0.017166268845731959 0 0.00016924795717172591 -0.015412890413524328 0 0.00034764360283968059 -0.015288176068255808 0 -2.7188748059208939e-05 -0.015064344518340829 0 0.00034764360283968059 -0.015288176068255808 0 0.00042211206836628322 -0.015086469116922279 0 -2.7188748059208939e-05 -0.015064344518340829 0 0.00056451010356269537 -0.025206318192873459 0 0.0014959452879231682 -0.022372414700985874 0 0.00034764360283968059 -0.015288176068255808 0 0.00042211206836628322 -0.015086469116922279 0 0.00071743403020862009 -0.015374352710244243 0 0.0027561175381590015 -0.030954504349140648 0 0.0023517091987723111 -0.031155509980392997 0 0.0023646552378743481 -0.030900790400103881 0 0.0005686088503992538 -0.032718517577362043 0 0.0010187338684310712 -0.032677996646092784 0 0.00075693787457690391 -0.032550339512261127 0 0.00056451010356269537 -0.025206318192873459 0 0.0017770633879605467 -0.032754862313879529 0 0.0027561175381590015 -0.030954504349140648 0 0.0024934968643871291 -0.030670344142410745 0 0.0023646552378743481 -0.030900790400103881 0 0.0024934968643871291 -0.030670344142410745 0 0.0023646552378743481 -0.030900790400103881 0 0.002152485004824145 -0.030817125618970081 0 0.0020463917129316693 -0.030502326975976036 0 0.0024934968643871291 -0.030670344142410745 0 0.002152485004824145 -0.030817125618970081 0 0.0023646552378743481 -0.030900790400103881 0 0.002152485004824145 -0.030817125618970081 0 0.0021373569339423497 -0.031018013203765009 0 0.0020463917129316693 -0.030502326975976036 0 0.0019323584357551931 -0.030734330428722319 0 0.002152485004824145 -0.030817125618970081 0 0.0019323584357551931 -0.030734330428722319 0 0.0019869708841882623 -0.030910185666135806 0 0.002152485004824145 -0.030817125618970081 0 0.0019869708841882623 -0.030910185666135806 0 0.002152485004824145 -0.030817125618970081 0 0.0021373569339423497 -0.031018013203765009 0 0.0019322917132488914 -0.031078505635817644 0 0.002014524220445321 -0.03121332852472751 0 0.0021373569339423497 -0.031018013203765009 0 0.002014524220445321 -0.03121332852472751 0 0.0023517091987723111 -0.031155509980392997 0 0.0021373569339423497 -0.031018013203765009 0 0.0015708029753601681 -0.032008164767898035 0 0.0017770633879605467 -0.032754862313879529 0 0.0019263587226151172 -0.031450476540335205 0 0.001846542681388012 -0.03156776129563104 0 0.0023517091987723111 -0.031155509980392997 0 0.0019263587226151172 -0.031450476540335205 0 0.002014524220445321 -0.03121332852472751 0 0.0023517091987723111 -0.031155509980392997 0 0.0023517091987723111 -0.031155509980392997 0 0.0023646552378743481 -0.030900790400103881 0 0.0021373569339423497 -0.031018013203765009 0 0.0013412195302601052 -0.032632374349946376 0 0.0010187338684310712 -0.032677996646092784 0 0.0010878649365960562 -0.032518586667390881 0 0.0012606163046132073 -0.032562837959832711 0 0.0012318946459517911 -0.032504039442457396 0 0.0010878649365960562 -0.032518586667390881 0 0.00046549047108576484 -0.031868076942309351 0 0.00073285724938704732 -0.031974850611504083 0 0.00068685938966928344 -0.032005057594730171 0 0.0012318946459517911 -0.032504039442457396 0 0.0012963813171567111 -0.032484943077275535 0 0.0010816417938580994 -0.032345705878786914 0 0.00091267532225845045 -0.032105448522480082 0 0.00086264987726371528 -0.032180861858555176 0 0.0012318946459517911 -0.032504039442457396 0 0.0010878649365960562 -0.032518586667390881 0 0.0010816417938580994 -0.032345705878786914 0 0.0010878649365960562 -0.032518586667390881 0 0.0010816417938580994 -0.032345705878786914 0 0.00070418846766658397 -0.032235858582249567 0 0.00073285724938704732 -0.031974850611504083 0 0.00070418846766658397 -0.032235858582249567 0 0.00071341821311163083 -0.031945416999110895 0 0.00086264987726371528 -0.032180861858555176 0 0.0007022241166847234 -0.032228570458916896 0 0.0010187338684310712 -0.032677996646092784 0 0.0010878649365960562 -0.032518586667390881 0 0.00075693787457690391 -0.032550339512261127 0 0.0010878649365960562 -0.032518586667390881 0 0.00075693787457690391 -0.032550339512261127 0 0.00070418846766658397 -0.032235858582249567 0 0.00075693787457690391 -0.032550339512261127 0 0.00070418846766658397 -0.032235858582249567 0 0.00027464502982871183 -0.032479420538301038 0 0.0005686088503992538 -0.032718517577362043 0 0.00075693787457690391 -0.032550339512261127 0 0.00027464502982871183 -0.032479420538301038 0 0.00070418846766658397 -0.032235858582249567 0 0.00042624406115549478 -0.032164658722544384 0 0.00057689837451174405 -0.031821843584527616 0 0.00070418846766658397 -0.032235858582249567 0 0.00042624406115549478 -0.032164658722544384 0 0.00027464502982871183 -0.032479420538301038 0 0.00054668402113275665 -0.031509680466756902 0 0.00062203260655125682 -0.031721989968703283 0 0.00035751340402200184 -0.030984783839487783 0 0.00054668402113275665 -0.031509680466756902 0 0.0003284298280590646 -0.031755563391647659 0 0.00035751340402200184 -0.030984783839487783 0 0.00042624406115549478 -0.032164658722544384 0 0.00057689837451174405 -0.031821843584527616 0 0.0003284298280590646 -0.031755563391647659 0 0.00054668402113275665 -0.031509680466756902 0 0.00057689837451174405 -0.031821843584527616 0 0.0003284298280590646 -0.031755563391647659 0 0.00070418846766658397 -0.032235858582249567 0 0.00057689837451174405 -0.031821843584527616 0 0.00071341821311163083 -0.031945416999110895 0 0.00057689837451174405 -0.031821843584527616 0 0.00061702464873083422 -0.031727842495415083 0 0.00071341821311163083 -0.031945416999110895 0 0.00054668402113275665 -0.031509680466756902 0 0.00061702464873083422 -0.031727842495415083 0 0.00062203260655125682 -0.031721989968703283 0 0.00054668402113275665 -0.031509680466756902 0 0.00057689837451174405 -0.031821843584527616 0 0.00061702464873083422 -0.031727842495415083 0 0.00061702464873083422 -0.031727842495415083 0 0.00067790368731961538 -0.031883896975360315 0 0.00054907034664535904 -0.031862913334828734 0 0.00061702464873083422 -0.031727842495415083 0 0.00067790368731961538 -0.031883896975360315 0 0.00071341821311163083 -0.031945416999110895 0 0.00067790368731961538 -0.031883896975360315 0 0.00071341821311163083 -0.031945416999110895 0 0.00068685938966928344 -0.032005057594730171 0 0.00073285724938704732 -0.031974850611504083 0 0.00071341821311163083 -0.031945416999110895 0 0.00068685938966928344 -0.032005057594730171 0 0.00068685938966928344 -0.032005057594730171 0 0.0006224791531310417 -0.032145415726742094 0 0.00049428294854043627 -0.032081995092173327 0 0.00067790368731961538 -0.031883896975360315 0 0.0006224791531310417 -0.032145415726742094 0 0.00062102615126908526 -0.032606462268863518 0 0.00067790368731961538 -0.031883896975360315 0 0.00068685938966928344 -0.032005057594730171 0 0.0006224791531310417 -0.032145415726742094 0 0.0004817222889702953 -0.031997606961747332 0 0.00028445472115763742 -0.032155219007362797 0 0.00029796065831051987 -0.032788433912079806 0 0.00067790368731961538 -0.031883896975360315 0 0.0004817222889702953 -0.031997606961747332 0 0.00028445472115763742 -0.032155219007362797 0 0.00066444747780415234 -0.031946466826719047 0 0.00043416399438256988 -0.032387799183818469 0 0.0004817222889702953 -0.031997606961747332 0 0.00034879732914920049 -0.031952564637843787 0 0.00012060356195346046 -0.031940512396907338 0 0.0004430556577485732 -0.032052106893436565 0 0.00019099657166321129 -0.032380427121377238 0 0.00034879732914920049 -0.031952564637843787 0 0.00012060356195346046 -0.031940512396907338 0 2.9566468668896079e-05 -0.032121320951478467 0 0.00034879732914920049 -0.031952564637843787 0 0.00048969560275186996 -0.032018621782752332 0 0.00054907034664535904 -0.031862913334828734 0 0.00067790368731961538 -0.031883896975360315 0 0.0004817222889702953 -0.031997606961747332 0 0.00054907034664535904 -0.031862913334828734 0 0.0004817222889702953 -0.031997606961747332 0 0.00034879732914920049 -0.031952564637843787 0 0.00054907034664535904 -0.031862913334828734 0 0.00061702464873083422 -0.031727842495415083 0 0.00054907034664535904 -0.031862913334828734 0 0.00062203260655125682 -0.031721989968703283 0 0.00035874607991229045 -0.031626417321642848 0 0.00060929623592962117 -0.031144689537466633 0 0.00048969560275186996 -0.032018621782752332 0 0.00054907034664535904 -0.031862913334828734 0 0.00062203260655125682 -0.031721989968703283 0 0.00018433096716234958 -0.031253582746290802 0 0.00067103099370985429 -0.030543456049029079 0 0.00056515120431064637 -0.031125696283949466 0 0.00067103099370985429 -0.030543456049029079 0 0.00070924274824616122 -0.030814573126405363 0 0.00056515120431064637 -0.031125696283949466 0 0.00067103099370985429 -0.030543456049029079 0 0.00070924274824616122 -0.030814573126405363 0 0.00055053558337917743 -0.030407822584832444 0 0.00067103099370985429 -0.030543456049029079 0 0.00055053558337917743 -0.030407822584832444 0 0.00035751340402200184 -0.030984783839487783 0 0.00060929623592962117 -0.031144689537466633 0 0.0003580733441931122 -0.031043595610929408 0 -0.00029939717508984672 -0.032356221516150002 0 5.7754417873490438e-05 -0.032203180078430031 0 2.6598755268119806e-05 -0.032463281177825286 0 -0.00059205579375166322 -0.034134384469749014 0 -0.00053518850616057084 -0.034135082581052439 0 -0.00054205801845564944 -0.03418350763122148 0 -0.00059205579375166322 -0.034134384469749014 0 -0.00053518850616057084 -0.034135082581052439 0 -0.00061229009574324377 -0.034047294638592622 0 -0.00059205579375166322 -0.034134384469749014 0 -0.00054205801845564944 -0.03418350763122148 0 -0.00059244514985787387 -0.034171465845859422 0 -0.00029939717508984672 -0.032356221516150002 0 -2.5289797329098976e-05 -0.031890262950376114 0 5.7754417873490438e-05 -0.032203180078430031 0 -0.00052905320124226388 -0.033306453574272303 0 0.00059036586803423794 -0.032961764020264565 0 8.7163046560765096e-05 -0.033901973836924747 0 0.00059036586803423794 -0.032961764020264565 0 0.001063429768727607 -0.032941731630329249 0 0.00085163389230322997 -0.033459972613929329 0 0.0013798428457947043 -0.03315212705568886 0 0.00091267532225845045 -0.032105448522480082 0 0.00059036586803423794 -0.032961764020264565 0 0.00046549047108576484 -0.031868076942309351 0 -2.5289797329098976e-05 -0.031890262950376114 0 0.00026139848550559437 -0.032052012369011049 0 -2.5289797329098976e-05 -0.031890262950376114 0 0.00026139848550559437 -0.032052012369011049 0 5.7754417873490438e-05 -0.032203180078430031 0 0.00046549047108576484 -0.031868076942309351 0 0.00026139848550559437 -0.032052012369011049 0 0.00049428294854043627 -0.032081995092173327 0 0.00046549047108576484 -0.031868076942309351 0 0.00068685938966928344 -0.032005057594730171 0 0.00049428294854043627 -0.032081995092173327 0 0.00026139848550559437 -0.032052012369011049 0 0.00049428294854043627 -0.032081995092173327 0 0.00028475370925832671 -0.032263501268194605 0 0.0004768715098011514 -0.032356866002981363 0 0.00028475370925832671 -0.032263501268194605 0 0.00019159226249621598 -0.03272033295151771 0 0.0006224791531310417 -0.032145415726742094 0 0.0004768715098011514 -0.032356866002981363 0 0.00062102615126908526 -0.032606462268863518 0 0.0006224791531310417 -0.032145415726742094 0 0.00049428294854043627 -0.032081995092173327 0 0.0004768715098011514 -0.032356866002981363 0 0.00049428294854043627 -0.032081995092173327 0 0.0004768715098011514 -0.032356866002981363 0 0.00028475370925832671 -0.032263501268194605 0 0.00028475370925832671 -0.032263501268194605 0 2.6598755268119806e-05 -0.032463281177825286 0 0.00019159226249621598 -0.03272033295151771 0 5.7754417873490438e-05 -0.032203180078430031 0 0.00028475370925832671 -0.032263501268194605 0 2.6598755268119806e-05 -0.032463281177825286 0 0.00026139848550559437 -0.032052012369011049 0 5.7754417873490438e-05 -0.032203180078430031 0 0.00028475370925832671 -0.032263501268194605 0 2.6598755268119806e-05 -0.032463281177825286 0 0.00019159226249621598 -0.03272033295151771 0 -0.00015145920752025478 -0.032914556562696221 0 0.00019159226249621598 -0.03272033295151771 0 2.9827795169222938e-05 -0.033320354462489633 0 -0.00015145920752025478 -0.032914556562696221 0 0.0004768715098011514 -0.032356866002981363 0 0.00019159226249621598 -0.03272033295151771 0 0.00062102615126908526 -0.032606462268863518 0 0.00019159226249621598 -0.03272033295151771 0 0.00062102615126908526 -0.032606462268863518 0 2.9827795169222938e-05 -0.033320354462489633 0 0.00043416399438256988 -0.032387799183818469 0 -0.00013605048854098558 -0.033142517044254464 0 0.00028445472115763742 -0.032155219007362797 0 0.00029796065831051987 -0.032788433912079806 0 -0.00033684121212441254 -0.032989535480617151 0 2.9827795169222938e-05 -0.033320354462489633 0 -0.00015145920752025478 -0.032914556562696221 0 -0.00029159907309372364 -0.033492071578099199 0 -0.00015145920752025478 -0.032914556562696221 0 -0.00051051114850598437 -0.03297401739109336 0 -0.00029159907309372364 -0.033492071578099199 0 -0.00029939717508984672 -0.032356221516150002 0 2.6598755268119806e-05 -0.032463281177825286 0 -0.00015145920752025478 -0.032914556562696221 0 -0.00029939717508984672 -0.032356221516150002 0 -0.00015145920752025478 -0.032914556562696221 0 -0.00051051114850598437 -0.03297401739109336 0 -0.00052905320124226388 -0.033306453574272303 0 -0.00053042423517871682 -0.03348633977563592 0 -0.00053518850616057084 -0.034135082581052439 0 -0.00061229009574324377 -0.034047294638592622 0 -0.0004732285247199504 -0.034100321298741541 0 -0.00061229009574324377 -0.034047294638592622 0 -0.00050104870977521064 -0.033990812587855378 0 -0.0004732285247199504 -0.034100321298741541 0 -0.00053042423517871682 -0.03348633977563592 0 -0.00055520360990702776 -0.033688833498383572 0 -0.00051051114850598437 -0.03297401739109336 0 -0.00054115375272974003 -0.033727558823657106 0 -0.00029159907309372364 -0.033492071578099199 0 -0.00061229009574324377 -0.034047294638592622 0 -0.00054115375272974003 -0.033727558823657106 0 -0.00050104870977521064 -0.033990812587855378 0 -0.0004899404403658535 -0.03398352426743742 0 -0.00050104870977521064 -0.033990812587855378 0 -0.00043387240341030269 -0.034097316783480207 0 -0.00054115375272974003 -0.033727558823657106 0 -0.0004899404403658535 -0.03398352426743742 0 -0.00050104870977521064 -0.033990812587855378 0 -0.00045669950255721408 -0.034118160112980842 0 -0.00043387240341030269 -0.034097316783480207 0 -0.00039911775007043544 -0.034221416477488685 0 -0.0004899404403658535 -0.03398352426743742 0 -0.00045669950255721408 -0.034118160112980842 0 -0.00043387240341030269 -0.034097316783480207 0 -0.00043387240341030269 -0.034097316783480207 0 -0.00039082197462343081 -0.034132715966384009 0 -0.00039911775007043544 -0.034221416477488685 0 -0.00043387240341030269 -0.034097316783480207 0 -0.0004732285247199504 -0.034100321298741541 0 -0.00039082197462343081 -0.034132715966384009 0 -0.00050104870977521064 -0.033990812587855378 0 -0.00043387240341030269 -0.034097316783480207 0 -0.0004732285247199504 -0.034100321298741541 0 -0.00053518850616057084 -0.034135082581052439 0 -0.00054205801845564944 -0.03418350763122148 0 -0.00042586196397523902 -0.034180986075468427 0 -0.0004732285247199504 -0.034100321298741541 0 -0.00039082197462343081 -0.034132715966384009 0 -0.00042586196397523902 -0.034180986075468427 0 -0.00053518850616057084 -0.034135082581052439 0 -0.0004732285247199504 -0.034100321298741541 0 -0.00042586196397523902 -0.034180986075468427 0 -0.00039082197462343081 -0.034132715966384009 0 -0.00042586196397523902 -0.034180986075468427 0 -0.00031654017897287588 -0.034096763737874181 0 -8.2919513617687996e-05 -0.03396990430538821 0 -0.00032274146705529259 -0.034087345267843017 0 0.00025486601653842901 -0.033778252025418697 0 -0.0002326658898997959 -0.033589716028613728 0 -0.00031654017897287588 -0.034096763737874181 0 0.00025486601653842901 -0.033778252025418697 0 -0.0002326658898997959 -0.033589716028613728 0 7.2396102173986383e-05 -0.033224289234653759 0 0.00025486601653842901 -0.033778252025418697 0 0.00051153755845231136 -0.03325461527411025 0 7.2396102173986383e-05 -0.033224289234653759 0 8.7163046560765096e-05 -0.033901973836924747 0 -8.2919513617687996e-05 -0.03396990430538821 0 0.00085163389230322997 -0.033459972613929329 0 0.00025486601653842901 -0.033778252025418697 0 0.00051153755845231136 -0.03325461527411025 0 -0.00048412689124855524 -0.034339559871943814 0 -0.00017209857142859653 -0.033909203491006276 0 -0.00063418002919245014 -0.033982338582011329 0 -0.0002326658898997959 -0.033589716028613728 0 -0.00048496569187580655 -0.033295334819439353 0 -0.00063418002919245014 -0.033982338582011329 0 -0.0002326658898997959 -0.033589716028613728 0 -0.00031654017897287588 -0.034096763737874181 0 -0.00031654017897287588 -0.034096763737874181 0 -0.00043730712264520904 -0.034309359658359628 0 -0.00039911775007043544 -0.034221416477488685 0 -0.00039082197462343081 -0.034132715966384009 0 -0.00031654017897287588 -0.034096763737874181 0 -0.00039911775007043544 -0.034221416477488685 0 -0.00063418002919245014 -0.033982338582011329 0 -0.00031654017897287588 -0.034096763737874181 0 -0.00043730712264520904 -0.034309359658359628 0 -0.00043730712264520904 -0.034309359658359628 0 -0.00039911775007043544 -0.034221416477488685 0 -0.0004263521892767507 -0.034324368625696142 0 -0.00043730712264520904 -0.034309359658359628 0 -0.0004263521892767507 -0.034324368625696142 0 -0.00043167491109758854 -0.034543730905819789 0 -0.00045669950255721408 -0.034118160112980842 0 -0.00039911775007043544 -0.034221416477488685 0 -0.0004263521892767507 -0.034324368625696142 0 -0.0004263521892767507 -0.034324368625696142 0 -0.00043167491109758854 -0.034543730905819789 0 -0.00029791253197994209 -0.034531716407791839 0 -0.00043167491109758854 -0.034543730905819789 0 -0.00015187222491386883 -0.034754753485185363 0 -0.00029791253197994209 -0.034531716407791839 0 -0.00043167491109758854 -0.034543730905819789 0 -0.00015187222491386883 -0.034754753485185363 0 -0.00023197382887997381 -0.034753253783487058 0 -0.00015187222491386883 -0.034754753485185363 0 -8.3606023091644761e-08 -0.034999722110335932 0 -5.1429546245477717e-08 -0.034999634487870974 0 -0.00015187222491386883 -0.034754753485185363 0 -8.3606023091644761e-08 -0.034999722110335932 0 -0.00023197382887997381 -0.034753253783487058 0 -8.3606023091644761e-08 -0.034999722110335932 0 -0.00023197382887997381 -0.034753253783487058 0 -1.7554347701731792e-07 -0.034999736300509045 0 -0.00023197382887997381 -0.034753253783487058 0 -0.00030855823238778979 -0.034766973706524873 0 -1.7554347701731792e-07 -0.034999736300509045 0 -0.00030855823238778979 -0.034766973706524873 0 -1.7554347701731792e-07 -0.034999736300509045 0 -0.00015842732677220965 -0.034872044057160892 0 -0.00041506344891627646 -0.034763191711598113 0 -0.00043167491109758854 -0.034543730905819789 0 -0.00042581158283774698 -0.034727404710692973 0 -0.00063418002919245014 -0.033982338582011329 0 -0.00043730712264520904 -0.034309359658359628 0 -0.00043167491109758854 -0.034543730905819789 0 -0.00048412689124855524 -0.034339559871943814 0 -0.00044861353177921349 -0.034501679454293416 0 -0.00043167491109758854 -0.034543730905819789 0 -0.00023197382887997381 -0.034753253783487058 0 -0.00042581158283774698 -0.034727404710692973 0 -0.00030855823238778979 -0.034766973706524873 0 -0.00042581158283774698 -0.034727404710692973 0 -0.00054888110077974043 -0.034578997558157708 0 -0.00023197382887997381 -0.034753253783487058 0 -0.00030855823238778979 -0.034766973706524873 0 -0.00042581158283774698 -0.034727404710692973 0 -0.00041506344891627646 -0.034763191711598113 0 -0.00042581158283774698 -0.034727404710692973 0 -0.00049189619876508677 -0.034566429061573929 0 -0.00042581158283774698 -0.034727404710692973 0 -0.00049189619876508677 -0.034566429061573929 0 -0.00054888110077974043 -0.034578997558157708 0 -0.00049189619876508677 -0.034566429061573929 0 -0.00085125998927365295 -0.034325774522103981 0 -0.00035625685004521179 -0.034124209465028109 0 -0.00049189619876508677 -0.034566429061573929 0 -0.00054888110077974043 -0.034578997558157708 0 -0.00085125998927365295 -0.034325774522103981 0 -0.00030855823238778979 -0.034766973706524873 0 -0.00054888110077974043 -0.034578997558157708 0 -0.0003120775234052393 -0.034748422508028745 0 -0.00054888110077974043 -0.034578997558157708 0 -0.00038651556115586281 -0.034716147319224726 0 -0.0003120775234052393 -0.034748422508028745 0 -0.00038651556115586281 -0.034716147319224726 0 -0.00085125998927365295 -0.034325774522103981 0 -0.00048979239135009216 -0.035006964660264338 0 -0.00089836322452182572 -0.034284946307505219 0 -0.0011813635293306847 -0.033793794161169927 0 -0.00054888110077974043 -0.034578997558157708 0 -0.00038651556115586281 -0.034716147319224726 0 -0.00085125998927365295 -0.034325774522103981 0 -0.00080515846986533375 -0.0332687738365402 0 -0.00085125998927365295 -0.034325774522103981 0 -0.0019332252037907777 -0.032601563702126066 0 -0.00080515846986533375 -0.0332687738365402 0 -0.00085125998927365295 -0.034325774522103981 0 -0.00035625685004521179 -0.034124209465028109 0 -1.7554347701731792e-07 -0.034999736300509045 0 -0.00015842732677220965 -0.034872044057160892 0 -8.195472546822003e-08 -0.034999742746413043 0 -0.00030855823238778979 -0.034766973706524873 0 -0.00015842732677220965 -0.034872044057160892 0 -0.0003120775234052393 -0.034748422508028745 0 -0.00015842732677220965 -0.034872044057160892 0 -0.0003120775234052393 -0.034748422508028745 0 -0.00017519691269386411 -0.034870706196443856 0 -0.00038651556115586281 -0.034716147319224726 0 -0.0003120775234052393 -0.034748422508028745 0 -0.00017519691269386411 -0.034870706196443856 0 -0.00038651556115586281 -0.034716147319224726 0 -0.00017519691269386411 -0.034870706196443856 0 -0.00021790792724280238 -0.034960392516396606 0 -0.00017519691269386411 -0.034870706196443856 0 -8.8813988380896772e-05 -0.034974007824116353 0 -0.00021790792724280238 -0.034960392516396606 0 -0.00015842732677220965 -0.034872044057160892 0 -0.00017519691269386411 -0.034870706196443856 0 -8.195472546822003e-08 -0.034999742746413043 0 -0.00017519691269386411 -0.034870706196443856 0 -8.195472546822003e-08 -0.034999742746413043 0 -8.8813988380896772e-05 -0.034974007824116353 0 -8.195472546822003e-08 -0.034999742746413043 0 -1.8522260376146034e-07 -0.035000248977966927 0 -8.8813988380896772e-05 -0.034974007824116353 0 -1.8522260376146034e-07 -0.035000248977966927 0 -8.8813988380896772e-05 -0.034974007824116353 0 -0.00011663615507508191 -0.035026431696509049 0 -8.8813988380896772e-05 -0.034974007824116353 0 -0.00011663615507508191 -0.035026431696509049 0 -0.00021790792724280238 -0.034960392516396606 0 -0.00021790792724280238 -0.034960392516396606 0 -0.00023261422162163239 -0.035053252528786848 0 -0.00048979239135009216 -0.035006964660264338 0 -0.00011663615507508191 -0.035026431696509049 0 -0.00021790792724280238 -0.034960392516396606 0 -0.00023261422162163239 -0.035053252528786848 0 -0.00017048919908665275 -0.035138407007766922 0 -0.00026891174836240047 -0.035128500415387662 0 -0.00015453228551106063 -0.035094954579927159 0 -0.00026891174836240047 -0.035128500415387662 0 -0.00023261422162163239 -0.035053252528786848 0 -0.00015453228551106063 -0.035094954579927159 0 -0.00011663615507508191 -0.035026431696509049 0 -0.00023261422162163239 -0.035053252528786848 0 -0.00015453228551106063 -0.035094954579927159 0 -8.6893605484719047e-06 -0.035380246404977916 0 -1.7978971472009207e-05 -0.03487010489477213 0 -2.3599304462340605e-07 -0.035000227758121651 0 1.541887945007567e-09 -0.034999999033194715 0 -3.5296208740731688e-10 -0.035000000007753981 0 -0.00015135421735684522 -0.035163041028601273 0 -1.8522260376146034e-07 -0.035000248977966927 0 -9.3174581108088406e-05 -0.035068114149491944 0 -0.00011663615507508191 -0.035026431696509049 0 -0.00015453228551106063 -0.035094954579927159 0 -9.3174581108088406e-05 -0.035068114149491944 0 -0.00014303885502191417 -0.035118051101608018 0 -0.00015453228551106063 -0.035094954579927159 0 -9.3174581108088406e-05 -0.035068114149491944 0 -0.00014303885502191417 -0.035118051101608018 0 -0.00017048919908665275 -0.035138407007766922 0 -0.00015453228551106063 -0.035094954579927159 0 -1.8522260376146034e-07 -0.035000248977966927 0 -0.00011663615507508191 -0.035026431696509049 0 -9.3174581108088406e-05 -0.035068114149491944 0 -0.00080515846986533375 -0.0332687738365402 0 -0.0012408076893297309 -0.032433947708274707 0 -0.0019332252037907777 -0.032601563702126066 0 -0.0012408076893297309 -0.032433947708274707 0 -0.0019332252037907777 -0.032601563702126066 0 -0.0014965231652960495 -0.031770822495176272 0 -0.00080515846986533375 -0.0332687738365402 0 -0.0012408076893297309 -0.032433947708274707 0 -0.00079051482602553386 -0.032198863467560269 0 -0.00038651556115586281 -0.034716147319224726 0 -0.00021790792724280238 -0.034960392516396606 0 -0.00048979239135009216 -0.035006964660264338 0 -0.0022095419004287127 -0.031601742344341682 0 -0.0019332252037907777 -0.032601563702126066 0 -0.0014965231652960495 -0.031770822495176272 0 -0.00026891174836240047 -0.035128500415387662 0 -0.00023261422162163239 -0.035053252528786848 0 -0.00048979239135009216 -0.035006964660264338 0 -0.0012204579852804348 -0.033417700981793273 0 -0.0011813635293306847 -0.033793794161169927 0 -0.0010180357546873474 -0.031274739220339381 0 -0.0014965231652960495 -0.031770822495176272 0 -0.00079051482602553386 -0.032198863467560269 0 -0.0012408076893297309 -0.032433947708274707 0 -0.0014965231652960495 -0.031770822495176272 0 -0.00079051482602553386 -0.032198863467560269 0 -0.00079051482602553386 -0.032198863467560269 0 -0.0003611267342817499 -0.032221919824590932 0 -0.00048433865496899648 -0.031555640112130162 0 -0.0010180357546873474 -0.031274739220339381 0 -0.00079051482602553386 -0.032198863467560269 0 -0.00048433865496899648 -0.031555640112130162 0 -0.00079051482602553386 -0.032198863467560269 0 -0.0003611267342817499 -0.032221919824590932 0 -0.00053584641126128152 -0.03277914636218867 0 -0.00080515846986533375 -0.0332687738365402 0 -0.00079051482602553386 -0.032198863467560269 0 -0.00053584641126128152 -0.03277914636218867 0 -0.0003611267342817499 -0.032221919824590932 0 0.00013858047519352406 -0.031923360908790228 0 -0.00010145600823749734 -0.032629211440263393 0 -0.0003611267342817499 -0.032221919824590932 0 -0.00053584641126128152 -0.03277914636218867 0 -0.00010145600823749734 -0.032629211440263393 0 -0.00020349894075887351 -0.030929388037505581 0 -0.00048433865496899648 -0.031555640112130162 0 0.00013858047519352406 -0.031923360908790228 0 -0.0003611267342817499 -0.032221919824590932 0 -0.00048433865496899648 -0.031555640112130162 0 0.00013858047519352406 -0.031923360908790228 0 0.00032886812946973816 -0.031111524942286944 0 5.134054574327935e-05 -0.031570627939567372 0 0.0004949303504460592 -0.03160140270174705 0 0.00030931069681516024 -0.031215982433538219 0 0.00010258051469681507 -0.031684086206579178 0 0.00032886812946973816 -0.031111524942286944 0 -0.00020349894075887351 -0.030929388037505581 0 0.00013858047519352406 -0.031923360908790228 0 0.00032886812946973816 -0.031111524942286944 0 0.00089151810605296946 -0.030957274685344118 0 0.00093828724871517215 -0.031439767719304478 0 0.00032886812946973816 -0.031111524942286944 0 0.00093828724871517215 -0.031439767719304478 0 0.0004949303504460592 -0.03160140270174705 0 0.00093828724871517215 -0.031439767719304478 0 0.0004949303504460592 -0.03160140270174705 0 0.00056130783228486617 -0.032055921304681823 0 0.0010285486233140816 -0.031113333171109227 0 0.00049400474272378084 -0.032101531846562455 0 5.134054574327935e-05 -0.031570627939567372 0 0.0004949303504460592 -0.03160140270174705 0 0.00056130783228486617 -0.032055921304681823 0 5.134054574327935e-05 -0.031570627939567372 0 0.00056130783228486617 -0.032055921304681823 0 -0.00024546377370872775 -0.032065458785279367 0 0.00010258051469681507 -0.031684086206579178 0 -1.3327248513754888e-05 -0.032797332994074078 0 2.3245159812264217e-05 -0.032977014336465597 0 0.0003653949100316097 -0.032787379132317239 0 -0.00019526022270488757 -0.032774297876762573 0 0.00049400474272378084 -0.032101531846562455 0 -1.3327248513754888e-05 -0.032797332994074078 0 2.3245159812264217e-05 -0.032977014336465597 0 0.0003653949100316097 -0.032787379132317239 0 7.2396102173986383e-05 -0.033224289234653759 0 0.00049400474272378084 -0.032101531846562455 0 2.4808904366461672e-05 -0.033350267053750354 0 0.00068179086768961801 -0.032720969743106225 0 0.00043941687047376125 -0.032271691803427649 0 7.2396102173986383e-05 -0.033224289234653759 0 0.00068179086768961801 -0.032720969743106225 0 0.00051153755845231136 -0.03325461527411025 0 7.2396102173986383e-05 -0.033224289234653759 0 -0.0002326658898997959 -0.033589716028613728 0 7.2396102173986383e-05 -0.033224289234653759 0 -0.00015552976928580805 -0.033163560418723065 0 2.3245159812264217e-05 -0.032977014336465597 0 7.2396102173986383e-05 -0.033224289234653759 0 -0.00015552976928580805 -0.033163560418723065 0 -0.0002326658898997959 -0.033589716028613728 0 -0.00015552976928580805 -0.033163560418723065 0 -0.00048496569187580655 -0.033295334819439353 0 -0.00041506344891627646 -0.034763191711598113 0 -0.00049189619876508677 -0.034566429061573929 0 7.9687497365885603e-05 -0.034458062386731651 0 -0.00049189619876508677 -0.034566429061573929 0 7.9687497365885603e-05 -0.034458062386731651 0 -0.00035625685004521179 -0.034124209465028109 0 7.9687497365885603e-05 -0.034458062386731651 0 4.9480014163054221e-05 -0.033518683073204367 0 -0.00035625685004521179 -0.034124209465028109 0 -0.00080515846986533375 -0.0332687738365402 0 4.9480014163054221e-05 -0.033518683073204367 0 -0.00035625685004521179 -0.034124209465028109 0 -0.00081436012470009842 -0.033227470100773066 0 -0.00023377032376079119 -0.033150795382049854 0 -0.00017209857142859653 -0.033909203491006276 0 -1.3327248513754888e-05 -0.032797332994074078 0 -0.00015552976928580805 -0.033163560418723065 0 -0.00048496569187580655 -0.033295334819439353 0 -0.00019526022270488757 -0.032774297876762573 0 2.3245159812264217e-05 -0.032977014336465597 0 -0.00015552976928580805 -0.033163560418723065 0 -0.00019526022270488757 -0.032774297876762573 0 7.9687497365885603e-05 -0.034458062386731651 0 4.9480014163054221e-05 -0.033518683073204367 0 0.00073891745560969132 -0.033512191939252707 0 -0.00023377032376079119 -0.033150795382049854 0 -1.3327248513754888e-05 -0.032797332994074078 0 0.0042330423337722965 -0.016435929741334315 0 0.0049467202213705729 -0.016017385429545609 0 0.0042188129887286742 -0.015406177752286258 0 0.0042330423337722965 -0.016435929741334315 0 0.0049467202213705729 -0.016017385429545609 0 0.0049231404306380976 -0.016620064078664589 0 0.0049467202213705729 -0.016017385429545609 0 0.0049231404306380976 -0.016620064078664589 0 0.0055098877643800425 -0.016138407313148986 0 0.0049231404306380976 -0.016620064078664589 0 0.0043178724409505742 -0.017134840817315547 0 0.0048928430427005619 -0.017403215536403453 0 0.0049231404306380976 -0.016620064078664589 0 0.0056143122896891197 -0.016626937070859344 0 0.0048928430427005619 -0.017403215536403453 0 0.0025968852933406514 -0.007575198043532628 0 0.0022390027724868132 -0.013119797274906532 0 0.0042330423337722965 -0.016435929741334315 0 0.0049231404306380976 -0.016620064078664589 0 0.0043178724409505742 -0.017134840817315547 0 0.0042330423337722965 -0.016435929741334315 0 0.0032907539527453934 -0.016897138681361008 0 0.0043178724409505742 -0.017134840817315547 0 0.0037286650675504608 -0.018012155481139477 0 0.0031190875488212679 -0.019071276087740247 0 0.0024315454634704354 -0.017901623423825674 0 0.0037286650675504608 -0.018012155481139477 0 0.0028122134806691898 -0.016600218720611244 0 0.0024315454634704354 -0.017901623423825674 0 0.003377770387324377 -0.017294801725611084 0 0.0029052530819881667 -0.016703294191969018 0 0.0032907539527453934 -0.016897138681361008 0 0.0035167530089669358 -0.016192606591246064 0 0.0028122134806691898 -0.016600218720611244 0 0.0042330423337722965 -0.016435929741334315 0 0.0032907539527453934 -0.016897138681361008 0 0.0035167530089669358 -0.016192606591246064 0 0.0042330423337722965 -0.016435929741334315 0 0.0035167530089669358 -0.016192606591246064 0 0.0042188129887286742 -0.015406177752286258 0 0.0035167530089669358 -0.016192606591246064 0 0.0030765611555742729 -0.015371408139594287 0 0.0042188129887286742 -0.015406177752286258 0 0.0035167530089669358 -0.016192606591246064 0 0.0030765611555742729 -0.015371408139594287 0 0.0028122134806691898 -0.016600218720611244 0 0.0030765611555742729 -0.015371408139594287 0 0.002227375537691592 -0.014171000230150643 0 0.0034487662697177917 -0.014348048187565502 0 0.0030765611555742729 -0.015371408139594287 0 0.0042188129887286742 -0.015406177752286258 0 0.0034487662697177917 -0.014348048187565502 0 0.0043331699895272835 -0.014471860039974719 0 0.0042188129887286742 -0.015406177752286258 0 0.0049709679536881378 -0.014669020319343591 0 0.0043331699895272835 -0.014471860039974719 0 0.0042188129887286742 -0.015406177752286258 0 0.0034487662697177917 -0.014348048187565502 0 0.0049467202213705729 -0.016017385429545609 0 0.0050988945073819139 -0.015328740193261168 0 0.0056683634631341934 -0.01550518305525219 0 0.0042188129887286742 -0.015406177752286258 0 0.0050988945073819139 -0.015328740193261168 0 0.0049709679536881378 -0.014669020319343591 0 0.0049467202213705729 -0.016017385429545609 0 0.0042188129887286742 -0.015406177752286258 0 0.0050988945073819139 -0.015328740193261168 0 0.0050988945073819139 -0.015328740193261168 0 0.0049709679536881378 -0.014669020319343591 0 0.0058254243303752073 -0.014738906231026116 0 0.0043331699895272835 -0.014471860039974719 0 0.0049709679536881378 -0.014669020319343591 0 0.0048350854539354407 -0.013941481443039506 0 0.0049709679536881378 -0.014669020319343591 0 0.0058254243303752073 -0.014738906231026116 0 0.0055610501620609008 -0.013976050826594822 0 0.0058254243303752073 -0.014738906231026116 0 0.0062741291476181025 -0.01399807108649738 0 0.0055610501620609008 -0.013976050826594822 0 0.0058254243303752073 -0.014738906231026116 0 0.0068700536335447584 -0.014459163181221748 0 0.0062741291476181025 -0.01399807108649738 0 0.005768277017161566 -0.014643669403770432 0 0.007233473157193338 -0.014960652978966043 0 0.0058254243303752073 -0.014738906231026116 0 0.0067164145204693928 -0.014383213154760597 0 0.0062937230328924841 -0.015078940613443137 0 0.0067164145204693928 -0.014383213154760597 0 0.0062937230328924841 -0.015078940613443137 0 0.0069940149095135545 -0.014957891618610972 0 0.0025809468175146243 -0.0037781389417444822 0 0.0019064453298937324 -0.0044894481268642674 0 0.0062937230328924841 -0.015078940613443137 0 0.0056683634631341934 -0.01550518305525219 0 0.0062937446656919369 -0.015804852009438194 0 0.0062937230328924841 -0.015078940613443137 0 0.0069940149095135545 -0.014957891618610972 0 0.0062937446656919369 -0.015804852009438194 0 0.0050988945073819139 -0.015328740193261168 0 0.0058254243303752073 -0.014738906231026116 0 0.0056683634631341934 -0.01550518305525219 0 0.0058254243303752073 -0.014738906231026116 0 0.0062937230328924841 -0.015078940613443137 0 0.0056683634631341934 -0.01550518305525219 0 -0.0011683283790413122 0.0077073313920192465 0 -0.0011089460324351726 0.0069874715127708851 0 -0.00049203026004638662 0.0073395725407679963 0 0.007233473157193338 -0.014960652978966043 0 0.0042228021739871818 -0.0048809976883204629 0 -0.0011683283790413122 0.0077073313920192465 0 -0.001755060874138533 0.0070761918267748906 0 -0.0011089460324351726 0.0069874715127708851 0 0.0067164145204693928 -0.014383213154760597 0 0.0076862052360602362 -0.014034278974884462 0 0.0069940149095135545 -0.014957891618610972 0 0.0042228021739871818 -0.0048809976883204629 0 0.0025809468175146243 -0.0037781389417444822 0 -0.001755060874138533 0.0070761918267748906 0 -0.0011089460324351726 0.0069874715127708851 0 -0.0016425258282356831 0.0062644391240763708 0 -0.0011089460324351726 0.0069874715127708851 0 -0.0009950362839645096 0.0064244239057068674 0 -0.00051061707309567295 0.0067892585810482809 0 -0.0009950362839645096 0.0064244239057068674 0 -0.001148617580795739 0.0059639472440974096 0 -0.00051192892358418269 0.0062196886211703731 0 -0.0009950362839645096 0.0064244239057068674 0 -0.0016425258282356831 0.0062644391240763708 0 -0.001148617580795739 0.0059639472440974096 0 -0.0011089460324351726 0.0069874715127708851 0 -0.0009950362839645096 0.0064244239057068674 0 -0.0016425258282356831 0.0062644391240763708 0 -0.001755060874138533 0.0070761918267748906 0 -0.0016425258282356831 0.0062644391240763708 0 -0.0023845288305820943 0.0063940338557046074 0 -0.0016425258282356831 0.0062644391240763708 0 -0.0016554826991751848 0.0054815011456708449 0 -0.0022438204531977004 0.0058469062967679598 0 -0.0016425258282356831 0.0062644391240763708 0 -0.0016554826991751848 0.0054815011456708449 0 -0.001148617580795739 0.0059639472440974096 0 -0.001148617580795739 0.0059639472440974096 0 -0.00088108769441668487 0.005562064314205791 0 -0.00051192892358418269 0.0062196886211703731 0 -0.0016554826991751848 0.0054815011456708449 0 -0.001148617580795739 0.0059639472440974096 0 -0.00088108769441668487 0.005562064314205791 0 0.0019064453298937324 -0.0044894481268642674 0 0.0025968852933406514 -0.007575198043532628 0 0.0055098877643800425 -0.016138407313148986 0 0.0062937446656919369 -0.015804852009438194 0 0.0056101771971657543 -0.016529691997109686 0 0.0056683634631341934 -0.01550518305525219 0 0.0055098877643800425 -0.016138407313148986 0 0.0062937446656919369 -0.015804852009438194 0 0.0049467202213705729 -0.016017385429545609 0 0.0056683634631341934 -0.01550518305525219 0 0.0055098877643800425 -0.016138407313148986 0 -0.0023845288305820943 0.0063940338557046074 0 -0.0022438204531977004 0.0058469062967679598 0 -0.0030017485695992899 0.0056445489887799044 0 -0.0016425258282356831 0.0062644391240763708 0 -0.0023845288305820943 0.0063940338557046074 0 -0.0022438204531977004 0.0058469062967679598 0 -0.0022438204531977004 0.0058469062967679598 0 -0.0030017485695992899 0.0056445489887799044 0 -0.0023704224912637233 0.0052803898659247025 0 -0.0016554826991751848 0.0054815011456708449 0 -0.0022438204531977004 0.0058469062967679598 0 -0.0023704224912637233 0.0052803898659247025 0 0.0025968852933406514 -0.007575198043532628 0 -0.0020401890519749122 0.00034506203758563587 0 0.0049231404306380976 -0.016620064078664589 0 0.0055098877643800425 -0.016138407313148986 0 0.0056143122896891197 -0.016626937070859344 0 0.0056968912303145937 -0.01767298079357793 0 0.0025968852933406514 -0.007575198043532628 0 0.0014491742956047305 -0.0063371710974288687 0 0.0018968963005868453 -0.0080663273451206195 0 -2.631474530889149e-05 -0.0080300250379984062 0 -0.0020401890519749122 0.00034506203758563587 0 -0.001350608066108049 -0.0067229412509183899 0 -0.0030017485695992899 0.0056445489887799044 0 -0.0028239674821196243 0.0049196712575087986 0 -0.0023704224912637233 0.0052803898659247025 0 -0.0020401890519749122 0.00034506203758563587 0 -0.0017334133798740841 0.0049737218145924382 0 -0.0023704224912637233 0.0052803898659247025 0 -0.0023524061098655004 0.0047221199465331994 0 -0.0019503502944577969 0.0049814779934693153 0 -0.0029197869312558582 0.0049118297378888684 0 -0.0023704224912637233 0.0052803898659247025 0 -0.0023524061098655004 0.0047221199465331994 0 -0.0028350317052220127 -0.00042793194941789949 0 -0.0017454066368904728 0.0053291532772517863 0 -0.0029197869312558582 0.0049118297378888684 0 -0.0023524061098655004 0.0047221199465331994 0 -0.0026907689032058175 0.0040333663661743782 0 -0.0023524061098655004 0.0047221199465331994 0 -0.0026907689032058175 0.0040333663661743782 0 -0.0018077669195987261 0.0044537382880684862 0 -0.0039340484709306954 0.0035154001993957145 0 -0.0018077669195987261 0.0044537382880684862 0 -0.0028226108997404928 0.0030987419829530197 0 -0.0020401890519749122 0.00034506203758563587 0 -0.0028350317052220127 -0.00042793194941789949 0 -0.0016747608852730874 -0.0029686644588980738 0 -0.0013112106332004404 -0.0043799438168453629 0 -0.0021029341444133592 -0.0040614763699735679 0 -0.0016747608852730874 -0.0029686644588980738 0 -0.0021029341444133592 -0.0040614763699735679 0 -0.0027982133187389314 -0.0037372005285414844 0 -0.0013112106332004404 -0.0043799438168453629 0 -0.0021029341444133592 -0.0040614763699735679 0 -0.002311233758835476 -0.0048439837397199516 0 -0.00088108769441668487 0.005562064314205791 0 -0.0016824870091113446 0.0048850335828676253 0 -0.0009583261378313645 0.0050134774181778662 0 -0.00088108769441668487 0.005562064314205791 0 -0.0014815095835049579 0.0049876399836473939 0 -0.0011363628800936647 0.004319081547264428 0 -0.0016554826991751848 0.0054815011456708449 0 -0.00088108769441668487 0.005562064314205791 0 -0.0014815095835049579 0.0049876399836473939 0 -0.00090746923162460561 0.0055064689633101656 0 -0.001488535203562551 0.0044440916068285343 0 -0.0016554826991751848 0.0054815011456708449 0 -0.0023704224912637233 0.0052803898659247025 0 -0.0019503502944577969 0.0049814779934693153 0 -0.0016554826991751848 0.0054815011456708449 0 -0.0014815095835049579 0.0049876399836473939 0 -0.0019503502944577969 0.0049814779934693153 0 -0.0014815095835049579 0.0049876399836473939 0 -0.0019503502944577969 0.0049814779934693153 0 -0.0018077669195987261 0.0044537382880684862 0 -0.0023524061098655004 0.0047221199465331994 0 -0.0019503502944577969 0.0049814779934693153 0 -0.0018077669195987261 0.0044537382880684862 0 -0.0018077669195987261 0.0044537382880684862 0 -0.0011363628800936647 0.004319081547264428 0 -0.0020061174465770561 0.0024106547502041765 0 -0.0014815095835049579 0.0049876399836473939 0 -0.0018077669195987261 0.0044537382880684862 0 -0.0011363628800936647 0.004319081547264428 0 -0.0016824870091113446 0.0048850335828676253 0 -0.0009583261378313645 0.0050134774181778662 0 -0.0016235370173150686 0.0040757212382684241 0 -0.0009583261378313645 0.0050134774181778662 0 -0.0016235370173150686 0.0040757212382684241 0 -0.001319207669984696 0.0029240249444737231 0 -0.00098849252641500696 0.0049340979528700061 0 -0.0015195465357341824 0.0033468926356376451 0 -0.0016235370173150686 0.0040757212382684241 0 -0.0027034190140209102 0.0034082567298022756 0 -0.001319207669984696 0.0029240249444737231 0 -0.0016824870091113446 0.0048850335828676253 0 -0.0016235370173150686 0.0040757212382684241 0 -0.0027034190140209102 0.0034082567298022756 0 -0.0018077669195987261 0.0044537382880684862 0 -0.0020061174465770561 0.0024106547502041765 0 -0.0028226108997404928 0.0030987419829530197 0 -0.001488535203562551 0.0044440916068285343 0 -0.0021719509543912628 0.0034863970047998342 0 -0.0027034190140209102 0.0034082567298022756 0 -0.0025580048318676438 0.0018795121507034632 0 -0.0037870447983342007 0.0016438072850056052 0 -0.0025580048318676438 0.0018795121507034632 0 -0.001319207669984696 0.0029240249444737231 0 -0.0020285026210283925 0.00039966793994674563 0 -0.0027034190140209102 0.0034082567298022756 0 -0.0025580048318676438 0.0018795121507034632 0 -0.001319207669984696 0.0029240249444737231 0 -0.0015195465357341824 0.0033468926356376451 0 -0.0021210679861386429 0.0016196204455605661 0 -0.0036656375462508187 -0.0064106456578016061 0 -0.0036070697954336236 -0.0064227393556297611 0 -0.0037048427670399479 -0.0063959018818724794 0 -0.0036070697954336236 -0.0064227393556297611 0 -0.0037048427670399479 -0.0063959018818724794 0 -0.0036195621959782651 -0.0063988130953651478 0 -0.0028350317052220127 -0.00042793194941789949 0 -0.0032131193613021184 -0.0056274532416141013 0 -0.0020061174465770561 0.0024106547502041765 0 -0.0028226108997404928 0.0030987419829530197 0 -0.0035656233749683107 0.0019768030030849373 0 -0.0039340484709306954 0.0035154001993957145 0 -0.0028226108997404928 0.0030987419829530197 0 -0.0035656233749683107 0.0019768030030849373 0 -0.0028350317052220127 -0.00042793194941789949 0 -0.0035578963346129082 -0.0024141274842816975 0 -0.0037048427670399479 -0.0063959018818724794 0 -0.0038184493696163161 -0.0063131810363991174 0 -0.0036195621959782651 -0.0063988130953651478 0 -0.0020061174465770561 0.0024106547502041765 0 -0.0035656233749683107 0.0019768030030849373 0 -0.0031544984012576434 0.00035049105432610143 0 -0.0021719509543912628 0.0034863970047998342 0 -0.0035771495123110247 -0.0023200434553434521 0 -0.0035578963346129082 -0.0024141274842816975 0 -0.0035771495123110247 -0.0023200434553434521 0 -0.0038184493696163161 -0.0063131810363991174 0 -0.0036195621959782651 -0.0063988130953651478 0 -0.0035642932641820895 -0.0063655080076388945 0 -0.0027731429330894331 -0.0068789222681916277 0 -0.0028275947309014987 -0.0064638360355686467 0 -0.0035642932641820895 -0.0063655080076388945 0 -0.0036195621959782651 -0.0063988130953651478 0 -0.0035712208410300142 -0.0064142835781353883 0 -0.0035642932641820895 -0.0063655080076388945 0 -0.0033405846386149003 -0.0065210626045699195 0 -0.0035020687173126365 -0.0065311174551260813 0 -0.0027731429330894331 -0.0068789222681916277 0 -0.0029636089984493557 -0.0073257552911201243 0 -0.0035642932641820895 -0.0063655080076388945 0 -0.0027731429330894331 -0.0068789222681916277 0 -0.0023728692783361966 -0.0070754034760869226 0 -0.0029636089984493557 -0.0073257552911201243 0 -0.0027731429330894331 -0.0068789222681916277 0 -0.0022749340134085656 -0.0065926712899504148 0 -0.0028275947309014987 -0.0064638360355686467 0 -0.0027731429330894331 -0.0068789222681916277 0 -0.0023728692783361966 -0.0070754034760869226 0 -0.0022749340134085656 -0.0065926712899504148 0 0.0020633634464528356 -0.012631317828725142 0 0.0017062198185853353 -0.012155244819010987 0 0.00026179816841243573 -0.013814047103195802 0 -0.002453159841157313 -0.0072629156755135253 0 -0.0026970633763363193 -0.0076352027816136555 0 -0.0031370397314020304 -0.0075627855961924286 0 -0.0024118919532717976 -0.0071818009616443617 0 -0.0033405846386149003 -0.0065210626045699195 0 -0.0015754839900021752 -0.0086765725410940121 0 0.0013353553543895723 -0.014944574964427517 0 -0.0026970633763363193 -0.0076352027816136555 0 -0.0027485257718878396 -0.0080842707426403218 0 -0.0020711813732545198 -0.0076353722688873886 0 -0.002453159841157313 -0.0072629156755135253 0 -0.0026970633763363193 -0.0076352027816136555 0 -0.0020711813732545198 -0.0076353722688873886 0 -0.0033405846386149003 -0.0065210626045699195 0 -0.0015754839900021752 -0.0086765725410940121 0 -0.0026970633763363193 -0.0076352027816136555 0 -0.0031370397314020304 -0.0075627855961924286 0 -0.0027485257718878396 -0.0080842707426403218 0 -0.0036070697954336236 -0.0064227393556297611 0 -0.0036195621959782651 -0.0063988130953651478 0 -0.0035712208410300142 -0.0064142835781353883 0 -0.0032994337836291213 -0.0052971083015984658 0 -0.0031034997031731647 -0.0045040345594756261 0 -0.0039024508865211677 -0.0044943995727175492 0 -0.002311233758835476 -0.0048439837397199516 0 -0.0032994337836291213 -0.0052971083015984658 0 -0.0031034997031731647 -0.0045040345594756261 0 -0.0032131193613021184 -0.0056274532416141013 0 -0.0033405846386149003 -0.0065210626045699195 0 -0.0027982133187389314 -0.0037372005285414844 0 -0.0031034997031731647 -0.0045040345594756261 0 -0.0039024508865211677 -0.0044943995727175492 0 -0.0021029341444133592 -0.0040614763699735679 0 -0.0027982133187389314 -0.0037372005285414844 0 -0.0031034997031731647 -0.0045040345594756261 0 -0.0021029341444133592 -0.0040614763699735679 0 -0.002311233758835476 -0.0048439837397199516 0 -0.0031034997031731647 -0.0045040345594756261 0 0.00035371806037630009 -0.0091152763853220471 0 -0.0015159945555373773 -0.0097644781380117271 0 -2.631474530889149e-05 -0.0080300250379984062 0 -0.001350608066108049 -0.0067229412509183899 0 -0.0015754839900021752 -0.0086765725410940121 0 0.00035371806037630009 -0.0091152763853220471 0 -0.0012105179643572014 -0.010171076115567362 0 -0.0015159945555373773 -0.0097644781380117271 0 0.002754689487951449 -0.015360387175313234 0 0.0022390027724868132 -0.013119797274906532 0 -0.0015754839900021752 -0.0086765725410940121 0 0.002754689487951449 -0.015360387175313234 0 0.0042620859162526342 -0.018073276734129711 0 0.0043178724409505742 -0.017134840817315547 0 0.0048928430427005619 -0.017403215536403453 0 0.0042620859162526342 -0.018073276734129711 0 0.0043178724409505742 -0.017134840817315547 0 0.0037906398999721287 -0.017458627632296952 0 0.0018968963005868453 -0.0080663273451206195 0 0.00035371806037630009 -0.0091152763853220471 0 -2.631474530889149e-05 -0.0080300250379984062 0 0.0037286650675504608 -0.018012155481139477 0 0.0031190875488212679 -0.019071276087740247 0 0.0043247458296029355 -0.019070032711975285 0 0.0031190875488212679 -0.019071276087740247 0 0.0043247458296029355 -0.019070032711975285 0 0.0035287511034853814 -0.019924959574970143 0 0.0032907539527453934 -0.016897138681361008 0 0.0043178724409505742 -0.017134840817315547 0 0.0037906398999721287 -0.017458627632296952 0 0.003377770387324377 -0.017294801725611084 0 0.0045028475086406998 -0.018928239256959731 0 0.0043247458296029355 -0.019070032711975285 0 0.0042049579533018555 -0.020081672348307367 0 0.0035287511034853814 -0.019924959574970143 0 0.0049055238077793011 -0.019937002280022251 0 0.0043247458296029355 -0.019070032711975285 0 0.0042049579533018555 -0.020081672348307367 0 0.002754689487951449 -0.015360387175313234 0 0.0045028475086406998 -0.018928239256959731 0 0.0042049579533018555 -0.020081672348307367 0 0.0035287511034853814 -0.019924959574970143 0 0.0037467548526196855 -0.020535521877075275 0 0.0035287511034853814 -0.019924959574970143 0 0.0029814049677909121 -0.020779007016307336 0 0.0027254391058856614 -0.019951986308686661 0 0.0031190875488212679 -0.019071276087740247 0 0.0035287511034853814 -0.019924959574970143 0 0.0027254391058856614 -0.019951986308686661 0 0.0035287511034853814 -0.019924959574970143 0 0.0037467548526196855 -0.020535521877075275 0 0.0029814049677909121 -0.020779007016307336 0 0.0037467548526196855 -0.020535521877075275 0 0.0034808205006740343 -0.020965624316379532 0 0.0029814049677909121 -0.020779007016307336 0 0.002754689487951449 -0.015360387175313234 0 0.0013353553543895723 -0.014944574964427517 0 0.0049055238077793011 -0.019937002280022251 0 0.0042049579533018555 -0.020081672348307367 0 0.0042095533195999728 -0.020706825393640309 0 0.0042049579533018555 -0.020081672348307367 0 0.0037467548526196855 -0.020535521877075275 0 0.0042095533195999728 -0.020706825393640309 0 0.0037467548526196855 -0.020535521877075275 0 0.0040282600455734327 -0.020815481141313943 0 0.0042095533195999728 -0.020706825393640309 0 0.0037467548526196855 -0.020535521877075275 0 0.0034808205006740343 -0.020965624316379532 0 0.0040282600455734327 -0.020815481141313943 0 0.0015016098523420321 -0.015861954945847613 0 0.0013353553543895723 -0.014944574964427517 0 -0.0024118919532717976 -0.0071818009616443617 0 -0.0018656003935570659 -0.0069466645534870617 0 -0.0020711813732545198 -0.0076353722688873886 0 -0.0018135808982478381 -0.0069318951560015324 0 -0.0013987165210551363 -0.006732412379015929 0 0.0040282600455734327 -0.020815481141313943 0 0.0042046803957169641 -0.020713929245121051 0 0.0031719301593875989 -0.021721658361635896 0 -0.002453159841157313 -0.0072629156755135253 0 -0.0020711813732545198 -0.0076353722688873886 0 -0.0018135808982478381 -0.0069318951560015324 0 -0.0023728692783361966 -0.0070754034760869226 0 -0.0018135808982478381 -0.0069318951560015324 0 -0.0022749340134085656 -0.0065926712899504148 0 -0.0018135808982478381 -0.0069318951560015324 0 -0.0017450979885155198 -0.0065179191704791348 0 -0.0022749340134085656 -0.0065926712899504148 0 0.0034808205006740343 -0.020965624316379532 0 0.0040282600455734327 -0.020815481141313943 0 0.0031719301593875989 -0.021721658361635896 0 0.0034808205006740343 -0.020965624316379532 0 0.0029814049677909121 -0.020779007016307336 0 0.0031719301593875989 -0.021721658361635896 0 0.0013353553543895723 -0.014944574964427517 0 0.00087665809227715618 -0.014096445932923958 0 -0.0018135808982478381 -0.0069318951560015324 0 -0.0013987165210551363 -0.006732412379015929 0 -0.0017450979885155198 -0.0065179191704791348 0 0.0029814049677909121 -0.020779007016307336 0 0.0031719301593875989 -0.021721658361635896 0 0.0021313944430608714 -0.021652165715739472 0 0.0029814049677909121 -0.020779007016307336 0 0.0020931012060498751 -0.020569032401415652 0 0.0021313944430608714 -0.021652165715739472 0 0.0029814049677909121 -0.020779007016307336 0 0.0020931012060498751 -0.020569032401415652 0 0.0027254391058856614 -0.019951986308686661 0 0.0020931012060498751 -0.020569032401415652 0 0.0015251547752395793 -0.021137254660550456 0 0.0010236601260707556 -0.02046200142355584 0 0.0020931012060498751 -0.020569032401415652 0 0.0015251547752395793 -0.021137254660550456 0 0.0021313944430608714 -0.021652165715739472 0 0.0015251547752395793 -0.021137254660550456 0 0.0021313944430608714 -0.021652165715739472 0 0.0013418809930123726 -0.021767598780559415 0 0.0013418809930123726 -0.021767598780559415 0 0.00098310012451167527 -0.021399561848213206 0 0.00076354798892279982 -0.022093083205408755 0 0.0015251547752395793 -0.021137254660550456 0 0.0013418809930123726 -0.021767598780559415 0 0.00098310012451167527 -0.021399561848213206 0 0.00098310012451167527 -0.021399561848213206 0 0.0002657836304127821 -0.0215907700324794 0 0.00076354798892279982 -0.022093083205408755 0 0.00068607985149059258 -0.02122612602888211 0 -0.00021614745510770321 -0.022422033201744147 0 -0.00027763722065995668 -0.021883566938089887 0 0.00098310012451167527 -0.021399561848213206 0 0.0010236601260707556 -0.02046200142355584 0 0.0002657836304127821 -0.0215907700324794 0 0.00085798850090335575 -0.020816952253640383 0 5.1744761626608113e-05 -0.022025091260736603 0 0.00068607985149059258 -0.02122612602888211 0 -0.00027763722065995668 -0.021883566938089887 0 -0.0004060836690421297 -0.021457030905359369 0 0.0015251547752395793 -0.021137254660550456 0 0.00098310012451167527 -0.021399561848213206 0 0.0010236601260707556 -0.02046200142355584 0 0.00068607985149059258 -0.02122612602888211 0 0.00052238579168154009 -0.019531400070545123 0 0.0019400340974738239 -0.019341561787739894 0 0.00068607985149059258 -0.02122612602888211 0 2.0098159121757596e-05 -0.020514005440671664 0 0.00052238579168154009 -0.019531400070545123 0 0.00068607985149059258 -0.02122612602888211 0 2.0098159121757596e-05 -0.020514005440671664 0 -0.0004060836690421297 -0.021457030905359369 0 2.0098159121757596e-05 -0.020514005440671664 0 -0.00076081425617107162 -0.019721752372966219 0 -0.0004060836690421297 -0.021457030905359369 0 4.4620370740844582e-05 -0.020850973495475173 0 -0.00011179275970693286 -0.018293375134258709 0 2.0098159121757596e-05 -0.020514005440671664 0 -0.00076081425617107162 -0.019721752372966219 0 0.00052238579168154009 -0.019531400070545123 0 -0.00076081425617107162 -0.019721752372966219 0 0.00052238579168154009 -0.019531400070545123 0 -5.3740561763987498e-05 -0.018384348008482345 0 0.00052238579168154009 -0.019531400070545123 0 0.0019400340974738239 -0.019341561787739894 0 0.0012011213441764355 -0.01794227241601442 0 0.0031190875488212679 -0.019071276087740247 0 0.0019400340974738239 -0.019341561787739894 0 0.0027254391058856614 -0.019951986308686661 0 0.0031190875488212679 -0.019071276087740247 0 0.0019400340974738239 -0.019341561787739894 0 0.0024315454634704354 -0.017901623423825674 0 0.0020931012060498751 -0.020569032401415652 0 0.0019400340974738239 -0.019341561787739894 0 0.0027254391058856614 -0.019951986308686661 0 0.0020931012060498751 -0.020569032401415652 0 0.0010236601260707556 -0.02046200142355584 0 0.0019400340974738239 -0.019341561787739894 0 0.00085798850090335575 -0.020816952253640383 0 0.0019040298480729756 -0.019450581736497208 0 0.00027767608743069623 -0.029941210040899096 0 0.00055053558337917743 -0.030407822584832444 0 0.00035751340402200184 -0.030984783839487783 0 0.00027767608743069623 -0.029941210040899096 0 0.00055053558337917743 -0.030407822584832444 0 0.00084427877174149098 -0.030818713428699834 0 0.00027767608743069623 -0.029941210040899096 0 0.0014760513895772933 -0.024983954753550589 0 -0.00029674579133346968 -0.026613652011513552 0 0.00070924274824616122 -0.030814573126405363 0 0.00055053558337917743 -0.030407822584832444 0 0.00084427877174149098 -0.030818713428699834 0 0.00038813880289829196 -0.029838802242899452 0 0.0010100036034384112 -0.028011359515409135 0 0.00070924274824616122 -0.030814573126405363 0 0.00084427877174149098 -0.030818713428699834 0 0.00089739224447096572 -0.030907398410031827 0 -0.00050565804273446698 -0.022563567614181209 0 -0.00024208061937774049 -0.023630130862559828 0 -0.00020663896559979596 -0.022944069957086359 0 -0.00029674579133346968 -0.026613652011513552 0 -0.0026369327657246688 -0.027949291475007406 0 -0.00024208061937774049 -0.023630130862559828 0 -0.0017702965848243376 -0.025399141315743667 0 -0.0001906832941932364 -0.023564492186651624 0 0.0014760513895772933 -0.024983954753550589 0 -0.00029674579133346968 -0.026613652011513552 0 -0.00024208061937774049 -0.023630130862559828 0 0.00027767608743069623 -0.029941210040899096 0 -0.00029674579133346968 -0.026613652011513552 0 -0.0026369327657246688 -0.027949291475007406 0 0.00027767608743069623 -0.029941210040899096 0 -0.0026369327657246688 -0.027949291475007406 0 -0.0017786474113571028 -0.030404486582942643 0 0.00027767608743069623 -0.029941210040899096 0 -0.0017786474113571028 -0.030404486582942643 0 -0.00051855430791234694 -0.030976163767413297 0 -0.00050565804273446698 -0.022563567614181209 0 -0.0004072658895362703 -0.022311768123722757 0 -0.00057558653469719158 -0.021677184947254662 0 -0.0026369327657246688 -0.027949291475007406 0 -0.0037454431609822746 -0.030502085121537532 0 -0.0017786474113571028 -0.030404486582942643 0 -0.0017702965848243376 -0.025399141315743667 0 -0.00039787780898703365 -0.025230441185652961 0 -0.00050565804273446698 -0.022563567614181209 0 -0.0004072658895362703 -0.022311768123722757 0 -0.00020663896559979596 -0.022944069957086359 0 -0.00021614745510770321 -0.022422033201744147 0 -0.0004072658895362703 -0.022311768123722757 0 -0.00020663896559979596 -0.022944069957086359 0 5.1744761626608113e-05 -0.022025091260736603 0 -0.0002307250883924568 -0.022851893666236554 0 -0.00021614745510770321 -0.022422033201744147 0 -0.00027763722065995668 -0.021883566938089887 0 -0.0004072658895362703 -0.022311768123722757 0 -0.0004072658895362703 -0.022311768123722757 0 -0.0004677014167837071 -0.021751306136801155 0 -0.00057558653469719158 -0.021677184947254662 0 -0.00027763722065995668 -0.021883566938089887 0 -0.0004072658895362703 -0.022311768123722757 0 -0.0004677014167837071 -0.021751306136801155 0 -0.00127942558966784 -0.023113864041071706 0 -0.00039787780898703365 -0.025230441185652961 0 -0.00027763722065995668 -0.021883566938089887 0 -0.0004677014167837071 -0.021751306136801155 0 -0.0004060836690421297 -0.021457030905359369 0 4.4620370740844582e-05 -0.020850973495475173 0 -0.00039787780898703365 -0.025230441185652961 0 -0.0003885024956247127 -0.021292909661059345 0 -0.0004060836690421297 -0.021457030905359369 0 -0.00054085494845786694 -0.021545042539753215 0 4.4620370740844582e-05 -0.020850973495475173 0 -0.00051307522697083914 -0.021216670185419121 0 0.0019079251799262633 -0.023546860388646871 0 0.0013519175142292172 -0.024281121999033938 0 0.00070863694338987838 -0.023604086051800716 0 -0.0004677014167837071 -0.021751306136801155 0 -0.0004060836690421297 -0.021457030905359369 0 -0.00054085494845786694 -0.021545042539753215 0 0.0019079251799262633 -0.023546860388646871 0 0.00070863694338987838 -0.023604086051800716 0 0.0012579732291161923 -0.023025186318103449 0 -0.00039787780898703365 -0.025230441185652961 0 -0.0004329108173173303 -0.028057583450128855 0 -0.0037454431609822746 -0.030502085121537532 0 -0.0015131219110155161 -0.031999197692471087 0 -0.0017786474113571028 -0.030404486582942643 0 -0.0015131219110155161 -0.031999197692471087 0 -0.0017786474113571028 -0.030404486582942643 0 -0.00051855430791234694 -0.030976163767413297 0 -0.0015131219110155161 -0.031999197692471087 0 -0.00051855430791234694 -0.030976163767413297 0 -0.00024741273018812532 -0.031688694523945918 0 -0.0015131219110155161 -0.031999197692471087 0 -0.00024741273018812532 -0.031688694523945918 0 -0.00018013946337445456 -0.03237042984565152 0 0.00070863694338987838 -0.023604086051800716 0 7.200751036531444e-05 -0.022928930373006213 0 0.0012579732291161923 -0.023025186318103449 0 -0.0004329108173173303 -0.028057583450128855 0 -0.00012142284324766174 -0.027553845747105191 0 -0.00024741273018812532 -0.031688694523945918 0 0.0003284298280590646 -0.031755563391647659 0 -0.00018013946337445456 -0.03237042984565152 0 -0.00024741273018812532 -0.031688694523945918 0 0.0003284298280590646 -0.031755563391647659 0 0.00035751340402200184 -0.030984783839487783 0 -0.00051855430791234694 -0.030976163767413297 0 -0.00024741273018812532 -0.031688694523945918 0 0.00035751340402200184 -0.030984783839487783 0 0.00027767608743069623 -0.029941210040899096 0 -0.00051855430791234694 -0.030976163767413297 0 0.00035751340402200184 -0.030984783839487783 0 -0.0005455825232384792 -0.022260736636331772 0 7.200751036531444e-05 -0.022928930373006213 0 0.00021125066385064621 -0.022097054077585131 0 0.00042624406115549478 -0.032164658722544384 0 0.0003284298280590646 -0.031755563391647659 0 -0.00018013946337445456 -0.03237042984565152 0 -0.00015870257790399949 -0.027646270969559603 0 -0.00012142284324766174 -0.027553845747105191 0 0.00042624406115549478 -0.032164658722544384 0 0.00027464502982871183 -0.032479420538301038 0 -0.00018013946337445456 -0.03237042984565152 0 7.200751036531444e-05 -0.022928930373006213 0 0.00021125066385064621 -0.022097054077585131 0 0.0010500789663979344 -0.022211870339132529 0 7.200751036531444e-05 -0.022928930373006213 0 0.0010500789663979344 -0.022211870339132529 0 0.0012579732291161923 -0.023025186318103449 0 0.0010500789663979344 -0.022211870339132529 0 0.0012579732291161923 -0.023025186318103449 0 0.0019885609168524372 -0.022602108888071307 0 0.0019079251799262633 -0.023546860388646871 0 0.0012579732291161923 -0.023025186318103449 0 0.0019885609168524372 -0.022602108888071307 0 0.0010500789663979344 -0.022211870339132529 0 0.0019885609168524372 -0.022602108888071307 0 0.0020622470138551537 -0.021647821952458964 0 0.0010500789663979344 -0.022211870339132529 0 0.00098926653472409566 -0.020989398456321053 0 0.0020622470138551537 -0.021647821952458964 0 -0.00044601546192642091 -0.015013025266502215 0 -0.00056101715949645513 -0.014971971886854942 0 -0.00054352574423810463 -0.015006345888877047 0 0.00030708160977775895 -0.018295387515779096 0 0.00056307262530832635 -0.016803552319079821 0 0.00098926653472409566 -0.020989398456321053 0 0.0020622470138551537 -0.021647821952458964 0 0.0021279772179572942 -0.020673887105661919 0 0.00021125066385064621 -0.022097054077585131 0 0.0010500789663979344 -0.022211870339132529 0 0.00098926653472409566 -0.020989398456321053 0 0.00021125066385064621 -0.022097054077585131 0 0.00098926653472409566 -0.020989398456321053 0 -0.00010223644912983781 -0.021311362370655534 0 0.00030708160977775895 -0.018295387515779096 0 -0.00015657335543207154 -0.017166268845731959 0 -0.00044601546192642091 -0.015013025266502215 0 -2.7188748059208939e-05 -0.015064344518340829 0 -0.00010366560103519604 -0.015358059516600214 0 -0.0005455825232384792 -0.022260736636331772 0 0.00021125066385064621 -0.022097054077585131 0 -0.00010223644912983781 -0.021311362370655534 0 0.0024315454634704354 -0.017901623423825674 0 0.0012011213441764355 -0.01794227241601442 0 0.0019517116011656249 -0.016354465852810689 0 0.0010980488058237343 -0.016705256842219213 0 0.0012011213441764355 -0.01794227241601442 0 0.0019517116011656249 -0.016354465852810689 0 0.0028122134806691898 -0.016600218720611244 0 0.0024315454634704354 -0.017901623423825674 0 0.0019517116011656249 -0.016354465852810689 0 0.0019400340974738239 -0.019341561787739894 0 0.0024315454634704354 -0.017901623423825674 0 0.0012011213441764355 -0.01794227241601442 0 0.0012011213441764355 -0.01794227241601442 0 -5.3740561763987498e-05 -0.018384348008482345 0 0.00015135806799110269 -0.017175944132417173 0 0.00052238579168154009 -0.019531400070545123 0 0.0012011213441764355 -0.01794227241601442 0 -5.3740561763987498e-05 -0.018384348008482345 0 -0.00096547180424951635 -0.019607679444025701 0 -0.00082842100187125259 -0.017802037001132549 0 -5.3740561763987498e-05 -0.018384348008482345 0 -0.00082842100187125259 -0.017802037001132549 0 -5.3740561763987498e-05 -0.018384348008482345 0 0.00015135806799110269 -0.017175944132417173 0 4.4620370740844582e-05 -0.020850973495475173 0 0.00061647778297037076 -0.020316737070490452 0 -0.00082842100187125259 -0.017802037001132549 0 0.00015135806799110269 -0.017175944132417173 0 -0.00065215772559444347 -0.016193457589446427 0 0.00061647778297037076 -0.020316737070490452 0 0.00071782390073003757 -0.019088537028550071 0 0.0010980488058237343 -0.016705256842219213 0 0.0012011213441764355 -0.01794227241601442 0 0.00015135806799110269 -0.017175944132417173 0 0.0010980488058237343 -0.016705256842219213 0 0.00015135806799110269 -0.017175944132417173 0 0.00052294179845055206 -0.015687082123771814 0 0.00015135806799110269 -0.017175944132417173 0 0.00052294179845055206 -0.015687082123771814 0 -0.00065215772559444347 -0.016193457589446427 0 0.00052294179845055206 -0.015687082123771814 0 -0.00065215772559444347 -0.016193457589446427 0 -0.00049282725221887213 -0.014768713800368722 0 0.00071782390073003757 -0.019088537028550071 0 0.00056307262530832635 -0.016803552319079821 0 0.00052294179845055206 -0.015687082123771814 0 -0.00049282725221887213 -0.014768713800368722 0 0.0010192617005725896 -0.014449416776499198 0 0.00052294179845055206 -0.015687082123771814 0 0.0019556767663189349 -0.015431719715187591 0 0.0010192617005725896 -0.014449416776499198 0 0.0019556767663189349 -0.015431719715187591 0 0.002227375537691592 -0.014171000230150643 0 0.0010192617005725896 -0.014449416776499198 0 0.0010980488058237343 -0.016705256842219213 0 0.00052294179845055206 -0.015687082123771814 0 0.0019556767663189349 -0.015431719715187591 0 0.0010980488058237343 -0.016705256842219213 0 0.0019517116011656249 -0.016354465852810689 0 0.0019556767663189349 -0.015431719715187591 0 0.0028122134806691898 -0.016600218720611244 0 0.0019517116011656249 -0.016354465852810689 0 0.0019556767663189349 -0.015431719715187591 0 0.0030765611555742729 -0.015371408139594287 0 0.0028122134806691898 -0.016600218720611244 0 0.0019556767663189349 -0.015431719715187591 0 0.0030765611555742729 -0.015371408139594287 0 0.0019556767663189349 -0.015431719715187591 0 0.002227375537691592 -0.014171000230150643 0 0.0014523437547003558 -0.013577960325405964 0 0.001707307675101752 -0.012499054175672413 0 0.0027642246936725639 -0.012989293189724251 0 0.002227375537691592 -0.014171000230150643 0 0.0014523437547003558 -0.013577960325405964 0 0.0027642246936725639 -0.012989293189724251 0 0.0014523437547003558 -0.013577960325405964 0 0.00032977269683200609 -0.014091947440646254 0 0.00076666625687220292 -0.013053314778210645 0 0.0014523437547003558 -0.013577960325405964 0 0.00067706737994755102 -0.014828734100582301 0 0.00032977269683200609 -0.014091947440646254 0 0.002227375537691592 -0.014171000230150643 0 0.0014523437547003558 -0.013577960325405964 0 0.00067706737994755102 -0.014828734100582301 0 0.0022195465747187715 -0.014264119809428856 0 0.00064264033307638753 -0.014418110439642765 0 0.00067706737994755102 -0.014828734100582301 0 -0.00029410386205243631 -0.01476146552059667 0 0.00032977269683200609 -0.014091947440646254 0 -0.0005945303191811841 -0.015205341692462496 0 0.00067706737994755102 -0.014828734100582301 0 -0.00029410386205243631 -0.01476146552059667 0 0.00056307262530832635 -0.016803552319079821 0 0.00064264033307638753 -0.014418110439642765 0 -0.00029410386205243631 -0.01476146552059667 0 -0.0003900256653218979 -0.014428281253130937 0 0.00032977269683200609 -0.014091947440646254 0 -0.00056101715949645513 -0.014971971886854942 0 -0.00054505620144443354 -0.014931053842902426 0 -0.00054257483001705019 -0.014960431117375357 0 0.00056307262530832635 -0.016803552319079821 0 0.00036004804805368356 -0.015718979656079848 0 -0.00054505620144443354 -0.014931053842902426 0 -0.00054257483001705019 -0.014960431117375357 0 -0.00049045296657343354 -0.014783226302887816 0 -0.0005945303191811841 -0.015205341692462496 0 -0.00054257483001705019 -0.014960431117375357 0 -0.00029410386205243631 -0.01476146552059667 0 -0.00054257483001705019 -0.014960431117375357 0 -0.00029410386205243631 -0.01476146552059667 0 -0.00049045296657343354 -0.014783226302887816 0 -0.00029410386205243631 -0.01476146552059667 0 -0.0003900256653218979 -0.014428281253130937 0 -0.00049045296657343354 -0.014783226302887816 0 -0.0003900256653218979 -0.014428281253130937 0 -0.00049045296657343354 -0.014783226302887816 0 -0.00054035320715996814 -0.014880380694307055 0 -0.00054505620144443354 -0.014931053842902426 0 -0.00049045296657343354 -0.014783226302887816 0 -0.00054035320715996814 -0.014880380694307055 0 -0.0003900256653218979 -0.014428281253130937 0 -0.0011387459494558371 -0.013930814063431671 0 -0.00062467386968858662 -0.013835554193487013 0 -0.0003900256653218979 -0.014428281253130937 0 -0.00062467386968858662 -0.013835554193487013 0 -7.3461126372773594e-05 -0.01344698460012704 0 -0.00062467386968858662 -0.013835554193487013 0 -0.00087909911796021272 -0.01340183326350659 0 -7.3461126372773594e-05 -0.01344698460012704 0 -0.0011387459494558371 -0.013930814063431671 0 -0.00087909911796021272 -0.01340183326350659 0 -0.0012230594053698417 -0.013527863835072321 0 -0.0011387459494558371 -0.013930814063431671 0 -0.00062467386968858662 -0.013835554193487013 0 -0.00087909911796021272 -0.01340183326350659 0 -0.0003900256653218979 -0.014428281253130937 0 0.00032977269683200609 -0.014091947440646254 0 -7.3461126372773594e-05 -0.01344698460012704 0 0.00032977269683200609 -0.014091947440646254 0 -7.3461126372773594e-05 -0.01344698460012704 0 0.00076666625687220292 -0.013053314778210645 0 -7.3461126372773594e-05 -0.01344698460012704 0 0.00019812063092009704 -0.012583202137155559 0 0.00076666625687220292 -0.013053314778210645 0 0.00019812063092009704 -0.012583202137155559 0 0.00091525772662544118 -0.012041700099790739 0 0.00076666625687220292 -0.013053314778210645 0 -7.3461126372773594e-05 -0.01344698460012704 0 0.00019812063092009704 -0.012583202137155559 0 -0.0003057654990614025 -0.012942612070265161 0 0.00019812063092009704 -0.012583202137155559 0 -0.0003057654990614025 -0.012942612070265161 0 -0.00035305464272429799 -0.012397732588747688 0 -0.00087909911796021272 -0.01340183326350659 0 -0.0014056438320642194 -0.013264646916073894 0 -0.0011857800301817577 -0.012825207152120656 0 -0.00087909911796021272 -0.01340183326350659 0 -0.00073817601872595373 -0.012867883526644882 0 -0.0011857800301817577 -0.012825207152120656 0 -0.00087909911796021272 -0.01340183326350659 0 -0.00073817601872595373 -0.012867883526644882 0 -0.0003057654990614025 -0.012942612070265161 0 -0.00087909911796021272 -0.01340183326350659 0 -7.3461126372773594e-05 -0.01344698460012704 0 -0.0003057654990614025 -0.012942612070265161 0 -0.00073817601872595373 -0.012867883526644882 0 -0.0003057654990614025 -0.012942612070265161 0 -0.00035305464272429799 -0.012397732588747688 0 -0.00073817601872595373 -0.012867883526644882 0 -0.00035305464272429799 -0.012397732588747688 0 -0.00089197988271595132 -0.012429259567732344 0 -0.00089197988271595132 -0.012429259567732344 0 -0.0013882422352386797 -0.012406256757658208 0 -0.0011857800301817577 -0.012825207152120656 0 -0.00073817601872595373 -0.012867883526644882 0 -0.00089197988271595132 -0.012429259567732344 0 -0.0011857800301817577 -0.012825207152120656 0 -0.00089197988271595132 -0.012429259567732344 0 -0.0010615247787448981 -0.011979321353824547 0 -0.00056334333195032129 -0.011949933593188758 0 -0.00089197988271595132 -0.012429259567732344 0 -0.0010615247787448981 -0.011979321353824547 0 -0.0013882422352386797 -0.012406256757658208 0 -0.00035305464272429799 -0.012397732588747688 0 -0.00089197988271595132 -0.012429259567732344 0 -0.00056334333195032129 -0.011949933593188758 0 -0.00035305464272429799 -0.012397732588747688 0 -0.00056334333195032129 -0.011949933593188758 0 9.3207336498175722e-05 -0.011639703592157073 0 -0.00056334333195032129 -0.011949933593188758 0 9.3207336498175722e-05 -0.011639703592157073 0 -0.00052441744881468941 -0.011227264469877936 0 -0.00077504703067990204 -0.011618397795508648 0 0.00043556984809454236 -0.014562026435344891 0 -0.0010615247787448981 -0.011979321353824547 0 -0.0014243425073848185 -0.011576267174906327 0 -0.00052441744881468941 -0.011227264469877936 0 -0.0010615247787448981 -0.011979321353824547 0 -0.00056334333195032129 -0.011949933593188758 0 -0.00052441744881468941 -0.011227264469877936 0 0.00019812063092009704 -0.012583202137155559 0 -0.00035305464272429799 -0.012397732588747688 0 9.3207336498175722e-05 -0.011639703592157073 0 9.3207336498175722e-05 -0.011639703592157073 0 0.00072696007482814717 -0.011342059625040032 0 -0.00048093602969568851 -0.011245089806573655 0 0.00019812063092009704 -0.012583202137155559 0 9.3207336498175722e-05 -0.011639703592157073 0 0.00091525772662544118 -0.012041700099790739 0 9.3207336498175722e-05 -0.011639703592157073 0 0.00091525772662544118 -0.012041700099790739 0 0.00072696007482814717 -0.011342059625040032 0 0.00091525772662544118 -0.012041700099790739 0 0.0015164422539795178 -0.011337278275909732 0 0.00072696007482814717 -0.011342059625040032 0 0.00091525772662544118 -0.012041700099790739 0 0.0015164422539795178 -0.011337278275909732 0 0.001707307675101752 -0.012499054175672413 0 0.0015164422539795178 -0.011337278275909732 0 0.001707307675101752 -0.012499054175672413 0 0.0023689206820264193 -0.011579364373058579 0 0.001707307675101752 -0.012499054175672413 0 0.0023689206820264193 -0.011579364373058579 0 0.0027642246936725639 -0.012989293189724251 0 0.00091525772662544118 -0.012041700099790739 0 0.001707307675101752 -0.012499054175672413 0 0.00076666625687220292 -0.013053314778210645 0 0.0014523437547003558 -0.013577960325405964 0 0.001707307675101752 -0.012499054175672413 0 0.00076666625687220292 -0.013053314778210645 0 4.8975190236670239e-05 -0.015573303451271784 0 -0.00010366560103519604 -0.015358059516600214 0 -0.00024249290912956297 -0.015569731635041342 0 0.00013277996457465468 -0.015838999779116483 0 4.8975190236670239e-05 -0.015573303451271784 0 -0.00024249290912956297 -0.015569731635041342 0 0.00016924795717172591 -0.015412890413524328 0 -2.7188748059208939e-05 -0.015064344518340829 0 -0.00010366560103519604 -0.015358059516600214 0 0.00016924795717172591 -0.015412890413524328 0 4.8975190236670239e-05 -0.015573303451271784 0 -0.00010366560103519604 -0.015358059516600214 0 -0.00044601546192642091 -0.015013025266502215 0 -0.00010366560103519604 -0.015358059516600214 0 -0.00037814876710422994 -0.01526898663230988 0 -0.00010366560103519604 -0.015358059516600214 0 -0.00024249290912956297 -0.015569731635041342 0 -0.00037814876710422994 -0.01526898663230988 0 -0.00024249290912956297 -0.015569731635041342 0 -0.00037814876710422994 -0.01526898663230988 0 -0.00058468236058671478 -0.01518467636732339 0 7.9754499182804463e-05 -0.014404627243313404 0 -0.0019565741046585479 -0.013787929171147469 0 -0.00099615837293520987 -0.014822489655634711 0 -0.00018893901254845601 -0.014290832728282936 0 -0.0011236228179595841 -0.01458605026243096 0 -0.0019565741046585479 -0.013787929171147469 0 -0.0019464762780163787 -0.013905232374546663 0 -0.00099615837293520987 -0.014822489655634711 0 -0.00037814876710422994 -0.01526898663230988 0 -0.0005039250201853585 -0.015142802410822401 0 -0.00058468236058671478 -0.01518467636732339 0 -0.00044601546192642091 -0.015013025266502215 0 -0.00037814876710422994 -0.01526898663230988 0 -0.00050023850319106679 -0.01508525491928093 0 -0.00044601546192642091 -0.015013025266502215 0 -0.00050023850319106679 -0.01508525491928093 0 -0.00054352574423810463 -0.015006345888877047 0 -0.00037814876710422994 -0.01526898663230988 0 -0.00050023850319106679 -0.01508525491928093 0 -0.0005039250201853585 -0.015142802410822401 0 -0.00050023850319106679 -0.01508525491928093 0 -0.0005039250201853585 -0.015142802410822401 0 -0.00054476087510892275 -0.015052932164779384 0 -0.00050023850319106679 -0.01508525491928093 0 -0.00054476087510892275 -0.015052932164779384 0 -0.00054352574423810463 -0.015006345888877047 0 -0.00056101715949645513 -0.014971971886854942 0 -0.00054505620144443354 -0.014931053842902426 0 -0.00054352574423810463 -0.015006345888877047 0 -0.00054476087510892275 -0.015052932164779384 0 -0.00054352574423810463 -0.015006345888877047 0 -0.00054035320715996814 -0.014880380694307055 0 -0.00054505620144443354 -0.014931053842902426 0 -0.00054352574423810463 -0.015006345888877047 0 -0.00054035320715996814 -0.014880380694307055 0 -0.0011387459494558371 -0.013930814063431671 0 -0.0019565741046585479 -0.013787929171147469 0 -0.0016839613063462521 -0.01380963305197631 0 -0.00044776825717624983 -0.014454393428361701 0 -0.0011236228179595841 -0.01458605026243096 0 -0.0003900256653218979 -0.014428281253130937 0 -0.00054035320715996814 -0.014880380694307055 0 -0.00058468236058671478 -0.01518467636732339 0 -0.0003900256653218979 -0.014428281253130937 0 -0.0011387459494558371 -0.013930814063431671 0 -0.0019565741046585479 -0.013787929171147469 0 -0.0005039250201853585 -0.015142802410822401 0 -0.00054476087510892275 -0.015052932164779384 0 -0.00058468236058671478 -0.01518467636732339 0 -0.00054476087510892275 -0.015052932164779384 0 -0.00054035320715996814 -0.014880380694307055 0 -0.00058468236058671478 -0.01518467636732339 0 -0.0019565741046585479 -0.013787929171147469 0 -0.0016839613063462521 -0.01380963305197631 0 -0.0018402752198089034 -0.01382567290054041 0 -0.0016839613063462521 -0.01380963305197631 0 -0.0018402752198089034 -0.01382567290054041 0 -0.0017310949732225083 -0.013741806760914797 0 -0.0018402752198089034 -0.01382567290054041 0 -0.0017310949732225083 -0.013741806760914797 0 -0.0019464762780163787 -0.013905232374546663 0 -0.0019565741046585479 -0.013787929171147469 0 -0.0018402752198089034 -0.01382567290054041 0 -0.0019464762780163787 -0.013905232374546663 0 -0.0017310949732225083 -0.013741806760914797 0 -0.0019464762780163787 -0.013905232374546663 0 -0.0016714422851806829 -0.013472316374558379 0 -0.0016714422851806829 -0.013472316374558379 0 -0.0015079922803650178 -0.01362118467549474 0 -0.0014056438320642194 -0.013264646916073894 0 -0.00087909911796021272 -0.01340183326350659 0 -0.0012230594053698417 -0.013527863835072321 0 -0.0014056438320642194 -0.013264646916073894 0 -0.0011387459494558371 -0.013930814063431671 0 -0.0016839613063462521 -0.01380963305197631 0 -0.0015079922803650178 -0.01362118467549474 0 -0.0017310949732225083 -0.013741806760914797 0 -0.0016714422851806829 -0.013472316374558379 0 -0.0015079922803650178 -0.01362118467549474 0 -0.0015079922803650178 -0.01362118467549474 0 -0.0012230594053698417 -0.013527863835072321 0 -0.0014056438320642194 -0.013264646916073894 0 -0.0011387459494558371 -0.013930814063431671 0 -0.0015079922803650178 -0.01362118467549474 0 -0.0012230594053698417 -0.013527863835072321 0 -0.0016839613063462521 -0.01380963305197631 0 -0.0017310949732225083 -0.013741806760914797 0 -0.0015079922803650178 -0.01362118467549474 0 -0.0019464762780163787 -0.013905232374546663 0 -0.0017853223425687681 -0.012854225232004983 0 -0.0023914396674819256 -0.011930617903155898 0 -0.0014056438320642194 -0.013264646916073894 0 -0.0017853223425687681 -0.012854225232004983 0 -0.0011857800301817577 -0.012825207152120656 0 -0.0016714422851806829 -0.013472316374558379 0 -0.0014056438320642194 -0.013264646916073894 0 -0.0017853223425687681 -0.012854225232004983 0 -0.0019464762780163787 -0.013905232374546663 0 -0.0016714422851806829 -0.013472316374558379 0 -0.0017853223425687681 -0.012854225232004983 0 -0.0017853223425687681 -0.012854225232004983 0 -0.0013882422352386797 -0.012406256757658208 0 -0.0017990055257653993 -0.012217126221139607 0 -0.0017853223425687681 -0.012854225232004983 0 -0.0013882422352386797 -0.012406256757658208 0 -0.0011857800301817577 -0.012825207152120656 0 -0.0010615247787448981 -0.011979321353824547 0 -0.0013882422352386797 -0.012406256757658208 0 -0.0014243425073848185 -0.011576267174906327 0 -0.0013882422352386797 -0.012406256757658208 0 -0.0014243425073848185 -0.011576267174906327 0 -0.0017990055257653993 -0.012217126221139607 0 -0.00041693427950029302 -0.014859584471323206 0 -0.00055289073302569071 -0.018268832989937481 0 0.00042352326048880954 -0.017970040514544972 0 0.0013332348877055269 -0.017628873515999441 0 0.0010139167963003374 -0.018400353419584108 0 -0.0014243425073848185 -0.011576267174906327 0 -0.0017990055257653993 -0.012217126221139607 0 -0.0023914396674819256 -0.011930617903155898 0 -0.0017853223425687681 -0.012854225232004983 0 -0.0017990055257653993 -0.012217126221139607 0 -0.0023914396674819256 -0.011930617903155898 0 -0.00055289073302569071 -0.018268832989937481 0 0.00084041214119404844 -0.022011619288284177 0 -0.00148794486223779 -0.016413231002093517 0 -0.00099615837293520987 -0.014822489655634711 0 0.00032764552462030911 -0.015699949234516682 0 -0.0019464762780163787 -0.013905232374546663 0 -0.00148794486223779 -0.016413231002093517 0 -0.00099615837293520987 -0.014822489655634711 0 -0.0024843167720590299 -0.012109561514983934 0 -0.00055289073302569071 -0.018268832989937481 0 7.9754499182804463e-05 -0.014404627243313404 0 -0.00099615837293520987 -0.014822489655634711 0 0.00032764552462030911 -0.015699949234516682 0 0.0017955066516993946 -0.027422977509864568 0 0.0010880820196144658 -0.027622592883163693 0 0.0013391991642854918 -0.027259200044784014 0 0.0010880820196144658 -0.027622592883163693 0 0.0013391991642854918 -0.027259200044784014 0 0.00090643573634985417 -0.027396362037375426 0 0.00093868007949887461 -0.027563001154707875 0 0.00094170603231940957 -0.027538165281530275 0 0.00090643573634985417 -0.027396362037375426 0 0.0010880820196144658 -0.027622592883163693 0 0.00094170603231940957 -0.027538165281530275 0 0.00090643573634985417 -0.027396362037375426 0 0.00091839374660690194 -0.027561882875240248 0 0.00093868007949887461 -0.027563001154707875 0 0.00094170603231940957 -0.027538165281530275 0 0.00081112431104346722 -0.021136889501277702 0 -0.00018893901254845601 -0.014290832728282936 0 0.00091839374660690194 -0.027561882875240248 0 0.0010880820196144658 -0.027622592883163693 0 0.00094170603231940957 -0.027538165281530275 0 0.00081112431104346722 -0.021136889501277702 0 0.00084041214119404844 -0.022011619288284177 0 0.0020691360515689952 -0.01508075842923674 0 7.9754499182804463e-05 -0.014404627243313404 0 0.00032764552462030911 -0.015699949234516682 0 0.00097422300195434779 -0.027705626499995854 0 0.00089011724508928237 -0.027659578243477964 0 0.00095521877870795584 -0.027594359270932099 0 0.00093868007949887461 -0.027563001154707875 0 0.00090643573634985417 -0.027396362037375426 0 0.00095521877870795584 -0.027594359270932099 0 0.00087463388865308361 -0.027083246595617477 0 0.00080922591929356912 -0.027662328905881807 0 0.00090643573634985417 -0.027396362037375426 0 0.00089011724508928237 -0.027659578243477964 0 0.00095521877870795584 -0.027594359270932099 0 0.00090643573634985417 -0.027396362037375426 0 0.00069437103189405451 -0.026294093879420687 0 0.0012291246555902124 -0.026841139719236209 0 0.0013391991642854918 -0.027259200044784014 0 0.00090643573634985417 -0.027396362037375426 0 0.0012291246555902124 -0.026841139719236209 0 0.0013391991642854918 -0.027259200044784014 0 0.0012291246555902124 -0.026841139719236209 0 0.0017691889110119637 -0.026801617283499595 0 0.00069437103189405451 -0.026294093879420687 0 0.0012291246555902124 -0.026841139719236209 0 0.0016667777703774744 -0.025936113478027815 0 0.0018708517763659383 -0.019279105086634173 0 0.0013598376840569038 -0.017730301834743431 0 0.0018708517763659383 -0.019279105086634173 0 0.0020143227440810817 -0.024260833090197203 0 0.0012291246555902124 -0.026841139719236209 0 0.0016667777703774744 -0.025936113478027815 0 0.0017691889110119637 -0.026801617283499595 0 0.0018816267181825941 -0.020027517694134744 0 0.0016124436780849015 -0.018831660757660976 0 0.00068605514025850509 -0.019175974412932978 0 -0.00055289073302569071 -0.018268832989937481 0 0.0020143227440810817 -0.024260833090197203 0 0.0017955066516993946 -0.027422977509864568 0 0.0013391991642854918 -0.027259200044784014 0 0.0017691889110119637 -0.026801617283499595 0 0.0013332348877055269 -0.017628873515999441 0 0.0016124436780849015 -0.018831660757660976 0 0.0010139167963003374 -0.018400353419584108 0 0.00042352326048880954 -0.017970040514544972 0 0.00068605514025850509 -0.019175974412932978 0 -0.00049196332329176997 -0.018306869760378458 0 0.00042352326048880954 -0.017970040514544972 0 0.0010139167963003374 -0.018400353419584108 0 0.00068605514025850509 -0.019175974412932978 0 0.0016124436780849015 -0.018831660757660976 0 0.0010139167963003374 -0.018400353419584108 0 0.00068605514025850509 -0.019175974412932978 0 0.0018206693589850405 -0.015948794330602076 0 0.0018199347121521147 -0.015912021056938633 0 0.0018590056619992195 -0.015930232159022981 0 0.0017923013469665814 -0.015945221659913186 0 0.0018206693589850405 -0.015948794330602076 0 0.0018199347121521147 -0.015912021056938633 0 0.0018199347121521147 -0.015912021056938633 0 0.0018314762004086257 -0.015842394003570719 0 0.0017911494197686926 -0.015897426678190853 0 0.0018199347121521147 -0.015912021056938633 0 0.0018314762004086257 -0.015842394003570719 0 0.0018693192190882071 -0.015855238968623925 0 0.0017911494197686926 -0.015897426678190853 0 0.0017622512008621592 -0.015973423877959927 0 0.0017241761187756159 -0.01584151435603923 0 0.0017911494197686926 -0.015897426678190853 0 0.0017885287071003652 -0.015936058237421832 0 0.0017622512008621592 -0.015973423877959927 0 0.0017923013469665814 -0.015945221659913186 0 0.0018199347121521147 -0.015912021056938633 0 0.0017885287071003652 -0.015936058237421832 0 0.0018199347121521147 -0.015912021056938633 0 0.0017911494197686926 -0.015897426678190853 0 0.0017885287071003652 -0.015936058237421832 0 0.0017923013469665814 -0.015945221659913186 0 0.0017885287071003652 -0.015936058237421832 0 0.0017622512008621592 -0.015973423877959927 0 0.0018708517763659383 -0.019279105086634173 0 0.0016342422223837364 -0.014748269245821571 0 0.00069437103189405451 -0.026294093879420687 0 0.0016667777703774744 -0.025936113478027815 0 0.00064330157080318346 -0.025173882433042034 0 0.0018708517763659383 -0.019279105086634173 0 0.00092804395005871587 -0.023272362558005247 0 0.0018967097293451295 -0.01652632057440151 0 0.0017622512008621592 -0.015973423877959927 0 0.0014955911612453364 -0.016182569457222226 0 0.0017622512008621592 -0.015973423877959927 0 0.0015584496608978351 -0.015936675527080786 0 0.0014955911612453364 -0.016182569457222226 0 0.0014550607636078159 -0.018204384161322567 0 0.00092804395005871587 -0.023272362558005247 0 0.0010375103168220906 -0.0263962274829397 0 0.00092804395005871587 -0.023272362558005247 0 0.00063038969844244578 -0.022725503818693964 0 0.0014422561754420908 -0.022568870806397877 0 0.0014631294754567767 -0.023295381413329586 0 0.00097512425606563252 -0.027710577843429018 0 0.00099161238893356548 -0.027742517025374985 0 0.00092678985299828856 -0.027702906697762347 0 0.00080922591929356912 -0.027662328905881807 0 0.00092804395005871587 -0.023272362558005247 0 0.00097422300195434779 -0.027705626499995854 0 0.00089011724508928237 -0.027659578243477964 0 0.00092678985299828856 -0.027702906697762347 0 0.00097512425606563252 -0.027710577843429018 0 0.00097422300195434779 -0.027705626499995854 0 0.00092678985299828856 -0.027702906697762347 0 0.0019553683113643092 -0.015916572852363722 0 0.0019613446909087806 -0.015839536715474455 0 0.0020542736322312857 -0.015853674189966731 0 0.0015431629569294173 -0.013127529353104664 0 0.0021775427057210898 -0.012962610121338944 0 0.0015164422539795178 -0.011337278275909732 0 0.00096596615002602314 -0.010632277609437394 0 0.0023146012247735733 -0.010042953988005917 0 0.0015164422539795178 -0.011337278275909732 0 0.0023146012247735733 -0.010042953988005917 0 0.0023689206820264193 -0.011579364373058579 0 0.0015164422539795178 -0.011337278275909732 0 0.00096596615002602314 -0.010632277609437394 0 0.00072696007482814717 -0.011342059625040032 0 0.00096596615002602314 -0.010632277609437394 0 0.00072696007482814717 -0.011342059625040032 0 -0.00048093602969568851 -0.011245089806573655 0 0.0015431629569294173 -0.013127529353104664 0 0.00043556984809454236 -0.014562026435344891 0 0.0019553683113643092 -0.015916572852363722 0 0.0018617187935702714 -0.015963464745317853 0 0.0018590056619992195 -0.015930232159022981 0 0.0013598376840569038 -0.017730301834743431 0 0.00043556984809454236 -0.014562026435344891 0 0.0018206693589850405 -0.015948794330602076 0 0.0018617187935702714 -0.015963464745317853 0 0.0018590056619992195 -0.015930232159022981 0 -0.00041693427950029302 -0.014859584471323206 0 0.00043556984809454236 -0.014562026435344891 0 0.0018199347121521147 -0.015912021056938633 0 0.0018590056619992195 -0.015930232159022981 0 0.0018902082529881899 -0.015890106203275193 0 0.0019553683113643092 -0.015916572852363722 0 0.0018590056619992195 -0.015930232159022981 0 0.0018902082529881899 -0.015890106203275193 0 0.0019553683113643092 -0.015916572852363722 0 0.0018902082529881899 -0.015890106203275193 0 0.0019613446909087806 -0.015839536715474455 0 0.0018902082529881899 -0.015890106203275193 0 0.0018693192190882071 -0.015855238968623925 0 0.0019613446909087806 -0.015839536715474455 0 0.0018199347121521147 -0.015912021056938633 0 0.0018902082529881899 -0.015890106203275193 0 0.0018693192190882071 -0.015855238968623925 0 0.0018314762004086257 -0.015842394003570719 0 0.0018693192190882071 -0.015855238968623925 0 0.0019205724244103534 -0.015774027487721821 0 0.0018693192190882071 -0.015855238968623925 0 0.0019613446909087806 -0.015839536715474455 0 0.0019205724244103534 -0.015774027487721821 0 0.0019613446909087806 -0.015839536715474455 0 0.0020009151074163378 -0.015779397867608243 0 0.0019205724244103534 -0.015774027487721821 0 0.0019613446909087806 -0.015839536715474455 0 0.002033964210557738 -0.015808456475560562 0 0.0020009151074163378 -0.015779397867608243 0 0.0019613446909087806 -0.015839536715474455 0 0.002033964210557738 -0.015808456475560562 0 0.0020542736322312857 -0.015853674189966731 0 0.0020009151074163378 -0.015779397867608243 0 0.0020660542645425006 -0.015768960024410573 0 0.0019991339622528756 -0.01572018281702366 0 0.002033964210557738 -0.015808456475560562 0 0.0020009151074163378 -0.015779397867608243 0 0.0020660542645425006 -0.015768960024410573 0 0.0024214585275719822 -0.013883006845636122 0 0.0019326821663379343 -0.013862149859640896 0 0.0019309891668421665 -0.014058133362382047 0 0.0024214585275719822 -0.013883006845636122 0 0.0019326821663379343 -0.013862149859640896 0 0.0020055091543556471 -0.013651758923635618 0 0.0022585911814448538 -0.0151460577084345 0 0.0027548551482148805 -0.012733878064339248 0 0.0027548551482148805 -0.012733878064339248 0 0.0025488648153075217 -0.011350248458048738 0 0.002033964210557738 -0.015808456475560562 0 0.0020660542645425006 -0.015768960024410573 0 0.002083259983218537 -0.01580302057793756 0 0.0020660542645425006 -0.015768960024410573 0 0.0021357971885730366 -0.015791090713555899 0 0.002083259983218537 -0.01580302057793756 0 0.002033964210557738 -0.015808456475560562 0 0.002083259983218537 -0.01580302057793756 0 0.0020542736322312857 -0.015853674189966731 0 0.0021357971885730366 -0.015791090713555899 0 0.002083259983218537 -0.01580302057793756 0 0.0020542736322312857 -0.015853674189966731 0 0.0019196948700047039 -0.013864011838532555 0 0.0018851516041824396 -0.013890418328578671 0 0.0018753764429903631 -0.013827777359509233 0 0.0019196948700047039 -0.013864011838532555 0 0.0018753764429903631 -0.013827777359509233 0 0.0019664096796718515 -0.013882361714120625 0 0.0019196948700047039 -0.013864011838532555 0 0.0018851516041824396 -0.013890418328578671 0 0.0019448459950158752 -0.013828570721066 0 0.0019326821663379343 -0.013862149859640896 0 0.0018851516041824396 -0.013890418328578671 0 0.0018753764429903631 -0.013827777359509233 0 0.0019326821663379343 -0.013862149859640896 0 0.0018851516041824396 -0.013890418328578671 0 0.0019309891668421665 -0.014058133362382047 0 0.0019326821663379343 -0.013862149859640896 0 0.0020055091543556471 -0.013651758923635618 0 0.0018753764429903631 -0.013827777359509233 0 0.0035581677889346833 -0.009620152733297577 0 0.0041445935438583128 -0.0093601103101577619 0 0.0036935940209986366 -0.0097364433531679315 0 0.0041445935438583128 -0.0093601103101577619 0 0.0041820227236179057 -0.0098453709100011031 0 0.0036935940209986366 -0.0097364433531679315 0 0.0027548551482148805 -0.012733878064339248 0 0.0030812664544524809 -0.01147960798346221 0 0.0041445935438583128 -0.0093601103101577619 0 0.0044573043842848397 -0.009473731476989827 0 0.0041820227236179057 -0.0098453709100011031 0 0.0030812664544524809 -0.01147960798346221 0 0.003205640852988727 -0.01160180709769092 0 0.0041445935438583128 -0.0093601103101577619 0 0.0044573043842848397 -0.009473731476989827 0 0.0045043010309743121 -0.0091295740208354147 0 0.0045121723513315386 -0.0098115873325096605 0 0.0041820227236179057 -0.0098453709100011031 0 0.0043070975706345728 -0.010607661623038805 0 0.0044573043842848397 -0.009473731476989827 0 0.0045121723513315386 -0.0098115873325096605 0 0.0041820227236179057 -0.0098453709100011031 0 0.0041820227236179057 -0.0098453709100011031 0 0.0037590898757437199 -0.010194036723016565 0 0.0043070975706345728 -0.010607661623038805 0 0.0041820227236179057 -0.0098453709100011031 0 0.0037590898757437199 -0.010194036723016565 0 0.0036935940209986366 -0.0097364433531679315 0 0.0037590898757437199 -0.010194036723016565 0 0.0043070975706345728 -0.010607661623038805 0 0.0032190014429395557 -0.010791952860829141 0 0.0045121723513315386 -0.0098115873325096605 0 0.0043070975706345728 -0.010607661623038805 0 0.0046217345241426648 -0.010026514460018055 0 0.0043273992692777772 -0.010546803967028871 0 0.0051010096634930306 -0.010328437014147982 0 0.0027548551482148805 -0.012733878064339248 0 0.0021775427057210898 -0.012962610121338944 0 0.0023146012247735733 -0.010042953988005917 0 0.0032731168889220596 -0.010091523416030979 0 0.0032190014429395557 -0.010791952860829141 0 0.0035046327838384136 -0.0095544238447505484 0 0.0023146012247735733 -0.010042953988005917 0 0.0032731168889220596 -0.010091523416030979 0 0.0035046327838384136 -0.0095544238447505484 0 0.0036935940209986366 -0.0097364433531679315 0 0.0032731168889220596 -0.010091523416030979 0 0.0037590898757437199 -0.010194036723016565 0 0.0036935940209986366 -0.0097364433531679315 0 0.0032731168889220596 -0.010091523416030979 0 0.0043070975706345728 -0.010607661623038805 0 0.0032190014429395557 -0.010791952860829141 0 0.0030938757342331077 -0.011766437245923992 0 0.0037590898757437199 -0.010194036723016565 0 0.0032731168889220596 -0.010091523416030979 0 0.0032190014429395557 -0.010791952860829141 0 0.0023146012247735733 -0.010042953988005917 0 0.0032190014429395557 -0.010791952860829141 0 0.0023689206820264193 -0.011579364373058579 0 0.0032190014429395557 -0.010791952860829141 0 0.0023689206820264193 -0.011579364373058579 0 0.0030938757342331077 -0.011766437245923992 0 0.0023689206820264193 -0.011579364373058579 0 0.0030938757342331077 -0.011766437245923992 0 0.0027642246936725639 -0.012989293189724251 0 0.003812857191527224 -0.01229978505834853 0 0.0030938757342331077 -0.011766437245923992 0 0.0027642246936725639 -0.012989293189724251 0 0.0043070975706345728 -0.010607661623038805 0 0.003812857191527224 -0.01229978505834853 0 0.0030938757342331077 -0.011766437245923992 0 0.0043070975706345728 -0.010607661623038805 0 0.003812857191527224 -0.01229978505834853 0 0.0050385819468271456 -0.012070239435213908 0 0.0043070975706345728 -0.010607661623038805 0 0.0050385819468271456 -0.012070239435213908 0 0.0056491639766378075 -0.010591268106235913 0 0.003812857191527224 -0.01229978505834853 0 0.0051914164224609333 -0.012232239927834478 0 0.0042388350558614663 -0.013372862563283574 0 0.0038756479440512962 -0.012279686158415589 0 0.0050919507836013752 -0.012154869461344416 0 0.0042388350558614663 -0.013372862563283574 0 0.0053216241627190228 -0.01313606936323684 0 0.0048350854539354407 -0.013941481443039506 0 0.0051914164224609333 -0.012232239927834478 0 0.0042388350558614663 -0.013372862563283574 0 0.0053216241627190228 -0.01313606936323684 0 0.0053216241627190228 -0.01313606936323684 0 0.0048350854539354407 -0.013941481443039506 0 0.0055610501620609008 -0.013976050826594822 0 0.0049709679536881378 -0.014669020319343591 0 0.0048350854539354407 -0.013941481443039506 0 0.0055610501620609008 -0.013976050826594822 0 0.0043331699895272835 -0.014471860039974719 0 0.0042388350558614663 -0.013372862563283574 0 0.0048350854539354407 -0.013941481443039506 0 0.0043331699895272835 -0.014471860039974719 0 0.0042388350558614663 -0.013372862563283574 0 0.0034487662697177917 -0.014348048187565502 0 0.002227375537691592 -0.014171000230150643 0 0.0034487662697177917 -0.014348048187565502 0 0.0027642246936725639 -0.012989293189724251 0 0.0042388350558614663 -0.013372862563283574 0 0.0034487662697177917 -0.014348048187565502 0 0.0027642246936725639 -0.012989293189724251 0 0.003812857191527224 -0.01229978505834853 0 0.0042388350558614663 -0.013372862563283574 0 0.0027642246936725639 -0.012989293189724251 0 0.0070455603999162964 -0.013257400549433442 0 0.0079787238474652855 -0.012789650651315312 0 0.0077690595930201096 -0.011851909258300403 0 0.0079042227053058526 -0.014159026941646089 0 0.0079787238474652855 -0.012789650651315312 0 0.008842578489911752 -0.013043865258641927 0 0.0042228021739871818 -0.0048809976883204629 0 0.0063943101566326906 -0.005442786515592277 0 0.0079042227053058526 -0.014159026941646089 0 0.0070455603999162964 -0.013257400549433442 0 0.0079787238474652855 -0.012789650651315312 0 0.0068700536335447584 -0.014459163181221748 0 0.0079042227053058526 -0.014159026941646089 0 0.0070455603999162964 -0.013257400549433442 0 0.0068700536335447584 -0.014459163181221748 0 0.0070455603999162964 -0.013257400549433442 0 0.0062741291476181025 -0.01399807108649738 0 0.0070455603999162964 -0.013257400549433442 0 0.0062741291476181025 -0.01399807108649738 0 0.0061504628413259861 -0.013331903165858949 0 0.0053216241627190228 -0.01313606936323684 0 0.0055610501620609008 -0.013976050826594822 0 0.0061504628413259861 -0.013331903165858949 0 0.0062741291476181025 -0.01399807108649738 0 0.0055610501620609008 -0.013976050826594822 0 0.0061504628413259861 -0.013331903165858949 0 0.0053216241627190228 -0.01313606936323684 0 0.0061504628413259861 -0.013331903165858949 0 0.0064607727584522151 -0.012071148871236973 0 0.0070455603999162964 -0.013257400549433442 0 0.0061504628413259861 -0.013331903165858949 0 0.0064607727584522151 -0.012071148871236973 0 0.0050919507836013752 -0.012154869461344416 0 0.0064548943101083132 -0.01200103588645907 0 0.0051914164224609333 -0.012232239927834478 0 0.0053216241627190228 -0.01313606936323684 0 0.0064607727584522151 -0.012071148871236973 0 0.0050385819468271456 -0.012070239435213908 0 0.0063977559409828851 -0.011939004403063523 0 0.0056491639766378075 -0.010591268106235913 0 0.0063977559409828851 -0.011939004403063523 0 0.0069001544029327804 -0.010540626879396938 0 0.0056491639766378075 -0.010591268106235913 0 0.0063977559409828851 -0.011939004403063523 0 0.0077690595930201096 -0.011851909258300403 0 0.0069001544029327804 -0.010540626879396938 0 0.0077690595930201096 -0.011851909258300403 0 0.008168884955470428 -0.010459073277009647 0 0.0069001544029327804 -0.010540626879396938 0 0.0064548943101083132 -0.01200103588645907 0 0.0077011057217998445 -0.011872830099975251 0 0.0070455603999162964 -0.013257400549433442 0 0.0064607727584522151 -0.012071148871236973 0 0.0077690595930201096 -0.011851909258300403 0 0.0079787238474652855 -0.012789650651315312 0 0.0077690595930201096 -0.011851909258300403 0 0.0087068476108702123 -0.01162155998649567 0 0.0077690595930201096 -0.011851909258300403 0 0.008168884955470428 -0.010459073277009647 0 0.0087068476108702123 -0.01162155998649567 0 0.0053204435132208176 -0.009586324943075708 0 0.0051837746357102496 -0.0093936479326439982 0 0.005531783244312063 -0.0093030235454383131 0 0.006734506747843449 -0.0099806741119141847 0 0.0059107922854687786 -0.010153842862797254 0 0.0053204435132208176 -0.009586324943075708 0 0.0049234741279113696 -0.0097550978923392206 0 0.0051837746357102496 -0.0093936479326439982 0 0.0049234741279113696 -0.0097550978923392206 0 0.0048967155344949616 -0.009451368042103182 0 0.0051837746357102496 -0.0093936479326439982 0 0.0048967155344949616 -0.009451368042103182 0 0.0051837746357102496 -0.0093936479326439982 0 0.0050516684861038426 -0.0091245106407003319 0 0.0051837746357102496 -0.0093936479326439982 0 0.005531783244312063 -0.0093030235454383131 0 0.0054074741033791314 -0.0090960217417673135 0 0.0051837746357102496 -0.0093936479326439982 0 0.0050516684861038426 -0.0091245106407003319 0 0.0054074741033791314 -0.0090960217417673135 0 0.0045121723513315386 -0.0098115873325096605 0 0.0046217345241426648 -0.010026514460018055 0 0.0047587962882394809 -0.0097094154534436723 0 0.0059107922854687786 -0.010153842862797254 0 0.0051010096634930306 -0.010328437014147982 0 0.0049234741279113696 -0.0097550978923392206 0 0.0046217345241426648 -0.010026514460018055 0 0.0047587962882394809 -0.0097094154534436723 0 0.0049234741279113696 -0.0097550978923392206 0 0.0048967155344949616 -0.009451368042103182 0 0.0047587962882394809 -0.0097094154534436723 0 0.0048967155344949616 -0.009451368042103182 0 0.0046831026233615791 -0.0094870800476543511 0 0.0048151510637412616 -0.0091797413246393171 0 0.0048967155344949616 -0.009451368042103182 0 0.0047587962882394809 -0.0097094154534436723 0 0.0046831026233615791 -0.0094870800476543511 0 0.0045121723513315386 -0.0098115873325096605 0 0.0047587962882394809 -0.0097094154534436723 0 0.0046831026233615791 -0.0094870800476543511 0 0.0044573043842848397 -0.009473731476989827 0 0.0045121723513315386 -0.0098115873325096605 0 0.0046831026233615791 -0.0094870800476543511 0 0.0044573043842848397 -0.009473731476989827 0 0.0046831026233615791 -0.0094870800476543511 0 0.0046160996152173946 -0.0092605163525309574 0 0.0044573043842848397 -0.009473731476989827 0 0.0046160996152173946 -0.0092605163525309574 0 0.0045043010309743121 -0.0091295740208354147 0 0.0046160996152173946 -0.0092605163525309574 0 0.0046393387262527435 -0.0090357186872509019 0 0.0045043010309743121 -0.0091295740208354147 0 0.0046831026233615791 -0.0094870800476543511 0 0.0046160996152173946 -0.0092605163525309574 0 0.0048151510637412616 -0.0091797413246393171 0 0.0046160996152173946 -0.0092605163525309574 0 0.0048151510637412616 -0.0091797413246393171 0 0.0046393387262527435 -0.0090357186872509019 0 0.0048151510637412616 -0.0091797413246393171 0 0.0047738215023277152 -0.0089717361495822313 0 0.0046393387262527435 -0.0090357186872509019 0 0.0046900434843299777 -0.008938607142617426 0 0.0046393387262527435 -0.0090357186872509019 0 0.0045043010309743121 -0.0091295740208354147 0 0.0047738215023277152 -0.0089717361495822313 0 0.004685141003066922 -0.0087815822848814722 0 0.00490323110465706 -0.0088108277292173551 0 0.0047738215023277152 -0.0089717361495822313 0 0.004685141003066922 -0.0087815822848814722 0 0.0046393387262527435 -0.0090357186872509019 0 0.0032296783425597476 -0.010226265601188434 0 0.0046406267266270495 -0.0087890461801690412 0 0.0021116979254510028 -0.013837610680612886 0 0.0019664096796718515 -0.013882361714120625 0 0.0020082373116482974 -0.013820136084361168 0 0.0032296783425597476 -0.010226265601188434 0 0.003205640852988727 -0.01160180709769092 0 0.0019196948700047039 -0.013864011838532555 0 0.0019664096796718515 -0.013882361714120625 0 0.0020082373116482974 -0.013820136084361168 0 0.0019196948700047039 -0.013864011838532555 0 0.0020082373116482974 -0.013820136084361168 0 0.0019448459950158752 -0.013828570721066 0 0.0050516684861038426 -0.0091245106407003319 0 0.0051366881382953842 -0.0087301600564940011 0 0.0054074741033791314 -0.0090960217417673135 0 0.0050516684861038426 -0.0091245106407003319 0 0.00490323110465706 -0.0088108277292173551 0 0.0051366881382953842 -0.0087301600564940011 0 0.0048967155344949616 -0.009451368042103182 0 0.0048151510637412616 -0.0091797413246393171 0 0.0050516684861038426 -0.0091245106407003319 0 0.0048151510637412616 -0.0091797413246393171 0 0.0050516684861038426 -0.0091245106407003319 0 0.00490323110465706 -0.0088108277292173551 0 0.0048151510637412616 -0.0091797413246393171 0 0.0047738215023277152 -0.0089717361495822313 0 0.00490323110465706 -0.0088108277292173551 0 0.00490323110465706 -0.0088108277292173551 0 0.0049853716870331228 -0.0085936219091984171 0 0.0051366881382953842 -0.0087301600564940011 0 0.004685141003066922 -0.0087815822848814722 0 0.00490323110465706 -0.0088108277292173551 0 0.0049693927898575773 -0.0083974622609796091 0 0.0032296783425597476 -0.010226265601188434 0 0.0043175304379967352 -0.0081159556502419204 0 0.00490323110465706 -0.0088108277292173551 0 0.0049853716870331228 -0.0085936219091984171 0 0.0049693927898575773 -0.0083974622609796091 0 0.0049853716870331228 -0.0085936219091984171 0 0.0050284551547031091 -0.0084515955694790691 0 0.0049693927898575773 -0.0083974622609796091 0 0.0050284551547031091 -0.0084515955694790691 0 0.0051366881382953842 -0.0087301600564940011 0 0.0050699788826390341 -0.0081146993480522098 0 0.0049853716870331228 -0.0085936219091984171 0 0.0050284551547031091 -0.0084515955694790691 0 0.0051366881382953842 -0.0087301600564940011 0 0.0045112000420513719 -0.0078672663055840298 0 0.0043175304379967352 -0.0081159556502419204 0 0.0037180163303949924 -0.0076592304285081477 0 0.0040331176917387497 -0.0077841934806913834 0 0.0033438694169327494 -0.0081251569311769287 0 0.0050699788826390341 -0.0081146993480522098 0 0.0050266913669899946 -0.0079571205346677231 0 0.0049693927898575773 -0.0083974622609796091 0 0.0050284551547031091 -0.0084515955694790691 0 0.0050699788826390341 -0.0081146993480522098 0 0.0049693927898575773 -0.0083974622609796091 0 0.0037180163303949924 -0.0076592304285081477 0 0.0033438694169327494 -0.0081251569311769287 0 0.003441790695053305 -0.0077105554162466804 0 0.0037180163303949924 -0.0076592304285081477 0 0.003441790695053305 -0.0077105554162466804 0 0.0033339410376839215 -0.0075292901113574694 0 0.0037180163303949924 -0.0076592304285081477 0 0.0040331176917387497 -0.0077841934806913834 0 0.0039603789871750367 -0.0075370496465899731 0 0.0032296783425597476 -0.010226265601188434 0 0.0024083573495869725 -0.010368040198587451 0 0.0025953650166171296 -0.0084448822175196281 0 0.0033438694169327494 -0.0081251569311769287 0 0.0033231030861311244 -0.0075286492008209884 0 0.0033438694169327494 -0.0081251569311769287 0 0.003441790695053305 -0.0077105554162466804 0 0.0033231030861311244 -0.0075286492008209884 0 0.0022662280665805301 -0.0090494393650937723 0 0.0024083573495869725 -0.010368040198587451 0 0.0016992402139089143 -0.010208945174868651 0 0.0021107764681702178 -0.0096878229880511708 0 0.0013732980520332007 -0.0097120094314420893 0 0.0024083573495869725 -0.010368040198587451 0 0.0019363062042924669 -0.012037970617520597 0 0.0022331622470444018 -0.013681487763446609 0 0.0021518975038177257 -0.013570629612520486 0 0.0021091387117788906 -0.013727181105183476 0 0.0033339410376839215 -0.0075292901113574694 0 0.0038603799132689775 -0.007361856504493715 0 0.0040075377765641735 -0.006848375980144197 0 0.0024083573495869725 -0.010368040198587451 0 0.0033722777286144525 -0.0079919865380364743 0 0.0038603799132689775 -0.007361856504493715 0 0.0040075377765641735 -0.006848375980144197 0 0.0042135659418094679 -0.0073540195670583064 0 0.0039603789871750367 -0.0075370496465899731 0 0.0038603799132689775 -0.007361856504493715 0 0.0042135659418094679 -0.0073540195670583064 0 0.0037180163303949924 -0.0076592304285081477 0 0.0039603789871750367 -0.0075370496465899731 0 0.0038603799132689775 -0.007361856504493715 0 0.0037180163303949924 -0.0076592304285081477 0 0.0033339410376839215 -0.0075292901113574694 0 0.0038603799132689775 -0.007361856504493715 0 0.0021107764681702178 -0.0096878229880511708 0 0.0017817689401341884 -0.0091911529056840947 0 0.0013732980520332007 -0.0097120094314420893 0 0.0017817689401341884 -0.0091911529056840947 0 0.0010493568333235536 -0.0092194628418427755 0 0.0013732980520332007 -0.0097120094314420893 0 0.00020485291960344843 -0.0082601503393692662 0 0.00062825098957622252 -0.010660777831036718 0 -0.00079378677421103284 -0.007750282614851888 0 -0.0012822435333199953 -0.0079165404467764384 0 -0.0010560296426938979 -0.0076429858438108005 0 0.0021107764681702178 -0.0096878229880511708 0 0.0017817689401341884 -0.0091911529056840947 0 0.0025185230092333788 -0.0091662031913795489 0 0.00020485291960344843 -0.0082601503393692662 0 0.001770220479563983 -0.0079134608112159648 0 -0.00079378677421103284 -0.007750282614851888 0 -0.00050411995723318359 -0.0073446662503711766 0 -0.0001148788941417727 -0.0076316819921586577 0 0.0020113247438186626 -0.013412619052775424 0 0.0020354537491876364 -0.013528303208393889 0 0.0019140067684884567 -0.013563847028835556 0 0.0020113247438186626 -0.013412619052775424 0 0.0020145075556404664 -0.013354142660203161 0 0.0019140067684884567 -0.013563847028835556 0 0.00034742174223880719 -0.011757483706964954 0 0.001612284485280986 -0.014905930747399709 0 0.0012512671210537151 -0.015503327793984336 0 0.0011527725078965246 -0.015457297638316905 0 0.0012148930417145679 -0.015512632834644728 0 0.0012512671210537151 -0.015503327793984336 0 0.0012148930417145679 -0.015512632834644728 0 0.0012491253222243429 -0.01550810741928735 0 0.0020113247438186626 -0.013412619052775424 0 0.0020565722745345062 -0.013411162514583026 0 0.0020354537491876364 -0.013528303208393889 0 0.0020113247438186626 -0.013412619052775424 0 0.0020145075556404664 -0.013354142660203161 0 0.0020468835308326879 -0.013403047072308286 0 0.00034742174223880719 -0.011757483706964954 0 0.00062825098957622252 -0.010660777831036718 0 0.0015090580427750567 -0.011298373216250539 0 0.00062825098957622252 -0.010660777831036718 0 0.0020565722745345062 -0.013411162514583026 0 0.0021518975038177257 -0.013570629612520486 0 0.0020354537491876364 -0.013528303208393889 0 0.0021518975038177257 -0.013570629612520486 0 0.0020354537491876364 -0.013528303208393889 0 0.0020454543232275328 -0.013666932230350405 0 0.00062825098957622252 -0.010660777831036718 0 0.0019363062042924669 -0.012037970617520597 0 0.0020354537491876364 -0.013528303208393889 0 0.0020454543232275328 -0.013666932230350405 0 0.0019140067684884567 -0.013563847028835556 0 0.0020454543232275328 -0.013666932230350405 0 0.0019385843074298185 -0.013716991575819034 0 0.0019140067684884567 -0.013563847028835556 0 0.0020454543232275328 -0.013666932230350405 0 0.0019803602499061683 -0.013766889736252065 0 0.0019385843074298185 -0.013716991575819034 0 0.0020454543232275328 -0.013666932230350405 0 0.0019803602499061683 -0.013766889736252065 0 0.002041764721232347 -0.013755612232592945 0 0.0021518975038177257 -0.013570629612520486 0 0.0020454543232275328 -0.013666932230350405 0 0.0021091387117788906 -0.013727181105183476 0 0.0020454543232275328 -0.013666932230350405 0 0.0021091387117788906 -0.013727181105183476 0 0.002041764721232347 -0.013755612232592945 0 0.0021116979254510028 -0.013837610680612886 0 0.0021091387117788906 -0.013727181105183476 0 0.0020681699932280717 -0.013783885575421624 0 0.0021116979254510028 -0.013837610680612886 0 0.0022331622470444018 -0.013681487763446609 0 0.0021091387117788906 -0.013727181105183476 0 0.0021091387117788906 -0.013727181105183476 0 0.0020681699932280717 -0.013783885575421624 0 0.002041764721232347 -0.013755612232592945 0 0.0021116979254510028 -0.013837610680612886 0 0.0020681699932280717 -0.013783885575421624 0 0.0020082373116482974 -0.013820136084361168 0 0.0019803602499061683 -0.013766889736252065 0 0.002041764721232347 -0.013755612232592945 0 0.0020082373116482974 -0.013820136084361168 0 0.0020681699932280717 -0.013783885575421624 0 0.002041764721232347 -0.013755612232592945 0 0.0020082373116482974 -0.013820136084361168 0 0.0019803602499061683 -0.013766889736252065 0 0.0020082373116482974 -0.013820136084361168 0 0.0019448459950158752 -0.013828570721066 0 0.0019803602499061683 -0.013766889736252065 0 0.0019448459950158752 -0.013828570721066 0 0.0019139396000405402 -0.013813639439822049 0 0.0018851516041824396 -0.013890418328578671 0 0.0019448459950158752 -0.013828570721066 0 0.0019139396000405402 -0.013813639439822049 0 0.0018851516041824396 -0.013890418328578671 0 0.0019139396000405402 -0.013813639439822049 0 0.0018884630807662988 -0.013888811041273477 0 0.0018884630807662988 -0.013888811041273477 0 0.0018484512709966924 -0.013770109839361245 0 0.0019309891668421665 -0.014058133362382047 0 0.0016014545078430881 -0.014270828678751447 0 0.0018955236279225409 -0.014082291201878809 0 0.0012662551192702577 -0.0149381274607568 0 0.0019309891668421665 -0.014058133362382047 0 0.001760351463523232 -0.014834369472880927 0 0.0018851516041824396 -0.013890418328578671 0 0.0018884630807662988 -0.013888811041273477 0 0.0019309891668421665 -0.014058133362382047 0 0.0019139396000405402 -0.013813639439822049 0 0.0018884630807662988 -0.013888811041273477 0 0.0018484512709966924 -0.013770109839361245 0 0.0012662551192702577 -0.0149381274607568 0 0.001760351463523232 -0.014834369472880927 0 0.0014229618910617061 -0.015338814246312759 0 0.0018484512709966924 -0.013770109839361245 0 0.0019385843074298185 -0.013716991575819034 0 0.0019140067684884567 -0.013563847028835556 0 0.0019139396000405402 -0.013813639439822049 0 0.0018484512709966924 -0.013770109839361245 0 0.0019385843074298185 -0.013716991575819034 0 0.0019803602499061683 -0.013766889736252065 0 0.0019139396000405402 -0.013813639439822049 0 0.0019385843074298185 -0.013716991575819034 0 0.0025465122373315081 -0.014335912868148259 0 0.0019309891668421665 -0.014058133362382047 0 0.0023471647713857436 -0.014840419321141473 0 0.0024214585275719822 -0.013883006845636122 0 0.0025465122373315081 -0.014335912868148259 0 0.0019309891668421665 -0.014058133362382047 0 0.0019309891668421665 -0.014058133362382047 0 0.001760351463523232 -0.014834369472880927 0 0.0023471647713857436 -0.014840419321141473 0 0.001760351463523232 -0.014834369472880927 0 0.0023471647713857436 -0.014840419321141473 0 0.0014229618910617061 -0.015338814246312759 0 0.0020904256701932229 -0.015079691463129822 0 0.0014150783847086256 -0.015359066744587462 0 0.0017393093995895811 -0.015407638510606475 0 0.0017619050469302715 -0.015545688696504779 0 0.0018661751074787541 -0.015498355161180569 0 0.0017619050469302715 -0.015545688696504779 0 0.0014229618910617061 -0.015338814246312759 0 0.0013738243863241474 -0.01553860440535507 0 0.0017393093995895811 -0.015407638510606475 0 0.0017619050469302715 -0.015545688696504779 0 0.0014229618910617061 -0.015338814246312759 0 0.001561407308176144 -0.015583755639199679 0 0.0013848406639510311 -0.015551307496419791 0 0.0013648965436695562 -0.015630477421408533 0 0.0013503481062720434 -0.015606958296170195 0 0.0013738243863241474 -0.01553860440535507 0 0.0013503481062720434 -0.015606958296170195 0 0.0013738243863241474 -0.01553860440535507 0 0.0013159274652095 -0.015590306579628779 0 0.0013503481062720434 -0.015606958296170195 0 0.0013159274652095 -0.015590306579628779 0 0.0013297782566981996 -0.015655165598513005 0 0.0013503481062720434 -0.015606958296170195 0 0.0013631140578858668 -0.015658991712971956 0 0.0013297782566981996 -0.015655165598513005 0 0.0013648965436695562 -0.015630477421408533 0 0.0013503481062720434 -0.015606958296170195 0 0.0013631140578858668 -0.015658991712971956 0 0.0013631140578858668 -0.015658991712971956 0 0.0013737611276661212 -0.015719812359586489 0 0.001431095504748332 -0.015695652816076044 0 0.0013648965436695562 -0.015630477421408533 0 0.0013631140578858668 -0.015658991712971956 0 0.001431095504748332 -0.015695652816076044 0 0.0012662551192702577 -0.0149381274607568 0 0.0012741205900752006 -0.015474431360575346 0 0.0011527725078965246 -0.015457297638316905 0 0.0016014545078430881 -0.014270828678751447 0 0.001612284485280986 -0.014905930747399709 0 0.0012662551192702577 -0.0149381274607568 0 0.0012741205900752006 -0.015474431360575346 0 0.0014229618910617061 -0.015338814246312759 0 0.0012741205900752006 -0.015474431360575346 0 0.0014229618910617061 -0.015338814246312759 0 0.0013738243863241474 -0.01553860440535507 0 0.0012741205900752006 -0.015474431360575346 0 0.0013738243863241474 -0.01553860440535507 0 0.0012673802846404803 -0.015548441530914303 0 0.0013738243863241474 -0.01553860440535507 0 0.0012673802846404803 -0.015548441530914303 0 0.0013159274652095 -0.015590306579628779 0 0.0012673802846404803 -0.015548441530914303 0 0.0012148930417145679 -0.015512632834644728 0 0.0012353473119658793 -0.015524905053943786 0 0.0012741205900752006 -0.015474431360575346 0 0.0012673802846404803 -0.015548441530914303 0 0.0012148930417145679 -0.015512632834644728 0 0.0012741205900752006 -0.015474431360575346 0 0.0011527725078965246 -0.015457297638316905 0 0.0012148930417145679 -0.015512632834644728 0 0.0012148930417145679 -0.015512632834644728 0 0.0012353473119658793 -0.015524905053943786 0 0.0012491253222243429 -0.01550810741928735 0 0.0012353473119658793 -0.015524905053943786 0 0.0012389935508847207 -0.015521358549789222 0 0.0012359724975138553 -0.015436613150242303 0 0.0012353473119658793 -0.015524905053943786 0 0.0012359724975138553 -0.015436613150242303 0 0.0012955744790900173 -0.015477702424114901 0 0.0012389935508847207 -0.015521358549789222 0 0.0012359724975138553 -0.015436613150242303 0 0.0012314835298807393 -0.01546747844147346 0 0.0012389935508847207 -0.015521358549789222 0 0.0012566596797709568 -0.015544805376005829 0 0.0012314835298807393 -0.01546747844147346 0 0.0012673802846404803 -0.015548441530914303 0 0.0012353473119658793 -0.015524905053943786 0 0.0012389935508847207 -0.015521358549789222 0 0.0012673802846404803 -0.015548441530914303 0 0.001269356092311609 -0.015563465712790676 0 0.0013159274652095 -0.015590306579628779 0 0.0012673802846404803 -0.015548441530914303 0 0.0012389935508847207 -0.015521358549789222 0 0.001269356092311609 -0.015563465712790676 0 0.0013159274652095 -0.015590306579628779 0 0.0012818339017940292 -0.015593726607816957 0 0.001300937170608672 -0.015632392508966156 0 0.001269356092311609 -0.015563465712790676 0 0.0013159274652095 -0.015590306579628779 0 0.0012818339017940292 -0.015593726607816957 0 0.0012818339017940292 -0.015593726607816957 0 0.0012566596797709568 -0.015544805376005829 0 0.0012854766199426044 -0.015614791924601551 0 0.0012818339017940292 -0.015593726607816957 0 0.0012854766199426044 -0.015614791924601551 0 0.001300937170608672 -0.015632392508966156 0 0.0012389935508847207 -0.015521358549789222 0 0.001269356092311609 -0.015563465712790676 0 0.0012566596797709568 -0.015544805376005829 0 0.001269356092311609 -0.015563465712790676 0 0.0012818339017940292 -0.015593726607816957 0 0.0012566596797709568 -0.015544805376005829 0 0.0012566596797709568 -0.015544805376005829 0 0.0012769084918721268 -0.015584106828936817 0 0.0012474742857014017 -0.015493168171187701 0 0.0012566596797709568 -0.015544805376005829 0 0.0012769084918721268 -0.015584106828936817 0 0.0012854766199426044 -0.015614791924601551 0 0.0012769084918721268 -0.015584106828936817 0 0.0012766347343907635 -0.015551975703544899 0 0.0012474742857014017 -0.015493168171187701 0 0.0012769084918721268 -0.015584106828936817 0 0.0012854766199426044 -0.015614791924601551 0 0.001297036120791024 -0.015644343542415451 0 0.0012854766199426044 -0.015614791924601551 0 0.001297036120791024 -0.015644343542415451 0 0.0012985449863321286 -0.015679104294777223 0 0.001297036120791024 -0.015644343542415451 0 0.0012766347343907635 -0.015551975703544899 0 0.0013162741640042508 -0.01567031848831401 0 0.001297036120791024 -0.015644343542415451 0 0.0013036090578997673 -0.01572827678208167 0 0.0013162741640042508 -0.01567031848831401 0 0.0012766347343907635 -0.015551975703544899 0 0.0012863663682563804 -0.015543135701827757 0 0.0013162741640042508 -0.01567031848831401 0 0.0012769084918721268 -0.015584106828936817 0 0.001297036120791024 -0.015644343542415451 0 0.0012766347343907635 -0.015551975703544899 0 0.0012411140352907861 -0.015415152599423774 0 0.0012175852814902625 -0.015436630639487093 0 0.0012863663682563804 -0.015543135701827757 0 0.0012766347343907635 -0.015551975703544899 0 0.0012411140352907861 -0.015415152599423774 0 0.0012863663682563804 -0.015543135701827757 0 0.0012766347343907635 -0.015551975703544899 0 0.0012411140352907861 -0.015415152599423774 0 0.0012474742857014017 -0.015493168171187701 0 0.0012411140352907861 -0.015415152599423774 0 0.0012370854407911856 -0.015205151909361411 0 0.0012236553191363863 -0.01537882154170518 0 0.0012411140352907861 -0.015415152599423774 0 0.0012370854407911856 -0.015205151909361411 0 0.0012175852814902625 -0.015436630639487093 0 0.0012370854407911856 -0.015205151909361411 0 0.0012175852814902625 -0.015436630639487093 0 0.00057853072490692708 -0.015040593868960218 0 0.0012370854407911856 -0.015205151909361411 0 0.0012236553191363863 -0.01537882154170518 0 0.0012359724975138553 -0.015436613150242303 0 0.0012236553191363863 -0.01537882154170518 0 0.0012359724975138553 -0.015436613150242303 0 0.0012314835298807393 -0.01546747844147346 0 0.0012411140352907861 -0.015415152599423774 0 0.0012236553191363863 -0.01537882154170518 0 0.0012314835298807393 -0.01546747844147346 0 0.0012566596797709568 -0.015544805376005829 0 0.0012314835298807393 -0.01546747844147346 0 0.0012474742857014017 -0.015493168171187701 0 0.0012411140352907861 -0.015415152599423774 0 0.0012314835298807393 -0.01546747844147346 0 0.0012474742857014017 -0.015493168171187701 0 0.0013737611276661212 -0.015719812359586489 0 0.0013295281760718071 -0.01572637953602175 0 0.0013297782566981996 -0.015655165598513005 0 0.0013631140578858668 -0.015658991712971956 0 0.0013737611276661212 -0.015719812359586489 0 0.0013297782566981996 -0.015655165598513005 0 0.0013737611276661212 -0.015719812359586489 0 0.0013295281760718071 -0.01572637953602175 0 0.001369081846091929 -0.015807225328141366 0 0.0013295281760718071 -0.01572637953602175 0 0.0013104573857182728 -0.015686264417024025 0 0.0013034742725796754 -0.015752611986696023 0 0.0013295281760718071 -0.01572637953602175 0 0.0013104573857182728 -0.015686264417024025 0 0.0013297782566981996 -0.015655165598513005 0 0.0013159274652095 -0.015590306579628779 0 0.0013297782566981996 -0.015655165598513005 0 0.001300937170608672 -0.015632392508966156 0 0.0013104573857182728 -0.015686264417024025 0 0.0013297782566981996 -0.015655165598513005 0 0.001300937170608672 -0.015632392508966156 0 0.0013104573857182728 -0.015686264417024025 0 0.001300937170608672 -0.015632392508966156 0 0.0012985449863321286 -0.015679104294777223 0 0.0012985449863321286 -0.015679104294777223 0 0.0013036090578997673 -0.01572827678208167 0 0.0013034742725796754 -0.015752611986696023 0 0.0012854766199426044 -0.015614791924601551 0 0.001300937170608672 -0.015632392508966156 0 0.0012985449863321286 -0.015679104294777223 0 0.0013104573857182728 -0.015686264417024025 0 0.0012985449863321286 -0.015679104294777223 0 0.0013034742725796754 -0.015752611986696023 0 0.001297036120791024 -0.015644343542415451 0 0.0012985449863321286 -0.015679104294777223 0 0.0013036090578997673 -0.01572827678208167 0 0.0012997572083712093 -0.01581212601405501 0 0.0013034742725796754 -0.015752611986696023 0 0.0013004111106794814 -0.015829251994155028 0 0.0013036090578997673 -0.01572827678208167 0 0.0012997572083712093 -0.01581212601405501 0 0.0013034742725796754 -0.015752611986696023 0 0.0013034742725796754 -0.015752611986696023 0 0.0013215332415446098 -0.015814302551047772 0 0.0013004111106794814 -0.015829251994155028 0 0.0013295281760718071 -0.01572637953602175 0 0.0013034742725796754 -0.015752611986696023 0 0.0013215332415446098 -0.015814302551047772 0 0.0012997572083712093 -0.01581212601405501 0 0.0013004111106794814 -0.015829251994155028 0 0.0012843501083679672 -0.015910370818547376 0 0.0013004111106794814 -0.015829251994155028 0 0.0013029932034296092 -0.015875548724007916 0 0.0012843501083679672 -0.015910370818547376 0 0.0013215332415446098 -0.015814302551047772 0 0.0013004111106794814 -0.015829251994155028 0 0.0013029932034296092 -0.015875548724007916 0 0.0013029932034296092 -0.015875548724007916 0 0.0012922947906499212 -0.015951491779750814 0 0.001338576525285482 -0.015901381477477414 0 0.0013215332415446098 -0.015814302551047772 0 0.0013029932034296092 -0.015875548724007916 0 0.001338576525285482 -0.015901381477477414 0 0.0013029932034296092 -0.015875548724007916 0 0.0012922947906499212 -0.015951491779750814 0 0.0012843501083679672 -0.015910370818547376 0 0.0013295281760718071 -0.01572637953602175 0 0.0013215332415446098 -0.015814302551047772 0 0.001369081846091929 -0.015807225328141366 0 0.0013215332415446098 -0.015814302551047772 0 0.001369081846091929 -0.015807225328141366 0 0.001338576525285482 -0.015901381477477414 0 0.0012608372089577726 -0.016037221349858136 0 0.0012443275646876256 -0.015968558018050426 0 0.001251484108507123 -0.016200683614829972 0 0.0012608372089577726 -0.016037221349858136 0 0.0012595811719907481 -0.015964952957923956 0 0.0012443275646876256 -0.015968558018050426 0 0.0012608372089577726 -0.016037221349858136 0 0.0012740540558397908 -0.015952727823800666 0 0.0012595811719907481 -0.015964952957923956 0 0.0012608372089577726 -0.016037221349858136 0 0.0012922947906499212 -0.015951491779750814 0 0.0012914476799852062 -0.016041338210634457 0 0.0012922947906499212 -0.015951491779750814 0 0.001338576525285482 -0.015901381477477414 0 0.0012914476799852062 -0.016041338210634457 0 0.0012608372089577726 -0.016037221349858136 0 0.0012922947906499212 -0.015951491779750814 0 0.0012843501083679672 -0.015910370818547376 0 0.0012608372089577726 -0.016037221349858136 0 0.0012843501083679672 -0.015910370818547376 0 0.0012740540558397908 -0.015952727823800666 0 0.0012997572083712093 -0.01581212601405501 0 0.0012843501083679672 -0.015910370818547376 0 0.0012877996205027766 -0.015893623456188753 0 0.0012843501083679672 -0.015910370818547376 0 0.0012877996205027766 -0.015893623456188753 0 0.0012740540558397908 -0.015952727823800666 0 0.0012877996205027766 -0.015893623456188753 0 0.0012740540558397908 -0.015952727823800666 0 0.0012811554677675328 -0.015897082862866209 0 0.0012740540558397908 -0.015952727823800666 0 0.0012595811719907481 -0.015964952957923956 0 0.0012811554677675328 -0.015897082862866209 0 0.0012877996205027766 -0.015893623456188753 0 0.0013055832609552786 -0.015840228599578631 0 0.0013129992541148132 -0.015785045255756174 0 0.0012877996205027766 -0.015893623456188753 0 0.0013055832609552786 -0.015840228599578631 0 0.0012811554677675328 -0.015897082862866209 0 0.0012997572083712093 -0.01581212601405501 0 0.0012877996205027766 -0.015893623456188753 0 0.0013129992541148132 -0.015785045255756174 0 0.0013036090578997673 -0.01572827678208167 0 0.0012997572083712093 -0.01581212601405501 0 0.0013129992541148132 -0.015785045255756174 0 0.0013036090578997673 -0.01572827678208167 0 0.0013129992541148132 -0.015785045255756174 0 0.0013162741640042508 -0.01567031848831401 0 0.0013055832609552786 -0.015840228599578631 0 0.0013129992541148132 -0.015785045255756174 0 0.0013437068646735991 -0.0157661994749561 0 0.0013055832609552786 -0.015840228599578631 0 0.0013083101989973267 -0.015819960476296236 0 0.0013437068646735991 -0.0157661994749561 0 0.0013326566113864527 -0.015773472037511772 0 0.0013083101989973267 -0.015819960476296236 0 0.0013437068646735991 -0.0157661994749561 0 0.0013326566113864527 -0.015773472037511772 0 0.0013019520236005229 -0.015743583165673002 0 0.0013505473857964069 -0.015746204080220486 0 0.0013326566113864527 -0.015773472037511772 0 0.0013019520236005229 -0.015743583165673002 0 0.0013083101989973267 -0.015819960476296236 0 0.0013019520236005229 -0.015743583165673002 0 0.0013083101989973267 -0.015819960476296236 0 0.0012396141301765022 -0.015832040125519135 0 0.0013055832609552786 -0.015840228599578631 0 0.0013083101989973267 -0.015819960476296236 0 0.0012811554677675328 -0.015897082862866209 0 0.0013083101989973267 -0.015819960476296236 0 0.0012811554677675328 -0.015897082862866209 0 0.0012396141301765022 -0.015832040125519135 0 0.0012856093043808652 -0.016198079027769124 0 0.00093851257767785939 -0.016069400947727214 0 0.0012443275646876256 -0.015968558018050426 0 0.001251484108507123 -0.016200683614829972 0 0.0011602128891879822 -0.015661015101563917 0 0.0012396141301765022 -0.015832040125519135 0 0.0012443275646876256 -0.015968558018050426 0 0.0011602128891879822 -0.015661015101563917 0 0.0012595811719907481 -0.015964952957923956 0 0.0012811554677675328 -0.015897082862866209 0 0.0012396141301765022 -0.015832040125519135 0 0.0012595811719907481 -0.015964952957923956 0 0.0012396141301765022 -0.015832040125519135 0 0.0012443275646876256 -0.015968558018050426 0 0.0010682599931712865 -0.015805644020469189 0 0.00093851257767785939 -0.016069400947727214 0 0.0013019520236005229 -0.015743583165673002 0 0.0012396141301765022 -0.015832040125519135 0 0.0011391774224320213 -0.015711423153065576 0 0.0012175852814902625 -0.015436630639487093 0 0.0013256674800740593 -0.015839770596855294 0 0.00057853072490692708 -0.015040593868960218 0 -9.5102717512393452e-05 -0.011445074131322499 0 -0.00040803086058594434 -0.011032371636230559 0 0.0012175852814902625 -0.015436630639487093 0 0.0013250305734802481 -0.015652327275009634 0 0.0013256674800740593 -0.015839770596855294 0 0.0012175852814902625 -0.015436630639487093 0 0.0012863663682563804 -0.015543135701827757 0 0.0013250305734802481 -0.015652327275009634 0 0.0013250305734802481 -0.015652327275009634 0 0.0013437068646735991 -0.0157661994749561 0 0.0013256674800740593 -0.015839770596855294 0 0.0012863663682563804 -0.015543135701827757 0 0.0013250305734802481 -0.015652327275009634 0 0.0013162741640042508 -0.01567031848831401 0 0.0013129992541148132 -0.015785045255756174 0 0.0013162741640042508 -0.01567031848831401 0 0.0013437068646735991 -0.0157661994749561 0 0.0013250305734802481 -0.015652327275009634 0 0.0013162741640042508 -0.01567031848831401 0 0.0013437068646735991 -0.0157661994749561 0 0.0013437068646735991 -0.0157661994749561 0 0.0013505473857964069 -0.015746204080220486 0 0.0013256674800740593 -0.015839770596855294 0 0.0013505473857964069 -0.015746204080220486 0 0.0013256674800740593 -0.015839770596855294 0 0.0013878053808020546 -0.015646233022628925 0 0.0013326566113864527 -0.015773472037511772 0 0.0013437068646735991 -0.0157661994749561 0 0.0013505473857964069 -0.015746204080220486 0 -0.0014405208132780244 -0.007013671474212846 0 -0.0013557302694220156 -0.0069116579691314581 0 -0.0014533738863531762 -0.0069190382711761984 0 -9.5102717512393452e-05 -0.011445074131322499 0 9.3836862933457764e-05 -0.011205482513912082 0 -0.0013557302694220156 -0.0069116579691314581 0 -0.0013051397947180827 -0.006944418238421385 0 -0.0013740505998395454 -0.0070109953218481539 0 -0.0012993447242211032 -0.0068970453466681405 0 -0.0013051397947180827 -0.006944418238421385 0 -0.0012647794596459016 -0.0068658792887241705 0 -0.0013557302694220156 -0.0069116579691314581 0 -0.0012993447242211032 -0.0068970453466681405 0 -0.0012647794596459016 -0.0068658792887241705 0 -0.0013557302694220156 -0.0069116579691314581 0 -0.0012993447242211032 -0.0068970453466681405 0 -0.0013051397947180827 -0.006944418238421385 0 -0.0013051397947180827 -0.006944418238421385 0 -0.0013740505998395454 -0.0070109953218481539 0 -0.0013032503057848887 -0.0070533107425375247 0 -0.0013051397947180827 -0.006944418238421385 0 -0.0013032503057848887 -0.0070533107425375247 0 -0.0011939467051086242 -0.0069710759091810163 0 -0.0014405208132780244 -0.007013671474212846 0 -0.0013557302694220156 -0.0069116579691314581 0 -0.0013740505998395454 -0.0070109953218481539 0 -0.0013032503057848887 -0.0070533107425375247 0 -0.0013136586496364459 -0.0071801415796056778 0 -0.0014776281609229682 -0.0072778387173781343 0 -0.0014405208132780244 -0.007013671474212846 0 -0.0013740505998395454 -0.0070109953218481539 0 -0.0014776281609229682 -0.0072778387173781343 0 -0.0013740505998395454 -0.0070109953218481539 0 -0.0013032503057848887 -0.0070533107425375247 0 -0.0014776281609229682 -0.0072778387173781343 0 -0.0011951359933008031 -0.0071003299243187854 0 -0.0010314452484675304 -0.0070297936338589257 0 -0.0010804626143455043 -0.0071750135296991258 0 -0.0013136586496364459 -0.0071801415796056778 0 -0.0011951359933008031 -0.0071003299243187854 0 -0.0012097100148247837 -0.007258814547704287 0 -0.0013032503057848887 -0.0070533107425375247 0 -0.0013136586496364459 -0.0071801415796056778 0 -0.0011951359933008031 -0.0071003299243187854 0 -0.0013032503057848887 -0.0070533107425375247 0 -0.0011951359933008031 -0.0071003299243187854 0 -0.0011939467051086242 -0.0069710759091810163 0 -0.0011951359933008031 -0.0071003299243187854 0 -0.0011939467051086242 -0.0069710759091810163 0 -0.0010314452484675304 -0.0070297936338589257 0 -0.0011939467051086242 -0.0069710759091810163 0 -0.0010333713634225186 -0.006887156285947064 0 -0.0010314452484675304 -0.0070297936338589257 0 -0.0011939467051086242 -0.0069710759091810163 0 -0.0010333713634225186 -0.006887156285947064 0 -0.0012647794596459016 -0.0068658792887241705 0 -0.0025862389384430787 -0.0047904913814534279 0 -0.0018077237102558979 -0.0060149424384863199 0 -0.0017133804736951068 -0.005852138903106781 0 -0.0017731423731507563 -0.0058915839852225821 0 -0.0019967900313326644 -0.0057281163301301187 0 -0.0013051397947180827 -0.006944418238421385 0 -0.0011939467051086242 -0.0069710759091810163 0 -0.0012647794596459016 -0.0068658792887241705 0 -0.0013298470202410266 -0.0064550672157634411 0 -0.0018077237102558979 -0.0060149424384863199 0 -0.0017133804736951068 -0.005852138903106781 0 -0.0017731423731507563 -0.0058915839852225821 0 -0.0015313396713087281 -0.0060745797334767959 0 -0.0032416918498808073 -0.0037553129301105465 0 -0.0023688233488158386 -0.0036337414286920747 0 -0.0026925518619324968 -0.0031816179904068762 0 -0.0025862389384430787 -0.0047904913814534279 0 -0.0011877483622870963 -0.0063215610446304155 0 -0.0032416918498808073 -0.0037553129301105465 0 -0.0023688233488158386 -0.0036337414286920747 0 -0.0020563941753997165 -0.0043590210775304918 0 -0.0025862389384430787 -0.0047904913814534279 0 -0.0015466704237357847 -0.0049121679097170563 0 -0.0023688233488158386 -0.0036337414286920747 0 -0.002041752118630611 -0.0031265843089855927 0 -0.0018071451614225099 -0.0037370617480014263 0 -0.0023688233488158386 -0.0036337414286920747 0 -0.0026925518619324968 -0.0031816179904068762 0 -0.002041752118630611 -0.0031265843089855927 0 -0.0023688233488158386 -0.0036337414286920747 0 -0.0020563941753997165 -0.0043590210775304918 0 -0.0018071451614225099 -0.0037370617480014263 0 -0.0021499545927034926 -0.0050144937502600764 0 -0.00095905542958955696 -0.0055472611299994543 0 -0.0014882026232188848 -0.0057951905517208222 0 -0.00073734303809665225 -0.006921263989500475 0 -0.00088938082177986491 -0.0070965824080213577 0 -0.00068933690685562047 -0.0070300601858016773 0 -0.00073734303809665225 -0.006921263989500475 0 -0.00068933690685562047 -0.0070300601858016773 0 -0.00049041222426017138 -0.0068939277070537422 0 -0.00095905542958955696 -0.0055472611299994543 0 -0.0014882026232188848 -0.0057951905517208222 0 -0.00083170254840670278 -0.0062551022061172338 0 -0.0011877483622870963 -0.0063215610446304155 0 -0.00061945676486970609 -0.0065894242607399756 0 -0.00073734303809665225 -0.006921263989500475 0 -0.0010314452484675304 -0.0070297936338589257 0 -0.00088938082177986491 -0.0070965824080213577 0 -0.0013298470202410266 -0.0064550672157634411 0 -0.0011877483622870963 -0.0063215610446304155 0 -0.0010333713634225186 -0.006887156285947064 0 -0.00073734303809665225 -0.006921263989500475 0 -0.0010314452484675304 -0.0070297936338589257 0 -0.0010314452484675304 -0.0070297936338589257 0 -0.00088938082177986491 -0.0070965824080213577 0 -0.0010804626143455043 -0.0071750135296991258 0 -0.00080959734530926394 -0.0072790113512095 0 -0.00096765061421532792 -0.0072414697166820379 0 -0.0010835347138205514 -0.0074235655317637372 0 -0.00088938082177986491 -0.0070965824080213577 0 -0.00096765061421532792 -0.0072414697166820379 0 -0.0010804626143455043 -0.0071750135296991258 0 -0.00088938082177986491 -0.0070965824080213577 0 -0.00080959734530926394 -0.0072790113512095 0 -0.00068933690685562047 -0.0070300601858016773 0 -0.00088938082177986491 -0.0070965824080213577 0 -0.00080959734530926394 -0.0072790113512095 0 -0.00096765061421532792 -0.0072414697166820379 0 -0.00068933690685562047 -0.0070300601858016773 0 -0.00054268580085441468 -0.0070673373798325004 0 -0.00049041222426017138 -0.0068939277070537422 0 -0.00080959734530926394 -0.0072790113512095 0 -0.00068933690685562047 -0.0070300601858016773 0 -0.00054268580085441468 -0.0070673373798325004 0 -0.00079378677421103284 -0.007750282614851888 0 -0.00080959734530926394 -0.0072790113512095 0 -0.00050411995723318359 -0.0073446662503711766 0 -0.00080959734530926394 -0.0072790113512095 0 -0.00054268580085441468 -0.0070673373798325004 0 -0.00050411995723318359 -0.0073446662503711766 0 -0.00079378677421103284 -0.007750282614851888 0 -0.00080959734530926394 -0.0072790113512095 0 -0.0010560296426938979 -0.0076429858438108005 0 -0.00080959734530926394 -0.0072790113512095 0 -0.0010560296426938979 -0.0076429858438108005 0 -0.0010835347138205514 -0.0074235655317637372 0 -0.0012822435333199953 -0.0079165404467764384 0 -0.0010560296426938979 -0.0076429858438108005 0 -0.0012694485516296348 -0.0077649542918204603 0 -0.0012694485516296348 -0.0077649542918204603 0 -0.0013572213846346243 -0.0078917170682333074 0 -0.0012896552887824786 -0.0074500167843460207 0 -0.0010560296426938979 -0.0076429858438108005 0 -0.0012694485516296348 -0.0077649542918204603 0 -0.0010835347138205514 -0.0074235655317637372 0 -0.0012694485516296348 -0.0077649542918204603 0 -0.0010835347138205514 -0.0074235655317637372 0 -0.0012896552887824786 -0.0074500167843460207 0 -0.0013244453070694294 -0.0078534679379997467 0 -0.0012822435333199953 -0.0079165404467764384 0 -0.0012694485516296348 -0.0077649542918204603 0 0.00034742174223880719 -0.011757483706964954 0 0.0001227217201017707 -0.0088771948637835409 0 -0.0013512677023554804 -0.0077032036157733902 0 -0.0012694485516296348 -0.0077649542918204603 0 -0.0013572213846346243 -0.0078917170682333074 0 -0.0013512677023554804 -0.0077032036157733902 0 -0.0013572213846346243 -0.0078917170682333074 0 0.00046158032216693008 -0.011352024665774264 0 -0.0013572213846346243 -0.0078917170682333074 0 0.00046158032216693008 -0.011352024665774264 0 0.00057853072490692708 -0.015040593868960218 0 -0.0013366025936852558 -0.0082245801251808522 0 -0.00040803086058594434 -0.011032371636230559 0 -0.0013572213846346243 -0.0078917170682333074 0 -0.0014776281609229682 -0.0072778387173781343 0 -0.0012896552887824786 -0.0074500167843460207 0 0.0012512671210537151 -0.015503327793984336 0 0.0012491253222243429 -0.01550810741928735 0 0.0012955744790900173 -0.015477702424114901 0 0.00034742174223880719 -0.011757483706964954 0 0.0007521258250014056 -0.013348279922398468 0 0.0012353473119658793 -0.015524905053943786 0 0.0012491253222243429 -0.01550810741928735 0 0.0012955744790900173 -0.015477702424114901 0 0.0012370854407911856 -0.015205151909361411 0 0.0012359724975138553 -0.015436613150242303 0 0.0012955744790900173 -0.015477702424114901 0 0.0012370854407911856 -0.015205151909361411 0 0.00046158032216693008 -0.011352024665774264 0 0.00057853072490692708 -0.015040593868960218 0 0.0012576256746551322 -0.014777195845210176 0 0.0007521258250014056 -0.013348279922398468 0 -0.0013136586496364459 -0.0071801415796056778 0 -0.0014776281609229682 -0.0072778387173781343 0 -0.0012896552887824786 -0.0074500167843460207 0 -0.0013136586496364459 -0.0071801415796056778 0 -0.0012097100148247837 -0.007258814547704287 0 -0.0012896552887824786 -0.0074500167843460207 0 -0.0012097100148247837 -0.007258814547704287 0 -0.0010804626143455043 -0.0071750135296991258 0 -0.0010835347138205514 -0.0074235655317637372 0 -0.0011951359933008031 -0.0071003299243187854 0 -0.0012097100148247837 -0.007258814547704287 0 -0.0010804626143455043 -0.0071750135296991258 0 -0.00096765061421532792 -0.0072414697166820379 0 -0.0010804626143455043 -0.0071750135296991258 0 -0.0010835347138205514 -0.0074235655317637372 0 -0.0012097100148247837 -0.007258814547704287 0 -0.0010835347138205514 -0.0074235655317637372 0 -0.0012896552887824786 -0.0074500167843460207 0 0.0014478716593507076 -0.026077414360962135 0 0.0017229753832506303 -0.022956903892300623 0 0.0017158381761271909 -0.020610163746854655 0 0.0016512492138986883 -0.020743952152997319 0 0.0016468036430640294 -0.020528813434155808 0 0.0013867579133113022 -0.026064395440570504 0 0.0018282641300553918 -0.026476140182715185 0 0.0018191776207616009 -0.025832349445232369 0 0.0017409537837531695 -0.025908144301809637 0 0.0025656092609005732 -0.025493744819873466 0 0.0020876143366348556 -0.025406500551995129 0 0.0017655138507449155 -0.024109264990239188 0 0.0017229753832506303 -0.022956903892300623 0 0.0017158381761271909 -0.020610163746854655 0 0.0017221530500491425 -0.020484081724766779 0 0.0016468036430640294 -0.020528813434155808 0 0.0018722675844174089 -0.018267343213964397 0 0.0018217079346171553 -0.018461317517111001 0 0.0017957637639204088 -0.020593295582748666 0 0.0017158381761271909 -0.020610163746854655 0 0.0017221530500491425 -0.020484081724766779 0 0.0018722675844174089 -0.018267343213964397 0 0.0017124172834100399 -0.017593740138958213 0 0.0017957637639204088 -0.020593295582748666 0 0.0017158381761271909 -0.020610163746854655 0 0.0017621010001663841 -0.02069913707098504 0 0.0017158381761271909 -0.020610163746854655 0 0.0017621010001663841 -0.02069913707098504 0 0.0016512492138986883 -0.020743952152997319 0 0.0017957637639204088 -0.020593295582748666 0 0.0017621010001663841 -0.02069913707098504 0 0.0018758748742718409 -0.020701036449499062 0 0.0019667228101130701 -0.018043901158683463 0 0.0017124172834100399 -0.017593740138958213 0 0.0017621010001663841 -0.02069913707098504 0 0.0017702294571000756 -0.020835497885349715 0 0.0018758748742718409 -0.020701036449499062 0 0.0017621010001663841 -0.02069913707098504 0 0.0016512492138986883 -0.020743952152997319 0 0.0017702294571000756 -0.020835497885349715 0 0.0017655138507449155 -0.024109264990239188 0 0.0015691866946049961 -0.02176029112430565 0 0.0013486563838942002 -0.026822978649761513 0 0.0018282641300553918 -0.026476140182715185 0 0.0018248315202610834 -0.027047733662917503 0 0.0016512492138986883 -0.020743952152997319 0 0.0016542933531577678 -0.020970075146067826 0 0.0017702294571000756 -0.020835497885349715 0 0.0010375103168220906 -0.0263962274829397 0 0.0015691866946049961 -0.02176029112430565 0 0.00063038969844244578 -0.022725503818693964 0 0.0014422561754420908 -0.022568870806397877 0 0.0014202093156421779 -0.021842694489254137 0 0.0014550607636078159 -0.018204384161322567 0 0.0015691866946049961 -0.02176029112430565 0 0.0015584496608978351 -0.015936675527080786 0 0.0015863919654489985 -0.015834009608486004 0 0.0017241761187756159 -0.01584151435603923 0 0.0017622512008621592 -0.015973423877959927 0 0.0015584496608978351 -0.015936675527080786 0 0.0017241761187756159 -0.01584151435603923 0 0.0015863919654489985 -0.015834009608486004 0 0.0017241761187756159 -0.01584151435603923 0 0.0016847663215398593 -0.015753358004180828 0 0.0017241761187756159 -0.01584151435603923 0 0.0016847663215398593 -0.015753358004180828 0 0.0017504533541036994 -0.015767925713037204 0 0.0015691866946049961 -0.02176029112430565 0 0.0019667228101130701 -0.018043901158683463 0 0.0016847663215398593 -0.015753358004180828 0 0.0017504533541036994 -0.015767925713037204 0 0.0017784026562291959 -0.015739487799028336 0 0.0017504533541036994 -0.015767925713037204 0 0.0017816602220955152 -0.01573598840229315 0 0.0017784026562291959 -0.015739487799028336 0 0.0017504533541036994 -0.015767925713037204 0 0.0017903373025270918 -0.01580955289588102 0 0.0017816602220955152 -0.01573598840229315 0 0.0017241761187756159 -0.01584151435603923 0 0.0017504533541036994 -0.015767925713037204 0 0.0017903373025270918 -0.01580955289588102 0 0.0017911494197686926 -0.015897426678190853 0 0.0017241761187756159 -0.01584151435603923 0 0.0017903373025270918 -0.01580955289588102 0 0.0017903373025270918 -0.01580955289588102 0 0.0017816602220955152 -0.01573598840229315 0 0.0018528323912007519 -0.015742618735957704 0 0.0018314762004086257 -0.015842394003570719 0 0.0017903373025270918 -0.01580955289588102 0 0.0018528323912007519 -0.015742618735957704 0 0.0018314762004086257 -0.015842394003570719 0 0.0017911494197686926 -0.015897426678190853 0 0.0017903373025270918 -0.01580955289588102 0 0.0017816602220955152 -0.01573598840229315 0 0.0017576072245315086 -0.015739132656466648 0 0.0016748116538812254 -0.015680809629951747 0 0.0017809175602097073 -0.015723286268626319 0 0.0017865082741470803 -0.015658958026380686 0 0.0017816602220955152 -0.01573598840229315 0 0.0017576072245315086 -0.015739132656466648 0 0.0017784026562291959 -0.015739487799028336 0 0.0017341915603196706 -0.015754617385612232 0 0.0017712379435459958 -0.015759648478893374 0 0.0017574110084084618 -0.015799336571015551 0 0.0017341915603196706 -0.015754617385612232 0 0.0017712379435459958 -0.015759648478893374 0 0.0017576072245315086 -0.015739132656466648 0 0.0017712379435459958 -0.015759648478893374 0 0.0017576072245315086 -0.015739132656466648 0 0.0017784026562291959 -0.015739487799028336 0 0.0017712379435459958 -0.015759648478893374 0 0.0017784026562291959 -0.015739487799028336 0 0.0017897650125158263 -0.015764158736456441 0 0.0016847663215398593 -0.015753358004180828 0 0.0017784026562291959 -0.015739487799028336 0 0.0017545433064072773 -0.015710967611571692 0 0.0013381585145070245 -0.016060853198593281 0 0.0017124172834100399 -0.017593740138958213 0 0.0017784026562291959 -0.015739487799028336 0 0.0018177325099396925 -0.015773947475014455 0 0.0017897650125158263 -0.015764158736456441 0 0.0018177325099396925 -0.015773947475014455 0 0.0018075747124593304 -0.015792359713766371 0 0.0017897650125158263 -0.015764158736456441 0 0.0017124172834100399 -0.017593740138958213 0 0.0021646208083041978 -0.016598239447876539 0 0.0017712379435459958 -0.015759648478893374 0 0.0018075747124593304 -0.015792359713766371 0 0.0017887747697812241 -0.015813068223468667 0 0.0017712379435459958 -0.015759648478893374 0 0.0018075747124593304 -0.015792359713766371 0 0.0017897650125158263 -0.015764158736456441 0 0.0018075747124593304 -0.015792359713766371 0 0.0017887747697812241 -0.015813068223468667 0 0.0018224230397395256 -0.01585118755591346 0 0.0018799468129726293 -0.015845554687472535 0 0.0018075747124593304 -0.015792359713766371 0 0.0018224230397395256 -0.01585118755591346 0 0.0018799468129726293 -0.015845554687472535 0 0.0018299069856523335 -0.015774213823190938 0 0.0018075747124593304 -0.015792359713766371 0 0.0018799468129726293 -0.015845554687472535 0 0.0018224230397395256 -0.01585118755591346 0 0.0018560621203894518 -0.015889871533397482 0 0.0017887747697812241 -0.015813068223468667 0 0.0018224230397395256 -0.01585118755591346 0 0.0017745430082052476 -0.015856255771436879 0 0.0018224230397395256 -0.01585118755591346 0 0.0017745430082052476 -0.015856255771436879 0 0.0018152516546851431 -0.015888652831872588 0 0.0017745430082052476 -0.015856255771436879 0 0.0017574110084084618 -0.015799336571015551 0 0.0017147821045698452 -0.015813524374462162 0 0.0017887747697812241 -0.015813068223468667 0 0.0017745430082052476 -0.015856255771436879 0 0.0017574110084084618 -0.015799336571015551 0 0.0017341915603196706 -0.015754617385612232 0 0.0017574110084084618 -0.015799336571015551 0 0.0017147821045698452 -0.015813524374462162 0 0.0017712379435459958 -0.015759648478893374 0 0.0017887747697812241 -0.015813068223468667 0 0.0017574110084084618 -0.015799336571015551 0 0.0017147821045698452 -0.015813524374462162 0 0.0016432990274456172 -0.015747530174254877 0 0.0016915156146189519 -0.015748489542373022 0 0.0017147821045698452 -0.015813524374462162 0 0.0016432990274456172 -0.015747530174254877 0 0.0016510575100905291 -0.015824258616690082 0 0.0017341915603196706 -0.015754617385612232 0 0.0017147821045698452 -0.015813524374462162 0 0.0016915156146189519 -0.015748489542373022 0 0.0016432990274456172 -0.015747530174254877 0 0.0015965215616848853 -0.015703473815543791 0 0.0015477053881155927 -0.015743887709609272 0 0.0016432990274456172 -0.015747530174254877 0 0.0015477053881155927 -0.015743887709609272 0 0.0016510575100905291 -0.015824258616690082 0 0.0016432990274456172 -0.015747530174254877 0 0.0015965215616848853 -0.015703473815543791 0 0.0016748116538812254 -0.015680809629951747 0 0.0015965215616848853 -0.015703473815543791 0 0.0016748116538812254 -0.015680809629951747 0 0.001518847156242862 -0.015643668168746017 0 0.0017865082741470803 -0.015658958026380686 0 0.0017299527593836459 -0.015608453099119821 0 0.0017341915603196706 -0.015754617385612232 0 0.0016915156146189519 -0.015748489542373022 0 0.0016748116538812254 -0.015680809629951747 0 0.0016432990274456172 -0.015747530174254877 0 0.0016915156146189519 -0.015748489542373022 0 0.0016748116538812254 -0.015680809629951747 0 0.0017341915603196706 -0.015754617385612232 0 0.0017576072245315086 -0.015739132656466648 0 0.0016748116538812254 -0.015680809629951747 0 0.0017816602220955152 -0.01573598840229315 0 0.0019010249370024325 -0.015630281017197611 0 0.0018528323912007519 -0.015742618735957704 0 0.0019010249370024325 -0.015630281017197611 0 0.0018528323912007519 -0.015742618735957704 0 0.0019105894017524801 -0.015681657222580733 0 0.0018528323912007519 -0.015742618735957704 0 0.0019205724244103534 -0.015774027487721821 0 0.0019105894017524801 -0.015681657222580733 0 0.0018314762004086257 -0.015842394003570719 0 0.0018528323912007519 -0.015742618735957704 0 0.0019205724244103534 -0.015774027487721821 0 0.0019205724244103534 -0.015774027487721821 0 0.0019105894017524801 -0.015681657222580733 0 0.001963659586998674 -0.015591326831862333 0 0.0019010249370024325 -0.015630281017197611 0 0.001963659586998674 -0.015591326831862333 0 0.00194452496142847 -0.015571409552989579 0 0.0019010249370024325 -0.015630281017197611 0 0.0019105894017524801 -0.015681657222580733 0 0.001963659586998674 -0.015591326831862333 0 0.001963659586998674 -0.015591326831862333 0 0.0019151333728227218 -0.01546170126584402 0 0.0018661751074787541 -0.015498355161180569 0 0.001963659586998674 -0.015591326831862333 0 0.0018661751074787541 -0.015498355161180569 0 0.00194452496142847 -0.015571409552989579 0 0.0020013332986937721 -0.015576975792560769 0 0.0022352110870797297 -0.015189949553806932 0 0.0019205724244103534 -0.015774027487721821 0 0.001963659586998674 -0.015591326831862333 0 0.0020568476569407606 -0.015672930878695021 0 0.0020009151074163378 -0.015779397867608243 0 0.0019205724244103534 -0.015774027487721821 0 0.0019991339622528756 -0.01572018281702366 0 0.0018061378928631692 -0.015913317462405187 0 0.0022352110870797297 -0.015189949553806932 0 0.0024214585275719822 -0.013883006845636122 0 0.0025465122373315081 -0.014335912868148259 0 0.0030862820452761484 -0.014424301088359426 0 0.0025465122373315081 -0.014335912868148259 0 0.0023471647713857436 -0.014840419321141473 0 0.0030862820452761484 -0.014424301088359426 0 0.0022585911814448538 -0.0151460577084345 0 0.0022352110870797297 -0.015189949553806932 0 0.0017393093995895811 -0.015407638510606475 0 0.0019151333728227218 -0.01546170126584402 0 0.0018661751074787541 -0.015498355161180569 0 0.0020904256701932229 -0.015079691463129822 0 0.0022352110870797297 -0.015189949553806932 0 0.0017619050469302715 -0.015545688696504779 0 0.0018661751074787541 -0.015498355161180569 0 0.00194452496142847 -0.015571409552989579 0 0.001561407308176144 -0.015583755639199679 0 0.0017299527593836459 -0.015608453099119821 0 0.0013648965436695562 -0.015630477421408533 0 0.001518847156242862 -0.015643668168746017 0 0.001431095504748332 -0.015695652816076044 0 0.0015965215616848853 -0.015703473815543791 0 0.001518847156242862 -0.015643668168746017 0 0.0015477053881155927 -0.015743887709609272 0 0.001518847156242862 -0.015643668168746017 0 0.0015477053881155927 -0.015743887709609272 0 0.001431095504748332 -0.015695652816076044 0 0.0015477053881155927 -0.015743887709609272 0 0.001431095504748332 -0.015695652816076044 0 0.0014714434481557035 -0.015790103555194869 0 0.001369081846091929 -0.015807225328141366 0 0.0014714434481557035 -0.015790103555194869 0 0.0014352745982966193 -0.015913859038754714 0 0.0013737611276661212 -0.015719812359586489 0 0.001369081846091929 -0.015807225328141366 0 0.0014714434481557035 -0.015790103555194869 0 0.0013737611276661212 -0.015719812359586489 0 0.001431095504748332 -0.015695652816076044 0 0.0014714434481557035 -0.015790103555194869 0 0.0015477053881155927 -0.015743887709609272 0 0.0014714434481557035 -0.015790103555194869 0 0.0015806508036370986 -0.0158282063476353 0 0.0014714434481557035 -0.015790103555194869 0 0.0015806508036370986 -0.0158282063476353 0 0.0015715145827086368 -0.015914034371982057 0 0.0015715145827086368 -0.015914034371982057 0 0.0015008395902162219 -0.016031642482639902 0 0.0016646114330173668 -0.016038406712180452 0 0.0014714434481557035 -0.015790103555194869 0 0.0015715145827086368 -0.015914034371982057 0 0.0014352745982966193 -0.015913859038754714 0 0.0015715145827086368 -0.015914034371982057 0 0.0014352745982966193 -0.015913859038754714 0 0.0015008395902162219 -0.016031642482639902 0 0.0014352745982966193 -0.015913859038754714 0 0.0013669434265775398 -0.016053308716460282 0 0.0015008395902162219 -0.016031642482639902 0 0.001369081846091929 -0.015807225328141366 0 0.0014352745982966193 -0.015913859038754714 0 0.001338576525285482 -0.015901381477477414 0 0.0014352745982966193 -0.015913859038754714 0 0.001338576525285482 -0.015901381477477414 0 0.0013669434265775398 -0.016053308716460282 0 0.001338576525285482 -0.015901381477477414 0 0.0012914476799852062 -0.016041338210634457 0 0.0013669434265775398 -0.016053308716460282 0 0.0012914476799852062 -0.016041338210634457 0 0.0013669434265775398 -0.016053308716460282 0 0.001251484108507123 -0.016200683614829972 0 0.0013669434265775398 -0.016053308716460282 0 0.0013932472629500253 -0.016357355473950154 0 0.0015008395902162219 -0.016031642482639902 0 0.0013669434265775398 -0.016053308716460282 0 0.0013932472629500253 -0.016357355473950154 0 0.001251484108507123 -0.016200683614829972 0 0.0012608372089577726 -0.016037221349858136 0 0.0012914476799852062 -0.016041338210634457 0 0.001251484108507123 -0.016200683614829972 0 0.001251484108507123 -0.016200683614829972 0 0.0013153506162642767 -0.016503297166533169 0 0.0010878779753192669 -0.016705683206628304 0 0.0013932472629500253 -0.016357355473950154 0 0.001251484108507123 -0.016200683614829972 0 0.0013153506162642767 -0.016503297166533169 0 0.0013932472629500253 -0.016357355473950154 0 0.0013153506162642767 -0.016503297166533169 0 0.0014102491624694833 -0.016652902983802703 0 0.0013153506162642767 -0.016503297166533169 0 0.0013140481256469613 -0.016633641068396231 0 0.0014102491624694833 -0.016652902983802703 0 0.0013153506162642767 -0.016503297166533169 0 0.0013140481256469613 -0.016633641068396231 0 0.0010878779753192669 -0.016705683206628304 0 0.0014102491624694833 -0.016652902983802703 0 0.0013364593888470946 -0.017148177235391322 0 0.0012863312243958295 -0.016815249814314048 0 0.0013932472629500253 -0.016357355473950154 0 0.0014102491624694833 -0.016652902983802703 0 0.0013364593888470946 -0.017148177235391322 0 0.0013932472629500253 -0.016357355473950154 0 0.0015008395902162219 -0.016031642482639902 0 0.0016646114330173668 -0.016038406712180452 0 0.0013646516959664946 -0.016416116766434622 0 0.001454272568696971 -0.016591860148232357 0 0.0013364593888470946 -0.017148177235391322 0 0.0012863312243958295 -0.016815249814314048 0 0.00099213681996347929 -0.017166079770538977 0 0.00099213681996347929 -0.017166079770538977 0 0.00052675304695313997 -0.016976615787223464 0 0.0010239443685051519 -0.016824978343539933 0 0.0012863312243958295 -0.016815249814314048 0 0.00099213681996347929 -0.017166079770538977 0 0.0010239443685051519 -0.016824978343539933 0 0.00099213681996347929 -0.017166079770538977 0 0.00078792119640761242 -0.017755710984876272 0 0.00058083651957037429 -0.0175259690902351 0 0.001454272568696971 -0.016591860148232357 0 0.0012566741245230689 -0.016886583955633312 0 0.0013364593888470946 -0.017148177235391322 0 0.00099213681996347929 -0.017166079770538977 0 0.00078792119640761242 -0.017755710984876272 0 0.00174142969001871 -0.015963167512325866 0 0.0016657184461106814 -0.015912604734248412 0 0.0017169190290293066 -0.015905479581771947 0 0.0015715145827086368 -0.015914034371982057 0 0.0016646114330173668 -0.016038406712180452 0 0.0016657184461106814 -0.015912604734248412 0 0.0016646114330173668 -0.016038406712180452 0 0.00174142969001871 -0.015963167512325866 0 0.0016657184461106814 -0.015912604734248412 0 0.0015806508036370986 -0.0158282063476353 0 0.0015715145827086368 -0.015914034371982057 0 0.0016657184461106814 -0.015912604734248412 0 0.0015477053881155927 -0.015743887709609272 0 0.0015806508036370986 -0.0158282063476353 0 0.0016510575100905291 -0.015824258616690082 0 0.0015806508036370986 -0.0158282063476353 0 0.0016657184461106814 -0.015912604734248412 0 0.0016510575100905291 -0.015824258616690082 0 0.0017147821045698452 -0.015813524374462162 0 0.0016510575100905291 -0.015824258616690082 0 0.0017169190290293066 -0.015905479581771947 0 0.0017147821045698452 -0.015813524374462162 0 0.0017169190290293066 -0.015905479581771947 0 0.0017454967997973738 -0.01589645155817955 0 0.0016657184461106814 -0.015912604734248412 0 0.0016510575100905291 -0.015824258616690082 0 0.0017169190290293066 -0.015905479581771947 0 0.0017745430082052476 -0.015856255771436879 0 0.0017147821045698452 -0.015813524374462162 0 0.0017454967997973738 -0.01589645155817955 0 0.0017454967997973738 -0.01589645155817955 0 0.0017834150800019471 -0.015911442019830951 0 0.0017445729335607363 -0.015976803596215502 0 0.0017169190290293066 -0.015905479581771947 0 0.0017454967997973738 -0.01589645155817955 0 0.0017445729335607363 -0.015976803596215502 0 0.0017745430082052476 -0.015856255771436879 0 0.0017454967997973738 -0.01589645155817955 0 0.0017834150800019471 -0.015911442019830951 0 0.0017745430082052476 -0.015856255771436879 0 0.0018152516546851431 -0.015888652831872588 0 0.0017834150800019471 -0.015911442019830951 0 0.0018406628499870433 -0.015935706135104779 0 0.0017834150800019471 -0.015911442019830951 0 0.0017445729335607363 -0.015976803596215502 0 0.0018152516546851431 -0.015888652831872588 0 0.0018560621203894518 -0.015889871533397482 0 0.0018406628499870433 -0.015935706135104779 0 0.0018224230397395256 -0.01585118755591346 0 0.0018152516546851431 -0.015888652831872588 0 0.0018560621203894518 -0.015889871533397482 0 0.0018152516546851431 -0.015888652831872588 0 0.0018406628499870433 -0.015935706135104779 0 0.0017834150800019471 -0.015911442019830951 0 0.0019018685992613536 -0.015893044363566106 0 0.0016915218003796756 -0.016018323967596265 0 0.0017008840934632145 -0.016086610128406623 0 0.0017249135233189685 -0.016011447591918519 0 0.0017445729335607363 -0.015976803596215502 0 0.00024296593889761633 -0.017949075102939263 0 0.00021201765426193746 -0.017896318105874574 0 0.00028153012260673845 -0.017913690454562134 0 0.00024296593889761633 -0.017949075102939263 0 0.0004429721145334671 -0.017777163434172835 0 0.00021201765426193746 -0.017896318105874574 0 0.00174142969001871 -0.015963167512325866 0 0.0017249135233189685 -0.016011447591918519 0 0.0017445729335607363 -0.015976803596215502 0 0.0012566741245230689 -0.016886583955633312 0 0.00094172227566504535 -0.016686116027539156 0 0.00174142969001871 -0.015963167512325866 0 0.0017169190290293066 -0.015905479581771947 0 0.0017445729335607363 -0.015976803596215502 0 0.00078792119640761242 -0.017755710984876272 0 0.00024296593889761633 -0.017949075102939263 0 0.0004429721145334671 -0.017777163434172835 0 0.00078792119640761242 -0.017755710984876272 0 0.0004429721145334671 -0.017777163434172835 0 0.00058083651957037429 -0.0175259690902351 0 0.00099213681996347929 -0.017166079770538977 0 0.00058083651957037429 -0.0175259690902351 0 0.00052675304695313997 -0.016976615787223464 0 0.00058083651957037429 -0.0175259690902351 0 0.00052675304695313997 -0.016976615787223464 0 0.00015320475399163504 -0.017883859792130138 0 0.00032416370651879153 -0.017690887988915424 0 0.00017803199177153433 -0.017850752464442204 0 8.2078253364015799e-05 -0.018418694231121125 0 0.00015320475399163504 -0.017883859792130138 0 0.00018909157718917889 -0.018472045219940416 0 0.0004429721145334671 -0.017777163434172835 0 0.00058083651957037429 -0.0175259690902351 0 0.00015320475399163504 -0.017883859792130138 0 0.0004429721145334671 -0.017777163434172835 0 0.00015320475399163504 -0.017883859792130138 0 0.00021201765426193746 -0.017896318105874574 0 0.00015320475399163504 -0.017883859792130138 0 0.00021201765426193746 -0.017896318105874574 0 0.0002750732124458364 -0.018046900897200412 0 0.00021201765426193746 -0.017896318105874574 0 0.0002750732124458364 -0.018046900897200412 0 0.00028153012260673845 -0.017913690454562134 0 0.0002750732124458364 -0.018046900897200412 0 0.00055216946996851813 -0.018080937458850629 0 0.00038396629634296998 -0.017941045241379787 0 0.0002750732124458364 -0.018046900897200412 0 0.00038396629634296998 -0.017941045241379787 0 0.00028153012260673845 -0.017913690454562134 0 0.0002750732124458364 -0.018046900897200412 0 0.00018909157718917889 -0.018472045219940416 0 0.0004909315252294191 -0.018810124991806496 0 0.00015320475399163504 -0.017883859792130138 0 0.0002750732124458364 -0.018046900897200412 0 0.00018909157718917889 -0.018472045219940416 0 0.00028514316926988833 -0.019580065515715679 0 0.0004909315252294191 -0.018810124991806496 0 0.0012303357166937499 -0.020629772009284453 0 0.0002750732124458364 -0.018046900897200412 0 0.0004909315252294191 -0.018810124991806496 0 0.00055216946996851813 -0.018080937458850629 0 0.00060963206347600433 -0.018996654472692182 0 0.00078271427380633644 -0.019107861939333181 0 0.00061960132851675439 -0.02071518271572096 0 0.0003468083768754223 -0.020180024686906481 0 0.0012303357166937499 -0.020629772009284453 0 0.00061960132851675439 -0.02071518271572096 0 0.0012303357166937499 -0.020629772009284453 0 0.0012682988639661731 -0.021632407655730931 0 0.0003468083768754223 -0.020180024686906481 0 0.00028514316926988833 -0.019580065515715679 0 0.0012303357166937499 -0.020629772009284453 0 0.00078271427380633644 -0.019107861939333181 0 0.0016566685477914303 -0.020982145689049225 0 0.00080031043345723824 -0.021775642972821575 0 0.00061960132851675439 -0.02071518271572096 0 0.0028215048459964108 -0.023979123360606456 0 0.0010008407224801636 -0.02150650520682423 0 0.0016566685477914303 -0.020982145689049225 0 0.0014414633897702684 -0.023305859270525253 0 0.00080031043345723824 -0.021775642972821575 0 0.0028215048459964108 -0.023979123360606456 0 0.00055216946996851813 -0.018080937458850629 0 0.00044597881076517654 -0.017848563693732944 0 0.00038396629634296998 -0.017941045241379787 0 0.0014414633897702684 -0.023305859270525253 0 0.0018979483104080404 -0.024057476523293667 0 0.0028215048459964108 -0.023979123360606456 0 0.0018979483104080404 -0.024057476523293667 0 0.0028215048459964108 -0.023979123360606456 0 0.0025941467640285764 -0.024840025384265642 0 0.00044597881076517654 -0.017848563693732944 0 0.0003333280576670167 -0.017881377577164702 0 0.00039060997064995797 -0.01780172823461976 0 0.0016566685477914303 -0.020982145689049225 0 0.0018627547759009254 -0.022138988123182154 0 0.0016566685477914303 -0.020982145689049225 0 0.0014998903007428508 -0.019292991374628869 0 0.00044597881076517654 -0.017848563693732944 0 0.00038396629634296998 -0.017941045241379787 0 0.0003333280576670167 -0.017881377577164702 0 0.00038396629634296998 -0.017941045241379787 0 0.00028153012260673845 -0.017913690454562134 0 0.0003333280576670167 -0.017881377577164702 0 0.00024296593889761633 -0.017949075102939263 0 0.00028153012260673845 -0.017913690454562134 0 0.0003333280576670167 -0.017881377577164702 0 0.00024296593889761633 -0.017949075102939263 0 0.0003333280576670167 -0.017881377577164702 0 0.00039060997064995797 -0.01780172823461976 0 0.00094172227566504535 -0.016686116027539156 0 0.0014998903007428508 -0.019292991374628869 0 0.0017008840934632145 -0.016086610128406623 0 0.0017249135233189685 -0.016011447591918519 0 0.0014975627615616378 -0.0161311053160593 0 0.0017008840934632145 -0.016086610128406623 0 0.0015451416476474466 -0.016204630569526861 0 0.0014975627615616378 -0.0161311053160593 0 0.0018217079346171553 -0.018461317517111001 0 0.0014998903007428508 -0.019292991374628869 0 0.0018560621203894518 -0.015889871533397482 0 0.0018406628499870433 -0.015935706135104779 0 0.0019190261582225253 -0.015917021025405691 0 0.0019018685992613536 -0.015893044363566106 0 0.0018217079346171553 -0.018461317517111001 0 0.0018799468129726293 -0.015845554687472535 0 0.0018560621203894518 -0.015889871533397482 0 0.0019190261582225253 -0.015917021025405691 0 0.0015537721265498302 -0.020917495792073661 0 0.0016481716141627969 -0.020723843204673201 0 0.0015422408423355393 -0.020581566323959563 0 0.0017229753832506303 -0.022956903892300623 0 0.0018627547759009254 -0.022138988123182154 0 0.0018136769039538085 -0.020786740266505753 0 0.0015537721265498302 -0.020917495792073661 0 0.0016481716141627969 -0.020723843204673201 0 0.0018217079346171553 -0.018461317517111001 0 0.0017229753832506303 -0.022956903892300623 0 0.0025656092609005732 -0.025493744819873466 0 0.0020876143366348556 -0.025406500551995129 0 0.0025422386524779159 -0.024937658720261071 0 0.0013552282883148865 -0.0244862398991804 0 0.0018979483104080404 -0.024057476523293667 0 0.0025941467640285764 -0.024840025384265642 0 0.0018136769039538085 -0.020786740266505753 0 0.0016481716141627969 -0.020723843204673201 0 0.001657786626838178 -0.0205445252593296 0 0.0021137983588277493 -0.020779110096549747 0 0.0021024985540853327 -0.020507773996239945 0 0.0019657219025165889 -0.020546596924051981 0 0.0018627547759009254 -0.022138988123182154 0 0.0014998903007428508 -0.019292991374628869 0 0.0016481716141627969 -0.020723843204673201 0 0.0015422408423355393 -0.020581566323959563 0 0.001657786626838178 -0.0205445252593296 0 -0.0003252346604453644 -0.018478954759886587 0 -0.00021365197569636881 -0.018032912963792176 0 -0.00034728415427949148 -0.017796331580749145 0 -0.00021365197569636881 -0.018032912963792176 0 -0.0001445961613316637 -0.017397528375971031 0 -0.00034728415427949148 -0.017796331580749145 0 -0.00021365197569636881 -0.018032912963792176 0 -0.00010925682294384146 -0.018352892597011408 0 -5.9595460610073406e-05 -0.018023109159361055 0 -0.00021365197569636881 -0.018032912963792176 0 -5.9595460610073406e-05 -0.018023109159361055 0 -0.0001445961613316637 -0.017397528375971031 0 -0.00025326693485795167 -0.018669660259636543 0 -0.0003252346604453644 -0.018478954759886587 0 -0.00010925682294384146 -0.018352892597011408 0 -0.0003252346604453644 -0.018478954759886587 0 -0.00021365197569636881 -0.018032912963792176 0 -0.00010925682294384146 -0.018352892597011408 0 -0.00025326693485795167 -0.018669660259636543 0 -0.00010925682294384146 -0.018352892597011408 0 0.00011723808602536313 -0.018586803422659004 0 -0.00010073440946967228 -0.018784090949106064 0 0.0004909315252294191 -0.018810124991806496 0 0.00011723808602536313 -0.018586803422659004 0 -0.00010073440946967228 -0.018784090949106064 0 -0.00025326693485795167 -0.018669660259636543 0 0.00011723808602536313 -0.018586803422659004 0 0.00018909157718917889 -0.018472045219940416 0 0.0004909315252294191 -0.018810124991806496 0 0.00011723808602536313 -0.018586803422659004 0 0.00018909157718917889 -0.018472045219940416 0 0.00011723808602536313 -0.018586803422659004 0 4.1270977759298388e-05 -0.018367721689829846 0 -0.00010925682294384146 -0.018352892597011408 0 4.1270977759298388e-05 -0.018367721689829846 0 -5.9595460610073406e-05 -0.018023109159361055 0 -0.00010925682294384146 -0.018352892597011408 0 0.00011723808602536313 -0.018586803422659004 0 4.1270977759298388e-05 -0.018367721689829846 0 4.1270977759298388e-05 -0.018367721689829846 0 9.2402706420850988e-05 -0.0181334749516944 0 -5.9595460610073406e-05 -0.018023109159361055 0 8.2078253364015799e-05 -0.018418694231121125 0 4.1270977759298388e-05 -0.018367721689829846 0 9.2402706420850988e-05 -0.0181334749516944 0 8.2078253364015799e-05 -0.018418694231121125 0 0.00018909157718917889 -0.018472045219940416 0 4.1270977759298388e-05 -0.018367721689829846 0 0.00052675304695313997 -0.016976615787223464 0 0.00091542387473552279 -0.016619038539565249 0 0.0010239443685051519 -0.016824978343539933 0 0.00032416370651879153 -0.017690887988915424 0 0.00064877526895690816 -0.017407941403565871 0 8.2078253364015799e-05 -0.018418694231121125 0 9.2402706420850988e-05 -0.0181334749516944 0 0.00040681737472130988 -0.018197699872341339 0 9.2402706420850988e-05 -0.0181334749516944 0 8.9671610460864844e-05 -0.017608473532818615 0 0.00040681737472130988 -0.018197699872341339 0 8.9671610460864844e-05 -0.017608473532818615 0 0.00039420351659788213 -0.017146857141432152 0 0.00040681737472130988 -0.018197699872341339 0 8.9671610460864844e-05 -0.017608473532818615 0 -5.9595460610073406e-05 -0.018023109159361055 0 -0.0001445961613316637 -0.017397528375971031 0 9.2402706420850988e-05 -0.0181334749516944 0 8.9671610460864844e-05 -0.017608473532818615 0 -5.9595460610073406e-05 -0.018023109159361055 0 8.9671610460864844e-05 -0.017608473532818615 0 -0.0001445961613316637 -0.017397528375971031 0 3.3709258407604741e-05 -0.016679577463657492 0 8.9671610460864844e-05 -0.017608473532818615 0 0.00039420351659788213 -0.017146857141432152 0 3.3709258407604741e-05 -0.016679577463657492 0 0.00039420351659788213 -0.017146857141432152 0 0.00044003430220395322 -0.016269392643182997 0 3.3709258407604741e-05 -0.016679577463657492 0 0.00072300838645626079 -0.016866378095181447 0 0.00039420351659788213 -0.017146857141432152 0 0.00044003430220395322 -0.016269392643182997 0 0.00072300838645626079 -0.016866378095181447 0 0.0012514872312509623 -0.016493034215878621 0 0.00044003430220395322 -0.016269392643182997 0 0.0012336046082258112 -0.016546311989905658 0 0.00097213860230940937 -0.016994286353638262 0 0.00072300838645626079 -0.016866378095181447 0 0.0012514872312509623 -0.016493034215878621 0 0.00081259695957604813 -0.017487200466703861 0 0.0012514872312509623 -0.016493034215878621 0 0.0011534302609749209 -0.016507153041623163 0 0.0013261097267263605 -0.016540837554010524 0 0.00039420351659788213 -0.017146857141432152 0 0.00081259695957604813 -0.017487200466703861 0 0.00040681737472130988 -0.018197699872341339 0 0.00072300838645626079 -0.016866378095181447 0 0.00039420351659788213 -0.017146857141432152 0 0.00081259695957604813 -0.017487200466703861 0 0.0011534302609749209 -0.016507153041623163 0 0.00091542387473552279 -0.016619038539565249 0 0.0012132139732919376 -0.016656862766914519 0 0.00097213860230940937 -0.016994286353638262 0 0.00064877526895690816 -0.017407941403565871 0 0.00091542387473552279 -0.016619038539565249 0 0.0010239443685051519 -0.016824978343539933 0 0.0012132139732919376 -0.016656862766914519 0 0.0012863312243958295 -0.016815249814314048 0 0.0010239443685051519 -0.016824978343539933 0 0.0012132139732919376 -0.016656862766914519 0 0.0011534302609749209 -0.016507153041623163 0 0.0012132139732919376 -0.016656862766914519 0 0.0013261097267263605 -0.016540837554010524 0 0.0012132139732919376 -0.016656862766914519 0 0.0013823610054113917 -0.016707531099357749 0 0.0013261097267263605 -0.016540837554010524 0 0.0012863312243958295 -0.016815249814314048 0 0.0012132139732919376 -0.016656862766914519 0 0.0013823610054113917 -0.016707531099357749 0 0.0014102491624694833 -0.016652902983802703 0 0.0012863312243958295 -0.016815249814314048 0 0.0013893199303387825 -0.01672293663788817 0 0.0012964747229440722 -0.016774343263777039 0 0.0014096258539648542 -0.01684980525464002 0 0.0013893199303387825 -0.01672293663788817 0 0.0012542909214362727 -0.016744715523309986 0 0.0012004464868565021 -0.016901278807951774 0 0.0013140481256469613 -0.016633641068396231 0 0.0014102491624694833 -0.016652902983802703 0 0.0013893199303387825 -0.01672293663788817 0 0.0013140481256469613 -0.016633641068396231 0 0.0012542909214362727 -0.016744715523309986 0 0.0010878779753192669 -0.016705683206628304 0 0.0013140481256469613 -0.016633641068396231 0 0.0013893199303387825 -0.01672293663788817 0 0.0012542909214362727 -0.016744715523309986 0 0.0014096258539648542 -0.01684980525464002 0 0.00078094992796179125 -0.015605173670090533 0 0.0013823610054113917 -0.016707531099357749 0 0.0013261097267263605 -0.016540837554010524 0 0.0015079093480721917 -0.016607983517813129 0 0.00071227714260427874 -0.014623644676638535 0 0.00078094992796179125 -0.015605173670090533 0 0.0013261097267263605 -0.016540837554010524 0 0.0014757020986506518 -0.016444161982725157 0 0.0015079093480721917 -0.016607983517813129 0 0.0013261097267263605 -0.016540837554010524 0 0.0013557255042248677 -0.016466637303249907 0 0.0014757020986506518 -0.016444161982725157 0 0.0013557255042248677 -0.016466637303249907 0 0.0014757020986506518 -0.016444161982725157 0 0.0013792242387408277 -0.016343856168758282 0 0.0012514872312509623 -0.016493034215878621 0 0.0013261097267263605 -0.016540837554010524 0 0.0013557255042248677 -0.016466637303249907 0 0.0012514872312509623 -0.016493034215878621 0 0.0013557255042248677 -0.016466637303249907 0 0.0013792242387408277 -0.016343856168758282 0 5.6232723964755838e-06 -0.0094968005594880753 0 -2.4841095710076564e-05 -0.014139874172592794 0 -2.3676393525506358e-06 -0.015298131323576701 0 9.5939326403793443e-05 -0.013065293447062544 0 -0.00014260924510732252 -0.01224938443605046 0 0.00034654036490250751 -0.012527684111401847 0 0.00071227714260427874 -0.014623644676638535 0 0.0012667451604978887 -0.014409980302129472 0 0.0014757020986506518 -0.016444161982725157 0 0.0013792242387408277 -0.016343856168758282 0 0.0014692229475743209 -0.016148694687311189 0 -0.00014260924510732252 -0.01224938443605046 0 0.00034654036490250751 -0.012527684111401847 0 0.00052978451313066583 -0.011987887817906578 0 0.00068790825280622375 -0.014504141920832433 0 0.0012903307133002831 -0.01460079537392193 0 0.00062676011106891825 -0.01522936534041716 0 0.0012667451604978887 -0.014409980302129472 0 0.00085184807471972292 -0.015819488800453314 0 0.0013792242387408277 -0.016343856168758282 0 0.0014692229475743209 -0.016148694687311189 0 0.001215974102963003 -0.016156234349579298 0 0.0012514872312509623 -0.016493034215878621 0 0.0013792242387408277 -0.016343856168758282 0 0.001215974102963003 -0.016156234349579298 0 0.00068790825280622375 -0.014504141920832433 0 0.0010472256841953392 -0.013158282379082224 0 0.0003108029788428367 -0.013414768937847541 0 0.00068790825280622375 -0.014504141920832433 0 0.0012288266495593082 -0.014394944226604015 0 0.0012903307133002831 -0.01460079537392193 0 0.00068790825280622375 -0.014504141920832433 0 0.0012288266495593082 -0.014394944226604015 0 0.0010472256841953392 -0.013158282379082224 0 0.0012288266495593082 -0.014394944226604015 0 0.0017671722325060116 -0.013753598133287515 0 0.0010472256841953392 -0.013158282379082224 0 0.0012901901677545154 -0.014714872547190653 0 0.0017671722325060116 -0.013753598133287515 0 0.0031161909551996503 -0.014073496937904665 0 0.0012667451604978887 -0.014409980302129472 0 0.00028689024336451706 -0.010006566185589648 0 0.0012288266495593082 -0.014394944226604015 0 0.0012901901677545154 -0.014714872547190653 0 0.0017671722325060116 -0.013753598133287515 0 0.0012715641657744525 -0.014447179457959867 0 0.0012667451604978887 -0.014409980302129472 0 0.0010472256841953392 -0.013158282379082224 0 0.0022820677061854392 -0.012198906478651256 0 5.6232723964755838e-06 -0.0094968005594880753 0 0.0017671722325060116 -0.013753598133287515 0 0.0022820677061854392 -0.012198906478651256 0 0.0031161909551996503 -0.014073496937904665 0 0.0017671722325060116 -0.013753598133287515 0 0.0010472256841953392 -0.013158282379082224 0 0.0022820677061854392 -0.012198906478651256 0 0.00037148808070404805 -0.0072855318820270664 0 1.4552516697602771e-06 -0.0094868992556678619 0 6.4825312187438285e-06 -0.0078975987073832358 0 0.0013154780742868437 -0.0098766849041319587 0 4.5607345106974205e-07 -0.0094890246496482349 0 0.0010472256841953392 -0.013158282379082224 0 5.6232723964755838e-06 -0.0094968005594880753 0 0.0003108029788428367 -0.013414768937847541 0 0.0003108029788428367 -0.013414768937847541 0 -2.4841095710076564e-05 -0.014139874172592794 0 0.00024284491761792135 -0.015131465364915499 0 5.6232723964755838e-06 -0.0094968005594880753 0 0.0003108029788428367 -0.013414768937847541 0 -2.4841095710076564e-05 -0.014139874172592794 0 0.00068790825280622375 -0.014504141920832433 0 0.00024284491761792135 -0.015131465364915499 0 0.00062676011106891825 -0.01522936534041716 0 0.00068790825280622375 -0.014504141920832433 0 0.0003108029788428367 -0.013414768937847541 0 0.00024284491761792135 -0.015131465364915499 0 0.00085184807471972292 -0.015819488800453314 0 0.00040784406473805078 -0.016166247781800425 0 0.0012514872312509623 -0.016493034215878621 0 0.001215974102963003 -0.016156234349579298 0 0.00044003430220395322 -0.016269392643182997 0 0.00024284491761792135 -0.015131465364915499 0 0.00062676011106891825 -0.01522936534041716 0 0.00044003430220395322 -0.016269392643182997 0 0.00024284491761792135 -0.015131465364915499 0 0.00044003430220395322 -0.016269392643182997 0 3.3709258407604741e-05 -0.016679577463657492 0 -9.181765538290638e-07 -0.020016485950170328 0 -2.3676393525506358e-06 -0.015298131323576701 0 -0.00039862393359461901 -0.017468401179500003 0 0.00024284491761792135 -0.015131465364915499 0 3.3709258407604741e-05 -0.016679577463657492 0 -0.00019031056574244702 -0.016288215337785499 0 -2.4841095710076564e-05 -0.014139874172592794 0 0.00024284491761792135 -0.015131465364915499 0 -0.00019031056574244702 -0.016288215337785499 0 -0.0001445961613316637 -0.017397528375971031 0 3.3709258407604741e-05 -0.016679577463657492 0 -0.00019031056574244702 -0.016288215337785499 0 -2.4841095710076564e-05 -0.014139874172592794 0 -0.00019031056574244702 -0.016288215337785499 0 -2.3676393525506358e-06 -0.015298131323576701 0 -0.00019031056574244702 -0.016288215337785499 0 -2.3676393525506358e-06 -0.015298131323576701 0 -0.00039862393359461901 -0.017468401179500003 0 -0.00019031056574244702 -0.016288215337785499 0 -0.00039862393359461901 -0.017468401179500003 0 -0.00034728415427949148 -0.017796331580749145 0 -0.0001445961613316637 -0.017397528375971031 0 -0.00019031056574244702 -0.016288215337785499 0 -0.00034728415427949148 -0.017796331580749145 0 -0.00038620642347069449 -0.018453503126423132 0 -0.00039862393359461901 -0.017468401179500003 0 -0.00034728415427949148 -0.017796331580749145 0 -0.0026391291169666157 -0.0018922997628485938 0 -0.0028221092263122712 -0.0016527892953309485 0 -0.0025855796720578935 -0.0016626137168383359 0 -0.0026391291169666157 -0.0018922997628485938 0 -0.0025855796720578935 -0.0016626137168383359 0 -0.0024759839693713655 -0.0018248345538447973 0 -0.0025855796720578935 -0.0016626137168383359 0 -0.0023858402563785462 -0.0016576303924946008 0 -0.0024759839693713655 -0.0018248345538447973 0 -0.00252663828646914 -0.0019975131302773369 0 -0.0026391291169666157 -0.0018922997628485938 0 -0.0024759839693713655 -0.0018248345538447973 0 -0.00252663828646914 -0.0019975131302773369 0 -0.0026391291169666157 -0.0018922997628485938 0 -0.0026095961095575024 -0.0020417135415138183 0 -0.0026391291169666157 -0.0018922997628485938 0 -0.0027952519141285197 -0.001880385051051842 0 -0.0027248635269212554 -0.0020437389854019621 0 -0.0026391291169666157 -0.0018922997628485938 0 -0.0027248635269212554 -0.0020437389854019621 0 -0.0026095961095575024 -0.0020417135415138183 0 -0.003003501528175934 -0.001932694344250507 0 -0.0028221092263122712 -0.0016527892953309485 0 -0.003266030923778882 -0.0016052977881379255 0 -0.0027952519141285197 -0.001880385051051842 0 -0.003003501528175934 -0.001932694344250507 0 -0.0027248635269212554 -0.0020437389854019621 0 -0.0026391291169666157 -0.0018922997628485938 0 -0.0027952519141285197 -0.001880385051051842 0 -0.0028221092263122712 -0.0016527892953309485 0 -0.0027952519141285197 -0.001880385051051842 0 -0.003003501528175934 -0.001932694344250507 0 -0.0028221092263122712 -0.0016527892953309485 0 -0.0028221092263122712 -0.0016527892953309485 0 -0.0029830411297690727 -0.0012658420151189043 0 -0.0026343879623469983 -0.001267602303074618 0 -0.0028221092263122712 -0.0016527892953309485 0 -0.0029830411297690727 -0.0012658420151189043 0 -0.003266030923778882 -0.0016052977881379255 0 -0.0025855796720578935 -0.0016626137168383359 0 -0.0023858402563785462 -0.0016576303924946008 0 -0.0026343879623469983 -0.001267602303074618 0 -0.0026758364271096133 -0.00079890263793575543 0 -0.0030037236938039481 -0.00039954535859232387 0 -0.0029287455976203434 0.00033930071187594004 0 -0.0029669192463220632 3.9275532231987885e-05 0 -0.0033819231117520059 0.00047201590707725597 0 -0.0028221092263122712 -0.0016527892953309485 0 -0.0025855796720578935 -0.0016626137168383359 0 -0.0026343879623469983 -0.001267602303074618 0 -0.0029287455976203434 0.00033930071187594004 0 -0.0029669192463220632 3.9275532231987885e-05 0 -0.0022777806254811648 -0.00032230586904045109 0 -0.003201151816221051 0.0005175563508201176 0 -0.0028412197665376709 0.00052419892852078351 0 -0.0029806535325012603 0.00067926241039926202 0 -0.003201151816221051 0.0005175563508201176 0 -0.0028412197665376709 0.00052419892852078351 0 -0.0026945826331637849 0.00018773127710774309 0 -0.0030635663771391266 0.00040070902397376337 0 -0.0023677732918935025 -0.00051051562919759291 0 -0.003201151816221051 0.0005175563508201176 0 -0.0026058544163153788 -9.0358879047976518e-05 0 -0.0025089169072417218 -0.00066362311914939999 0 -0.002416021076689773 0.00050148945796070791 0 -0.0026945826331637849 0.00018773127710774309 0 -0.0022971257622476124 -2.6901320931380757e-05 0 -0.002416021076689773 0.00050148945796070791 0 -0.0022971257622476124 -2.6901320931380757e-05 0 -0.0020115636404962924 0.00027424971136814924 0 -0.002416021076689773 0.00050148945796070791 0 -0.0028412197665376709 0.00052419892852078351 0 -0.0026945826331637849 0.00018773127710774309 0 -0.003201151816221051 0.0005175563508201176 0 -0.0026945826331637849 0.00018773127710774309 0 -0.0026058544163153788 -9.0358879047976518e-05 0 -0.0026058544163153788 -9.0358879047976518e-05 0 -0.0022971257622476124 -2.6901320931380757e-05 0 -0.0022094714837272607 -0.00045091844819232301 0 -0.0026945826331637849 0.00018773127710774309 0 -0.0026058544163153788 -9.0358879047976518e-05 0 -0.0022971257622476124 -2.6901320931380757e-05 0 -0.0029669192463220632 3.9275532231987885e-05 0 -0.0022777806254811648 -0.00032230586904045109 0 -0.0023047731594221634 -0.00051228027678985313 0 -0.0026058544163153788 -9.0358879047976518e-05 0 -0.0022094714837272607 -0.00045091844819232301 0 -0.0025089169072417218 -0.00066362311914939999 0 -0.0022094714837272607 -0.00045091844819232301 0 -0.0025089169072417218 -0.00066362311914939999 0 -0.0020939499916081883 -0.00082778352896091024 0 -0.0022520702195465672 -0.0019668919137579414 0 -0.002102626316802057 -0.0018941594355045795 0 -0.0023253927867446771 -0.0018658638725479843 0 -0.0022520702195465672 -0.0019668919137579414 0 -0.002102626316802057 -0.0018941594355045795 0 -0.0021650747449018003 -0.0020077201097067681 0 -0.0026758364271096133 -0.00079890263793575543 0 -0.0021722256448575943 -0.0012106531799820283 0 -0.0023858402563785462 -0.0016576303924946008 0 -0.002102626316802057 -0.0018941594355045795 0 -0.0023253927867446771 -0.0018658638725479843 0 -0.0023858402563785462 -0.0016576303924946008 0 -0.0024759839693713655 -0.0018248345538447973 0 -0.0023253927867446771 -0.0018658638725479843 0 -0.0022520702195465672 -0.0019668919137579414 0 -0.0023253927867446771 -0.0018658638725479843 0 -0.0023966498187872037 -0.0019868835407814323 0 -0.00252663828646914 -0.0019975131302773369 0 -0.0024759839693713655 -0.0018248345538447973 0 -0.0023966498187872037 -0.0019868835407814323 0 -0.0024759839693713655 -0.0018248345538447973 0 -0.0023253927867446771 -0.0018658638725479843 0 -0.0023966498187872037 -0.0019868835407814323 0 -0.0023966498187872037 -0.0019868835407814323 0 -0.0024691213475745259 -0.0021123228550307726 0 -0.0024108371140545881 -0.0022056273217718413 0 -0.00252663828646914 -0.0019975131302773369 0 -0.0023966498187872037 -0.0019868835407814323 0 -0.0024691213475745259 -0.0021123228550307726 0 -0.00252663828646914 -0.0019975131302773369 0 -0.0024691213475745259 -0.0021123228550307726 0 -0.0025534045441966509 -0.0021160002341600258 0 -0.0022520702195465672 -0.0019668919137579414 0 -0.0023966498187872037 -0.0019868835407814323 0 -0.0024108371140545881 -0.0022056273217718413 0 -0.0022520702195465672 -0.0019668919137579414 0 -0.0024108371140545881 -0.0022056273217718413 0 -0.0022350771698131265 -0.0021677021161849307 0 -0.0024691213475745259 -0.0021123228550307726 0 -0.0024108371140545881 -0.0022056273217718413 0 -0.0025400205126639881 -0.0022635245140068699 0 -0.0024691213475745259 -0.0021123228550307726 0 -0.0025400205126639881 -0.0022635245140068699 0 -0.0025534045441966509 -0.0021160002341600258 0 -0.0024108371140545881 -0.0022056273217718413 0 -0.0024606685617307809 -0.0023786145917758165 0 -0.0025400205126639881 -0.0022635245140068699 0 -0.002102626316802057 -0.0018941594355045795 0 -0.0020826655915741439 -0.0020879211654493898 0 -0.0021650747449018003 -0.0020077201097067681 0 -0.002102626316802057 -0.0018941594355045795 0 -0.0020826655915741439 -0.0020879211654493898 0 -0.0017900480483136561 -0.0021583525761139249 0 -0.0022520702195465672 -0.0019668919137579414 0 -0.0021650747449018003 -0.0020077201097067681 0 -0.0022350771698131265 -0.0021677021161849307 0 -0.0020826655915741439 -0.0020879211654493898 0 -0.0021650747449018003 -0.0020077201097067681 0 -0.0022350771698131265 -0.0021677021161849307 0 -0.0022350771698131265 -0.0021677021161849307 0 -0.0020345391021158602 -0.0022939983114818618 0 -0.0022691847195709155 -0.002550455805460853 0 -0.0024108371140545881 -0.0022056273217718413 0 -0.0022350771698131265 -0.0021677021161849307 0 -0.0022691847195709155 -0.002550455805460853 0 -0.0020826655915741439 -0.0020879211654493898 0 -0.0020345391021158602 -0.0022939983114818618 0 -0.0017900480483136561 -0.0021583525761139249 0 -0.0020826655915741439 -0.0020879211654493898 0 -0.0022350771698131265 -0.0021677021161849307 0 -0.0020345391021158602 -0.0022939983114818618 0 -0.0020345391021158602 -0.0022939983114818618 0 -0.0019314403712469982 -0.0025712067372091548 0 -0.0018092619411059752 -0.002347198531204883 0 -0.0020345391021158602 -0.0022939983114818618 0 -0.0018092619411059752 -0.002347198531204883 0 -0.0017900480483136561 -0.0021583525761139249 0 -0.0019314403712469982 -0.0025712067372091548 0 -0.0022691847195709155 -0.002550455805460853 0 -0.002041752118630611 -0.0031265843089855927 0 -0.0020345391021158602 -0.0022939983114818618 0 -0.0019314403712469982 -0.0025712067372091548 0 -0.0022691847195709155 -0.002550455805460853 0 -0.0022691847195709155 -0.002550455805460853 0 -0.0026925518619324968 -0.0031816179904068762 0 -0.002041752118630611 -0.0031265843089855927 0 -0.0024108371140545881 -0.0022056273217718413 0 -0.0022691847195709155 -0.002550455805460853 0 -0.0024606685617307809 -0.0023786145917758165 0 -0.0032416918498808073 -0.0037553129301105465 0 -0.0032729838238720788 -0.0026208204612172578 0 -0.004173578436487026 -0.0026443102452871057 0 -0.0022691847195709155 -0.002550455805460853 0 -0.0026925518619324968 -0.0031816179904068762 0 -0.0032729838238720788 -0.0026208204612172578 0 -0.0032416918498808073 -0.0037553129301105465 0 -0.0026925518619324968 -0.0031816179904068762 0 -0.0032729838238720788 -0.0026208204612172578 0 -0.002315408099007989 -0.0025329285108015923 0 -0.0028858671410998001 -0.0025540971757191657 0 -0.0028410695282578306 -0.0050236595728012168 0 -0.0022904686509437489 -0.0052691124558687493 0 -0.0024061620160428653 -0.005542331417680367 0 -0.0025862389384430787 -0.0047904913814534279 0 -0.003088608586727644 -0.0044058814024155726 0 -0.0024606685617307809 -0.0023786145917758165 0 -0.0026525910068087538 -0.0022907014647626425 0 -0.0025400205126639881 -0.0022635245140068699 0 -0.0028858671410998001 -0.0025540971757191657 0 -0.003088608586727644 -0.0044058814024155726 0 -0.0026525910068087538 -0.0022907014647626425 0 -0.0025400205126639881 -0.0022635245140068699 0 -0.0026413359218868285 -0.0022998986537569768 0 -0.0025400205126639881 -0.0022635245140068699 0 -0.0025534045441966509 -0.0021160002341600258 0 -0.0026122577175261524 -0.0021577323963074672 0 -0.0025400205126639881 -0.0022635245140068699 0 -0.0026413359218868285 -0.0022998986537569768 0 -0.0026122577175261524 -0.0021577323963074672 0 -0.0026525910068087538 -0.0022907014647626425 0 -0.0026413359218868285 -0.0022998986537569768 0 -0.0025003696382249925 -0.0024112729145452658 0 -0.003088608586727644 -0.0044058814024155726 0 -0.0022842252098064222 -0.0051922658552068192 0 -0.0026413359218868285 -0.0022998986537569768 0 -0.0027248635269212554 -0.0020437389854019621 0 -0.0026122577175261524 -0.0021577323963074672 0 -0.0027248635269212554 -0.0020437389854019621 0 -0.0026095961095575024 -0.0020417135415138183 0 -0.0026122577175261524 -0.0021577323963074672 0 -0.00252663828646914 -0.0019975131302773369 0 -0.0026095961095575024 -0.0020417135415138183 0 -0.0025534045441966509 -0.0021160002341600258 0 -0.0026095961095575024 -0.0020417135415138183 0 -0.0025534045441966509 -0.0021160002341600258 0 -0.0026122577175261524 -0.0021577323963074672 0 -0.003003501528175934 -0.001932694344250507 0 -0.0026413359218868285 -0.0022998986537569768 0 -0.0027248635269212554 -0.0020437389854019621 0 -0.0023636134561875518 -0.0026142066490374848 0 -0.0026413359218868285 -0.0022998986537569768 0 -0.0025003696382249925 -0.0024112729145452658 0 -0.002466997014010252 -0.0042381713089547426 0 -0.0028941877538480381 -0.0016444748119679605 0 -0.0029331962238717049 -0.0069847387816890909 0 -0.0023791258188969968 -0.0076478356992759865 0 -0.00203359686561524 -0.0074131187084110223 0 -0.0018339100697118951 -0.0082747471206450502 0 -0.0023791258188969968 -0.0076478356992759865 0 -0.0016966419984008932 -0.0077414843692441742 0 -0.002466997014010252 -0.0042381713089547426 0 -0.0022842252098064222 -0.0051922658552068192 0 -0.0023791258188969968 -0.0076478356992759865 0 -0.00203359686561524 -0.0074131187084110223 0 -0.0016966419984008932 -0.0077414843692441742 0 -0.00203359686561524 -0.0074131187084110223 0 -0.001680907203675423 -0.0071826891273248632 0 -0.0016966419984008932 -0.0077414843692441742 0 -0.0018093819664647258 -0.0063915681174574147 0 -0.0016490910148692765 -0.0066581300941082637 0 -0.003088608586727644 -0.0044058814024155726 0 -0.0018093819664647258 -0.0063915681174574147 0 -0.0029331962238717049 -0.0069847387816890909 0 -0.00203359686561524 -0.0074131187084110223 0 -0.0019070248616706021 -0.0070049264701586905 0 -0.0022904686509437489 -0.0052691124558687493 0 -0.0024061620160428653 -0.005542331417680367 0 -0.0019096274087717488 -0.0055456149043580042 0 -0.00203359686561524 -0.0074131187084110223 0 -0.0019070248616706021 -0.0070049264701586905 0 -0.001680907203675423 -0.0071826891273248632 0 -0.0013557302694220156 -0.0069116579691314581 0 -0.0012647794596459016 -0.0068658792887241705 0 -0.0013663899730804844 -0.0068719382657837702 0 -0.0018077237102558979 -0.0060149424384863199 0 -0.0018093819664647258 -0.0063915681174574147 0 -0.0018093819664647258 -0.0063915681174574147 0 9.3836862933457764e-05 -0.011205482513912082 0 -0.0018984344663682828 -0.0070215149479160984 0 -0.001680907203675423 -0.0071826891273248632 0 -0.00071658755255323589 -0.007055835262247301 0 -0.001680907203675423 -0.0071826891273248632 0 -0.00071658755255323589 -0.007055835262247301 0 -0.0013079884879111992 -0.0074509968377703606 0 -0.0013557302694220156 -0.0069116579691314581 0 -0.0013663899730804844 -0.0068719382657837702 0 -0.0014533738863531762 -0.0069190382711761984 0 0.0013505473857964069 -0.015746204080220486 0 0.0013878053808020546 -0.015646233022628925 0 0.0013529469206474813 -0.015611530833577626 0 9.3836862933457764e-05 -0.011205482513912082 0 0.0017503304850112369 -0.015096994858011244 0 9.3836862933457764e-05 -0.011205482513912082 0 0.0006101263092449452 -0.011591722450494876 0 -0.00071658755255323589 -0.007055835262247301 0 -0.0003226253609339379 -0.0079038536717668927 0 -0.0011426535337684617 -0.007827935269084936 0 0.0016577815720051478 -0.01557241057332312 0 0.0015181312573232996 -0.015243219353812166 0 0.0013529469206474813 -0.015611530833577626 0 -0.0003226253609339379 -0.0079038536717668927 0 -0.0011426535337684617 -0.007827935269084936 0 -0.0009048235362543773 -0.0083575943823331698 0 -0.0018339100697118951 -0.0082747471206450502 0 -0.0011426535337684617 -0.007827935269084936 0 -0.0016966419984008932 -0.0077414843692441742 0 -0.001680907203675423 -0.0071826891273248632 0 -0.0016966419984008932 -0.0077414843692441742 0 -0.0013079884879111992 -0.0074509968377703606 0 -0.0011426535337684617 -0.007827935269084936 0 -0.0016966419984008932 -0.0077414843692441742 0 -0.0013079884879111992 -0.0074509968377703606 0 -0.00071658755255323589 -0.007055835262247301 0 -0.0011426535337684617 -0.007827935269084936 0 -0.0013079884879111992 -0.0074509968377703606 0 0.00093851257767785939 -0.016069400947727214 0 0.00078094992796179125 -0.015605173670090533 0 0.0012542909214362727 -0.016744715523309986 0 0.0010878779753192669 -0.016705683206628304 0 0.0012004464868565021 -0.016901278807951774 0 0.00093851257767785939 -0.016069400947727214 0 0.0010921336985814354 -0.015380413030084009 0 0.0011391774224320213 -0.015711423153065576 0 0.001241960251917035 -0.015615681262898288 0 0.0011651673546084482 -0.015355713797120585 0 0.001241960251917035 -0.015615681262898288 0 0.0013529469206474813 -0.015611530833577626 0 0.0011651673546084482 -0.015355713797120585 0 0.0013019520236005229 -0.015743583165673002 0 0.0011391774224320213 -0.015711423153065576 0 0.001241960251917035 -0.015615681262898288 0 0.0013019520236005229 -0.015743583165673002 0 0.001241960251917035 -0.015615681262898288 0 0.0013529469206474813 -0.015611530833577626 0 0.0013019520236005229 -0.015743583165673002 0 0.0013505473857964069 -0.015746204080220486 0 0.0013529469206474813 -0.015611530833577626 0 0.0015181312573232996 -0.015243219353812166 0 0.0011651673546084482 -0.015355713797120585 0 0.0013521262848398754 -0.014856751998795726 0 0.0015181312573232996 -0.015243219353812166 0 0.0013529469206474813 -0.015611530833577626 0 0.0011651673546084482 -0.015355713797120585 0 0.00038163365761173561 -0.016157455050653875 0 0.0010538644848060632 -0.014809908636083164 0 -8.3467841881567991e-05 -0.014661248124393704 0 0.0010538644848060632 -0.014809908636083164 0 -8.3467841881567991e-05 -0.014661248124393704 0 0.00078802562361252125 -0.013986166476161714 0 0.00078094992796179125 -0.015605173670090533 0 0.00077500977932538451 -0.013763661820241777 0 9.5939326403793443e-05 -0.013065293447062544 0 0.00034657748658581107 -0.013908665033267447 0 0.00074587537854704984 -0.013589895067455114 0 9.5939326403793443e-05 -0.013065293447062544 0 0.00074587537854704984 -0.013589895067455114 0 0.00065812441952992822 -0.013050471885261381 0 0.0010921336985814354 -0.015380413030084009 0 0.0005631166157644942 -0.011980368017936468 0 0.0010538644848060632 -0.014809908636083164 0 0.00078802562361252125 -0.013986166476161714 0 0.0017247344883907971 -0.013441254246090406 0 0.00074587537854704984 -0.013589895067455114 0 0.0011398199433458561 -0.013271527982781396 0 0.00065812441952992822 -0.013050471885261381 0 0.00077500977932538451 -0.013763661820241777 0 0.00034400128629465468 -0.011657262223246525 0 0.00078802562361252125 -0.013986166476161714 0 0.0017247344883907971 -0.013441254246090406 0 0.0016597423558965465 -0.01330499275972268 0 0.00034400128629465468 -0.011657262223246525 0 0.00043038811421296832 -0.010450691829992233 0 0.00035392940242602269 -0.011365511408931135 0 0.00031038927946896755 -0.011273212299079865 0 0.0004561317528067665 -0.011161251428629235 0 0.0005631166157644942 -0.011980368017936468 0 0.00043038811421296832 -0.010450691829992233 0 0.0005631166157644942 -0.011980368017936468 0 0.00034400128629465468 -0.011657262223246525 0 -0.0007718268496096143 -0.0087275755984109228 0 -0.0012964256051565955 -0.0079350126422918967 0 -0.00095006021734629382 -0.0077966662778021579 0 0.00034400128629465468 -0.011657262223246525 0 -0.00038182761714215953 -0.010061703658524861 0 -0.00090183727204014633 -0.0088315384402849733 0 -0.0007718268496096143 -0.0087275755984109228 0 -0.0012964256051565955 -0.0079350126422918967 0 0.0011398199433458561 -0.013271527982781396 0 0.00065812441952992822 -0.013050471885261381 0 0.00083045015204129974 -0.012624281611954571 0 9.5939326403793443e-05 -0.013065293447062544 0 0.00065812441952992822 -0.013050471885261381 0 0.00034654036490250751 -0.012527684111401847 0 0.00065812441952992822 -0.013050471885261381 0 0.00034654036490250751 -0.012527684111401847 0 0.00083045015204129974 -0.012624281611954571 0 -0.0018339100697118951 -0.0082747471206450502 0 -0.0011426535337684617 -0.007827935269084936 0 -0.0009048235362543773 -0.0083575943823331698 0 -0.0018339100697118951 -0.0082747471206450502 0 -0.0009048235362543773 -0.0083575943823331698 0 -0.0010941857486929188 -0.0089345578355894406 0 -0.002653017026833379 -0.0045907101166918415 0 -0.0020824167418904611 -0.0050865492745051288 0 -0.0021310898733435074 -0.005180453538640919 0 -0.002466997014010252 -0.0042381713089547426 0 -0.0029114361857761834 -0.0031175674027529208 0 -0.002466997014010252 -0.0042381713089547426 0 -0.001345354349554328 -0.0072807620730488947 0 0.0006101263092449452 -0.011591722450494876 0 0.0005631166157644942 -0.011980368017936468 0 -0.0003226253609339379 -0.0079038536717668927 0 -0.0009048235362543773 -0.0083575943823331698 0 -0.00034901722828572092 -0.0086591684833447931 0 -0.00034901722828572092 -0.0086591684833447931 0 -0.00015554121102153134 -0.0090206738050588146 0 -0.0010941857486929188 -0.0089345578355894406 0 -0.0003226253609339379 -0.0079038536717668927 0 5.9878804122082836e-05 -0.0087362109019186694 0 -0.00034901722828572092 -0.0086591684833447931 0 5.9878804122082836e-05 -0.0087362109019186694 0 -5.455164751782087e-05 -0.0089493407186008161 0 -0.00034901722828572092 -0.0086591684833447931 0 -5.455164751782087e-05 -0.0089493407186008161 0 -0.00034901722828572092 -0.0086591684833447931 0 -0.00015554121102153134 -0.0090206738050588146 0 -0.0009048235362543773 -0.0083575943823331698 0 -0.00034901722828572092 -0.0086591684833447931 0 -0.0010941857486929188 -0.0089345578355894406 0 -0.0007718268496096143 -0.0087275755984109228 0 -0.00050927669170219804 -0.0081862595913303384 0 -0.00095006021734629382 -0.0077966662778021579 0 -0.00015554121102153134 -0.0090206738050588146 0 -0.00038244910632139774 -0.0095659973903534107 0 -0.0010941857486929188 -0.0089345578355894406 0 -0.0011770606980561673 -0.0072027235784587387 0 -0.001345354349554328 -0.0072807620730488947 0 -0.0015253150834076484 -0.0055810293137861658 0 -0.0020824167418904611 -0.0050865492745051288 0 -0.0021310898733435074 -0.005180453538640919 0 -5.6076163568512403e-05 -0.0089482188478248372 0 -0.00015554121102153134 -0.0090206738050588146 0 -0.00038244910632139774 -0.0095659973903534107 0 0.00043038811421296832 -0.010450691829992233 0 -0.0011770606980561673 -0.0072027235784587387 0 0.00043038811421296832 -0.010450691829992233 0 0.00045032461415575955 -0.010329032334759762 0 -0.0011770606980561673 -0.0072027235784587387 0 -0.0021557944359778241 -0.0042543143407673045 0 -0.0015253150834076484 -0.0055810293137861658 0 -0.0021310898733435074 -0.005180453538640919 0 -0.0016220398365072331 -0.0057670178703910458 0 -0.0029114361857761834 -0.0031175674027529208 0 -0.0021557944359778241 -0.0042543143407673045 0 -0.003266030923778882 -0.0016052977881379255 0 -0.003252972828569187 -0.0012383563656027247 0 -0.0036432311462700068 -0.0011919925403049922 0 -0.0029830411297690727 -0.0012658420151189043 0 -0.003266030923778882 -0.0016052977881379255 0 -0.003252972828569187 -0.0012383563656027247 0 -0.0029830411297690727 -0.0012658420151189043 0 -0.0032071714788023632 -0.00095943327126482905 0 -0.003252972828569187 -0.0012383563656027247 0 -0.0029830411297690727 -0.0012658420151189043 0 -0.0032071714788023632 -0.00095943327126482905 0 -0.0029553920699980753 -0.00071949397916088701 0 -0.0032071714788023632 -0.00095943327126482905 0 -0.0035289772371000822 -0.00091934465742851744 0 -0.003400231597667057 -0.00057044853078698293 0 -0.0032071714788023632 -0.00095943327126482905 0 -0.0029553920699980753 -0.00071949397916088701 0 -0.003400231597667057 -0.00057044853078698293 0 -0.0032071714788023632 -0.00095943327126482905 0 -0.003252972828569187 -0.0012383563656027247 0 -0.0035289772371000822 -0.00091934465742851744 0 -0.0021557944359778241 -0.0042543143407673045 0 -0.0023869757106340975 -0.0015761497512930666 0 -0.003252972828569187 -0.0012383563656027247 0 -0.0036432311462700068 -0.0011919925403049922 0 -0.0035289772371000822 -0.00091934465742851744 0 -0.0036876199781565714 -0.001273668544511798 0 -0.0037876647483836073 -0.00082490757419494305 0 -0.0035289772371000822 -0.00091934465742851744 0 -0.00065870556447662179 -0.0078761332281604406 0 -0.00095006021734629382 -0.0077966662778021579 0 -0.00091375751960949699 -0.0075451348860692416 0 -0.0011770606980561673 -0.0072027235784587387 0 -0.00067578185136187366 -0.0079697214364681818 0 -0.00071594859893601048 -0.0079834339040770232 0 -0.00065870556447662179 -0.0078761332281604406 0 -0.00095006021734629382 -0.0077966662778021579 0 -0.0036876199781565714 -0.001273668544511798 0 -0.0037876647483836073 -0.00082490757419494305 0 -0.0041449342051184841 -0.00071420090572182839 0 -0.0021557944359778241 -0.0042543143407673045 0 -0.002734586341138808 -0.0038766060002566683 0 -0.0037876647483836073 -0.00082490757419494305 0 -0.0035289772371000822 -0.00091934465742851744 0 -0.0037884718693131829 -0.00038086610843628273 0 -0.0035289772371000822 -0.00091934465742851744 0 -0.0037884718693131829 -0.00038086610843628273 0 -0.003400231597667057 -0.00057044853078698293 0 -0.0037884718693131829 -0.00038086610843628273 0 -0.0046118773425024807 -0.00016872237766440222 0 -0.0035933066012724898 0.00026053375192375652 0 -0.0037876647483836073 -0.00082490757419494305 0 -0.0037884718693131829 -0.00038086610843628273 0 -0.0041449342051184841 -0.00071420090572182839 0 -0.0037884718693131829 -0.00038086610843628273 0 -0.0035641902539715522 0.00017902682369345138 0 -0.0035933066012724898 0.00026053375192375652 0 -0.0037884718693131829 -0.00038086610843628273 0 -0.003400231597667057 -0.00057044853078698293 0 -0.0035641902539715522 0.00017902682369345138 0 -0.0032157602639315344 -9.2438806748160353e-05 0 -0.0035665245653486236 0.00018779236206103924 0 -0.0034353401459521218 0.00037270848166572209 0 -0.0033986394632810916 0.00051250099298230569 0 -0.0035641902539715522 0.00017902682369345138 0 -0.0034353401459521218 0.00037270848166572209 0 -0.0033986394632810916 0.00051250099298230569 0 -0.0033873959178431549 0.0005665253567820154 0 -0.0029553920699980753 -0.00071949397916088701 0 -0.003400231597667057 -0.00057044853078698293 0 -0.0035641902539715522 0.00017902682369345138 0 0.00034654036490250751 -0.012527684111401847 0 0.00083045015204129974 -0.012624281611954571 0 0.00052978451313066583 -0.011987887817906578 0 -0.0012964256051565955 -0.0079350126422918967 0 -0.0012670008975739953 -0.0074706545945759061 0 -0.0015757631384872869 -0.0072506674122887011 0 -0.00038182761714215953 -0.010061703658524861 0 0.00028689024336451706 -0.010006566185589648 0 -0.0011246707880798346 -0.0076640754435132966 0 -0.0012964256051565955 -0.0079350126422918967 0 -0.0012670008975739953 -0.0074706545945759061 0 -0.0011246707880798346 -0.0076640754435132966 0 -0.00091375751960949699 -0.0075451348860692416 0 -0.0012670008975739953 -0.0074706545945759061 0 -0.0011246707880798346 -0.0076640754435132966 0 -0.0012964256051565955 -0.0079350126422918967 0 -0.00095006021734629382 -0.0077966662778021579 0 -0.0011246707880798346 -0.0076640754435132966 0 -0.00095006021734629382 -0.0077966662778021579 0 -0.00091375751960949699 -0.0075451348860692416 0 -0.001188020139703804 -0.0051137086563992386 0 -0.0021343180089685911 -0.0030270430346838735 0 -0.0037884718693131829 -0.00038086610843628273 0 -0.0041449342051184841 -0.00071420090572182839 0 -0.0046118773425024807 -0.00016872237766440222 0 -0.002734586341138808 -0.0038766060002566683 0 -0.001188020139703804 -0.0051137086563992386 0 -0.00091375751960949699 -0.0075451348860692416 0 -0.0012602502414238799 -0.0071261017047003659 0 -0.0012670008975739953 -0.0074706545945759061 0 -0.00051795403204565817 -0.0065424652175774473 0 -7.4141307858388773e-05 -0.0063915855748446389 0 5.8950899156805045e-05 -0.0072192223541560439 0 -0.0012602502414238799 -0.0071261017047003659 0 -0.0012670008975739953 -0.0074706545945759061 0 -0.0015757631384872869 -0.0072506674122887011 0 -0.001188020139703804 -0.0051137086563992386 0 0.00028689024336451706 -0.010006566185589648 0 0.0013154780742868437 -0.0098766849041319587 0 0.00028689024336451706 -0.010006566185589648 0 0.00037148808070404805 -0.0072855318820270664 0 -7.4141307858388773e-05 -0.0063915855748446389 0 5.8950899156805045e-05 -0.0072192223541560439 0 0.00037148808070404805 -0.0072855318820270664 0 5.8950899156805045e-05 -0.0072192223541560439 0 6.4825312187438285e-06 -0.0078975987073832358 0 -0.00018057682924860918 -0.0067613379716034488 0 5.8950899156805045e-05 -0.0072192223541560439 0 -0.00013326100324775276 -0.0070185011791151549 0 -0.001188020139703804 -0.0051137086563992386 0 0.00041305645618800406 -0.0076634655390443304 0 5.8950899156805045e-05 -0.0072192223541560439 0 -0.00013326100324775276 -0.0070185011791151549 0 -8.6900088135688145e-05 -0.0074127749692916864 0 -0.00018057682924860918 -0.0067613379716034488 0 -0.00013326100324775276 -0.0070185011791151549 0 -0.00023733416427961835 -0.0067805515489756905 0 -0.00018057682924860918 -0.0067613379716034488 0 -0.00023733416427961835 -0.0067805515489756905 0 -0.000275471403475649 -0.00655267060714574 0 -0.00013326100324775276 -0.0070185011791151549 0 -0.00023733416427961835 -0.0067805515489756905 0 -8.6900088135688145e-05 -0.0074127749692916864 0 -0.00023733416427961835 -0.0067805515489756905 0 -5.8891526810826118e-07 -0.0077771531564573317 0 -1.0078871035253773e-06 -0.0060645541892943742 0 -0.00023733416427961835 -0.0067805515489756905 0 -8.6900088135688145e-05 -0.0074127749692916864 0 -5.8891526810826118e-07 -0.0077771531564573317 0 1.4552516697602771e-06 -0.0094868992556678619 0 -5.8891526810826118e-07 -0.0077771531564573317 0 6.4825312187438285e-06 -0.0078975987073832358 0 -8.6900088135688145e-05 -0.0074127749692916864 0 -5.8891526810826118e-07 -0.0077771531564573317 0 6.4825312187438285e-06 -0.0078975987073832358 0 5.8950899156805045e-05 -0.0072192223541560439 0 -8.6900088135688145e-05 -0.0074127749692916864 0 6.4825312187438285e-06 -0.0078975987073832358 0 -0.0034353401459521218 0.00037270848166572209 0 -0.0033743067578368494 0.00048310222521289571 0 -0.0035933066012724898 0.00026053375192375652 0 -0.0015391885181808326 -0.0027652920317769638 0 -0.0021343180089685911 -0.0030270430346838735 0 0.00016928029063019654 -0.006016739014496111 0 -0.000275471403475649 -0.00655267060714574 0 -0.00011586871485722755 -0.0056458579113897334 0 -0.0034353401459521218 0.00037270848166572209 0 -0.0033743067578368494 0.00048310222521289571 0 -0.0033763514644306863 0.00049867177005601798 0 -0.0034353401459521218 0.00037270848166572209 0 -0.0035641902539715522 0.00017902682369345138 0 -0.0035933066012724898 0.00026053375192375652 0 -0.00023733416427961835 -0.0067805515489756905 0 -0.000275471403475649 -0.00655267060714574 0 -0.00011586871485722755 -0.0056458579113897334 0 -0.00023733416427961835 -0.0067805515489756905 0 -1.0078871035253773e-06 -0.0060645541892943742 0 -0.00011586871485722755 -0.0056458579113897334 0 -1.0078871035253773e-06 -0.0060645541892943742 0 -0.00011586871485722755 -0.0056458579113897334 0 1.6584673348507472e-06 -0.0043555511322673924 0 0.00016928029063019654 -0.006016739014496111 0 -0.00011586871485722755 -0.0056458579113897334 0 1.6584673348507472e-06 -0.0043555511322673924 0 2.4526224236813471e-06 -0.0043538414182824085 0 -0.0008863360601742003 -0.0027045075699493768 0 0.00016928029063019654 -0.006016739014496111 0 1.6584673348507472e-06 -0.0043555511322673924 0 0.0017359742503525451 -0.0053601652385630236 0 6.4858230023867004e-07 -0.0043516059492714225 0 -6.2276483575573901e-07 -0.0028117235654257387 0 2.402021471175038e-05 -0.0024736911020814783 0 -6.2276483575573901e-07 -0.0028117235654257387 0 2.402021471175038e-05 -0.0024736911020814783 0 -0.00020749135999563727 -0.002115570072231157 0 -0.0008863360601742003 -0.0027045075699493768 0 -0.0001514631167326152 -0.0022676748625217978 0 -0.003371013597140171 0.00046220296646205659 0 -0.0034128695357774279 0.00052594783174740318 0 -0.0034983696922532988 0.00052991844270184837 0 -0.003371013597140171 0.00046220296646205659 0 -0.0033757133425098757 0.00051832437459310981 0 -0.0034128695357774279 0.00052594783174740318 0 -0.0033757133425098757 0.00051832437459310981 0 -0.0034128695357774279 0.00052594783174740318 0 -0.0033941831549217103 0.0005668930002540591 0 -0.0034128695357774279 0.00052594783174740318 0 -0.0033941831549217103 0.0005668930002540591 0 -0.0034410049398486218 0.00057171721677061298 0 -0.0033743067578368494 0.00048310222521289571 0 -0.003371013597140171 0.00046220296646205659 0 -0.0033757133425098757 0.00051832437459310981 0 -0.0033743067578368494 0.00048310222521289571 0 -0.0033757133425098757 0.00051832437459310981 0 -0.0033763514644306863 0.00049867177005601798 0 -0.0015391885181808326 -0.0027652920317769638 0 -0.0008863360601742003 -0.0027045075699493768 0 -0.0034353401459521218 0.00037270848166572209 0 -0.0033763514644306863 0.00049867177005601798 0 -0.0033873959178431549 0.0005665253567820154 0 -0.0033873959178431549 0.0005665253567820154 0 -0.0033736730196408742 0.00062646733485973707 0 -0.0033722345930710502 0.00057712304984391136 0 -0.0033763514644306863 0.00049867177005601798 0 -0.0033873959178431549 0.0005665253567820154 0 -0.0033722345930710502 0.00057712304984391136 0 -0.0033757133425098757 0.00051832437459310981 0 -0.0033763514644306863 0.00049867177005601798 0 -0.0033722345930710502 0.00057712304984391136 0 -0.0033722345930710502 0.00057712304984391136 0 -0.0033941831549217103 0.0005668930002540591 0 -0.0033782155006130982 0.00067742692858877701 0 -0.0033757133425098757 0.00051832437459310981 0 -0.0033722345930710502 0.00057712304984391136 0 -0.0033941831549217103 0.0005668930002540591 0 -0.0033941831549217103 0.0005668930002540591 0 -0.0033782155006130982 0.00067742692858877701 0 -0.0034410049398486218 0.00057171721677061298 0 -0.0032636704720073258 0.00079636731901693665 0 -0.0033782155006130982 0.00067742692858877701 0 -0.0033660945671228266 0.00068098366403150905 0 -0.0033736730196408742 0.00062646733485973707 0 -0.0033722345930710502 0.00057712304984391136 0 -0.0033782155006130982 0.00067742692858877701 0 -0.0033736730196408742 0.00062646733485973707 0 -0.0033782155006130982 0.00067742692858877701 0 -0.0033660945671228266 0.00068098366403150905 0 -0.0033736730196408742 0.00062646733485973707 0 -0.0033660945671228266 0.00068098366403150905 0 -0.0033819231117520059 0.00047201590707725597 0 -0.003201151816221051 0.0005175563508201176 0 -0.0033660945671228266 0.00068098366403150905 0 -0.0032169327502176038 0.00075133075501694721 0 -0.0030635663771391266 0.00040070902397376337 0 -0.0033470816478178653 0.00067880879528905004 0 -0.0029287455976203434 0.00033930071187594004 0 -0.0033660945671228266 0.00068098366403150905 0 -0.0033819231117520059 0.00047201590707725597 0 -0.0032636704720073258 0.00079636731901693665 0 -0.0033660945671228266 0.00068098366403150905 0 -0.0032169327502176038 0.00075133075501694721 0 -0.0033986394632810916 0.00051250099298230569 0 -0.0033873959178431549 0.0005665253567820154 0 -0.0033819231117520059 0.00047201590707725597 0 -0.0033873959178431549 0.0005665253567820154 0 -0.0033736730196408742 0.00062646733485973707 0 -0.0033819231117520059 0.00047201590707725597 0 -0.0032157602639315344 -9.2438806748160353e-05 0 -0.0030037236938039481 -0.00039954535859232387 0 -0.0029830411297690727 -0.0012658420151189043 0 -0.0029553920699980753 -0.00071949397916088701 0 -0.0026343879623469983 -0.001267602303074618 0 -0.0029668326722684202 0.00087591530478177914 0 -0.0030362697548251918 0.0010986500302636744 0 -0.0024613355671291638 0.0013265218422512811 0 -0.0026968167650261309 0.00079641777784145347 0 -0.0029668326722684202 0.00087591530478177914 0 -0.0024613355671291638 0.0013265218422512811 0 -0.0022672408530695722 0.00094676591257948032 0 -0.0026968167650261309 0.00079641777784145347 0 -0.0024613355671291638 0.0013265218422512811 0 -0.002416021076689773 0.00050148945796070791 0 -0.0022672408530695722 0.00094676591257948032 0 -0.0026968167650261309 0.00079641777784145347 0 -0.002416021076689773 0.00050148945796070791 0 -0.0022672408530695722 0.00094676591257948032 0 -0.0019893103700874904 0.00068434571667234153 0 -0.002416021076689773 0.00050148945796070791 0 -0.0028412197665376709 0.00052419892852078351 0 -0.0026968167650261309 0.00079641777784145347 0 -0.0026968167650261309 0.00079641777784145347 0 -0.0029806535325012603 0.00067926241039926202 0 -0.0029668326722684202 0.00087591530478177914 0 -0.0028412197665376709 0.00052419892852078351 0 -0.0026968167650261309 0.00079641777784145347 0 -0.0029806535325012603 0.00067926241039926202 0 -0.003201151816221051 0.0005175563508201176 0 -0.0029806535325012603 0.00067926241039926202 0 -0.0031146086166433207 0.00073230561513241412 0 -0.0029806535325012603 0.00067926241039926202 0 -0.0031146086166433207 0.00073230561513241412 0 -0.0029668326722684202 0.00087591530478177914 0 -0.003201151816221051 0.0005175563508201176 0 -0.0031146086166433207 0.00073230561513241412 0 -0.0032169327502176038 0.00075133075501694721 0 -0.0031146086166433207 0.00073230561513241412 0 -0.0032169327502176038 0.00075133075501694721 0 -0.00311852546262979 0.00092776289213624742 0 -0.0032169327502176038 0.00075133075501694721 0 -0.00311852546262979 0.00092776289213624742 0 -0.0031882403398343683 0.00086913024731979655 0 -0.0032636704720073258 0.00079636731901693665 0 -0.0032169327502176038 0.00075133075501694721 0 -0.0031882403398343683 0.00086913024731979655 0 -0.0031146086166433207 0.00073230561513241412 0 -0.0029668326722684202 0.00087591530478177914 0 -0.00311852546262979 0.00092776289213624742 0 -0.0029668326722684202 0.00087591530478177914 0 -0.00311852546262979 0.00092776289213624742 0 -0.0030362697548251918 0.0010986500302636744 0 -0.00311852546262979 0.00092776289213624742 0 -0.0031882403398343683 0.00086913024731979655 0 -0.0030447133528601006 0.0011480368698825378 0 -0.0036416332783245106 0.00069747566713546484 0 -0.0025304556926140222 0.0008632983748957211 0 -0.00311852546262979 0.00092776289213624742 0 -0.0030362697548251918 0.0010986500302636744 0 -0.0030447133528601006 0.0011480368698825378 0 -0.0032636704720073258 0.00079636731901693665 0 -0.0033782155006130982 0.00067742692858877701 0 -0.0030447133528601006 0.0011480368698825378 0 -0.0033782155006130982 0.00067742692858877701 0 -0.0034410049398486218 0.00057171721677061298 0 -0.0035100143612018697 0.0005936676665353551 0 -0.0027278219206026068 0.0011460643364813168 0 -0.0025304556926140222 0.0008632983748957211 0 -0.0032636704720073258 0.00079636731901693665 0 -0.0031882403398343683 0.00086913024731979655 0 -0.0030447133528601006 0.0011480368698825378 0 -0.0025304556926140222 0.0008632983748957211 0 -0.001568994103433407 0.00013141960388182952 0 -0.0034410049398486218 0.00057171721677061298 0 -0.0035100143612018697 0.0005936676665353551 0 -0.0034983696922532988 0.00052991844270184837 0 -0.0030536488915350823 0.0015716241545250882 0 -0.0024613355671291638 0.0013265218422512811 0 -0.0019728539507200718 0.0020170229711726348 0 -0.0010517934260415966 0.00083583556805079254 0 -0.00096618044986125911 0.00086266495594755784 0 -0.000903811821131328 0.00086119804156388762 0 -0.0010517934260415966 0.00083583556805079254 0 -0.00096618044986125911 0.00086266495594755784 0 -0.0010545377509266884 0.00090993177366668963 0 -0.0025304556926140222 0.0008632983748957211 0 -0.0013149627315281326 0.0014780975963497838 0 -0.0030362697548251918 0.0010986500302636744 0 -0.0030536488915350823 0.0015716241545250882 0 -0.0024613355671291638 0.0013265218422512811 0 -0.00092194161541405697 0.00093629512886325955 0 -0.0010135394639253011 0.00090172143603651036 0 -0.00099858290188520348 0.0010263668285050416 0 -0.00096618044986125911 0.00086266495594755784 0 -0.00092194161541405697 0.00093629512886325955 0 -0.000903811821131328 0.00086119804156388762 0 -0.00096618044986125911 0.00086266495594755784 0 -0.00092194161541405697 0.00093629512886325955 0 -0.0010135394639253011 0.00090172143603651036 0 -0.0010344239006587668 0.00075043454012312279 0 -0.001568994103433407 0.00013141960388182952 0 -0.0008863360601742003 -0.0027045075699493768 0 -0.001568994103433407 0.00013141960388182952 0 -0.00054412265631569837 -0.0022316139319327236 0 -0.00020749135999563727 -0.002115570072231157 0 0.00024291692177927656 -0.0027071807882129068 0 -0.0034128695357774279 0.00052594783174740318 0 -0.0034410049398486218 0.00057171721677061298 0 -0.0034983696922532988 0.00052991844270184837 0 -0.001568994103433407 0.00013141960388182952 0 -0.00028610003283269589 -0.00047612220645942632 0 -0.00020749135999563727 -0.002115570072231157 0 0.00024291692177927656 -0.0027071807882129068 0 5.4388706982456804e-07 -0.001274136932896827 0 -6.2276483575573901e-07 -0.0028117235654257387 0 -0.00020749135999563727 -0.002115570072231157 0 5.4388706982456804e-07 -0.001274136932896827 0 -0.00028610003283269589 -0.00047612220645942632 0 -0.00057337323772205565 0.00073898277401764577 0 5.7223447934110306e-07 -0.001271194870157671 0 1.0401853712676375e-05 0.00058081907711780303 0 -5.8083068981478487e-07 0.00077731953232746277 0 -0.00092194161541405697 0.00093629512886325955 0 -0.00099858290188520348 0.0010263668285050416 0 -0.00089782701640050749 0.001000223803195757 0 1.0401853712676375e-05 0.00058081907711780303 0 -5.8083068981478487e-07 0.00077731953232746277 0 -1.7466157519400835e-05 0.0012983139050014899 0 -0.00057337323772205565 0.00073898277401764577 0 -0.00031962639168672303 0.0019041154122453605 0 -5.8083068981478487e-07 0.00077731953232746277 0 -1.7466157519400835e-05 0.0012983139050014899 0 5.6865533045544634e-07 0.0028219593485248637 0 -0.00072261449937297277 0.0010663035475494786 0 -0.00082646537301361346 0.00089479229770827258 0 -0.00071752920150347911 0.00091353282198410003 0 -0.00031962639168672303 0.0019041154122453605 0 -0.0010253205151334092 0.00066360028162189256 0 -0.00092194161541405697 0.00093629512886325955 0 -0.00089782701640050749 0.001000223803195757 0 -0.00076621843036059041 0.00096801564366615208 0 -0.00092194161541405697 0.00093629512886325955 0 -0.00076621843036059041 0.00096801564366615208 0 -0.00082646537301361346 0.00089479229770827258 0 -0.00092194161541405697 0.00093629512886325955 0 -0.000903811821131328 0.00086119804156388762 0 -0.00082646537301361346 0.00089479229770827258 0 -1.7772421540940021e-05 0.0037088270462696141 0 9.8759918939785264e-07 0.0028268477621917008 0 -9.4437341331467213e-07 0.0044922602614990747 0 7.6956436498958042e-06 0.0041064423856249201 0 -1.7772421540940021e-05 0.0037088270462696141 0 -9.4437341331467213e-07 0.0044922602614990747 0 -1.7772421540940021e-05 0.0037088270462696141 0 5.8513426986639365e-05 0.0036001221758407702 0 0.00021700778584011552 0.0037895875774042811 0 7.6956436498958042e-06 0.0041064423856249201 0 -1.7772421540940021e-05 0.0037088270462696141 0 0.00021700778584011552 0.0037895875774042811 0 0.00039965850211005525 0.0036935567629380836 0 9.8759918939785264e-07 0.0028268477621917008 0 5.8513426986639365e-05 0.0036001221758407702 0 -0.00031962639168672303 0.0019041154122453605 0 6.3174914619376895e-07 0.0028251476380644143 0 -1.7772421540940021e-05 0.0037088270462696141 0 9.8759918939785264e-07 0.0028268477621917008 0 5.8513426986639365e-05 0.0036001221758407702 0 -0.00031962639168672303 0.0019041154122453605 0 -6.4249617604841537e-05 0.0022495408728845927 0 -0.00072261449937297277 0.0010663035475494786 0 -0.00045291844780580396 0.00097029360569532007 0 -0.00071752920150347911 0.00091353282198410003 0 0.00039965850211005525 0.0036935567629380836 0 2.5992857143137251e-05 0.0034193671695946751 0 5.8513426986639365e-05 0.0036001221758407702 0 -6.4249617604841537e-05 0.0022495408728845927 0 -0.00079248650481818477 0.0016607193214616372 0 2.5992857143137251e-05 0.0034193671695946751 0 5.8513426986639365e-05 0.0036001221758407702 0 0.00021700778584011552 0.0037895875774042811 0 7.6956436498958042e-06 0.0041064423856249201 0 0.00021700778584011552 0.0037895875774042811 0 -0.00017894984796139931 0.004572377605651109 0 0.00021700778584011552 0.0037895875774042811 0 0.00011215980132510967 0.0033565857282218687 0 0.00044476567988583482 0.003345222164114339 0 2.5992857143137251e-05 0.0034193671695946751 0 0.00021700778584011552 0.0037895875774042811 0 0.00011215980132510967 0.0033565857282218687 0 -0.00011520006522203714 0.0033497062931767555 0 0.00041583846799300576 0.0029385937182014859 0 0.00011215980132510967 0.0033565857282218687 0 0.00041583846799300576 0.0029385937182014859 0 0.00011215980132510967 0.0033565857282218687 0 0.00044476567988583482 0.003345222164114339 0 -6.4249617604841537e-05 0.0022495408728845927 0 5.1483751786594344e-05 0.0023803163363803992 0 -6.4249617604841537e-05 0.0022495408728845927 0 -3.255086123708129e-05 0.0022877189063752238 0 0.00041583846799300576 0.0029385937182014859 0 0.00044476567988583482 0.003345222164114339 0 0.00085967555396448817 0.0026630776816015363 0 0.00044476567988583482 0.003345222164114339 0 0.0011477424726393172 0.0031625013567246315 0 0.00085967555396448817 0.0026630776816015363 0 0.00021700778584011552 0.0037895875774042811 0 0.00044476567988583482 0.003345222164114339 0 0.0011477424726393172 0.0031625013567246315 0 0.0011010118686492615 0.0019253396262591629 0 0.00022116545817439876 0.0023370129447164933 0 6.0915334715624035e-05 0.0015732292187670715 0 0.0011010118686492615 0.0019253396262591629 0 0.00085967555396448817 0.0026630776816015363 0 0.0017727624301186052 0.0025986293053133274 0 0.00041583846799300576 0.0029385937182014859 0 0.00085967555396448817 0.0026630776816015363 0 0.00022116545817439876 0.0023370129447164933 0 0.00026909456840075999 0.0029098253213548173 0 0.00041583846799300576 0.0029385937182014859 0 0.00022116545817439876 0.0023370129447164933 0 0.0011010118686492615 0.0019253396262591629 0 0.00085967555396448817 0.0026630776816015363 0 0.00022116545817439876 0.0023370129447164933 0 0.00022116545817439876 0.0023370129447164933 0 6.0915334715624035e-05 0.0015732292187670715 0 -0.00083861704293178665 0.0024558284245557709 0 0.00026909456840075999 0.0029098253213548173 0 0.00022116545817439876 0.0023370129447164933 0 -0.00083861704293178665 0.0024558284245557709 0 6.0915334715624035e-05 0.0015732292187670715 0 -0.00080314901432361246 0.0012813408796914529 0 -0.00019386732664462042 0.00020155967672918603 0 6.0915334715624035e-05 0.0015732292187670715 0 0.00084821148571224633 0.00087821558483743207 0 -0.00019386732664462042 0.00020155967672918603 0 0.0011010118686492615 0.0019253396262591629 0 6.0915334715624035e-05 0.0015732292187670715 0 0.00084821148571224633 0.00087821558483743207 0 -0.0019728539507200718 0.0020170229711726348 0 -0.00083861704293178665 0.0024558284245557709 0 -0.0016983926263159218 0.0013199467463989225 0 -0.0013149627315281326 0.0014780975963497838 0 -0.00079248650481818477 0.0016607193214616372 0 -0.000903811821131328 0.00086119804156388762 0 -0.00082646537301361346 0.00089479229770827258 0 -0.00071752920150347911 0.00091353282198410003 0 -0.0024613355671291638 0.0013265218422512811 0 -0.0019728539507200718 0.0020170229711726348 0 -0.0016983926263159218 0.0013199467463989225 0 -0.00083861704293178665 0.0024558284245557709 0 -0.00080314901432361246 0.0012813408796914529 0 -0.0016983926263159218 0.0013199467463989225 0 6.0915334715624035e-05 0.0015732292187670715 0 -0.00083861704293178665 0.0024558284245557709 0 -0.00080314901432361246 0.0012813408796914529 0 -0.00080314901432361246 0.0012813408796914529 0 -0.0016983926263159218 0.0013199467463989225 0 -0.0014211889360364529 0.00046651399265728363 0 -0.0016983926263159218 0.0013199467463989225 0 -0.0019893103700874904 0.00068434571667234153 0 -0.0014211889360364529 0.00046651399265728363 0 -0.0022672408530695722 0.00094676591257948032 0 -0.0024613355671291638 0.0013265218422512811 0 -0.0016983926263159218 0.0013199467463989225 0 -0.0022672408530695722 0.00094676591257948032 0 -0.0016983926263159218 0.0013199467463989225 0 -0.0019893103700874904 0.00068434571667234153 0 -0.0019893103700874904 0.00068434571667234153 0 -0.0020115636404962924 0.00027424971136814924 0 -0.0014211889360364529 0.00046651399265728363 0 -0.002416021076689773 0.00050148945796070791 0 -0.0019893103700874904 0.00068434571667234153 0 -0.0020115636404962924 0.00027424971136814924 0 -0.0014211889360364529 0.00046651399265728363 0 -0.0017782402837506252 -0.00022753514476698433 0 -0.0010396295865164875 -0.00028852210338855991 0 -0.0022971257622476124 -2.6901320931380757e-05 0 -0.0020115636404962924 0.00027424971136814924 0 -0.0017782402837506252 -0.00022753514476698433 0 -0.0022971257622476124 -2.6901320931380757e-05 0 -0.0022094714837272607 -0.00045091844819232301 0 -0.0017782402837506252 -0.00022753514476698433 0 -0.0020115636404962924 0.00027424971136814924 0 -0.0014211889360364529 0.00046651399265728363 0 -0.0017782402837506252 -0.00022753514476698433 0 -0.0022094714837272607 -0.00045091844819232301 0 -0.0017782402837506252 -0.00022753514476698433 0 -0.0019028302665327519 -0.00066675941890047003 0 -0.0022094714837272607 -0.00045091844819232301 0 -0.0019028302665327519 -0.00066675941890047003 0 -0.0020939499916081883 -0.00082778352896091024 0 -0.0017782402837506252 -0.00022753514476698433 0 -0.0019028302665327519 -0.00066675941890047003 0 -0.0014979367905335775 -0.00065350910670833372 0 -0.0017782402837506252 -0.00022753514476698433 0 -0.0014979367905335775 -0.00065350910670833372 0 -0.0010396295865164875 -0.00028852210338855991 0 -0.0019028302665327519 -0.00066675941890047003 0 -0.0014979367905335775 -0.00065350910670833372 0 -0.0016943786419230716 -0.00089603311557769592 0 -0.0014979367905335775 -0.00065350910670833372 0 -0.0016943786419230716 -0.00089603311557769592 0 -0.0014321651925981841 -0.0010162429525557893 0 -0.0014979367905335775 -0.00065350910670833372 0 -0.0014321651925981841 -0.0010162429525557893 0 -0.0010796549003840004 -0.00088975166456380127 0 -0.0014321651925981841 -0.0010162429525557893 0 -0.0011865041113784931 -0.0011956631259489904 0 -0.0010796549003840004 -0.00088975166456380127 0 -0.0014321651925981841 -0.0010162429525557893 0 -0.0011865041113784931 -0.0011956631259489904 0 -0.0014411972108492395 -0.0013654966919242014 0 -0.0014321651925981841 -0.0010162429525557893 0 -0.0016749219772065637 -0.0011492757688630099 0 -0.0014411972108492395 -0.0013654966919242014 0 -0.0016943786419230716 -0.00089603311557769592 0 -0.0014321651925981841 -0.0010162429525557893 0 -0.0016749219772065637 -0.0011492757688630099 0 -0.0020939499916081883 -0.00082778352896091024 0 -0.0018458379831602497 -0.00098925636664940484 0 -0.0017338439243799271 -0.001437673484636676 0 -0.0016749219772065637 -0.0011492757688630099 0 -0.0018458379831602497 -0.00098925636664940484 0 -0.0017338439243799271 -0.001437673484636676 0 -0.0025089169072417218 -0.00066362311914939999 0 -0.0020939499916081883 -0.00082778352896091024 0 -0.0017338439243799271 -0.001437673484636676 0 -0.0016943786419230716 -0.00089603311557769592 0 -0.0016749219772065637 -0.0011492757688630099 0 -0.0018458379831602497 -0.00098925636664940484 0 -0.0019028302665327519 -0.00066675941890047003 0 -0.0020939499916081883 -0.00082778352896091024 0 -0.0018458379831602497 -0.00098925636664940484 0 -0.0019028302665327519 -0.00066675941890047003 0 -0.0016943786419230716 -0.00089603311557769592 0 -0.0018458379831602497 -0.00098925636664940484 0 -0.00052408839731317024 -0.0007868588499961932 0 -0.0008312344453906467 -0.0013027906245955017 0 -0.00034520223062955432 -0.0013043221017691052 0 -0.00052408839731317024 -0.0007868588499961932 0 -0.0010796549003840004 -0.00088975166456380127 0 -0.0008312344453906467 -0.0013027906245955017 0 -0.0011865041113784931 -0.0011956631259489904 0 -0.0010796549003840004 -0.00088975166456380127 0 -0.0008312344453906467 -0.0013027906245955017 0 -0.00052408839731317024 -0.0007868588499961932 0 -0.0010796549003840004 -0.00088975166456380127 0 -0.0010396295865164875 -0.00028852210338855991 0 -0.0014979367905335775 -0.00065350910670833372 0 -0.0010796549003840004 -0.00088975166456380127 0 -0.0010396295865164875 -0.00028852210338855991 0 -0.00052408839731317024 -0.0007868588499961932 0 -0.0010396295865164875 -0.00028852210338855991 0 -0.00019386732664462042 0.00020155967672918603 0 -0.0014211889360364529 0.00046651399265728363 0 -0.0010396295865164875 -0.00028852210338855991 0 -0.00019386732664462042 0.00020155967672918603 0 -0.00080314901432361246 0.0012813408796914529 0 -0.0014211889360364529 0.00046651399265728363 0 -0.00019386732664462042 0.00020155967672918603 0 0.00084821148571224633 0.00087821558483743207 0 0.001283230662836929 -0.00066945458235295491 0 0.0026703530836522374 -0.00016004787361932756 0 0.00084821148571224633 0.00087821558483743207 0 -0.00019386732664462042 0.00020155967672918603 0 0.001283230662836929 -0.00066945458235295491 0 0.001283230662836929 -0.00066945458235295491 0 0.00018431530256831299 -0.00096600576844167263 0 0.0007983429649910472 -0.0016645260801439511 0 0.001283230662836929 -0.00066945458235295491 0 0.0014486671284332296 -0.0014401616666088123 0 0.0007983429649910472 -0.0016645260801439511 0 0.001283230662836929 -0.00066945458235295491 0 0.0014486671284332296 -0.0014401616666088123 0 0.0020788114215474409 -0.0013867505527432216 0 -0.00019386732664462042 0.00020155967672918603 0 0.001283230662836929 -0.00066945458235295491 0 0.00018431530256831299 -0.00096600576844167263 0 -0.00052408839731317024 -0.0007868588499961932 0 -0.00019386732664462042 0.00020155967672918603 0 0.00018431530256831299 -0.00096600576844167263 0 -0.00052408839731317024 -0.0007868588499961932 0 0.00018431530256831299 -0.00096600576844167263 0 -0.00034520223062955432 -0.0013043221017691052 0 0.00018431530256831299 -0.00096600576844167263 0 1.8728581002102539e-05 -0.0017303371816110326 0 -0.00034520223062955432 -0.0013043221017691052 0 0.00018431530256831299 -0.00096600576844167263 0 1.8728581002102539e-05 -0.0017303371816110326 0 0.0007983429649910472 -0.0016645260801439511 0 1.8728581002102539e-05 -0.0017303371816110326 0 0.0007983429649910472 -0.0016645260801439511 0 0.00029968836263753984 -0.0025596184187434462 0 0.0007983429649910472 -0.0016645260801439511 0 0.0010035899509790154 -0.0023580202639284236 0 0.00029968836263753984 -0.0025596184187434462 0 1.8728581002102539e-05 -0.0017303371816110326 0 0.00029968836263753984 -0.0025596184187434462 0 -0.00023023364228874269 -0.0021702040214433261 0 0.0014486671284332296 -0.0014401616666088123 0 0.0016170177122816385 -0.0021990588208695722 0 0.0020788114215474409 -0.0013867505527432216 0 0.0014486671284332296 -0.0014401616666088123 0 0.0007983429649910472 -0.0016645260801439511 0 0.0016170177122816385 -0.0021990588208695722 0 0.0007983429649910472 -0.0016645260801439511 0 0.0016170177122816385 -0.0021990588208695722 0 0.0010035899509790154 -0.0023580202639284236 0 0.0016170177122816385 -0.0021990588208695722 0 0.0013021101128151595 -0.0030107338279936895 0 0.002001637393683202 -0.0034721727306362229 0 0.0016170177122816385 -0.0021990588208695722 0 0.0010035899509790154 -0.0023580202639284236 0 0.0013021101128151595 -0.0030107338279936895 0 0.0010035899509790154 -0.0023580202639284236 0 0.0013021101128151595 -0.0030107338279936895 0 0.00029968836263753984 -0.0025596184187434462 0 0.00029968836263753984 -0.0025596184187434462 0 -0.00024715372461293141 -0.0025854171767462158 0 -0.00023023364228874269 -0.0021702040214433261 0 0.0013021101128151595 -0.0030107338279936895 0 0.00029968836263753984 -0.0025596184187434462 0 0.00086749726063771254 -0.003584565279722817 0 0.00029968836263753984 -0.0025596184187434462 0 -0.00024715372461293141 -0.0025854171767462158 0 -2.2322876829816329e-05 -0.0033740185662144528 0 0.00029968836263753984 -0.0025596184187434462 0 -2.2322876829816329e-05 -0.0033740185662144528 0 0.00086749726063771254 -0.003584565279722817 0 -0.00054532646888678384 -0.0029501447746090666 0 -0.00024715372461293141 -0.0025854171767462158 0 -2.2322876829816329e-05 -0.0033740185662144528 0 -0.00054532646888678384 -0.0029501447746090666 0 -0.00083760187624779372 -0.0033625042632125421 0 -2.2322876829816329e-05 -0.0033740185662144528 0 -0.00054532646888678384 -0.0029501447746090666 0 -0.00024715372461293141 -0.0025854171767462158 0 -0.00066023907426261631 -0.0026108691404568064 0 -0.00024715372461293141 -0.0025854171767462158 0 -0.00066023907426261631 -0.0026108691404568064 0 -0.00064312826263074438 -0.0022345563189103538 0 -0.00024715372461293141 -0.0025854171767462158 0 -0.00023023364228874269 -0.0021702040214433261 0 -0.00064312826263074438 -0.0022345563189103538 0 -0.00095883608535492465 -0.0024493103372675291 0 -0.0012024226007750123 -0.0026422364024552181 0 -0.0011568993470731917 -0.0023886502121567839 0 -0.00095883608535492465 -0.0024493103372675291 0 -0.0011568993470731917 -0.0023886502121567839 0 -0.00108001301384538 -0.0022933368043149046 0 -0.00095883608535492465 -0.0024493103372675291 0 -0.00066023907426261631 -0.0026108691404568064 0 -0.00064312826263074438 -0.0022345563189103538 0 -0.00095883608535492465 -0.0024493103372675291 0 -0.00066023907426261631 -0.0026108691404568064 0 -0.00089787763617559771 -0.002826999672076808 0 -0.00054532646888678384 -0.0029501447746090666 0 -0.00066023907426261631 -0.0026108691404568064 0 -0.00089787763617559771 -0.002826999672076808 0 -0.00089787763617559771 -0.002826999672076808 0 -0.0011774444373061198 -0.0030052611530760505 0 -0.0012024226007750123 -0.0026422364024552181 0 -0.00095883608535492465 -0.0024493103372675291 0 -0.00089787763617559771 -0.002826999672076808 0 -0.0012024226007750123 -0.0026422364024552181 0 -0.00089787763617559771 -0.002826999672076808 0 -0.0011774444373061198 -0.0030052611530760505 0 -0.00083760187624779372 -0.0033625042632125421 0 -0.00054532646888678384 -0.0029501447746090666 0 -0.00089787763617559771 -0.002826999672076808 0 -0.00083760187624779372 -0.0033625042632125421 0 -0.0014642174896859687 -0.0032807770743054181 0 -0.0011774444373061198 -0.0030052611530760505 0 -0.00083760187624779372 -0.0033625042632125421 0 -0.0014642174896859687 -0.0032807770743054181 0 -0.0011774444373061198 -0.0030052611530760505 0 -0.0014186179446990918 -0.0027988824960886935 0 -0.0014642174896859687 -0.0032807770743054181 0 -0.0016543259938768037 -0.0028660703880849783 0 -0.0014186179446990918 -0.0027988824960886935 0 -0.002041752118630611 -0.0031265843089855927 0 -0.0014642174896859687 -0.0032807770743054181 0 -0.0016543259938768037 -0.0028660703880849783 0 -0.0019314403712469982 -0.0025712067372091548 0 -0.002041752118630611 -0.0031265843089855927 0 -0.0016543259938768037 -0.0028660703880849783 0 -0.0019314403712469982 -0.0025712067372091548 0 -0.0016543259938768037 -0.0028660703880849783 0 -0.001625405012073429 -0.0025212377422830822 0 -0.0016543259938768037 -0.0028660703880849783 0 -0.001625405012073429 -0.0025212377422830822 0 -0.0014186179446990918 -0.0027988824960886935 0 -0.0019314403712469982 -0.0025712067372091548 0 -0.001625405012073429 -0.0025212377422830822 0 -0.0018092619411059752 -0.002347198531204883 0 -0.0011774444373061198 -0.0030052611530760505 0 -0.0012024226007750123 -0.0026422364024552181 0 -0.0014186179446990918 -0.0027988824960886935 0 -0.001625405012073429 -0.0025212377422830822 0 -0.0014186179446990918 -0.0027988824960886935 0 -0.0014225927164394556 -0.0025315576620774868 0 -0.0012024226007750123 -0.0026422364024552181 0 -0.0014186179446990918 -0.0027988824960886935 0 -0.0014225927164394556 -0.0025315576620774868 0 -0.001625405012073429 -0.0025212377422830822 0 -0.0014225927164394556 -0.0025315576620774868 0 -0.0014959844367465932 -0.0023661410065164835 0 -0.0014225927164394556 -0.0025315576620774868 0 -0.0013810867518209272 -0.002378547476613856 0 -0.0012807205969373944 -0.0024891934306133742 0 -0.0014225927164394556 -0.0025315576620774868 0 -0.0013810867518209272 -0.002378547476613856 0 -0.0014959844367465932 -0.0023661410065164835 0 -0.0012024226007750123 -0.0026422364024552181 0 -0.0012807205969373944 -0.0024891934306133742 0 -0.0011568993470731917 -0.0023886502121567839 0 -0.0013810867518209272 -0.002378547476613856 0 -0.0012807205969373944 -0.0024891934306133742 0 -0.0013444294234945414 -0.0022788502119365848 0 -0.0012024226007750123 -0.0026422364024552181 0 -0.0014225927164394556 -0.0025315576620774868 0 -0.0012807205969373944 -0.0024891934306133742 0 -0.0012807205969373944 -0.0024891934306133742 0 -0.0011568993470731917 -0.0023886502121567839 0 -0.0013444294234945414 -0.0022788502119365848 0 -0.0025089169072417218 -0.00066362311914939999 0 -0.0013409162118672286 -0.0021471814388499748 0 -0.0017338439243799271 -0.001437673484636676 0 -0.0022777806254811648 -0.00032230586904045109 0 -0.0023047731594221634 -0.00051228027678985313 0 -0.0015326802573330854 -0.0011230086561232373 0 -0.002102626316802057 -0.0018941594355045795 0 -0.0013409162118672286 -0.0021471814388499748 0 -0.0017900480483136561 -0.0021583525761139249 0 -0.0011568993470731917 -0.0023886502121567839 0 -0.0012318392642380288 -0.0022640960391369452 0 -0.0013444294234945414 -0.0022788502119365848 0 -0.0013409162118672286 -0.0021471814388499748 0 -0.0014752073609935392 -0.0022067448002201354 0 -0.0017900480483136561 -0.0021583525761139249 0 -0.0021722256448575943 -0.0012106531799820283 0 -0.0014686785937953243 -0.0015971065747852297 0 -0.0023677732918935025 -0.00051051562919759291 0 -0.0014686785937953243 -0.0015971065747852297 0 -0.0012318392642380288 -0.0022640960391369452 0 -0.0013409162118672286 -0.0021471814388499748 0 -0.0011065069995761987 -0.0021486750895414754 0 -0.0012318392642380288 -0.0022640960391369452 0 -0.0013409162118672286 -0.0021471814388499748 0 -0.0013444294234945414 -0.0022788502119365848 0 -0.0013409162118672286 -0.0021471814388499748 0 -0.0013444294234945414 -0.0022788502119365848 0 -0.001416054174130651 -0.0022892234088070142 0 -0.0013810867518209272 -0.002378547476613856 0 -0.0013444294234945414 -0.0022788502119365848 0 -0.001416054174130651 -0.0022892234088070142 0 -0.001416054174130651 -0.0022892234088070142 0 -0.0014959844367465932 -0.0023661410065164835 0 -0.0014752073609935392 -0.0022067448002201354 0 -0.0014959844367465932 -0.0023661410065164835 0 -0.0014752073609935392 -0.0022067448002201354 0 -0.0016485824639949798 -0.0023038692641865516 0 -0.0013810867518209272 -0.002378547476613856 0 -0.001416054174130651 -0.0022892234088070142 0 -0.0014959844367465932 -0.0023661410065164835 0 -0.0013409162118672286 -0.0021471814388499748 0 -0.001416054174130651 -0.0022892234088070142 0 -0.0014752073609935392 -0.0022067448002201354 0 -0.0014096877094504417 -0.0018904067546864781 0 -0.0013316906994853509 -0.0020091911334380905 0 -0.00127194550297045 -0.0016747437733717358 0 -0.0013316906994853509 -0.0020091911334380905 0 -0.00127194550297045 -0.0016747437733717358 0 -0.0011355698246899326 -0.001889646680607849 0 -0.0013409162118672286 -0.0021471814388499748 0 -0.0011065069995761987 -0.0021486750895414754 0 -0.0011355698246899326 -0.001889646680607849 0 -0.0013409162118672286 -0.0021471814388499748 0 -0.0013316906994853509 -0.0020091911334380905 0 -0.0011355698246899326 -0.001889646680607849 0 -0.0013409162118672286 -0.0021471814388499748 0 -0.0014096877094504417 -0.0018904067546864781 0 -0.0013316906994853509 -0.0020091911334380905 0 -0.0014752073609935392 -0.0022067448002201354 0 -0.0016485824639949798 -0.0023038692641865516 0 -0.0017900480483136561 -0.0021583525761139249 0 -0.0018092619411059752 -0.002347198531204883 0 -0.0016485824639949798 -0.0023038692641865516 0 -0.0017900480483136561 -0.0021583525761139249 0 -0.001625405012073429 -0.0025212377422830822 0 -0.0014959844367465932 -0.0023661410065164835 0 -0.0016485824639949798 -0.0023038692641865516 0 -0.001625405012073429 -0.0025212377422830822 0 -0.0018092619411059752 -0.002347198531204883 0 -0.0016485824639949798 -0.0023038692641865516 0 -0.0013409162118672286 -0.0021471814388499748 0 -0.0014096877094504417 -0.0018904067546864781 0 -0.0017338439243799271 -0.001437673484636676 0 -0.0014096877094504417 -0.0018904067546864781 0 -0.00127194550297045 -0.0016747437733717358 0 -0.0014760205750696887 -0.00159455297567694 0 -0.0014096877094504417 -0.0018904067546864781 0 -0.0017338439243799271 -0.001437673484636676 0 -0.0014760205750696887 -0.00159455297567694 0 -0.0016749219772065637 -0.0011492757688630099 0 -0.0017338439243799271 -0.001437673484636676 0 -0.0014411972108492395 -0.0013654966919242014 0 -0.0017338439243799271 -0.001437673484636676 0 -0.0014760205750696887 -0.00159455297567694 0 -0.0014411972108492395 -0.0013654966919242014 0 -0.0011865041113784931 -0.0011956631259489904 0 -0.0014411972108492395 -0.0013654966919242014 0 -0.0011326605017666109 -0.0014498175144107026 0 -0.00127194550297045 -0.0016747437733717358 0 -0.0014760205750696887 -0.00159455297567694 0 -0.0014411972108492395 -0.0013654966919242014 0 -0.00127194550297045 -0.0016747437733717358 0 -0.0014411972108492395 -0.0013654966919242014 0 -0.0011326605017666109 -0.0014498175144107026 0 -0.0011326605017666109 -0.0014498175144107026 0 -0.00098330770738703946 -0.0016679310121165557 0 -0.0008312344453906467 -0.0013027906245955017 0 -0.0011865041113784931 -0.0011956631259489904 0 -0.0011326605017666109 -0.0014498175144107026 0 -0.0008312344453906467 -0.0013027906245955017 0 -0.00127194550297045 -0.0016747437733717358 0 -0.00098330770738703946 -0.0016679310121165557 0 -0.0011355698246899326 -0.001889646680607849 0 -0.00127194550297045 -0.0016747437733717358 0 -0.0011326605017666109 -0.0014498175144107026 0 -0.00098330770738703946 -0.0016679310121165557 0 -0.00098330770738703946 -0.0016679310121165557 0 -0.0008312344453906467 -0.0013027906245955017 0 -0.00057474583585967953 -0.0017398189306329008 0 -0.00098330770738703946 -0.0016679310121165557 0 -0.00057474583585967953 -0.0017398189306329008 0 -0.00090820596206902138 -0.0019665959280772767 0 -0.0008312344453906467 -0.0013027906245955017 0 -0.00034520223062955432 -0.0013043221017691052 0 -0.00057474583585967953 -0.0017398189306329008 0 1.8728581002102539e-05 -0.0017303371816110326 0 -0.00034520223062955432 -0.0013043221017691052 0 -0.00057474583585967953 -0.0017398189306329008 0 1.8728581002102539e-05 -0.0017303371816110326 0 -0.00057474583585967953 -0.0017398189306329008 0 -0.00023023364228874269 -0.0021702040214433261 0 -0.00057474583585967953 -0.0017398189306329008 0 -0.00023023364228874269 -0.0021702040214433261 0 -0.00064312826263074438 -0.0022345563189103538 0 -0.00064312826263074438 -0.0022345563189103538 0 -0.00094815918565860162 -0.0022109052691301014 0 -0.00090820596206902138 -0.0019665959280772767 0 -0.00095883608535492465 -0.0024493103372675291 0 -0.00064312826263074438 -0.0022345563189103538 0 -0.00094815918565860162 -0.0022109052691301014 0 -0.00095883608535492465 -0.0024493103372675291 0 -0.00108001301384538 -0.0022933368043149046 0 -0.00094815918565860162 -0.0022109052691301014 0 -0.0011568993470731917 -0.0023886502121567839 0 -0.0012318392642380288 -0.0022640960391369452 0 -0.00108001301384538 -0.0022933368043149046 0 -0.00108001301384538 -0.0022933368043149046 0 -0.0011065069995761987 -0.0021486750895414754 0 -0.00094815918565860162 -0.0022109052691301014 0 -0.0012318392642380288 -0.0022640960391369452 0 -0.00108001301384538 -0.0022933368043149046 0 -0.0011065069995761987 -0.0021486750895414754 0 -0.0011065069995761987 -0.0021486750895414754 0 -0.00094815918565860162 -0.0022109052691301014 0 -0.00090820596206902138 -0.0019665959280772767 0 -0.0011065069995761987 -0.0021486750895414754 0 -0.0011355698246899326 -0.001889646680607849 0 -0.00090820596206902138 -0.0019665959280772767 0 -0.00098330770738703946 -0.0016679310121165557 0 -0.0011355698246899326 -0.001889646680607849 0 -0.00090820596206902138 -0.0019665959280772767 0 -0.00057474583585967953 -0.0017398189306329008 0 -0.00064312826263074438 -0.0022345563189103538 0 -0.00090820596206902138 -0.0019665959280772767 0 0.0043575009987178587 -0.001484797789262091 0 0.0049818962965825619 -0.0018554570604127907 0 0.0045490995012539967 -0.0024378153071121732 0 0.0043575009987178587 -0.001484797789262091 0 0.0045490995012539967 -0.0024378153071121732 0 0.0036762904541970797 -0.0019907299016423663 0 0.0043575009987178587 -0.001484797789262091 0 0.0036762904541970797 -0.0019907299016423663 0 0.0036451899713012548 -0.00095853608105941001 0 0.0043575009987178587 -0.001484797789262091 0 0.0049288522523251669 -0.0012404215546589921 0 0.00464242801972277 -0.00074534935506047947 0 0.0043575009987178587 -0.001484797789262091 0 0.0049288522523251669 -0.0012404215546589921 0 0.0049818962965825619 -0.0018554570604127907 0 0.0054746170770220495 -0.0014346846937062095 0 0.0056869474314239334 -0.00083539462421031272 0 0.006281949189700169 -0.0026462001082327271 0 0.0049288522523251669 -0.0012404215546589921 0 0.0054746170770220495 -0.0014346846937062095 0 0.0052570179924629487 -0.00090655365682093341 0 0.0049288522523251669 -0.0012404215546589921 0 0.0054746170770220495 -0.0014346846937062095 0 0.0049818962965825619 -0.0018554570604127907 0 0.0054746170770220495 -0.0014346846937062095 0 0.005524834042586693 -0.0020258736353936878 0 0.006281949189700169 -0.0026462001082327271 0 0.0054746170770220495 -0.0014346846937062095 0 0.0056869474314239334 -0.00083539462421031272 0 0.0052570179924629487 -0.00090655365682093341 0 0.005524834042586693 -0.0020258736353936878 0 0.0049818962965825619 -0.0018554570604127907 0 0.0052274349817392389 -0.002359214940626781 0 0.0054746170770220495 -0.0014346846937062095 0 0.005524834042586693 -0.0020258736353936878 0 0.0049818962965825619 -0.0018554570604127907 0 0.0052274349817392389 -0.002359214940626781 0 0.0052592451436358767 -0.0029351310543908808 0 0.0045490995012539967 -0.0024378153071121732 0 0.0052274349817392389 -0.002359214940626781 0 0.0056453508095060945 -0.0026629629626517492 0 0.0052592451436358767 -0.0029351310543908808 0 0.0049818962965825619 -0.0018554570604127907 0 0.0052274349817392389 -0.002359214940626781 0 0.0045490995012539967 -0.0024378153071121732 0 0.005524834042586693 -0.0020258736353936878 0 0.0056453508095060945 -0.0026629629626517492 0 0.006281949189700169 -0.0026462001082327271 0 0.005524834042586693 -0.0020258736353936878 0 0.0052274349817392389 -0.002359214940626781 0 0.0056453508095060945 -0.0026629629626517492 0 0.0056453508095060945 -0.0026629629626517492 0 0.006281949189700169 -0.0026462001082327271 0 0.0059374999382154677 -0.0033173642118760793 0 0.0056453508095060945 -0.0026629629626517492 0 0.0052592451436358767 -0.0029351310543908808 0 0.0059374999382154677 -0.0033173642118760793 0 0.0045490995012539967 -0.0024378153071121732 0 0.0038374426155439621 -0.0031396852858347275 0 0.0036762904541970797 -0.0019907299016423663 0 0.0045490995012539967 -0.0024378153071121732 0 0.0038374426155439621 -0.0031396852858347275 0 0.0046971694770788263 -0.0035205064648229458 0 0.0052592451436358767 -0.0029351310543908808 0 0.0045490995012539967 -0.0024378153071121732 0 0.0046971694770788263 -0.0035205064648229458 0 0.0038374426155439621 -0.0031396852858347275 0 0.0027380267592197836 -0.0025887709520625211 0 0.0029021314155087551 -0.0042200725878974287 0 0.0038374426155439621 -0.0031396852858347275 0 0.0027380267592197836 -0.0025887709520625211 0 0.0036762904541970797 -0.0019907299016423663 0 0.0016170177122816385 -0.0021990588208695722 0 0.0027380267592197836 -0.0025887709520625211 0 0.002001637393683202 -0.0034721727306362229 0 0.0016170177122816385 -0.0021990588208695722 0 0.0027380267592197836 -0.0025887709520625211 0 0.0020788114215474409 -0.0013867505527432216 0 0.0027380267592197836 -0.0025887709520625211 0 0.0020788114215474409 -0.0013867505527432216 0 0.0029619025748466718 -0.0014159107396559587 0 0.0027380267592197836 -0.0025887709520625211 0 0.0036762904541970797 -0.0019907299016423663 0 0.0029619025748466718 -0.0014159107396559587 0 0.0036762904541970797 -0.0019907299016423663 0 0.0029619025748466718 -0.0014159107396559587 0 0.0036451899713012548 -0.00095853608105941001 0 0.0036451899713012548 -0.00095853608105941001 0 0.0026703530836522374 -0.00016004787361932756 0 0.0040231965944417169 -6.2541753418782125e-05 0 0.0029619025748466718 -0.0014159107396559587 0 0.0036451899713012548 -0.00095853608105941001 0 0.0026703530836522374 -0.00016004787361932756 0 0.001283230662836929 -0.00066945458235295491 0 0.0020788114215474409 -0.0013867505527432216 0 0.0026703530836522374 -0.00016004787361932756 0 0.0020788114215474409 -0.0013867505527432216 0 0.0029619025748466718 -0.0014159107396559587 0 0.0026703530836522374 -0.00016004787361932756 0 0.0026703530836522374 -0.00016004787361932756 0 0.0036048569198729695 0.00080508648982407897 0 0.0040231965944417169 -6.2541753418782125e-05 0 0.0026703530836522374 -0.00016004787361932756 0 0.0036048569198729695 0.00080508648982407897 0 0.0027410228913770191 0.0018710336596747263 0 0.0036048569198729695 0.00080508648982407897 0 0.0045864949390124199 0.00073166546901594722 0 0.0040231965944417169 -6.2541753418782125e-05 0 0.0045864949390124199 0.00073166546901594722 0 0.0040231965944417169 -6.2541753418782125e-05 0 0.0049431733744202027 -2.7377734266310073e-05 0 0.0036451899713012548 -0.00095853608105941001 0 0.0040231965944417169 -6.2541753418782125e-05 0 0.00464242801972277 -0.00074534935506047947 0 0.0040231965944417169 -6.2541753418782125e-05 0 0.00464242801972277 -0.00074534935506047947 0 0.0049431733744202027 -2.7377734266310073e-05 0 0.0043575009987178587 -0.001484797789262091 0 0.0036451899713012548 -0.00095853608105941001 0 0.00464242801972277 -0.00074534935506047947 0 0.0055093150749774868 6.8015353740255675e-06 0 0.0055195007614942618 0.0003396860859693142 0 0.005945326466575915 -0.00098305387643894898 0 0.0056869474314239334 -0.00083539462421031272 0 0.0055093150749774868 6.8015353740255675e-06 0 0.0057770609886553439 -0.00085182675711024133 0 0.0031275779264812922 0.0052288645969912331 0 0.0039991349061241502 0.0052029329320150974 0 0.0056869474314239334 -0.00083539462421031272 0 0.0052089870231275363 -0.00050670823052833332 0 0.0055093150749774868 6.8015353740255675e-06 0 0.0049288522523251669 -0.0012404215546589921 0 0.00464242801972277 -0.00074534935506047947 0 0.0052570179924629487 -0.00090655365682093341 0 0.0056869474314239334 -0.00083539462421031272 0 0.0052570179924629487 -0.00090655365682093341 0 0.0052089870231275363 -0.00050670823052833332 0 0.00464242801972277 -0.00074534935506047947 0 0.0052570179924629487 -0.00090655365682093341 0 0.0052089870231275363 -0.00050670823052833332 0 0.0052089870231275363 -0.00050670823052833332 0 0.0055093150749774868 6.8015353740255675e-06 0 0.0049431733744202027 -2.7377734266310073e-05 0 0.00464242801972277 -0.00074534935506047947 0 0.0052089870231275363 -0.00050670823052833332 0 0.0049431733744202027 -2.7377734266310073e-05 0 0.0040884245175649104 0.00093498047424368943 0 0.0031275779264812922 0.0052288645969912331 0 0.0055093150749774868 6.8015353740255675e-06 0 0.0049431733744202027 -2.7377734266310073e-05 0 0.0054950258188882824 0.0004932888494982488 0 0.0045864949390124199 0.00073166546901594722 0 0.0049431733744202027 -2.7377734266310073e-05 0 0.0054950258188882824 0.0004932888494982488 0 0.0031275779264812922 0.0052288645969912331 0 0.0013996638351382029 0.0096447021626864648 0 0.0045864949390124199 0.00073166546901594722 0 0.0054950258188882824 0.0004932888494982488 0 0.0050138914477196464 0.0016304662918262681 0 0.0028689523307322204 0.0055956629880934009 0 0.0028423121660452575 0.0063130915231462241 0 0.0026157936813690492 0.006191098196934643 0 0.0031275779264812922 0.0052288645969912331 0 0.0039788282082170497 0.0035486476780014135 0 9.263260908537555e-05 0.011463451320119358 0 0.00015548136100377818 0.011471410170935338 0 5.7249725883364742e-05 0.01151109151504166 0 0.0045864949390124199 0.00073166546901594722 0 0.0050138914477196464 0.0016304662918262681 0 0.0040941219754267334 0.001561035447889836 0 0.0050138914477196464 0.0016304662918262681 0 0.0040941219754267334 0.001561035447889836 0 0.0045106789880870963 0.0027766467740615096 0 0.0036048569198729695 0.00080508648982407897 0 0.0045864949390124199 0.00073166546901594722 0 0.0040941219754267334 0.001561035447889836 0 0.0039788282082170497 0.0035486476780014135 0 0.003307884024542278 0.004563520991032086 0 0.0013996638351382029 0.0096447021626864648 0 0.0015245700086484663 0.0084210701614509595 0 0.00015548136100377818 0.011471410170935338 0 0.00023366544358607454 0.011342329139461826 0 0.00013814807948852158 0.011371825810455196 0 0.0028423121660452575 0.0063130915231462241 0 0.0023630147965879814 0.006768485700143153 0 0.002808891717112762 0.0070081590665600586 0 0.003307884024542278 0.004563520991032086 0 0.0015245700086484663 0.0084210701614509595 0 0.0028423121660452575 0.0063130915231462241 0 0.0026157936813690492 0.006191098196934643 0 0.0023630147965879814 0.006768485700143153 0 0.00084821148571224633 0.00087821558483743207 0 0.0026703530836522374 -0.00016004787361932756 0 0.0027410228913770191 0.0018710336596747263 0 0.0011010118686492615 0.0019253396262591629 0 0.00084821148571224633 0.00087821558483743207 0 0.0023320164256210728 0.0017302887624231907 0 0.00087284559481150975 0.0009957716931416772 0 0.0026804633889391653 0.0015312560242435409 0 0.0036048569198729695 0.00080508648982407897 0 0.0040941219754267334 0.001561035447889836 0 0.0027410228913770191 0.0018710336596747263 0 0.003307884024542278 0.004563520991032086 0 0.0026804633889391653 0.0015312560242435409 0 0.0041865806661391678 0.0026777415365168925 0 0.0023320164256210728 0.0017302887624231907 0 0.0028511297040681566 0.0028801915298686063 0 0.0040941219754267334 0.001561035447889836 0 0.0045106789880870963 0.0027766467740615096 0 0.0027410228913770191 0.0018710336596747263 0 0.0023320164256210728 0.0017302887624231907 0 0.0028511297040681566 0.0028801915298686063 0 0.0017727624301186052 0.0025986293053133274 0 0.0011010118686492615 0.0019253396262591629 0 0.0023320164256210728 0.0017302887624231907 0 0.0017727624301186052 0.0025986293053133274 0 0.0011477424726393172 0.0031625013567246315 0 0.00085967555396448817 0.0026630776816015363 0 0.0017727624301186052 0.0025986293053133274 0 0.00021700778584011552 0.0037895875774042811 0 0.0011477424726393172 0.0031625013567246315 0 0.0021683795442316296 0.0037638317953828915 0 0.0001580305365611554 0.0038927754976003539 0 0.0011120595900191959 0.0040386385947656809 0 0.0011477424726393172 0.0031625013567246315 0 0.0017727624301186052 0.0025986293053133274 0 0.0021683795442316296 0.0037638317953828915 0 0.0028511297040681566 0.0028801915298686063 0 0.0017727624301186052 0.0025986293053133274 0 0.0021683795442316296 0.0037638317953828915 0 0.0028511297040681566 0.0028801915298686063 0 0.0021683795442316296 0.0037638317953828915 0 0.0036912406743011962 0.0037771533642146035 0 0.0011120595900191959 0.0040386385947656809 0 0.0015710235968896776 0.0055223674970078865 0 -5.4016756865952443e-07 0.0061606177675919147 0 0.0015710235968896776 0.0055223674970078865 0 -0.00017894984796139931 0.004572377605651109 0 1.5085979767218479e-06 0.0061569269857004267 0 0.00081551722786995986 0.0048075239649801576 0 -0.00017894984796139931 0.004572377605651109 0 1.5085979767218479e-06 0.0061569269857004267 0 -9.4437341331467213e-07 0.0044922602614990747 0 7.6956436498958042e-06 0.0041064423856249201 0 -0.00017894984796139931 0.004572377605651109 0 -9.4437341331467213e-07 0.0044922602614990747 0 0.0019749868001291337 0.0065386823791069096 0 0.001979337336474088 0.0065125887678855248 0 0.001928450342136473 0.0065245235857123527 0 0.00088106720045925849 0.0089642134437923366 0 0.00087689247634531757 0.009091451748544992 0 0.00060461211262610888 0.0089707755717172814 0 0.00076548261186104973 0.0081236753270383724 0 0.0015245700086484663 0.0084210701614509595 0 0.0019506948492236382 0.0064842422743122607 0 0.001979337336474088 0.0065125887678855248 0 0.001928450342136473 0.0065245235857123527 0 0.00076548261186104973 0.0081236753270383724 0 0.0015710235968896776 0.0055223674970078865 0 0.0041865806661391678 0.0026777415365168925 0 0.0028511297040681566 0.0028801915298686063 0 0.0036912406743011962 0.0037771533642146035 0 0.003307884024542278 0.004563520991032086 0 0.0015710235968896776 0.0055223674970078865 0 -7.4265784800211411e-10 0.0061643120892403962 0 -0.00014409876689280255 0.0070610114522452602 0 3.3468682868162546e-08 0.0080828054623648202 0 0.0002468166450548244 0.0072813764330924178 0 -0.00014409876689280255 0.0070610114522452602 0 3.3468682868162546e-08 0.0080828054623648202 0 0.00046191935446311504 0.0098145950059980447 0 1.4168664168173255e-06 0.0080903347623422356 0 -1.3913315780316291e-05 0.0093393798933881032 0 0.00076548261186104973 0.0081236753270383724 0 1.1267863374874698e-07 0.0080880154800294472 0 -1.5769146532620792e-05 0.010067703999029261 0 -1.3913315780316291e-05 0.0093393798933881032 0 -4.6206699148108491e-07 0.010163502592353754 0 1.4168664168173255e-06 0.0080903347623422356 0 -1.3913315780316291e-05 0.0093393798933881032 0 -4.6206699148108491e-07 0.010163502592353754 0 -1.5769146532620792e-05 0.010067703999029261 0 -0.00013865117403208044 0.010076584901285431 0 8.8321039096009765e-05 0.010557904193228879 0 -1.5769146532620792e-05 0.010067703999029261 0 -1.3913315780316291e-05 0.0093393798933881032 0 -0.00013865117403208044 0.010076584901285431 0 0.00076548261186104973 0.0081236753270383724 0 0.00021561361553038371 0.010249389070979973 0 0.00023366544358607454 0.011342329139461826 0 0.00011824717281514648 0.011182954831545888 0 0.00013814807948852158 0.011371825810455196 0 0.0015245700086484663 0.0084210701614509595 0 0.00021561361553038371 0.010249389070979973 0 0.00046191935446311504 0.0098145950059980447 0 -1.3913315780316291e-05 0.0093393798933881032 0 -0.00013865117403208044 0.010076584901285431 0 0.00021561361553038371 0.010249389070979973 0 0.00019597381425916005 0.010365994317771196 0 0.00011824717281514648 0.011182954831545888 0 5.1912258412382503e-05 0.011306167457410997 0 0.00013814807948852158 0.011371825810455196 0 5.1912258412382503e-05 0.011306167457410997 0 0.00013814807948852158 0.011371825810455196 0 7.5803249076447224e-06 0.011467170765881992 0 -9.6624195942089677e-05 0.011482932708757779 0 -5.7099427451882019e-05 0.011335727308482394 0 -0.00014916574647268622 0.011315542425121521 0 -9.6624195942089677e-05 0.011482932708757779 0 -5.7099427451882019e-05 0.011335727308482394 0 7.5803249076447224e-06 0.011467170765881992 0 5.1912258412382503e-05 0.011306167457410997 0 -5.7099427451882019e-05 0.011335727308482394 0 7.5803249076447224e-06 0.011467170765881992 0 5.1912258412382503e-05 0.011306167457410997 0 -5.7099427451882019e-05 0.011335727308482394 0 -4.1499616930817972e-05 0.011025656679804405 0 0.00082886084786709462 0.010917290164082574 0 8.8321039096009765e-05 0.010557904193228879 0 -4.1499616930817972e-05 0.011025656679804405 0 0.00021561361553038371 0.010249389070979973 0 9.6416615271375548e-05 0.010657332798241239 0 0.00011824717281514648 0.011182954831545888 0 5.1912258412382503e-05 0.011306167457410997 0 -4.1499616930817972e-05 0.011025656679804405 0 8.8321039096009765e-05 0.010557904193228879 0 -4.1499616930817972e-05 0.011025656679804405 0 -8.6010530401735849e-05 0.01085584313292696 0 -5.7099427451882019e-05 0.011335727308482394 0 -4.1499616930817972e-05 0.011025656679804405 0 -0.00014916574647268622 0.011315542425121521 0 -4.1499616930817972e-05 0.011025656679804405 0 -0.00014916574647268622 0.011315542425121521 0 -8.6010530401735849e-05 0.01085584313292696 0 -0.00014916574647268622 0.011315542425121521 0 -0.00011325772864394157 0.011070148068776186 0 -8.6010530401735849e-05 0.01085584313292696 0 -0.00011325772864394157 0.011070148068776186 0 -8.6010530401735849e-05 0.01085584313292696 0 -1.2627799725439826e-05 0.010441247293021637 0 8.8321039096009765e-05 0.010557904193228879 0 -8.6010530401735849e-05 0.01085584313292696 0 -1.2627799725439826e-05 0.010441247293021637 0 -1.5769146532620792e-05 0.010067703999029261 0 8.8321039096009765e-05 0.010557904193228879 0 -1.2627799725439826e-05 0.010441247293021637 0 -1.5769146532620792e-05 0.010067703999029261 0 -1.2627799725439826e-05 0.010441247293021637 0 -4.6206699148108491e-07 0.010163502592353754 0 -0.00011325772864394157 0.011070148068776186 0 -1.2627799725439826e-05 0.010441247293021637 0 -4.6206699148108491e-07 0.010163502592353754 0 -0.00011325772864394157 0.011070148068776186 0 -4.6206699148108491e-07 0.010163502592353754 0 -9.5747570498521123e-07 0.01224091711830822 0 -0.00011325772864394157 0.011070148068776186 0 -9.5747570498521123e-07 0.01224091711830822 0 -0.00015473669386656676 0.01162150212043803 0 -0.00014916574647268622 0.011315542425121521 0 -0.00011325772864394157 0.011070148068776186 0 -0.00015473669386656676 0.01162150212043803 0 -9.5747570498521123e-07 0.01224091711830822 0 -0.00012710648408488441 0.012070285416934638 0 -0.00015473669386656676 0.01162150212043803 0 -9.5747570498521123e-07 0.01224091711830822 0 -0.00012710648408488441 0.012070285416934638 0 -6.7882237614164223e-05 0.012679511862810187 0 -0.00012710648408488441 0.012070285416934638 0 -0.00014434192946181706 0.011676977330321591 0 -2.7939723227599849e-05 0.011866457035982712 0 -0.00012710648408488441 0.012070285416934638 0 -2.7939723227599849e-05 0.011866457035982712 0 0.0001079550393923764 0.012223523344147877 0 -0.00014916574647268622 0.011315542425121521 0 -0.00015473669386656676 0.01162150212043803 0 -0.00014434192946181706 0.011676977330321591 0 -0.00012710648408488441 0.012070285416934638 0 -0.00015473669386656676 0.01162150212043803 0 -0.00014434192946181706 0.011676977330321591 0 -9.6624195942089677e-05 0.011482932708757779 0 -0.00014916574647268622 0.011315542425121521 0 -0.00014434192946181706 0.011676977330321591 0 -9.6624195942089677e-05 0.011482932708757779 0 -0.00014434192946181706 0.011676977330321591 0 -7.6994808310170182e-05 0.011580617803931945 0 -0.00014434192946181706 0.011676977330321591 0 -5.4254024967256716e-05 0.011645210989055589 0 -7.6994808310170182e-05 0.011580617803931945 0 -0.00014434192946181706 0.011676977330321591 0 -2.7939723227599849e-05 0.011866457035982712 0 -5.4254024967256716e-05 0.011645210989055589 0 -2.7939723227599849e-05 0.011866457035982712 0 2.9588462757679786e-05 0.011713927797714463 0 -5.4254024967256716e-05 0.011645210989055589 0 -2.7939723227599849e-05 0.011866457035982712 0 2.9588462757679786e-05 0.011713927797714463 0 0.00013032437141878822 0.011914266071494727 0 2.9588462757679786e-05 0.011713927797714463 0 0.00019502749447512026 0.011735915414373251 0 7.2653800960613085e-05 0.011588950629604479 0 2.9588462757679786e-05 0.011713927797714463 0 0.00013032437141878822 0.011914266071494727 0 0.00019502749447512026 0.011735915414373251 0 2.9588462757679786e-05 0.011713927797714463 0 -5.4254024967256716e-05 0.011645210989055589 0 -1.4105586399971397e-07 0.011577239578903373 0 -5.4254024967256716e-05 0.011645210989055589 0 -1.4105586399971397e-07 0.011577239578903373 0 -8.4814991086048643e-06 0.011559029557148905 0 2.9588462757679786e-05 0.011713927797714463 0 -1.4105586399971397e-07 0.011577239578903373 0 7.2653800960613085e-05 0.011588950629604479 0 -1.4105586399971397e-07 0.011577239578903373 0 1.632423330606087e-05 0.011540482088047555 0 -8.4814991086048643e-06 0.011559029557148905 0 1.632423330606087e-05 0.011540482088047555 0 -8.4814991086048643e-06 0.011559029557148905 0 5.7249725883364742e-05 0.01151109151504166 0 0.00015548136100377818 0.011471410170935338 0 5.7249725883364742e-05 0.01151109151504166 0 7.5955084133277494e-05 0.011490314676360353 0 -8.4814991086048643e-06 0.011559029557148905 0 5.7249725883364742e-05 0.01151109151504166 0 7.5955084133277494e-05 0.011490314676360353 0 0.00015548136100377818 0.011471410170935338 0 7.5955084133277494e-05 0.011490314676360353 0 0.00013814807948852158 0.011371825810455196 0 7.5955084133277494e-05 0.011490314676360353 0 0.00013814807948852158 0.011371825810455196 0 7.5803249076447224e-06 0.011467170765881992 0 -5.4254024967256716e-05 0.011645210989055589 0 -8.4814991086048643e-06 0.011559029557148905 0 -7.6994808310170182e-05 0.011580617803931945 0 -9.6624195942089677e-05 0.011482932708757779 0 7.5803249076447224e-06 0.011467170765881992 0 -7.6994808310170182e-05 0.011580617803931945 0 -8.4814991086048643e-06 0.011559029557148905 0 7.5803249076447224e-06 0.011467170765881992 0 -7.6994808310170182e-05 0.011580617803931945 0 -8.4814991086048643e-06 0.011559029557148905 0 7.5955084133277494e-05 0.011490314676360353 0 7.5803249076447224e-06 0.011467170765881992 0 -0.00015896729040820089 0.01739490182345859 0 -0.00016691253378030147 0.017495212822532441 0 -0.00016696082122446336 0.017559173054850656 0 -0.00025933550004140625 0.017385363643517473 0 -0.00012316995342388047 0.017423192698195065 0 -0.00015203123776078923 0.01742277290358793 0 -0.00016679391192475607 0.017487022098439844 0 -0.00016691253378030147 0.017495212822532441 0 -0.00015896729040820089 0.01739490182345859 0 1.8334720835626704e-05 0.017206636016084107 0 -0.00016691253378030147 0.017495212822532441 0 -0.00015896729040820089 0.01739490182345859 0 -5.512038138817032e-05 0.016969643593213481 0 1.8334720835626704e-05 0.017206636016084107 0 -0.00015896729040820089 0.01739490182345859 0 -5.512038138817032e-05 0.016969643593213481 0 -0.00013818930179031863 0.01756227970505422 0 -8.9788223843281008e-07 0.016571987200947956 0 -5.512038138817032e-05 0.016969643593213481 0 -0.00013818930179031863 0.01756227970505422 0 -5.512038138817032e-05 0.016969643593213481 0 1.8334720835626704e-05 0.017206636016084107 0 0.00013129951369204398 0.016144629933530701 0 -8.9788223843281008e-07 0.016571987200947956 0 -5.512038138817032e-05 0.016969643593213481 0 0.00013129951369204398 0.016144629933530701 0 -8.9788223843281008e-07 0.016571987200947956 0 0.00013129951369204398 0.016144629933530701 0 1.3937002697257032e-06 0.01461378800801242 0 0.00039839434689415879 0.015002540184947743 0 0.00023733227895719863 0.015387985263688175 0 0.0010672505082897519 0.012342071785849557 0 0.00094388752486081607 0.013073445302704764 0 0.00063207451869986934 0.012282759182391464 0 -0.00025933550004140625 0.017385363643517473 0 0.00023733227895719863 0.015387985263688175 0 -0.00015203123776078923 0.01742277290358793 0 -0.00016679391192475607 0.017487022098439844 0 -2.6153497165177606e-05 0.017302274767014438 0 0.00030355548870800826 0.012730695349142361 0 0.0001079550393923764 0.012223523344147877 0 0.00063207451869986934 0.012282759182391464 0 0.00030355548870800826 0.012730695349142361 0 0.00094388752486081607 0.013073445302704764 0 0.00063207451869986934 0.012282759182391464 0 0.00030355548870800826 0.012730695349142361 0 0.00094388752486081607 0.013073445302704764 0 1.6151329275009468e-06 0.014312870750607795 0 0.00023733227895719863 0.015387985263688175 0 5.9582660623772565e-07 0.014316254223031115 0 0.00023733227895719863 0.015387985263688175 0 -5.8811390820537196e-08 0.014612450647023469 0 3.7689129977140137e-06 0.015290008604414297 0 -1.1253034469335838e-08 0.014318974179717281 0 1.3336288359566082e-08 0.014609288092563842 0 0.00030355548870800826 0.012730695349142361 0 1.6151329275009468e-06 0.014312870750607795 0 -6.7882237614164223e-05 0.012679511862810187 0 -9.5747570498521123e-07 0.01224091711830822 0 1.6151329275009468e-06 0.014312870750607795 0 -6.7882237614164223e-05 0.012679511862810187 0 -0.00012710648408488441 0.012070285416934638 0 -6.7882237614164223e-05 0.012679511862810187 0 0.0001079550393923764 0.012223523344147877 0 0.00030355548870800826 0.012730695349142361 0 -6.7882237614164223e-05 0.012679511862810187 0 0.0001079550393923764 0.012223523344147877 0 -2.7939723227599849e-05 0.011866457035982712 0 0.0001079550393923764 0.012223523344147877 0 0.00013032437141878822 0.011914266071494727 0 0.0001079550393923764 0.012223523344147877 0 0.00037470083899443447 0.011962672942097513 0 0.00013032437141878822 0.011914266071494727 0 0.00037470083899443447 0.011962672942097513 0 0.00019502749447512026 0.011735915414373251 0 0.00042273891122604615 0.011684922937700584 0 0.00037470083899443447 0.011962672942097513 0 0.00013032437141878822 0.011914266071494727 0 0.00019502749447512026 0.011735915414373251 0 0.00037470083899443447 0.011962672942097513 0 0.00042273891122604615 0.011684922937700584 0 0.00060251497140382951 0.011966109252921022 0 0.00042273891122604615 0.011684922937700584 0 0.00060251497140382951 0.011966109252921022 0 0.00070661883057601964 0.011768139606431307 0 0.00060251497140382951 0.011966109252921022 0 0.00063207451869986934 0.012282759182391464 0 0.00086289074179034698 0.012133507151438232 0 0.00037470083899443447 0.011962672942097513 0 0.00060251497140382951 0.011966109252921022 0 0.00063207451869986934 0.012282759182391464 0 0.0001079550393923764 0.012223523344147877 0 0.00037470083899443447 0.011962672942097513 0 0.00063207451869986934 0.012282759182391464 0 0.0010672505082897519 0.012342071785849557 0 0.00063207451869986934 0.012282759182391464 0 0.00086289074179034698 0.012133507151438232 0 0.0010672505082897519 0.012342071785849557 0 0.00092627707346707106 0.012249908817397712 0 0.00086289074179034698 0.012133507151438232 0 0.00060251497140382951 0.011966109252921022 0 0.00086289074179034698 0.012133507151438232 0 0.00070661883057601964 0.011768139606431307 0 0.00086289074179034698 0.012133507151438232 0 0.00070661883057601964 0.011768139606431307 0 0.00095794876112167092 0.011843352722503399 0 0.00099132302686348139 0.012488330301067462 0 0.00099177739715267804 0.012495405975571769 0 0.00086289074179034698 0.012133507151438232 0 0.0009984944283523132 0.012417955294345737 0 0.0010211118303641051 0.012451925427092713 0 0.00094875933123212211 0.012141132292007676 0 0.00099177739715267804 0.012495405975571769 0 0.00092627707346707106 0.012249908817397712 0 0.00086289074179034698 0.012133507151438232 0 0.0009984944283523132 0.012417955294345737 0 0.0009984944283523132 0.012417955294345737 0 0.0008535882474707357 0.012314892585756894 0 0.0007877369418057646 0.012536827796086345 0 0.00092627707346707106 0.012249908817397712 0 0.0009984944283523132 0.012417955294345737 0 0.0008535882474707357 0.012314892585756894 0 0.0009984944283523132 0.012417955294345737 0 0.0010210330318459284 0.012480831539213441 0 0.0007877369418057646 0.012536827796086345 0 0.0010210330318459284 0.012480831539213441 0 0.0007877369418057646 0.012536827796086345 0 0.00087232344587659318 0.012952270899702125 0 0.0008535882474707357 0.012314892585756894 0 0.0007877369418057646 0.012536827796086345 0 0.00067105501387625002 0.01228228993010925 0 0.0010672505082897519 0.012342071785849557 0 0.0008535882474707357 0.012314892585756894 0 0.00067105501387625002 0.01228228993010925 0 0.0010672505082897519 0.012342071785849557 0 0.00092627707346707106 0.012249908817397712 0 0.0008535882474707357 0.012314892585756894 0 0.00039839434689415879 0.015002540184947743 0 0.0004914313753259143 0.014190018578551424 0 -0.00016679391192475607 0.017487022098439844 0 -0.00018286787630076125 0.017347996195477708 0 -0.00016691253378030147 0.017495212822532441 0 -0.00018286787630076125 0.017347996195477708 0 -0.00016691253378030147 0.017495212822532441 0 -0.00011885183802094542 0.017482289261428769 0 -0.00083130287055615279 0.015929542818602694 0 0.0009889085535748931 0.016370307573768832 0 0.00070219112863462889 0.017660742308150113 0 -0.00083130287055615279 0.015929542818602694 0 0.00046062775716963403 0.01547067454107133 0 0.0009889085535748931 0.016370307573768832 0 -0.00037551226935584063 0.023620915018198869 0 -2.2357246622594345e-05 0.024055995161289284 0 -0.00074113205969658592 0.024236110893302753 0 -0.00022978469695333979 0.019680400423842091 0 0.00046403101431362228 0.021080607985108839 0 -0.00083130287055615279 0.015929542818602694 0 0.00015641727265420315 0.014424566867228702 0 0.00046062775716963403 0.01547067454107133 0 -0.00022978469695333979 0.019680400423842091 0 0.00092801224688847047 0.013258968742202252 0 0.0007877369418057646 0.012536827796086345 0 0.00087232344587659318 0.012952270899702125 0 0.00012511868637891257 0.012827499321205242 0 0.00099177739715267804 0.012495405975571769 0 0.00092801224688847047 0.013258968742202252 0 0.00015641727265420315 0.014424566867228702 0 0.00046062775716963403 0.01547067454107133 0 0.0015307993943522776 0.015153055495969134 0 0.00099177739715267804 0.012495405975571769 0 0.0011993213717313531 0.013462333665343973 0 0.00070661883057601964 0.011768139606431307 0 0.0008196918188577777 0.011531677847096192 0 0.00060363724593238618 0.011603728525492237 0 0.0011595446292209297 0.01292314143118739 0 0.00015641727265420315 0.014424566867228702 0 0.0015307993943522776 0.015153055495969134 0 0.00070661883057601964 0.011768139606431307 0 0.00095794876112167092 0.011843352722503399 0 0.0008196918188577777 0.011531677847096192 0 0.0008196918188577777 0.011531677847096192 0 0.00051517161230228118 0.011466280964404026 0 0.00074471765083409624 0.011290188410219469 0 0.0015307993943522776 0.015153055495969134 0 0.0009889085535748931 0.016370307573768832 0 0.0018790402455066261 0.017350828401746048 0 0.0011993213717313531 0.013462333665343973 0 0.0012322436030884113 0.013571109233356169 0 0.00046062775716963403 0.01547067454107133 0 0.0015307993943522776 0.015153055495969134 0 0.0009889085535748931 0.016370307573768832 0 0.0009889085535748931 0.016370307573768832 0 0.0018790402455066261 0.017350828401746048 0 0.00070219112863462889 0.017660742308150113 0 0.00051517161230228118 0.011466280964404026 0 0.00032036498103438129 0.011308508367956977 0 0.00074471765083409624 0.011290188410219469 0 0.0008196918188577777 0.011531677847096192 0 0.00051517161230228118 0.011466280964404026 0 0.00060363724593238618 0.011603728525492237 0 0.00042273891122604615 0.011684922937700584 0 0.00051517161230228118 0.011466280964404026 0 0.00060363724593238618 0.011603728525492237 0 0.00042273891122604615 0.011684922937700584 0 0.00070661883057601964 0.011768139606431307 0 0.00060363724593238618 0.011603728525492237 0 0.00019502749447512026 0.011735915414373251 0 0.00042273891122604615 0.011684922937700584 0 0.00020224383231339519 0.01150218196981489 0 0.00042273891122604615 0.011684922937700584 0 0.00051517161230228118 0.011466280964404026 0 0.00020224383231339519 0.01150218196981489 0 0.00051517161230228118 0.011466280964404026 0 0.00032036498103438129 0.011308508367956977 0 0.00020224383231339519 0.01150218196981489 0 0.002576849767464254 0.013134856760312879 0 0.0026557836408588123 0.013789528134763876 0 0.0022656929626057019 0.013589325721098482 0 0.002576849767464254 0.013134856760312879 0 0.0026557836408588123 0.013789528134763876 0 0.0030913197275619776 0.013546704222461342 0 0.0026557836408588123 0.013789528134763876 0 0.0022656929626057019 0.013589325721098482 0 0.0021949327488239583 0.014047981186562686 0 0.0022656929626057019 0.013589325721098482 0 0.0018109336236928875 0.013634169310275644 0 0.0021949327488239583 0.014047981186562686 0 0.00082978989532863268 0.02024925826292966 0 0.0012953854871800433 0.018756140368542597 0 0.0022656929626057019 0.013589325721098482 0 0.0017213640370197778 0.013120830593681927 0 0.0018109336236928875 0.013634169310275644 0 0.0014710696721858905 0.011983030694898965 0 0.0012322436030884113 0.013571109233356169 0 0.002576849767464254 0.013134856760312879 0 0.0022656929626057019 0.013589325721098482 0 0.0017213640370197778 0.013120830593681927 0 0.00029169888895067524 0.024465421593894969 0 -0.00017807905642257751 0.024536457855720461 0 -2.2357246622594345e-05 0.024055995161289284 0 0.0012322436030884113 0.013571109233356169 0 0.00082978989532863268 0.02024925826292966 0 0.0018790402455066261 0.017350828401746048 0 0.0022021629310192696 0.019390117775953446 0 0.00070219112863462889 0.017660742308150113 0 0.00082978989532863268 0.02024925826292966 0 0.00046403101431362228 0.021080607985108839 0 0.00029169888895067524 0.024465421593894969 0 -0.00017807905642257751 0.024536457855720461 0 1.7532188543039279e-06 0.024901315161081874 0 -0.00017807905642257751 0.024536457855720461 0 1.7532188543039279e-06 0.024901315161081874 0 -0.00044380271136287527 0.024993955176223302 0 -0.00017807905642257751 0.024536457855720461 0 -2.2357246622594345e-05 0.024055995161289284 0 -0.00074113205969658592 0.024236110893302753 0 5.0336889315163876e-05 0.011444379236999759 0 3.2921637423080375e-05 0.011503168858528876 0 4.6850951777157e-05 0.011498124256640022 0 5.0336889315163876e-05 0.011444379236999759 0 5.8008809728641571e-05 0.011467357690373367 0 3.2921637423080375e-05 0.011503168858528876 0 5.0336889315163876e-05 0.011444379236999759 0 5.8008809728641571e-05 0.011467357690373367 0 6.2658403075261938e-05 0.011411687677022248 0 0.0055093150749774868 6.8015353740255675e-06 0 0.0057770609886553439 -0.00085182675711024133 0 0.005945326466575915 -0.00098305387643894898 0 9.263260908537555e-05 0.011463451320119358 0 5.8008809728641571e-05 0.011467357690373367 0 6.2658403075261938e-05 0.011411687677022248 0 9.263260908537555e-05 0.011463451320119358 0 5.7249725883364742e-05 0.01151109151504166 0 5.8008809728641571e-05 0.011467357690373367 0 5.7249725883364742e-05 0.01151109151504166 0 5.8008809728641571e-05 0.011467357690373367 0 3.2921637423080375e-05 0.011503168858528876 0 1.632423330606087e-05 0.011540482088047555 0 5.7249725883364742e-05 0.01151109151504166 0 3.2921637423080375e-05 0.011503168858528876 0 -1.4105586399971397e-07 0.011577239578903373 0 1.632423330606087e-05 0.011540482088047555 0 3.2921637423080375e-05 0.011503168858528876 0 -1.4105586399971397e-07 0.011577239578903373 0 4.6850951777157e-05 0.011498124256640022 0 7.2653800960613085e-05 0.011588950629604479 0 -1.4105586399971397e-07 0.011577239578903373 0 3.2921637423080375e-05 0.011503168858528876 0 4.6850951777157e-05 0.011498124256640022 0 0.00019502749447512026 0.011735915414373251 0 0.00020224383231339519 0.01150218196981489 0 7.2653800960613085e-05 0.011588950629604479 0 4.6850951777157e-05 0.011498124256640022 0 0.00020224383231339519 0.01150218196981489 0 7.2653800960613085e-05 0.011588950629604479 0 4.6850951777157e-05 0.011498124256640022 0 0.00020224383231339519 0.01150218196981489 0 7.9344101537400468e-05 0.011388962211438272 0 0.00032036498103438129 0.011308508367956977 0 0.00020224383231339519 0.01150218196981489 0 7.9344101537400468e-05 0.011388962211438272 0 5.0336889315163876e-05 0.011444379236999759 0 4.6850951777157e-05 0.011498124256640022 0 7.9344101537400468e-05 0.011388962211438272 0 0.0034300771823108146 0.013144791995947199 0 0.0030913197275619776 0.013546704222461342 0 0.0036422652580502509 0.01362940922722551 0 0.0014710696721858905 0.011983030694898965 0 0.0016526961610680395 0.012599022727594901 0 0.002576849767464254 0.013134856760312879 0 0.0034300771823108146 0.013144791995947199 0 0.0030913197275619776 0.013546704222461342 0 0.0026557836408588123 0.013789528134763876 0 0.0030913197275619776 0.013546704222461342 0 0.0031241071224248143 0.014053795413829258 0 0.0052689416910573945 0.0094958781464286185 0 0.0041794089832055386 0.011297289222411053 0 0.0030913197275619776 0.013546704222461342 0 0.0036422652580502509 0.01362940922722551 0 0.0031241071224248143 0.014053795413829258 0 0.0056549174491923922 0.0061596421635168588 0 0.0044824467347307842 0.0062838014108816207 0 0.0049152867396065067 0.0053237645425082492 0 0.0056549174491923922 0.0061596421635168588 0 0.0043520220365503249 0.0070396110485533379 0 0.0044824467347307842 0.0062838014108816207 0 0.0052810848594585669 0.0022854903129330951 0 0.0064750144588062407 0.0042660129759588524 0 0.0052689416910573945 0.0094958781464286185 0 0.0064750144588062407 0.0042660129759588524 0 0.0016526961610680395 0.012599022727594901 0 0.0026912286194124709 0.010151068140553223 0 0.0052689416910573945 0.0094958781464286185 0 0.0026912286194124709 0.010151068140553223 0 5.0336889315163876e-05 0.011444379236999759 0 7.9344101537400468e-05 0.011388962211438272 0 5.9436426297299e-05 0.011416375343391993 0 0.0034300771823108146 0.013144791995947199 0 0.0036422652580502509 0.01362940922722551 0 0.004244900086793779 0.013148876231267809 0 0.0057770609886553439 -0.00085182675711024133 0 0.0057483682287132421 -0.0008187026724101699 0 0.0058261423588304682 -0.00062746625839740094 0 0.0057170304655971014 -0.00081016137928276145 0 0.0060336844269321043 -0.0017777419121400154 0 0.0040536297852003843 0.0072448689054934153 0 0.0043520220365503249 0.0070396110485533379 0 0.0044824467347307842 0.0062838014108816207 0 0.0056869474314239334 -0.00083539462421031272 0 0.0057770609886553439 -0.00085182675711024133 0 0.0058261423588304682 -0.00062746625839740094 0 0.0057483682287132421 -0.0008187026724101699 0 0.0056799148388817222 -0.00064289241397799972 0 0.0058261423588304682 -0.00062746625839740094 0 0.0039991349061241502 0.0052029329320150974 0 0.0052810848594585669 0.0022854903129330951 0 0.0059634177012795522 0.0027939097151018135 0 0.0039991349061241502 0.0052029329320150974 0 5.0336889315163876e-05 0.011444379236999759 0 6.2658403075261938e-05 0.011411687677022248 0 5.9436426297299e-05 0.011416375343391993 0 0.0039991349061241502 0.0052029329320150974 0 0.0026912286194124709 0.010151068140553223 0 0.0056799148388817222 -0.00064289241397799972 0 0.0058261423588304682 -0.00062746625839740094 0 0.0055343898544716304 -0.00031664479936664448 0 0.0058261423588304682 -0.00062746625839740094 0 0.0057158935410876214 -0.00012706358622766663 0 0.0055343898544716304 -0.00031664479936664448 0 0.0060336844269321043 -0.0017777419121400154 0 0.0064326962934901913 -0.0014306248132333953 0 0.006281949189700169 -0.0026462001082327271 0 0.006738691189139649 -0.0042689304236422521 0 0.0059374999382154677 -0.0033173642118760793 0 0.006738691189139649 -0.0042689304236422521 0 0.0059374999382154677 -0.0033173642118760793 0 0.0058712063456445368 -0.0041298192909532067 0 0.006738691189139649 -0.0042689304236422521 0 0.0058712063456445368 -0.0041298192909532067 0 0.0057287767479980876 -0.0053588758119413205 0 0.0064326962934901913 -0.0014306248132333953 0 0.0081686375384764399 -0.0021094075130688671 0 0.0064326962934901913 -0.0014306248132333953 0 0.0059134917213033451 -0.0036812346102768245 0 0.0073219794226439348 -0.00043024984801477863 0 0.0080644596204165597 -0.0027421682297750958 0 0.0059965838409461536 -0.0018663087816532305 0 0.0071079561130572158 0.00020653873562554031 0 0.009248724449552638 -0.0012246054726079291 0 0.0080644596204165597 -0.0027421682297750958 0 0.0086302076838500556 0.0035135038761390089 0 0.0064750144588062407 0.0042660129759588524 0 0.0071079561130572158 0.00020653873562554031 0 0.009248724449552638 -0.0012246054726079291 0 0.0081257546562734373 0.0013457425688319894 0 0.0066223222878235601 0.010704135964309337 0 0.0073395303121241082 0.0090470395185514828 0 0.0061771223373754064 0.0093973718839484074 0 0.0063922662040730724 0.0080545838934719966 0 0.0073395303121241082 0.0090470395185514828 0 0.0061771223373754064 0.0093973718839484074 0 0.0064326962934901913 -0.0014306248132333953 0 0.0064750144588062407 0.0042660129759588524 0 0.0063922662040730724 0.0080545838934719966 0 0.0061771223373754064 0.0093973718839484074 0 0.0050620203708673156 0.0090204438645702222 0 0.0061771223373754064 0.0093973718839484074 0 0.0050620203708673156 0.0090204438645702222 0 0.0053663724920384008 0.010108671202617787 0 0.0050620203708673156 0.0090204438645702222 0 0.0053663724920384008 0.010108671202617787 0 0.00372261053013192 0.010005258323705751 0 0.0041794089832055386 0.011297289222411053 0 0.0030740365012483055 0.015696652962195006 0 0.0053663724920384008 0.010108671202617787 0 0.0048110470107535835 0.01119208465177554 0 0.00372261053013192 0.010005258323705751 0 0.0066223222878235601 0.010704135964309337 0 0.0053663724920384008 0.010108671202617787 0 0.0048110470107535835 0.01119208465177554 0 0.0066223222878235601 0.010704135964309337 0 0.0061771223373754064 0.0093973718839484074 0 0.0053663724920384008 0.010108671202617787 0 0.0086302076838500556 0.0035135038761390089 0 0.005243529849800946 0.010968330416152481 0 0.009248724449552638 -0.0012246054726079291 0 0.010144123387405888 -0.0036196761580947496 0 0.009117512337751205 -0.0038796311911841958 0 0.0066223222878235601 0.010704135964309337 0 0.0048110470107535835 0.01119208465177554 0 0.0058848957796411496 0.012369838322680531 0 0.0016298681445736888 0.025034927286496013 0 0.0020723497151754603 0.025546453144005429 0 0.0013468990919803957 0.0256005761958354 0 0.0016298681445736888 0.025034927286496013 0 0.0011800341429831327 0.024914253397129136 0 0.0013468990919803957 0.0256005761958354 0 0.0035263763394291219 0.019368132370294496 0 0.005243529849800946 0.010968330416152481 0 0.0013468990919803957 0.0256005761958354 0 0.00096619328560986644 0.026245885359214523 0 0.0017343184939071154 0.026211572484841832 0 0.0020723497151754603 0.025546453144005429 0 0.0013468990919803957 0.0256005761958354 0 0.0017343184939071154 0.026211572484841832 0 0.005243529849800946 0.010968330416152481 0 0.001130562270194264 0.020319996985320256 0 0.0028187265318036026 0.0092708469851321054 0 0.00429266516462673 0.010919605697115833 0 0.0016766820708004311 0.011808915933111725 0 0.010144123387405888 -0.0036196761580947496 0 0.0093017206846677594 -0.0042865999875126978 0 0.009117512337751205 -0.0038796311911841958 0 0.010144123387405888 -0.0036196761580947496 0 0.0093017206846677594 -0.0042865999875126978 0 0.009154327444360788 -0.0046317985801537205 0 0.005243529849800946 0.010968330416152481 0 0.0062801283190942886 0.0026537688083927554 0 0.0090258671911481354 -0.0039469245333841876 0 0.0075627288403871716 -0.0043481801165967922 0 0.0093017206846677594 -0.0042865999875126978 0 0.009117512337751205 -0.0038796311911841958 0 0.0085348608983162946 -0.0045506781391200513 0 0.009117512337751205 -0.0038796311911841958 0 0.0085348608983162946 -0.0045506781391200513 0 0.0079648006969716568 -0.0045690297154927775 0 0.009117512337751205 -0.0038796311911841958 0 0.0070572169734263047 -0.0041548696324577011 0 0.0080644596204165597 -0.0027421682297750958 0 0.0085348608983162946 -0.0045506781391200513 0 0.0079648006969716568 -0.0045690297154927775 0 0.0077668483423536973 -0.0054414084485214682 0 0.0070572169734263047 -0.0041548696324577011 0 0.006769861832452471 -0.0030351794849385223 0 0.0059732794623302927 -0.0033951684356198389 0 0.0070572169734263047 -0.0041548696324577011 0 0.006769861832452471 -0.0030351794849385223 0 0.0080644596204165597 -0.0027421682297750958 0 0.006769861832452471 -0.0030351794849385223 0 0.0080644596204165597 -0.0027421682297750958 0 0.0059965838409461536 -0.0018663087816532305 0 0.009248724449552638 -0.0012246054726079291 0 0.009117512337751205 -0.0038796311911841958 0 0.0080644596204165597 -0.0027421682297750958 0 -5.8359515089365673e-05 0.025343821916084586 0 -0.00044380271136287527 0.024993955176223302 0 -0.00047349408743656599 0.025682651098283951 0 -5.8359515089365673e-05 0.025343821916084586 0 1.7532188543039279e-06 0.024901315161081874 0 -0.00044380271136287527 0.024993955176223302 0 -5.8359515089365673e-05 0.025343821916084586 0 1.7532188543039279e-06 0.024901315161081874 0 0.00033240319091300393 0.025140400445005928 0 0.00029169888895067524 0.024465421593894969 0 1.7532188543039279e-06 0.024901315161081874 0 0.00033240319091300393 0.025140400445005928 0 0.00082978989532863268 0.02024925826292966 0 0.00011025606784380522 0.025309816225834149 0 -5.8359515089365673e-05 0.025343821916084586 0 0.00033240319091300393 0.025140400445005928 0 0.00042228487651151651 0.025526150105415816 0 0.0006378156318855953 0.024811973738247489 0 -2.8483568814675403e-05 0.024061758311794045 0 0.00042228487651151651 0.025526150105415816 0 0.00011025606784380522 0.025309816225834149 0 0.00038380268395151129 0.025174181141624938 0 0.0006378156318855953 0.024811973738247489 0 0.00077197407662980778 0.024448444829477209 0 -2.8483568814675403e-05 0.024061758311794045 0 0.00077197407662980778 0.024448444829477209 0 -2.8483568814675403e-05 0.024061758311794045 0 0.00072828619666092742 0.024065625374061265 0 -0.00033344307979812145 0.022301819193943043 0 -2.8483568814675403e-05 0.024061758311794045 0 0.00050836537359909956 0.02330147276718306 0 -2.8483568814675403e-05 0.024061758311794045 0 0.00050836537359909956 0.02330147276718306 0 0.00072828619666092742 0.024065625374061265 0 0.00050836537359909956 0.02330147276718306 0 0.00072828619666092742 0.024065625374061265 0 0.0011667167003709743 0.024266727291101516 0 0.0012953854871800433 0.018756140368542597 0 0.0030740365012483055 0.015696652962195006 0 0.0026557836408588123 0.013789528134763876 0 0.0021949327488239583 0.014047981186562686 0 0.0025840156952714691 0.014470038031456233 0 0.0026557836408588123 0.013789528134763876 0 0.0031241071224248143 0.014053795413829258 0 0.0025840156952714691 0.014470038031456233 0 0.0035263763394291219 0.019368132370294496 0 0.0030740365012483055 0.015696652962195006 0 0.0016298681445736888 0.025034927286496013 0 0.0011667167003709743 0.024266727291101516 0 0.0011800341429831327 0.024914253397129136 0 0.00077197407662980778 0.024448444829477209 0 0.0011667167003709743 0.024266727291101516 0 0.0011800341429831327 0.024914253397129136 0 0.00077197407662980778 0.024448444829477209 0 0.00072828619666092742 0.024065625374061265 0 0.0011667167003709743 0.024266727291101516 0 0.0006378156318855953 0.024811973738247489 0 0.00077197407662980778 0.024448444829477209 0 0.0011800341429831327 0.024914253397129136 0 0.0011800341429831327 0.024914253397129136 0 0.0013468990919803957 0.0256005761958354 0 0.00042228487651151651 0.025526150105415816 0 0.0013468990919803957 0.0256005761958354 0 0.00042228487651151651 0.025526150105415816 0 0.00096619328560986644 0.026245885359214523 0 0.00042228487651151651 0.025526150105415816 0 0.00012880301997278743 0.026366366933644473 0 0.00096619328560986644 0.026245885359214523 0 0.0006378156318855953 0.024811973738247489 0 0.0011800341429831327 0.024914253397129136 0 0.00042228487651151651 0.025526150105415816 0 -5.8359515089365673e-05 0.025343821916084586 0 0.00042228487651151651 0.025526150105415816 0 -5.1189598473045692e-05 0.02577122044515074 0 0.00042228487651151651 0.025526150105415816 0 -5.1189598473045692e-05 0.02577122044515074 0 0.00012880301997278743 0.026366366933644473 0 -5.1189598473045692e-05 0.02577122044515074 0 0.00012880301997278743 0.026366366933644473 0 -0.00044615777144180901 0.026098850607512977 0 -5.8359515089365673e-05 0.025343821916084586 0 -5.1189598473045692e-05 0.02577122044515074 0 -0.00047349408743656599 0.025682651098283951 0 -5.1189598473045692e-05 0.02577122044515074 0 -0.00047349408743656599 0.025682651098283951 0 -0.00044615777144180901 0.026098850607512977 0 -0.00022951451453284667 0.027012280533028815 0 0.00012880301997278743 0.026366366933644473 0 -0.00062100071023233141 0.026527213249553001 0 0.00012880301997278743 0.026366366933644473 0 -0.00044615777144180901 0.026098850607512977 0 -0.00062100071023233141 0.026527213249553001 0 -0.00022951451453284667 0.027012280533028815 0 0.00012880301997278743 0.026366366933644473 0 0.00056933009718087061 0.026919735234615501 0 -8.1461687276382061e-06 0.026088286213945107 0 0.00091025587586264251 0.027616020011295397 0 0.00012880301997278743 0.026366366933644473 0 0.00068686119585917413 0.026789497738246341 0 0.00096619328560986644 0.026245885359214523 0 0.00068686119585917413 0.026789497738246341 0 0.00096619328560986644 0.026245885359214523 0 0.0014123176919349368 0.026767398336160216 0 0.00068686119585917413 0.026789497738246341 0 0.001169136514660625 0.02723484241386824 0 0.0014123176919349368 0.026767398336160216 0 0.00091025587586264251 0.027616020011295397 0 0.00068540875751401775 0.023330664837163385 0 0.0010617659324324122 0.027447190332599208 0 0.00054801215118901656 0.027686550628651326 0 0.00075563785238401513 0.028210868566650522 0 0.00068540875751401775 0.023330664837163385 0 0.00060422501505022572 0.025654619543694374 0 0.000808790643654326 0.021893990755330724 0 0.0004553224958237631 0.02265352049151681 0 0.00091637236898285766 0.022549063432170346 0 0.00054801215118901656 0.027686550628651326 0 4.211916396383604e-05 0.027768762902937928 0 0.00019918247471210882 0.028285136849985414 0 0.00056933009718087061 0.026919735234615501 0 0.0010617659324324122 0.027447190332599208 0 0.00054801215118901656 0.027686550628651326 0 0.00056933009718087061 0.026919735234615501 0 0.00054801215118901656 0.027686550628651326 0 0.00011150361849990935 0.02741511591878849 0 -0.00022951451453284667 0.027012280533028815 0 0.00056933009718087061 0.026919735234615501 0 0.00011150361849990935 0.02741511591878849 0 0.00054801215118901656 0.027686550628651326 0 0.00011150361849990935 0.02741511591878849 0 4.211916396383604e-05 0.027768762902937928 0 0.00011150361849990935 0.02741511591878849 0 4.211916396383604e-05 0.027768762902937928 0 -0.00029516784238380766 0.027533719717192158 0 -0.00080555016274023842 0.028137634541601269 0 -0.00042067544623986431 0.028002902802530018 0 -0.00029516784238380766 0.027533719717192158 0 -0.00075017154012214753 0.027688330889388574 0 -0.00027472371770635034 0.027937826157257966 0 4.211916396383604e-05 0.027768762902937928 0 -0.00029516784238380766 0.027533719717192158 0 -0.00027472371770635034 0.027937826157257966 0 -0.00022951451453284667 0.027012280533028815 0 0.00011150361849990935 0.02741511591878849 0 -0.00029516784238380766 0.027533719717192158 0 -0.00022951451453284667 0.027012280533028815 0 -0.00029516784238380766 0.027533719717192158 0 -0.00063030625127415108 0.027251024386893682 0 0.0040792079312504835 0.0042344992728169861 0 0.0039273422828698156 0.0054365706852465201 0 0.0034025027745650202 0.0052321636891244422 0 0.0062995879012424701 0.0028515861365884317 0 0.0035104203521325599 0.010963162194934652 0 0.0057853260110313255 0.012568696808519221 0 0.0033534748693796078 0.013241890692292809 0 0.004428970618553494 0.014949980590552544 0 0.0060616760196365782 -0.00087636655399145325 0 0.0062995879012424701 0.0028515861365884317 0 0.0047508966421601056 0.0051126610992828433 0 0.0040792079312504835 0.0042344992728169861 0 0.0039273422828698156 0.0054365706852465201 0 0.0078642700017514926 -0.0059168308117382986 0 0.0080048773959818433 -0.0053721920628556318 0 0.0084851201747843732 -0.0052736370335909064 0 0.0078642700017514926 -0.0059168308117382986 0 0.0080048773959818433 -0.0053721920628556318 0 0.0075850666115391454 -0.005613592498084902 0 0.0080048773959818433 -0.0053721920628556318 0 0.008325646645492752 -0.0049278980664575105 0 0.0084851201747843732 -0.0052736370335909064 0 0.0080048773959818433 -0.0053721920628556318 0 0.007861901503844906 -0.0050415247461252487 0 0.008325646645492752 -0.0049278980664575105 0 0.0080048773959818433 -0.0053721920628556318 0 0.007861901503844906 -0.0050415247461252487 0 0.0075850666115391454 -0.005613592498084902 0 0.0079648006969716568 -0.0045690297154927775 0 0.0077668483423536973 -0.0054414084485214682 0 0.0072512382069740457 -0.005492108850349257 0 0.0057853260110313255 0.012568696808519221 0 0.00429266516462673 0.010919605697115833 0 0.0033534748693796078 0.013241890692292809 0 0.0093017206846677594 -0.0042865999875126978 0 0.008325646645492752 -0.0049278980664575105 0 0.009154327444360788 -0.0046317985801537205 0 0.008325646645492752 -0.0049278980664575105 0 0.0085472929479213262 -0.0052792939612106467 0 0.009154327444360788 -0.0046317985801537205 0 0.0093017206846677594 -0.0042865999875126978 0 0.007861901503844906 -0.0050415247461252487 0 0.008325646645492752 -0.0049278980664575105 0 0.0092230799618827821 -0.0043722635570268616 0 0.0078341428780165385 -0.0052182327056432337 0 0.0093017206846677594 -0.0042865999875126978 0 0.0085348608983162946 -0.0045506781391200513 0 0.0077668483423536973 -0.0054414084485214682 0 0.0093706871009674505 -0.0046793197917846634 0 0.0062995879012424701 0.0028515861365884317 0 0.0062995879012424701 0.0028515861365884317 0 0.0062801283190942886 0.0026537688083927554 0 0.00429266516462673 0.010919605697115833 0 0.0016766820708004311 0.011808915933111725 0 0.0033534748693796078 0.013241890692292809 0 0.00096619328560986644 0.026245885359214523 0 0.0017343184939071154 0.026211572484841832 0 0.0014123176919349368 0.026767398336160216 0 0.001130562270194264 0.020319996985320256 0 0.0011286227608213564 0.020110916392279677 0 0.0016766820708004311 0.011808915933111725 0 0.00054949471666264761 0.014361056428788606 0 0.0033534748693796078 0.013241890692292809 0 0.00054949471666264761 0.014361056428788606 0 0.0033534748693796078 0.013241890692292809 0 0.002584438976676299 0.015517870649027966 0 0.0033534748693796078 0.013241890692292809 0 0.002584438976676299 0.015517870649027966 0 0.004428970618553494 0.014949980590552544 0 0.002584438976676299 0.015517870649027966 0 0.0030624326120186167 0.017303578573290346 0 0.004428970618553494 0.014949980590552544 0 0.0023861862985984201 0.012477862568021903 0 0.0035104203521325599 0.010963162194934652 0 0.002379824296678516 0.006819748142802293 0 0.0034030858420592684 0.0063950540886166807 0 0.0034025027745650202 0.0052321636891244422 0 0.002584438976676299 0.015517870649027966 0 0.0012203940129029238 0.016486409186545547 0 0.0026655179481782166 0.017151574467111727 0 0.002584438976676299 0.015517870649027966 0 0.0030624326120186167 0.017303578573290346 0 0.0026655179481782166 0.017151574467111727 0 0.00054949471666264761 0.014361056428788606 0 0.002584438976676299 0.015517870649027966 0 0.0012203940129029238 0.016486409186545547 0 0.00068540875751401775 0.023330664837163385 0 0.0011286227608213564 0.020110916392279677 0 -0.00055023577898880851 0.016898498709295436 0 0.00054949471666264761 0.014361056428788606 0 0.0012203940129029238 0.016486409186545547 0 -0.00055023577898880851 0.016898498709295436 0 0.0012203940129029238 0.016486409186545547 0 0.0017603745492754948 0.019541478332348022 0 0.000808790643654326 0.021893990755330724 0 0.0013658707496042883 0.022516948593513282 0 0.00091637236898285766 0.022549063432170346 0 0.00068540875751401775 0.023330664837163385 0 0.0010756497542458786 0.019427144621279199 0 0.0012203940129029238 0.016486409186545547 0 0.0026655179481782166 0.017151574467111727 0 0.0017603745492754948 0.019541478332348022 0 0.0030569519201141815 0.017303223446944405 0 0.0026655179481782166 0.017151574467111727 0 0.0017603745492754948 0.019541478332348022 0 0.0023861862985984201 0.012477862568021903 0 0.0010756497542458786 0.019427144621279199 0 0.00189301110152996 0.013093274056555632 0 0.0025014584309257975 0.015871029084052933 0 0.00056777300716997256 0.015395314765415502 0 0.00189301110152996 0.013093274056555632 0 0.004050520489509885 0.013938492969923773 0 0.0025014584309257975 0.015871029084052933 0 0.0023861862985984201 0.012477862568021903 0 0.0028830180111252186 0.013125119136315165 0 0.002379824296678516 0.006819748142802293 0 0.0038830082619851027 0.0074162871466850883 0 0.0034030858420592684 0.0063950540886166807 0 0.0023861862985984201 0.012477862568021903 0 0.0036549915697860693 0.009653981729105714 0 0.0038830082619851027 0.0074162871466850883 0 0.0034030858420592684 0.0063950540886166807 0 0.0039273422828698156 0.0054365706852465201 0 0.0039158684489468409 0.0063074602639703551 0 0.0039273422828698156 0.0054365706852465201 0 0.0045945048437161778 0.0059140496842564521 0 0.0036549915697860693 0.009653981729105714 0 0.0040147029255621783 0.0044831831786658156 0 0.0034030858420592684 0.0063950540886166807 0 0.0039273422828698156 0.0054365706852465201 0 0.0034025027745650202 0.0052321636891244422 0 0.0047508966421601056 0.0051126610992828433 0 0.0045945048437161778 0.0059140496842564521 0 0.0053061180587863485 0.0057886872675736558 0 0.0047508966421601056 0.0051126610992828433 0 0.0039273422828698156 0.0054365706852465201 0 0.0045945048437161778 0.0059140496842564521 0 0.0039158684489468409 0.0063074602639703551 0 0.0045945048437161778 0.0059140496842564521 0 0.004528650686545033 0.0065220468924385945 0 0.0036549915697860693 0.009653981729105714 0 0.0043703863074801876 0.0086184945439903449 0 0.004528650686545033 0.0065220468924385945 0 0.0050130254134599442 0.0062977395247129416 0 0.0051329988488787951 0.0067351376417532915 0 0.0045945048437161778 0.0059140496842564521 0 0.004528650686545033 0.0065220468924385945 0 0.0050130254134599442 0.0062977395247129416 0 0.0045945048437161778 0.0059140496842564521 0 0.0050130254134599442 0.0062977395247129416 0 0.0053061180587863485 0.0057886872675736558 0 0.0050130254134599442 0.0062977395247129416 0 0.0055029149170148948 0.0065280901282317198 0 0.0051329988488787951 0.0067351376417532915 0 0.0050130254134599442 0.0062977395247129416 0 0.0053061180587863485 0.0057886872675736558 0 0.0055029149170148948 0.0065280901282317198 0 0.0058820580203199583 0.0064230836482541149 0 0.0053061180587863485 0.0057886872675736558 0 0.0055029149170148948 0.0065280901282317198 0 0.0061750629815247281 -0.00043285391992767491 0 0.0064690126326522289 -0.00013880902195109724 0 0.0070678805852654805 -0.0066949477554611664 0 0.0069984067430984634 -0.0063529016101732411 0 0.007385226900755759 -0.0063409442044787901 0 0.0070139938881504139 -0.0066601809747864112 0 0.0070678805852654805 -0.0066949477554611664 0 0.0069984067430984634 -0.0063529016101732411 0 0.0070139938881504139 -0.0066601809747864112 0 0.0070978079315446811 -0.0067025383688324603 0 0.0068148305040576403 -0.0068213055067747495 0 0.0070139938881504139 -0.0066601809747864112 0 0.0068005461863215252 -0.0065622321113883199 0 0.0068148305040576403 -0.0068213055067747495 0 0.0069886006237338816 -0.0014924745087048173 0 0.0061750629815247281 -0.00043285391992767491 0 0.0070139938881504139 -0.0066601809747864112 0 0.0069984067430984634 -0.0063529016101732411 0 0.0068005461863215252 -0.0065622321113883199 0 0.0069984067430984634 -0.0063529016101732411 0 0.0071887578751505228 -0.0060824011995429129 0 0.0069668570546618288 -0.0059121305325425923 0 0.0069984067430984634 -0.0063529016101732411 0 0.0069668570546618288 -0.0059121305325425923 0 0.006632681793301556 -0.006316379566567349 0 0.0069984067430984634 -0.0063529016101732411 0 0.0071887578751505228 -0.0060824011995429129 0 0.007385226900755759 -0.0063409442044787901 0 0.0078642700017514926 -0.0059168308117382986 0 0.007385226900755759 -0.0063409442044787901 0 0.0074500664264102135 -0.0059515785874729053 0 0.0060616760196365782 -0.00087636655399145325 0 0.0064690126326522289 -0.00013880902195109724 0 0.0071887578751505228 -0.0060824011995429129 0 0.007385226900755759 -0.0063409442044787901 0 0.0074500664264102135 -0.0059515785874729053 0 0.0078642700017514926 -0.0059168308117382986 0 0.0075850666115391454 -0.005613592498084902 0 0.0074500664264102135 -0.0059515785874729053 0 0.007861901503844906 -0.0050415247461252487 0 0.0075850666115391454 -0.005613592498084902 0 0.0070370862072478254 -0.0056447603480500362 0 0.0075850666115391454 -0.005613592498084902 0 0.0072696608034804218 -0.0058283764014260666 0 0.0070370862072478254 -0.0056447603480500362 0 0.0071887578751505228 -0.0060824011995429129 0 0.0072696608034804218 -0.0058283764014260666 0 0.0074500664264102135 -0.0059515785874729053 0 0.0075850666115391454 -0.005613592498084902 0 0.0072696608034804218 -0.0058283764014260666 0 0.0074500664264102135 -0.0059515785874729053 0 0.0063167596996291878 -0.0060881230281948518 0 0.0065495664425516166 -0.0061789753108229904 0 0.0061021137345930636 -0.0062655622179456976 0 0.0071887578751505228 -0.0060824011995429129 0 0.0072696608034804218 -0.0058283764014260666 0 0.0069668570546618288 -0.0059121305325425923 0 0.0063167596996291878 -0.0060881230281948518 0 0.0065495664425516166 -0.0061789753108229904 0 0.006472138240104057 -0.0059841436782225319 0 0.0072696608034804218 -0.0058283764014260666 0 0.0069668570546618288 -0.0059121305325425923 0 0.0070370862072478254 -0.0056447603480500362 0 0.0065495664425516166 -0.0061789753108229904 0 0.0067005405543273866 -0.0058089214583947014 0 0.0072512382069740457 -0.005492108850349257 0 0.0064855421069446107 -0.0056359963011221948 0 0.0061645393666813772 -0.0055648066659427699 0 0.0069480972508301096 -0.0051086158397762108 0 0.0065495664425516166 -0.0061789753108229904 0 0.0067005405543273866 -0.0058089214583947014 0 0.006472138240104057 -0.0059841436782225319 0 0.0067005405543273866 -0.0058089214583947014 0 0.006472138240104057 -0.0059841436782225319 0 0.0065305185216632151 -0.0057934619059140666 0 0.0067005405543273866 -0.0058089214583947014 0 0.0065305185216632151 -0.0057934619059140666 0 0.0067502572109458103 -0.0055856197443252542 0 0.0063429297220279008 -0.0059136737631143377 0 0.0064855421069446107 -0.0056359963011221948 0 0.006216671722860989 -0.0058028750088549548 0 0.0063167596996291878 -0.0060881230281948518 0 0.006472138240104057 -0.0059841436782225319 0 0.0063429297220279008 -0.0059136737631143377 0 0.006472138240104057 -0.0059841436782225319 0 0.0065305185216632151 -0.0057934619059140666 0 0.0063429297220279008 -0.0059136737631143377 0 0.0065305185216632151 -0.0057934619059140666 0 0.0063429297220279008 -0.0059136737631143377 0 0.0064855421069446107 -0.0056359963011221948 0 0.0064855421069446107 -0.0056359963011221948 0 0.0061645393666813772 -0.0055648066659427699 0 0.006216671722860989 -0.0058028750088549548 0 0.0064855421069446107 -0.0056359963011221948 0 0.0067502572109458103 -0.0055856197443252542 0 0.0069480972508301096 -0.0051086158397762108 0 0.0065305185216632151 -0.0057934619059140666 0 0.0064855421069446107 -0.0056359963011221948 0 0.0067502572109458103 -0.0055856197443252542 0 0.0077668483423536973 -0.0054414084485214682 0 0.0065495664425516166 -0.0061789753108229904 0 0.0072512382069740457 -0.005492108850349257 0 0.0067502572109458103 -0.0055856197443252542 0 0.0072512382069740457 -0.005492108850349257 0 0.0069480972508301096 -0.0051086158397762108 0 0.0078341428780165385 -0.0052182327056432337 0 0.0067881691956941026 -0.00592297448592963 0 0.0067005405543273866 -0.0058089214583947014 0 0.0067502572109458103 -0.0055856197443252542 0 0.0072512382069740457 -0.005492108850349257 0 0.0056088418988788271 -0.0060199980283893581 0 0.005883651913943487 -0.0061825974680465908 0 0.0056581378975838386 -0.0064291829699983597 0 0.0056088418988788271 -0.0060199980283893581 0 0.005883651913943487 -0.0061825974680465908 0 0.0060606574216073242 -0.0058584373241055724 0 0.003903798064785159 -0.0068508793384861096 0 0.0046997341841469595 -0.0058424779633571393 0 0.0056088418988788271 -0.0060199980283893581 0 0.0061605396764276938 -0.0057099918183965287 0 0.0060606574216073242 -0.0058584373241055724 0 0.0020345670197083393 -0.0075427830647832256 0 0.0037445399550115797 -0.0074307242460508001 0 0.0030702310717106362 -0.0069958786948767721 0 0.0046997341841469595 -0.0058424779633571393 0 0.0055497357473946471 -0.0054609111375587089 0 0.0061645393666813772 -0.0055648066659427699 0 0.0060606574216073242 -0.0058584373241055724 0 0.006216671722860989 -0.0058028750088549548 0 0.0063429297220279008 -0.0059136737631143377 0 0.006216671722860989 -0.0058028750088549548 0 0.0061536350123011759 -0.0060440487080692671 0 0.0060606574216073242 -0.0058584373241055724 0 0.006216671722860989 -0.0058028750088549548 0 0.0061536350123011759 -0.0060440487080692671 0 0.0063167596996291878 -0.0060881230281948518 0 0.0063429297220279008 -0.0059136737631143377 0 0.0061536350123011759 -0.0060440487080692671 0 0.005883651913943487 -0.0061825974680465908 0 0.0060606574216073242 -0.0058584373241055724 0 0.0061536350123011759 -0.0060440487080692671 0 0.005883651913943487 -0.0061825974680465908 0 0.0061536350123011759 -0.0060440487080692671 0 0.0061021137345930636 -0.0062655622179456976 0 0.0067881691956941026 -0.00592297448592963 0 0.0059090620986662953 -0.0065012999584137636 0 0.0065495664425516166 -0.0061789753108229904 0 0.0061021137345930636 -0.0062655622179456976 0 0.0058596430273045617 -0.0065627090575539069 0 0.0069668570546618288 -0.0059121305325425923 0 0.0070370862072478254 -0.0056447603480500362 0 0.0058596430273045617 -0.0065627090575539069 0 0.005883651913943487 -0.0061825974680465908 0 0.0061021137345930636 -0.0062655622179456976 0 0.0058596430273045617 -0.0065627090575539069 0 0.0063167596996291878 -0.0060881230281948518 0 0.0061536350123011759 -0.0060440487080692671 0 0.0061021137345930636 -0.0062655622179456976 0 0.0056088418988788271 -0.0060199980283893581 0 0.0056581378975838386 -0.0064291829699983597 0 0.0053542424388918408 -0.0065447813697633644 0 0.005883651913943487 -0.0061825974680465908 0 0.0058596430273045617 -0.0065627090575539069 0 0.0056581378975838386 -0.0064291829699983597 0 0.0058596430273045617 -0.0065627090575539069 0 0.0056581378975838386 -0.0064291829699983597 0 0.0055376294750971566 -0.0067515595523593179 0 0.0058596430273045617 -0.0065627090575539069 0 0.0056015976403532928 -0.0071478902779573729 0 0.006188611199230862 -0.00714425874723147 0 0.0058596430273045617 -0.0065627090575539069 0 0.0055376294750971566 -0.0067515595523593179 0 0.0056015976403532928 -0.0071478902779573729 0 0.0069384125807796732 -0.0059721041037209084 0 0.0064066072805843014 -0.0067072706795367259 0 0.0069668570546618288 -0.0059121305325425923 0 0.0058596430273045617 -0.0065627090575539069 0 0.006188611199230862 -0.00714425874723147 0 0.006632681793301556 -0.006316379566567349 0 0.0065584176966113428 -0.0067783854079756026 0 0.0068005461863215252 -0.0065622321113883199 0 0.006632681793301556 -0.006316379566567349 0 0.0065584176966113428 -0.0067783854079756026 0 0.0060467156395429119 -0.0069604263796422027 0 0.0069984067430984634 -0.0063529016101732411 0 0.006632681793301556 -0.006316379566567349 0 0.0068005461863215252 -0.0065622321113883199 0 0.0065584176966113428 -0.0067783854079756026 0 0.0068005461863215252 -0.0065622321113883199 0 0.0068148305040576403 -0.0068213055067747495 0 0.0064066072805843014 -0.0067072706795367259 0 0.0058573747064795956 -0.0073185308372297614 0 0.0056015976403532928 -0.0071478902779573729 0 0.006188611199230862 -0.00714425874723147 0 0.0056426570011722712 -0.007649194659622255 0 0.0056015976403532928 -0.0071478902779573729 0 0.0053172722776854047 -0.0074277420392746037 0 0.0056426570011722712 -0.007649194659622255 0 0.0053172722776854047 -0.0074277420392746037 0 0.0049455922722070654 -0.0074681481412549391 0 0.005153620612343676 -0.0076004045278350689 0 0.0053172722776854047 -0.0074277420392746037 0 0.0049455922722070654 -0.0074681481412549391 0 0.0052146220180781903 -0.007034964505115357 0 0.0049455922722070654 -0.0074681481412549391 0 0.0049476638636940734 -0.0076569811558636139 0 0.005153620612343676 -0.0076004045278350689 0 0.0049455922722070654 -0.0074681481412549391 0 0.0052146220180781903 -0.007034964505115357 0 0.0047878436084667787 -0.0069727156155490085 0 0.0056015976403532928 -0.0071478902779573729 0 0.0053172722776854047 -0.0074277420392746037 0 0.0052146220180781903 -0.007034964505115357 0 0.0055376294750971566 -0.0067515595523593179 0 0.0056015976403532928 -0.0071478902779573729 0 0.0052146220180781903 -0.007034964505115357 0 0.0050266913669899946 -0.0079571205346677231 0 0.0048298802385725271 -0.0077623153513765412 0 0.0046748658078012862 -0.0074916827292296024 0 0.0050699788826390341 -0.0081146993480522098 0 0.0050266913669899946 -0.0079571205346677231 0 0.0048298802385725271 -0.0077623153513765412 0 0.0045112000420513719 -0.0078672663055840298 0 0.0047302973330108572 -0.0075576625931726305 0 0.0049455922722070654 -0.0074681481412549391 0 0.0048298802385725271 -0.0077623153513765412 0 0.0049476638636940734 -0.0076569811558636139 0 0.0049455922722070654 -0.0074681481412549391 0 0.0048298802385725271 -0.0077623153513765412 0 0.0046748658078012862 -0.0074916827292296024 0 0.0049455922722070654 -0.0074681481412549391 0 0.0046748658078012862 -0.0074916827292296024 0 0.0047878436084667787 -0.0069727156155490085 0 0.0046748658078012862 -0.0074916827292296024 0 0.0043800466542213649 -0.0069942710955237753 0 0.0047878436084667787 -0.0069727156155490085 0 0.0040331176917387497 -0.0077841934806913834 0 0.0046748658078012862 -0.0074916827292296024 0 0.0042135659418094679 -0.0073540195670583064 0 0.0046748658078012862 -0.0074916827292296024 0 0.0042135659418094679 -0.0073540195670583064 0 0.0043800466542213649 -0.0069942710955237753 0 0.0040075377765641735 -0.006848375980144197 0 0.0042135659418094679 -0.0073540195670583064 0 0.0043800466542213649 -0.0069942710955237753 0 0.0040331176917387497 -0.0077841934806913834 0 0.0039603789871750367 -0.0075370496465899731 0 0.0042135659418094679 -0.0073540195670583064 0 0.0033722777286144525 -0.0079919865380364743 0 0.001770220479563983 -0.0079134608112159648 0 0.0040075377765641735 -0.006848375980144197 0 0.0043800466542213649 -0.0069942710955237753 0 0.004180222458204313 -0.0067456068784309976 0 0.0043800466542213649 -0.0069942710955237753 0 0.0047878436084667787 -0.0069727156155490085 0 0.0045212105461893033 -0.0068449822537129286 0 0.0045212105461893033 -0.0068449822537129286 0 0.004180222458204313 -0.0067456068784309976 0 0.0047823193015878703 -0.0066452112796639403 0 0.0043800466542213649 -0.0069942710955237753 0 0.0045212105461893033 -0.0068449822537129286 0 0.004180222458204313 -0.0067456068784309976 0 0.0047878436084667787 -0.0069727156155490085 0 0.0045212105461893033 -0.0068449822537129286 0 0.0047823193015878703 -0.0066452112796639403 0 0.004180222458204313 -0.0067456068784309976 0 0.0042716814141927585 -0.0070422677499256681 0 0.0027515158662023468 -0.0075079146147847952 0 -0.00015893564217621148 -0.0076584656725300617 0 0.00066206225059302511 -0.0076461800649016984 0 0.00023498795416659269 -0.007152892872347591 0 0.004180222458204313 -0.0067456068784309976 0 0.0047823193015878703 -0.0066452112796639403 0 0.0050118168125297029 -0.0063167467065403183 0 0.004180222458204313 -0.0067456068784309976 0 0.0021391080442230955 -0.0073061091170860811 0 0.0027515158662023468 -0.0075079146147847952 0 0.001770220479563983 -0.0079134608112159648 0 0.0017697958457468189 -0.00750600192110397 0 0.0041624098583152407 -0.0067424090504780553 0 0.0036170171908666399 -0.0068003658552727112 0 0.0040075377765641735 -0.006848375980144197 0 0.004180222458204313 -0.0067456068784309976 0 0.0042716814141927585 -0.0070422677499256681 0 0.0055376294750971566 -0.0067515595523593179 0 0.0052146220180781903 -0.007034964505115357 0 0.0053542424388918408 -0.0065447813697633644 0 0.0052146220180781903 -0.007034964505115357 0 0.0053542424388918408 -0.0065447813697633644 0 0.0050475096410806559 -0.0066951269797499383 0 0.0056581378975838386 -0.0064291829699983597 0 0.0055376294750971566 -0.0067515595523593179 0 0.0053542424388918408 -0.0065447813697633644 0 0.0052146220180781903 -0.007034964505115357 0 0.0047878436084667787 -0.0069727156155490085 0 0.0050475096410806559 -0.0066951269797499383 0 0.0047878436084667787 -0.0069727156155490085 0 0.0047823193015878703 -0.0066452112796639403 0 0.0050475096410806559 -0.0066951269797499383 0 0.0047823193015878703 -0.0066452112796639403 0 0.0050475096410806559 -0.0066951269797499383 0 0.0050118168125297029 -0.0063167467065403183 0 0.0053542424388918408 -0.0065447813697633644 0 0.0050475096410806559 -0.0066951269797499383 0 0.0050118168125297029 -0.0063167467065403183 0 0.00066206225059302511 -0.0076461800649016984 0 0.0019463360582842139 -0.0074513916971643392 0 0.0011368843228688598 -0.0069052812089874273 0 0.0017697958457468189 -0.00750600192110397 0 0.001890175285222385 -0.0074923335698328245 0 0.0021391080442230955 -0.0073061091170860811 0 0.0027515158662023468 -0.0075079146147847952 0 0.0019463360582842139 -0.0074513916971643392 0 0.0020345670197083393 -0.0075427830647832256 0 0.0019463360582842139 -0.0074513916971643392 0 0.0018963988747909355 -0.0067945736139325592 0 0.003903798064785159 -0.0068508793384861096 0 0.0036170171908666399 -0.0068003658552727112 0 0.0056088418988788271 -0.0060199980283893581 0 0.0053542424388918408 -0.0065447813697633644 0 0.0050118168125297029 -0.0063167467065403183 0 0.0020345670197083393 -0.0075427830647832256 0 0.0021391080442230955 -0.0073061091170860811 0 0.0019463360582842139 -0.0074513916971643392 0 0.0018963988747909355 -0.0067945736139325592 0 0.0011368843228688598 -0.0069052812089874273 0 0.00093729085650409401 -0.0060729941352627324 0 0.0019463360582842139 -0.0074513916971643392 0 0.0018963988747909355 -0.0067945736139325592 0 0.0011368843228688598 -0.0069052812089874273 0 0.00066206225059302511 -0.0076461800649016984 0 0.00063915621954472744 -0.0071093044399611754 0 0.0011368843228688598 -0.0069052812089874273 0 0.00063915621954472744 -0.0071093044399611754 0 0.0011368843228688598 -0.0069052812089874273 0 0.00046716198839719938 -0.0066459796002762651 0 0.0008666745016667213 -0.0060641102790422122 0 -0.00026400621349565177 -0.0056111356711405994 0 0.0011368843228688598 -0.0069052812089874273 0 0.00093729085650409401 -0.0060729941352627324 0 0.00046716198839719938 -0.0066459796002762651 0 0.0018963988747909355 -0.0067945736139325592 0 0.00093729085650409401 -0.0060729941352627324 0 0.0017363766000755832 -0.0055123981816691736 0 0.0018963988747909355 -0.0067945736139325592 0 0.0017363766000755832 -0.0055123981816691736 0 0.0023191775538497134 -0.0061718790477964238 0 -0.00050411995723318359 -0.0073446662503711766 0 -0.0001148788941417727 -0.0076316819921586577 0 -0.00017916511725957389 -0.0071425289957079219 0 -0.00017916511725957389 -0.0071425289957079219 0 0.00023498795416659269 -0.007152892872347591 0 -0.0001696455612189 -0.0067166384499578926 0 -0.0001148788941417727 -0.0076316819921586577 0 -0.00017916511725957389 -0.0071425289957079219 0 0.00023498795416659269 -0.007152892872347591 0 -0.00054268580085441468 -0.0070673373798325004 0 -0.00050411995723318359 -0.0073446662503711766 0 -0.00017916511725957389 -0.0071425289957079219 0 0.00023498795416659269 -0.007152892872347591 0 0.00046716198839719938 -0.0066459796002762651 0 -0.0001696455612189 -0.0067166384499578926 0 0.001770220479563983 -0.0079134608112159648 0 8.2727929141689446e-05 -0.0075289608474121425 0 0.00066206225059302511 -0.0076461800649016984 0 0.00063915621954472744 -0.0071093044399611754 0 0.00023498795416659269 -0.007152892872347591 0 0.00063915621954472744 -0.0071093044399611754 0 0.00023498795416659269 -0.007152892872347591 0 0.00046716198839719938 -0.0066459796002762651 0 0.00046716198839719938 -0.0066459796002762651 0 -0.0001696455612189 -0.0067166384499578926 0 0.00016357786074853474 -0.0060541346831186321 0 0.00093729085650409401 -0.0060729941352627324 0 0.00046716198839719938 -0.0066459796002762651 0 0.00016357786074853474 -0.0060541346831186321 0 -0.00054268580085441468 -0.0070673373798325004 0 -0.0001696455612189 -0.0067166384499578926 0 -0.00049041222426017138 -0.0068939277070537422 0 -0.00054268580085441468 -0.0070673373798325004 0 -0.00017916511725957389 -0.0071425289957079219 0 -0.0001696455612189 -0.0067166384499578926 0 -0.0001696455612189 -0.0067166384499578926 0 -0.00083170254840670278 -0.0062551022061172338 0 0.00016357786074853474 -0.0060541346831186321 0 -0.00024490642036952616 -0.0067437203697545941 0 -0.00061945676486970609 -0.0065894242607399756 0 -0.0020563941753997165 -0.0043590210775304918 0 -0.0011555052011175792 -0.0044659354921059531 0 -0.0015401329005386847 -0.0041391815015143175 0 -0.0015466704237357847 -0.0049121679097170563 0 -0.00026400621349565177 -0.0056111356711405994 0 -0.00095905542958955696 -0.0055472611299994543 0 -0.00083170254840670278 -0.0062551022061172338 0 0.00016357786074853474 -0.0060541346831186321 0 -0.0020563941753997165 -0.0043590210775304918 0 -0.0011555052011175792 -0.0044659354921059531 0 -0.00079509379566470131 -0.0051674884758733525 0 -0.00079509379566470131 -0.0051674884758733525 0 -0.00041295263856130145 -0.004246592960641166 0 0.00048043977065532405 -0.0050608799496361379 0 -0.0011555052011175792 -0.0044659354921059531 0 -0.00079509379566470131 -0.0051674884758733525 0 -0.00041295263856130145 -0.004246592960641166 0 -0.00041295263856130145 -0.004246592960641166 0 -0.00083760187624779372 -0.0033625042632125421 0 -2.2322876829816329e-05 -0.0033740185662144528 0 -0.00041295263856130145 -0.004246592960641166 0 -0.00083760187624779372 -0.0033625042632125421 0 -0.0011868581737446311 -0.0039033845836386866 0 -0.0011555052011175792 -0.0044659354921059531 0 -0.00041295263856130145 -0.004246592960641166 0 -0.0011868581737446311 -0.0039033845836386866 0 -0.0011555052011175792 -0.0044659354921059531 0 -0.0011868581737446311 -0.0039033845836386866 0 -0.0015401329005386847 -0.0041391815015143175 0 -0.0014642174896859687 -0.0032807770743054181 0 -0.0011868581737446311 -0.0039033845836386866 0 -0.0018071451614225099 -0.0037370617480014263 0 -0.0014642174896859687 -0.0032807770743054181 0 -0.00083760187624779372 -0.0033625042632125421 0 -0.0011868581737446311 -0.0039033845836386866 0 -0.002041752118630611 -0.0031265843089855927 0 -0.0014642174896859687 -0.0032807770743054181 0 -0.0018071451614225099 -0.0037370617480014263 0 -0.0020563941753997165 -0.0043590210775304918 0 -0.0018071451614225099 -0.0037370617480014263 0 -0.0015401329005386847 -0.0041391815015143175 0 -0.0011868581737446311 -0.0039033845836386866 0 -0.0018071451614225099 -0.0037370617480014263 0 -0.0015401329005386847 -0.0041391815015143175 0 0.0017363766000755832 -0.0055123981816691736 0 0.00075436954006959263 -0.0043320071937609705 0 0.0017320288407902337 -0.0043416967984270024 0 0.0017363766000755832 -0.0055123981816691736 0 0.0017320288407902337 -0.0043416967984270024 0 0.0024141998190330516 -0.0049093633033103481 0 0.00093729085650409401 -0.0060729941352627324 0 -0.00079509379566470131 -0.0051674884758733525 0 0.00048043977065532405 -0.0050608799496361379 0 0.00093729085650409401 -0.0060729941352627324 0 0.0017363766000755832 -0.0055123981816691736 0 0.00048043977065532405 -0.0050608799496361379 0 0.0017363766000755832 -0.0055123981816691736 0 0.00048043977065532405 -0.0050608799496361379 0 0.00075436954006959263 -0.0043320071937609705 0 -0.00041295263856130145 -0.004246592960641166 0 0.00048043977065532405 -0.0050608799496361379 0 0.00075436954006959263 -0.0043320071937609705 0 -0.00041295263856130145 -0.004246592960641166 0 0.00075436954006959263 -0.0043320071937609705 0 -2.2322876829816329e-05 -0.0033740185662144528 0 0.00075436954006959263 -0.0043320071937609705 0 -2.2322876829816329e-05 -0.0033740185662144528 0 0.00086749726063771254 -0.003584565279722817 0 0.00086749726063771254 -0.003584565279722817 0 0.0017320288407902337 -0.0043416967984270024 0 0.002001637393683202 -0.0034721727306362229 0 0.0013021101128151595 -0.0030107338279936895 0 0.00086749726063771254 -0.003584565279722817 0 0.002001637393683202 -0.0034721727306362229 0 0.00075436954006959263 -0.0043320071937609705 0 0.00086749726063771254 -0.003584565279722817 0 0.0017320288407902337 -0.0043416967984270024 0 0.0017320288407902337 -0.0043416967984270024 0 0.002001637393683202 -0.0034721727306362229 0 0.0029021314155087551 -0.0042200725878974287 0 0.0027380267592197836 -0.0025887709520625211 0 0.002001637393683202 -0.0034721727306362229 0 0.0029021314155087551 -0.0042200725878974287 0 0.0017320288407902337 -0.0043416967984270024 0 0.0029021314155087551 -0.0042200725878974287 0 0.0024141998190330516 -0.0049093633033103481 0 0.0024141998190330516 -0.0049093633033103481 0 0.0034980063874412133 -0.0048681370947777514 0 0.002767169362359055 -0.0056722089381016933 0 0.0029021314155087551 -0.0042200725878974287 0 0.0024141998190330516 -0.0049093633033103481 0 0.0034980063874412133 -0.0048681370947777514 0 0.0017363766000755832 -0.0055123981816691736 0 0.0024141998190330516 -0.0049093633033103481 0 0.002767169362359055 -0.0056722089381016933 0 0.0029021314155087551 -0.0042200725878974287 0 0.0034980063874412133 -0.0048681370947777514 0 0.0041303990804872921 -0.0042221988117278246 0 0.0034980063874412133 -0.0048681370947777514 0 0.0042121325500746928 -0.0054080851152563721 0 0.0034502972418879326 -0.0057899294149419966 0 0.0038374426155439621 -0.0031396852858347275 0 0.0029021314155087551 -0.0042200725878974287 0 0.0041303990804872921 -0.0042221988117278246 0 0.0038374426155439621 -0.0031396852858347275 0 0.0046971694770788263 -0.0035205064648229458 0 0.0041303990804872921 -0.0042221988117278246 0 0.0046971694770788263 -0.0035205064648229458 0 0.0041303990804872921 -0.0042221988117278246 0 0.0050479066680722863 -0.004358808627293511 0 0.0059374999382154677 -0.0033173642118760793 0 0.0054208274553350323 -0.0036507846183424868 0 0.0058712063456445368 -0.0041298192909532067 0 0.0052592451436358767 -0.0029351310543908808 0 0.0059374999382154677 -0.0033173642118760793 0 0.0054208274553350323 -0.0036507846183424868 0 0.0052592451436358767 -0.0029351310543908808 0 0.0046971694770788263 -0.0035205064648229458 0 0.0054208274553350323 -0.0036507846183424868 0 0.0046971694770788263 -0.0035205064648229458 0 0.0054208274553350323 -0.0036507846183424868 0 0.0050479066680722863 -0.004358808627293511 0 0.0054208274553350323 -0.0036507846183424868 0 0.0058712063456445368 -0.0041298192909532067 0 0.0050479066680722863 -0.004358808627293511 0 0.0058712063456445368 -0.0041298192909532067 0 0.0050479066680722863 -0.004358808627293511 0 0.0057287767479980876 -0.0053588758119413205 0 0.0050479066680722863 -0.004358808627293511 0 0.0042121325500746928 -0.0054080851152563721 0 0.0057287767479980876 -0.0053588758119413205 0 0.0034980063874412133 -0.0048681370947777514 0 0.0041303990804872921 -0.0042221988117278246 0 0.0042121325500746928 -0.0054080851152563721 0 0.0041303990804872921 -0.0042221988117278246 0 0.0050479066680722863 -0.004358808627293511 0 0.0042121325500746928 -0.0054080851152563721 0 0.0042121325500746928 -0.0054080851152563721 0 0.0047276270580683547 -0.0064144220641752566 0 0.0037341888342623396 -0.0064760563145326994 0 0.0042121325500746928 -0.0054080851152563721 0 0.0057287767479980876 -0.0053588758119413205 0 0.0047276270580683547 -0.0064144220641752566 0 0.0059134917213033451 -0.0036812346102768245 0 0.0045374632699934862 -0.0049739699659640778 0 0.0059965838409461536 -0.0018663087816532305 0 0.0059732794623302927 -0.0033951684356198389 0 0.0046724946588563437 -0.0033449958908188838 0 0.006769861832452471 -0.0030351794849385223 0 0.0059965838409461536 -0.0018663087816532305 0 0.0059732794623302927 -0.0033951684356198389 0 0.0075627288403871716 -0.0043481801165967922 0 0.0061273300693619704 -0.0047293281796246213 0 0.0070572169734263047 -0.0041548696324577011 0 0.0059732794623302927 -0.0033951684356198389 0 0.0052033348221868468 -0.0044523020702713972 0 0.0079648006969716568 -0.0045690297154927775 0 0.0072512382069740457 -0.005492108850349257 0 0.0069480972508301096 -0.0051086158397762108 0 0.0059732794623302927 -0.0033951684356198389 0 0.0052033348221868468 -0.0044523020702713972 0 0.0046724946588563437 -0.0033449958908188838 0 0.0046997341841469595 -0.0058424779633571393 0 0.0061273300693619704 -0.0047293281796246213 0 0.0037445399550115797 -0.0074307242460508001 0 0.0047276270580683547 -0.0064144220641752566 0 0.0037341888342623396 -0.0064760563145326994 0 0.0033895920635720624 -0.0047780439045866227 0 0.0052033348221868468 -0.0044523020702713972 0 0.0046724946588563437 -0.0033449958908188838 0 0.0046997341841469595 -0.0058424779633571393 0 0.0045374632699934862 -0.0049739699659640778 0 0.0037445399550115797 -0.0074307242460508001 0 0.0037341888342623396 -0.0064760563145326994 0 0.0030702310717106362 -0.0069958786948767721 0 0.0037341888342623396 -0.0064760563145326994 0 0.0030702310717106362 -0.0069958786948767721 0 0.0027793650421180389 -0.0065180273649332408 0 0.0020345670197083393 -0.0075427830647832256 0 0.0030702310717106362 -0.0069958786948767721 0 0.0027793650421180389 -0.0065180273649332408 0 0.0020345670197083393 -0.0075427830647832256 0 0.0018963988747909355 -0.0067945736139325592 0 0.0027793650421180389 -0.0065180273649332408 0 0.0018963988747909355 -0.0067945736139325592 0 0.0027793650421180389 -0.0065180273649332408 0 0.0023191775538497134 -0.0061718790477964238 0 0.0017363766000755832 -0.0055123981816691736 0 0.0023191775538497134 -0.0061718790477964238 0 0.002767169362359055 -0.0056722089381016933 0 0.0027793650421180389 -0.0065180273649332408 0 0.0023191775538497134 -0.0061718790477964238 0 0.002767169362359055 -0.0056722089381016933 0 0.0034980063874412133 -0.0048681370947777514 0 0.002767169362359055 -0.0056722089381016933 0 0.0034502972418879326 -0.0057899294149419966 0 0.0042121325500746928 -0.0054080851152563721 0 0.0037341888342623396 -0.0064760563145326994 0 0.0034502972418879326 -0.0057899294149419966 0 0.0027793650421180389 -0.0065180273649332408 0 0.002767169362359055 -0.0056722089381016933 0 0.0034502972418879326 -0.0057899294149419966 0 0.0037341888342623396 -0.0064760563145326994 0 0.0027793650421180389 -0.0065180273649332408 0 0.0034502972418879326 -0.0057899294149419966 0 2.467594631328688e-08 0.03500085639433196 0 -1.6407325062056652e-05 0.034741507466185824 0 -4.0011919633350875e-07 0.034996692634568859 0 2.467594631328688e-08 0.03500085639433196 0 8.7640226064362049e-05 0.03502939731058459 0 0.00015090259158162119 0.034935311976589736 0 2.467594631328688e-08 0.03500085639433196 0 0.00015090259158162119 0.034935311976589736 0 -1.6407325062056652e-05 0.034741507466185824 0 0.00015090259158162119 0.034935311976589736 0 0.00024207950352254673 0.034768742783706605 0 -1.6407325062056652e-05 0.034741507466185824 0 3.4569754489803203e-10 0.03499999993110206 0 1.2086055691970526e-06 0.03499736345222039 0 8.465217871906559e-10 0.034999995811713092 0 -7.3979186846402559e-08 0.03499993964536792 0 9.1990803620731475e-05 0.035095785938483955 0 8.7640226064362049e-05 0.03502939731058459 0 0.00015090259158162119 0.034935311976589736 0 0.00020157972125286775 0.03509316553950588 0 0.00030706234779028337 0.034941012756950468 0 0.00015090259158162119 0.034935311976589736 0 0.00020157972125286775 0.03509316553950588 0 0.00051906748699154497 0.033770529379775718 0 4.8989682178127099e-05 0.034278665868323871 0 -5.7715900959147584e-06 0.033377028697781801 0 1.9764479665052987e-05 0.033027644421793775 0 0.00026219279857512314 0.032895057183534374 0 -0.00017587173338027635 0.033092157558614561 0 -5.7715900959147584e-06 0.033377028697781801 0 1.9764479665052987e-05 0.033027644421793775 0 4.9868217693851123e-05 0.030466167840633149 0 0.0004140409053283956 0.031096605202220934 0 -0.00021033249195924987 0.030981137927704835 0 -0.00019817450115609738 0.031584900819975663 0 0.00051906748699154497 0.033770529379775718 0 0.0011407356941402849 0.035882035987186443 0 0.001495762786985548 0.035275237123388925 0 0.00056632715801476592 0.034953600339168708 0 0.0004140409053283956 0.031096605202220934 0 6.600959416956122e-05 0.031709038150039372 0 -0.00021033249195924987 0.030981137927704835 0 0.00051906748699154497 0.033770529379775718 0 0.00065235641257379629 0.033618892631728813 0 0.00051906748699154497 0.033770529379775718 0 0.00050542064749873521 0.035180567540898482 0 0.00030706234779028337 0.034941012756950468 0 0.00015090259158162119 0.034935311976589736 0 0.00024207950352254673 0.034768742783706605 0 0.00056632715801476592 0.034953600339168708 0 0.0011983384145766534 0.034589764023198563 0 0.0006972772110132191 0.034156725205022817 0 0.00050542064749873521 0.035180567540898482 0 -1.4562580463103977e-05 0.034207745478761806 0 0.001495762786985548 0.035275237123388925 0 0.0011983384145766534 0.034589764023198563 0 0.001888792220262815 0.034648154621588774 0 0.001495762786985548 0.035275237123388925 0 0.00056632715801476592 0.034953600339168708 0 0.0011983384145766534 0.034589764023198563 0 0.0011983384145766534 0.034589764023198563 0 0.0014744191153832262 0.033805828476647377 0 0.001888792220262815 0.034648154621588774 0 0.0011983384145766534 0.034589764023198563 0 0.0014744191153832262 0.033805828476647377 0 0.0006972772110132191 0.034156725205022817 0 0.00056632715801476592 0.034953600339168708 0 0.0006972772110132191 0.034156725205022817 0 1.8876562077624485e-05 0.034315117501183622 0 1.8876562077624485e-05 0.034315117501183622 0 -1.6407325062056652e-05 0.034741507466185824 0 -4.0011919633350875e-07 0.034996692634568859 0 0.00024207950352254673 0.034768742783706605 0 1.8876562077624485e-05 0.034315117501183622 0 -1.6407325062056652e-05 0.034741507466185824 0 -2.5359925704737245e-08 0.034998172109416276 0 1.6139198075016888e-05 0.03349962668213799 0 3.9845933096117899e-07 0.030463264405779126 0 1.8876562077624485e-05 0.034315117501183622 0 -4.0011919633350875e-07 0.034996692634568859 0 7.6244837157013427e-05 0.033645843079362518 0 -4.0011919633350875e-07 0.034996692634568859 0 7.6244837157013427e-05 0.033645843079362518 0 1.6139198075016888e-05 0.03349962668213799 0 -4.0011919633350875e-07 0.034996692634568859 0 -2.5359925704737245e-08 0.034998172109416276 0 1.6139198075016888e-05 0.03349962668213799 0 1.6139198075016888e-05 0.03349962668213799 0 0.00016861046712820436 0.031955782666806341 0 3.9845933096117899e-07 0.030463264405779126 0 0.00016861046712820436 0.031955782666806341 0 -2.8540400394058008e-05 0.030631605238337502 0 3.9845933096117899e-07 0.030463264405779126 0 0.00016861046712820436 0.031955782666806341 0 9.1977198236187411e-05 0.031194581712380983 0 0.00052777545088795997 0.032350555495265096 0 9.1977198236187411e-05 0.031194581712380983 0 0.00052777545088795997 0.032350555495265096 0 1.3560878491369931e-05 0.030769291101060837 0 0.00016861046712820436 0.031955782666806341 0 9.1977198236187411e-05 0.031194581712380983 0 -2.8540400394058008e-05 0.030631605238337502 0 7.6244837157013427e-05 0.033645843079362518 0 1.6139198075016888e-05 0.03349962668213799 0 0.00016861046712820436 0.031955782666806341 0 7.6244837157013427e-05 0.033645843079362518 0 0.00016861046712820436 0.031955782666806341 0 0.00052777545088795997 0.032350555495265096 0 0.0006972772110132191 0.034156725205022817 0 1.8876562077624485e-05 0.034315117501183622 0 0.00052777545088795997 0.032350555495265096 0 1.8876562077624485e-05 0.034315117501183622 0 7.6244837157013427e-05 0.033645843079362518 0 0.00052777545088795997 0.032350555495265096 0 0.00052777545088795997 0.032350555495265096 0 0.00020573860643791799 0.030624128590196021 0 1.3560878491369931e-05 0.030769291101060837 0 0.0014744191153832262 0.033805828476647377 0 0.0006972772110132191 0.034156725205022817 0 0.00052777545088795997 0.032350555495265096 0 0.00031544188718539472 0.029967853316368979 0 0.00052777545088795997 0.032350555495265096 0 0.00020573860643791799 0.030624128590196021 0 0.00086562350676777655 0.03198406536740861 0 0.00058552188582281276 0.032145495854313109 0 0.00020573860643791799 0.030624128590196021 0 -7.988580511936678e-06 0.030201973151066937 0 1.3560878491369931e-05 0.030769291101060837 0 -7.988580511936678e-06 0.030201973151066937 0 -0.00015977623734937747 0.03015934918413371 0 1.3560878491369931e-05 0.030769291101060837 0 -7.988580511936678e-06 0.030201973151066937 0 -0.00018033015844226918 0.029896237897600798 0 -0.00015977623734937747 0.03015934918413371 0 -0.00018033015844226918 0.029896237897600798 0 -0.00015977623734937747 0.03015934918413371 0 -0.00029063790375062176 0.029755944421705746 0 -0.00018033015844226918 0.029896237897600798 0 -0.00029063790375062176 0.029755944421705746 0 -0.00025710807952198902 0.029628672568156517 0 -0.00015977623734937747 0.03015934918413371 0 1.3560878491369931e-05 0.030769291101060837 0 -0.00024862083227638471 0.030073203626720883 0 -0.00015977623734937747 0.03015934918413371 0 -0.00029063790375062176 0.029755944421705746 0 -0.00024862083227638471 0.030073203626720883 0 -0.00041471406022998371 0.029434141600675659 0 -0.00024862083227638471 0.030073203626720883 0 -0.00041747314159193665 0.028860234142506658 0 -0.00041471406022998371 0.029434141600675659 0 -0.00029063790375062176 0.029755944421705746 0 -0.00038417479660881888 0.029341741417530442 0 -0.00041471406022998371 0.029434141600675659 0 -0.00029063790375062176 0.029755944421705746 0 -0.00024862083227638471 0.030073203626720883 0 -0.00024862083227638471 0.030073203626720883 0 -0.00022408287837240949 0.029423258271353468 0 -0.00041747314159193665 0.028860234142506658 0 -0.00024862083227638471 0.030073203626720883 0 -2.8540400394058008e-05 0.030631605238337502 0 -0.00022408287837240949 0.029423258271353468 0 9.1977198236187411e-05 0.031194581712380983 0 1.3560878491369931e-05 0.030769291101060837 0 -0.00024862083227638471 0.030073203626720883 0 9.1977198236187411e-05 0.031194581712380983 0 -0.00024862083227638471 0.030073203626720883 0 -2.8540400394058008e-05 0.030631605238337502 0 -2.8540400394058008e-05 0.030631605238337502 0 -0.00022408287837240949 0.029423258271353468 0 3.9845933096117899e-07 0.030463264405779126 0 -0.00022408287837240949 0.029423258271353468 0 3.9845933096117899e-07 0.030463264405779126 0 -2.3709388604455037e-06 0.027025492047479251 0 -2.3709388604455037e-06 0.027025492047479251 0 -0.00041747314159193665 0.028860234142506658 0 -0.00021187376023177224 0.02689058092873085 0 -0.00022408287837240949 0.029423258271353468 0 -2.3709388604455037e-06 0.027025492047479251 0 -0.00041747314159193665 0.028860234142506658 0 -0.00041747314159193665 0.028860234142506658 0 -0.00040333571922406323 0.028311703499227913 0 -0.00021187376023177224 0.02689058092873085 0 -0.00041471406022998371 0.029434141600675659 0 -0.00041747314159193665 0.028860234142506658 0 -0.00049860654436098301 0.029086821465282943 0 -0.00041747314159193665 0.028860234142506658 0 -0.00048671914045834058 0.028776988781638122 0 -0.00049860654436098301 0.029086821465282943 0 -0.00041747314159193665 0.028860234142506658 0 -0.00048671914045834058 0.028776988781638122 0 -0.00040333571922406323 0.028311703499227913 0 -0.00048671914045834058 0.028776988781638122 0 -0.00039793945997964984 0.028807869077340675 0 -0.00034571860652905464 0.028548936014714799 0 -0.00048671914045834058 0.028776988781638122 0 -0.00034571860652905464 0.028548936014714799 0 -0.00040333571922406323 0.028311703499227913 0 -0.00048671914045834058 0.028776988781638122 0 -0.00051901436272553899 0.028890903918320138 0 -0.00039793945997964984 0.028807869077340675 0 -0.00051901436272553899 0.028890903918320138 0 -0.00038391743360558856 0.028982024951643169 0 -0.00039793945997964984 0.028807869077340675 0 -0.00059078119384048595 0.028859734744430408 0 -0.00054489067393050626 0.029008801387930775 0 -0.00051901436272553899 0.028890903918320138 0 -0.00049860654436098301 0.029086821465282943 0 -0.00046102079708001351 0.029039526583014844 0 -0.00067302306270229965 0.028779655833316195 0 -0.00066964384403236834 0.028943598165933011 0 -0.00068500241221136876 0.028772646741549168 0 -0.00048671914045834058 0.028776988781638122 0 -0.00051901436272553899 0.028890903918320138 0 -0.00049860654436098301 0.029086821465282943 0 -0.00041471406022998371 0.029434141600675659 0 -0.00049860654436098301 0.029086821465282943 0 -0.00038417479660881888 0.029341741417530442 0 -0.00035832167885908964 0.029231822882798447 0 -0.00066964384403236834 0.028943598165933011 0 -0.00044937056867593044 0.029012599130863514 0 -0.00038417479660881888 0.029341741417530442 0 -0.00018934604753621811 0.029446754869567819 0 -0.00046102079708001351 0.029039526583014844 0 -0.00035096359102443185 0.029265653610101267 0 -0.00054489067393050626 0.029008801387930775 0 -0.00038417479660881888 0.029341741417530442 0 -0.00025710807952198902 0.029628672568156517 0 -0.00018934604753621811 0.029446754869567819 0 -0.00029063790375062176 0.029755944421705746 0 -0.00038417479660881888 0.029341741417530442 0 -0.00025710807952198902 0.029628672568156517 0 -0.00049860654436098301 0.029086821465282943 0 -0.00038417479660881888 0.029341741417530442 0 -0.00046102079708001351 0.029039526583014844 0 0.00031544188718539472 0.029967853316368979 0 0.00020573860643791799 0.030624128590196021 0 -0.0013961283924717567 0.029554352735943569 0 0.00031544188718539472 0.029967853316368979 0 -0.0013961283924717567 0.029554352735943569 0 -0.00074123742259071508 0.028417559084382992 0 0.00020573860643791799 0.030624128590196021 0 -7.988580511936678e-06 0.030201973151066937 0 -0.00018934604753621811 0.029446754869567819 0 8.1573847087643533e-06 0.03041699868561136 0 -0.00035096359102443185 0.029265653610101267 0 0.00086562350676777655 0.03198406536740861 0 -4.7390423788877741e-05 0.031262053639787193 0 -7.988580511936678e-06 0.030201973151066937 0 -0.0001739505599756842 0.029673956265653941 0 -0.00018934604753621811 0.029446754869567819 0 -7.988580511936678e-06 0.030201973151066937 0 -0.00018033015844226918 0.029896237897600798 0 -0.0001739505599756842 0.029673956265653941 0 -0.00018033015844226918 0.029896237897600798 0 -0.0001739505599756842 0.029673956265653941 0 -0.00025710807952198902 0.029628672568156517 0 -0.0001739505599756842 0.029673956265653941 0 -0.00025710807952198902 0.029628672568156517 0 -0.00018934604753621811 0.029446754869567819 0 -0.00035832167885908964 0.029231822882798447 0 -0.00019229277578581658 0.029008366347890911 0 -0.00044937056867593044 0.029012599130863514 0 -0.00035096359102443185 0.029265653610101267 0 -4.7390423788877741e-05 0.031262053639787193 0 -0.00019229277578581658 0.029008366347890911 0 -0.00044937056867593044 0.029012599130863514 0 -0.00053554677472379068 0.028854832033605105 0 0.00065235641257379629 0.033618892631728813 0 -4.7390423788877741e-05 0.031262053639787193 0 -0.00019229277578581658 0.029008366347890911 0 -0.00053554677472379068 0.028854832033605105 0 -0.0005934164308087096 0.02852736884351665 0 -0.00066964384403236834 0.028943598165933011 0 -0.00044937056867593044 0.029012599130863514 0 -0.00053554677472379068 0.028854832033605105 0 -0.00066964384403236834 0.028943598165933011 0 -0.00053554677472379068 0.028854832033605105 0 -0.00068500241221136876 0.028772646741549168 0 -0.00053554677472379068 0.028854832033605105 0 -0.0005934164308087096 0.02852736884351665 0 -0.00068500241221136876 0.028772646741549168 0 -0.00019229277578581658 0.029008366347890911 0 -0.0006329396487679943 0.028436537060925325 0 -0.0005934164308087096 0.02852736884351665 0 -0.0006329396487679943 0.028436537060925325 0 -0.0005934164308087096 0.02852736884351665 0 -0.0016400739681516185 0.028124512726273601 0 -4.7390423788877741e-05 0.031262053639787193 0 -0.00084495532586707778 0.029748363744008893 0 6.600959416956122e-05 0.031709038150039372 0 -0.0010111297248407373 0.031222818283149701 0 -0.00021033249195924987 0.030981137927704835 0 6.600959416956122e-05 0.031709038150039372 0 -0.00027910775219892013 0.032321128345681516 0 -0.0010111297248407373 0.031222818283149701 0 -0.0010111297248407373 0.031222818283149701 0 -0.00021033249195924987 0.030981137927704835 0 -0.00050391260342704403 0.030495492690835988 0 4.9868217693851123e-05 0.030466167840633149 0 -0.00021033249195924987 0.030981137927704835 0 -0.00050391260342704403 0.030495492690835988 0 -0.00084495532586707778 0.029748363744008893 0 -0.0017306335120820444 0.028368626059018281 0 -0.0010111297248407373 0.031222818283149701 0 -0.00050391260342704403 0.030495492690835988 0 -0.0010315597738347468 0.029969071215035427 0 -0.0010111297248407373 0.031222818283149701 0 -0.0017487935448881897 0.030101608413550938 0 -0.0010315597738347468 0.029969071215035427 0 -0.0006329396487679943 0.028436537060925325 0 -0.0015541640878939055 0.027616668708342708 0 -0.0016400739681516185 0.028124512726273601 0 -0.0006329396487679943 0.028436537060925325 0 -0.0015541640878939055 0.027616668708342708 0 -0.0014395940017065919 0.027115541146078476 0 -0.0015541640878939055 0.027616668708342708 0 -0.0019521118458923684 0.027542598592558035 0 -0.0016400739681516185 0.028124512726273601 0 -0.0019521118458923684 0.027542598592558035 0 -0.0016400739681516185 0.028124512726273601 0 -0.0023082847789780087 0.027627417615841546 0 -0.0015541640878939055 0.027616668708342708 0 -0.0019521118458923684 0.027542598592558035 0 -0.0018197036301296492 0.027338689188713711 0 -0.0011412725921350706 0.028498635095603138 0 -0.0011837173499788199 0.028510680385672726 0 -0.0019521118458923684 0.027542598592558035 0 -0.0022150650317953671 0.027382139921134929 0 -0.0021253069983955871 0.027162771497608276 0 -0.0019521118458923684 0.027542598592558035 0 -0.0023082847789780087 0.027627417615841546 0 -0.0022150650317953671 0.027382139921134929 0 -0.00070129266224316987 0.028914719579592716 0 -0.00038391743360558856 0.028982024951643169 0 -0.00033729745749453018 0.029214789545364866 0 -0.00059078119384048595 0.028859734744430408 0 -0.0004060564089442686 0.028961527355559843 0 -0.00067302306270229965 0.028779655833316195 0 -0.00070129266224316987 0.028914719579592716 0 -0.00038391743360558856 0.028982024951643169 0 -0.0005934164308087096 0.02852736884351665 0 -0.00068500241221136876 0.028772646741549168 0 -0.00070129266224316987 0.028914719579592716 0 -0.00067302306270229965 0.028779655833316195 0 -0.00068500241221136876 0.028772646741549168 0 -0.00070129266224316987 0.028914719579592716 0 -0.0006012594448650964 0.028554316811281354 0 -0.0011412725921350706 0.028498635095603138 0 1.8438350166406466e-05 0.029080789999395798 0 -0.00015959512561059452 0.029116031620675119 0 0.0001235727621585839 0.029402215920436382 0 1.8438350166406466e-05 0.029080789999395798 0 0.0001235727621585839 0.029402215920436382 0 0.00052621198565559963 0.029060070569371543 0 1.8438350166406466e-05 0.029080789999395798 0 0.00052621198565559963 0.029060070569371543 0 0.00012235723295561199 0.028864198835537345 0 1.8438350166406466e-05 0.029080789999395798 0 0.00012235723295561199 0.028864198835537345 0 -0.00021308433583699875 0.028915243992160077 0 1.8438350166406466e-05 0.029080789999395798 0 -0.00015959512561059452 0.029116031620675119 0 -0.00021308433583699875 0.028915243992160077 0 -0.00038391743360558856 0.028982024951643169 0 -0.00015959512561059452 0.029116031620675119 0 -0.00021308433583699875 0.028915243992160077 0 -0.00038391743360558856 0.028982024951643169 0 -0.00015959512561059452 0.029116031620675119 0 -0.00033729745749453018 0.029214789545364866 0 -0.0023082847789780087 0.027627417615841546 0 -0.0026917994536514553 0.027261178713717287 0 -0.0023920249806467179 0.027238289583839052 0 -0.00015959512561059452 0.029116031620675119 0 -0.00033729745749453018 0.029214789545364866 0 0.0001235727621585839 0.029402215920436382 0 -0.0023082847789780087 0.027627417615841546 0 -0.0022150650317953671 0.027382139921134929 0 -0.0023920249806467179 0.027238289583839052 0 -0.0011837173499788199 0.028510680385672726 0 -0.0017854799891165918 0.027667086660669481 0 -0.0023082847789780087 0.027627417615841546 0 -0.002752249365107067 0.027352890535489404 0 -0.0026917994536514553 0.027261178713717287 0 -0.0027236405464629038 0.027194617984978738 0 -0.0026917994536514553 0.027261178713717287 0 -0.0027740878681317897 0.027088334630779139 0 -0.0017854799891165918 0.027667086660669481 0 -0.0026028189490146032 0.027383980196920121 0 -0.0017854799891165918 0.027667086660669481 0 -0.0020350020051792361 0.027626652763301809 0 -0.0026917994536514553 0.027261178713717287 0 -0.0027740878681317897 0.027088334630779139 0 -0.0027489232278480901 0.027267152357657802 0 -0.0027740878681317897 0.027088334630779139 0 -0.0016798689349941695 0.026753558750469295 0 -0.0027489232278480901 0.027267152357657802 0 -0.0030487919695578853 0.027033621393361424 0 -0.0027740878681317897 0.027088334630779139 0 -0.0024829112582775933 0.026055550327871015 0 -0.0018975175585520731 0.025597251127916859 0 -0.001778662474011963 0.025921038422093454 0 -0.0019784126723012591 0.026037933574715819 0 -0.0017751329915390646 0.026196082886109733 0 -0.0024548702619403393 0.026650667203826046 0 -0.0018975175585520731 0.025597251127916859 0 -0.0019784126723012591 0.026037933574715819 0 -0.0022508304771786058 0.026080023742553405 0 -0.0016798689349941695 0.026753558750469295 0 -0.0024829112582775933 0.026055550327871015 0 -0.0014563302223292423 0.025836991994428876 0 -0.0027740878681317897 0.027088334630779139 0 -0.0016798689349941695 0.026753558750469295 0 -0.0024829112582775933 0.026055550327871015 0 -0.0017854799891165918 0.027667086660669481 0 -0.00095100962756203299 0.027641674097147732 0 0.00052621198565559963 0.029060070569371543 0 0.0011793847372699217 0.028538281505292369 0 0.00034754746952887278 0.028527794636661358 0 0.00052621198565559963 0.029060070569371543 0 0.00034754746952887278 0.028527794636661358 0 0.00012235723295561199 0.028864198835537345 0 -0.0024829112582775933 0.026055550327871015 0 -0.0018341474497887726 0.024934732030317507 0 -0.0014563302223292423 0.025836991994428876 0 -0.00095100962756203299 0.027641674097147732 0 -0.00029156530872966757 0.026629708845468229 0 0.0011793847372699217 0.028538281505292369 0 0.00069898944318011209 0.027770993986245208 0 0.0021089586703429801 0.027576953800721376 0 0.00034754746952887278 0.028527794636661358 0 -0.00014801921083972035 0.028102902149985679 0 0.00069898944318011209 0.027770993986245208 0 0.0011793847372699217 0.028538281505292369 0 0.00034754746952887278 0.028527794636661358 0 0.00069898944318011209 0.027770993986245208 0 0.00034754746952887278 0.028527794636661358 0 -0.00015296264076925171 0.028673853391140581 0 -0.00014801921083972035 0.028102902149985679 0 0.00034754746952887278 0.028527794636661358 0 0.00012235723295561199 0.028864198835537345 0 -0.00015296264076925171 0.028673853391140581 0 0.00012235723295561199 0.028864198835537345 0 -0.00021308433583699875 0.028915243992160077 0 -0.00015296264076925171 0.028673853391140581 0 -0.00038391743360558856 0.028982024951643169 0 -0.00021308433583699875 0.028915243992160077 0 -0.00039793945997964984 0.028807869077340675 0 -0.00021308433583699875 0.028915243992160077 0 -0.00015296264076925171 0.028673853391140581 0 -0.00039793945997964984 0.028807869077340675 0 -0.00015296264076925171 0.028673853391140581 0 -0.00039793945997964984 0.028807869077340675 0 -0.00034571860652905464 0.028548936014714799 0 -0.00015296264076925171 0.028673853391140581 0 -0.00034571860652905464 0.028548936014714799 0 -0.00014801921083972035 0.028102902149985679 0 -2.3709388604455037e-06 0.027025492047479251 0 -0.00021187376023177224 0.02689058092873085 0 4.5455241257131451e-06 0.022459735937361034 0 -0.00034571860652905464 0.028548936014714799 0 -0.00040333571922406323 0.028311703499227913 0 -0.00014801921083972035 0.028102902149985679 0 -0.00014801921083972035 0.028102902149985679 0 -0.00021187376023177224 0.02689058092873085 0 0.00032743405900740246 0.026874645095648998 0 -0.00040333571922406323 0.028311703499227913 0 -0.00014801921083972035 0.028102902149985679 0 -0.00021187376023177224 0.02689058092873085 0 -0.00021187376023177224 0.02689058092873085 0 4.5455241257131451e-06 0.022459735937361034 0 0.00050484639479385634 0.025511055300894023 0 4.5455241257131451e-06 0.022459735937361034 0 0.00050484639479385634 0.025511055300894023 0 0.0022096158393404182 0.024667445886222883 0 4.4315750264822566e-09 0.022452395351030201 0 0.0012443800009717502 0.02286559553923688 0 0.00050484639479385634 0.025511055300894023 0 0.0014778302184300207 0.026490964421077203 0 0.0022096158393404182 0.024667445886222883 0 0.00050484639479385634 0.025511055300894023 0 0.0014778302184300207 0.026490964421077203 0 0.00032743405900740246 0.026874645095648998 0 -0.00021187376023177224 0.02689058092873085 0 0.00050484639479385634 0.025511055300894023 0 0.00032743405900740246 0.026874645095648998 0 0.0014778302184300207 0.026490964421077203 0 0.00032743405900740246 0.026874645095648998 0 0.00069898944318011209 0.027770993986245208 0 -0.00014801921083972035 0.028102902149985679 0 0.00032743405900740246 0.026874645095648998 0 0.00069898944318011209 0.027770993986245208 0 0.0014778302184300207 0.026490964421077203 0 0.00069898944318011209 0.027770993986245208 0 0.0021089586703429801 0.027576953800721376 0 -0.001097257709053007 0.023759419292335156 0 0.00036980907544027406 0.023391622659891417 0 -8.4990301357784319e-05 0.024364251576476984 0 -0.001097257709053007 0.023759419292335156 0 -0.00032912862881444576 0.022593399702601186 0 0.00036980907544027406 0.023391622659891417 0 0.00063110781821873799 0.021907862423947398 0 0.00036794524996781739 0.020283430454758306 0 0.00079391284523597683 0.01758758947978703 0 0.0003787236408432202 0.017570915508599606 0 0.00039360351063055094 0.017242689299616889 0 0.00050975871544740913 0.026059236658216405 0 0.00063110781821873799 0.021907862423947398 0 0.0014778302184300207 0.026490964421077203 0 0.0021089586703429801 0.027576953800721376 0 0.0032806463243624348 0.026099100795732303 0 0.0014778302184300207 0.026490964421077203 0 0.0032806463243624348 0.026099100795732303 0 0.0022096158393404182 0.024667445886222883 0 0.00063110781821873799 0.021907862423947398 0 0.0012443800009717502 0.02286559553923688 0 7.9265837218753655e-06 0.020112477417324089 0 6.7400123734088498e-05 0.020585685280647331 0 -4.4309212998606361e-05 0.020049372731730852 0 0.00079391284523597683 0.01758758947978703 0 0.00063277751148527617 0.017979501238747725 0 0.0003787236408432202 0.017570915508599606 0 0.00063110781821873799 0.021907862423947398 0 0.00051406146589247619 0.018718805992211682 0 6.7400123734088498e-05 0.020585685280647331 0 -4.4309212998606361e-05 0.020049372731730852 0 -6.1135321662485387e-07 0.02049266434701319 0 -4.4309212998606361e-05 0.020049372731730852 0 -6.1135321662485387e-07 0.02049266434701319 0 0.0001098117835258374 0.019045751705527126 0 9.99871234210922e-07 0.022450641574822711 0 6.7400123734088498e-05 0.020585685280647331 0 -6.1135321662485387e-07 0.02049266434701319 0 -8.9788223843281008e-07 0.016571987200947956 0 -0.00013818930179031863 0.01756227970505422 0 3.5979946728705772e-07 0.01853223573430263 0 -0.00015896729040820089 0.01739490182345859 0 -0.00013818930179031863 0.01756227970505422 0 -0.00015702512224611013 0.017780208447815974 0 -8.0424811445907755e-05 0.018231394214539273 0 -0.00013818930179031863 0.01756227970505422 0 -0.00015702512224611013 0.017780208447815974 0 -8.0424811445907755e-05 0.018231394214539273 0 -0.00013818930179031863 0.01756227970505422 0 3.5979946728705772e-07 0.01853223573430263 0 -8.0424811445907755e-05 0.018231394214539273 0 3.5979946728705772e-07 0.01853223573430263 0 0.0001098117835258374 0.019045751705527126 0 -6.1135321662485387e-07 0.02049266434701319 0 3.5979946728705772e-07 0.01853223573430263 0 0.0001098117835258374 0.019045751705527126 0 0.00051406146589247619 0.018718805992211682 0 6.1619548554822111e-05 0.019205924806099662 0 -8.0424811445907755e-05 0.018231394214539273 0 0.0001098117835258374 0.019045751705527126 0 7.0155210430908953e-05 0.017983687065965693 0 0.00063277751148527617 0.017979501238747725 0 0.0001098117835258374 0.019045751705527126 0 7.0155210430908953e-05 0.017983687065965693 0 0.00063277751148527617 0.017979501238747725 0 7.0155210430908953e-05 0.017983687065965693 0 0.0003787236408432202 0.017570915508599606 0 7.0155210430908953e-05 0.017983687065965693 0 -1.6393951412332456e-05 0.017595282910735574 0 0.0003787236408432202 0.017570915508599606 0 -8.0424811445907755e-05 0.018231394214539273 0 7.0155210430908953e-05 0.017983687065965693 0 -0.00015702512224611013 0.017780208447815974 0 7.0155210430908953e-05 0.017983687065965693 0 -0.00015702512224611013 0.017780208447815974 0 -1.6393951412332456e-05 0.017595282910735574 0 -0.00015896729040820089 0.01739490182345859 0 -0.00015702512224611013 0.017780208447815974 0 -0.00016696082122446336 0.017559173054850656 0 -0.00015702512224611013 0.017780208447815974 0 -0.00016696082122446336 0.017559173054850656 0 -1.6393951412332456e-05 0.017595282910735574 0 -0.00016696082122446336 0.017559173054850656 0 -0.00011885183802094542 0.017482289261428769 0 -1.6393951412332456e-05 0.017595282910735574 0 -0.00016691253378030147 0.017495212822532441 0 -0.00016696082122446336 0.017559173054850656 0 -0.00011885183802094542 0.017482289261428769 0 -0.00011885183802094542 0.017482289261428769 0 -1.6393951412332456e-05 0.017595282910735574 0 6.8243047884125542e-05 0.017361611734367999 0 -0.00018286787630076125 0.017347996195477708 0 -0.00011885183802094542 0.017482289261428769 0 6.8243047884125542e-05 0.017361611734367999 0 -1.6393951412332456e-05 0.017595282910735574 0 6.8243047884125542e-05 0.017361611734367999 0 0.0003787236408432202 0.017570915508599606 0 6.8243047884125542e-05 0.017361611734367999 0 0.0003787236408432202 0.017570915508599606 0 0.00039360351063055094 0.017242689299616889 0 6.8243047884125542e-05 0.017361611734367999 0 0.00039360351063055094 0.017242689299616889 0 9.4310285749373528e-05 0.016973140939901783 0 0.00036980907544027406 0.023391622659891417 0 0.0010713847878222424 0.024176516573629962 0 -8.4990301357784319e-05 0.024364251576476984 0 0.00036794524996781739 0.020283430454758306 0 0.00016613855928777018 0.019078662852718309 0 -0.00018286787630076125 0.017347996195477708 0 6.8243047884125542e-05 0.017361611734367999 0 9.4310285749373528e-05 0.016973140939901783 0 0.0007877369418057646 0.012536827796086345 0 0.00067105501387625002 0.01228228993010925 0 0.00012511868637891257 0.012827499321205242 0 0.0004914313753259143 0.014190018578551424 0 0.00016613855928777018 0.019078662852718309 0 -0.00022978469695333979 0.019680400423842091 0 0.00016613855928777018 0.019078662852718309 0 0.00028836897886715308 0.02429083316795878 0 -0.00037685381264899326 0.023516895119360778 0 -0.00038998779554323595 0.024438355366916843 0 0.0006029240541955362 0.013416630547356131 0 0.00087232344587659318 0.012952270899702125 0 0.00012511868637891257 0.012827499321205242 0 0.00028836897886715308 0.02429083316795878 0 -0.00038998779554323595 0.024438355366916843 0 -0.0003434087637536703 0.025178211681051076 0 -0.00022978469695333979 0.019680400423842091 0 -0.00073555419843139081 0.025466017538980139 0 -0.00038998779554323595 0.024438355366916843 0 -0.0003434087637536703 0.025178211681051076 0 -0.00084209082717251677 0.024861961444864463 0 -0.00038998779554323595 0.024438355366916843 0 -0.00095430981425815469 0.024261322206525292 0 -0.00084209082717251677 0.024861961444864463 0 0.0010713847878222424 0.024176516573629962 0 0.00031171027767323015 0.025084032224750981 0 -8.4990301357784319e-05 0.024364251576476984 0 -0.00037685381264899326 0.023516895119360778 0 -0.00038998779554323595 0.024438355366916843 0 -0.00095430981425815469 0.024261322206525292 0 0.00016613855928777018 0.019078662852718309 0 -0.00060311673575835182 0.025333143135915778 0 -8.4990301357784319e-05 0.024364251576476984 0 -0.00084137038503607619 0.024759373619290256 0 -0.00039071032530109217 0.025140212305024504 0 0.00031171027767323015 0.025084032224750981 0 -8.4990301357784319e-05 0.024364251576476984 0 -0.00039071032530109217 0.025140212305024504 0 -0.00029156530872966757 0.026629708845468229 0 0.00050975871544740913 0.026059236658216405 0 -0.0018341474497887726 0.024934732030317507 0 -0.001097257709053007 0.023759419292335156 0 -0.00084137038503607619 0.024759373619290256 0 -0.001097257709053007 0.023759419292335156 0 -8.4990301357784319e-05 0.024364251576476984 0 -0.00084137038503607619 0.024759373619290256 0 -0.0018341474497887726 0.024934732030317507 0 -0.00084137038503607619 0.024759373619290256 0 -0.00093796242914636111 0.02542206241025103 0 -0.0014563302223292423 0.025836991994428876 0 -0.00093796242914636111 0.02542206241025103 0 -0.00045905159178550524 0.025958139400927231 0 -0.0018341474497887726 0.024934732030317507 0 -0.0014563302223292423 0.025836991994428876 0 -0.00093796242914636111 0.02542206241025103 0 -0.00084137038503607619 0.024759373619290256 0 -0.00093796242914636111 0.02542206241025103 0 -0.00039071032530109217 0.025140212305024504 0 -0.00095430981425815469 0.024261322206525292 0 -0.001356061127839814 0.024919016488137651 0 -0.0014258792193288493 0.024983457074226681 0 -0.00060311673575835182 0.025333143135915778 0 -0.0010161205013086846 0.025250136730829566 0 0.00031171027767323015 0.025084032224750981 0 -0.00039071032530109217 0.025140212305024504 0 -0.00045905159178550524 0.025958139400927231 0 -0.00093796242914636111 0.02542206241025103 0 -0.00039071032530109217 0.025140212305024504 0 -0.00045905159178550524 0.025958139400927231 0 -0.00095430981425815469 0.024261322206525292 0 -0.001356061127839814 0.024919016488137651 0 -0.00084209082717251677 0.024861961444864463 0 -0.0010938853333643541 0.025038394782259072 0 -0.001356061127839814 0.024919016488137651 0 -0.00084209082717251677 0.024861961444864463 0 -0.0014662804775636799 0.025130347963775342 0 -0.0013674940409791965 0.025376438946731764 0 -0.0015150374993496119 0.025668384309393187 0 -0.0010938853333643541 0.025038394782259072 0 -0.0012709540219236683 0.025108307825375296 0 -0.001078343546599569 0.025312590970325049 0 -0.0010938853333643541 0.025038394782259072 0 -0.0012709540219236683 0.025108307825375296 0 -0.001356061127839814 0.024919016488137651 0 -0.0012709540219236683 0.025108307825375296 0 -0.001356061127839814 0.024919016488137651 0 -0.0014046027193589711 0.024986291699624762 0 -0.0010495403615717526 0.025241704905974213 0 -0.0010161205013086846 0.025250136730829566 0 -0.0010161205013086846 0.025250136730829566 0 -0.0011190122663578355 0.025261473438120057 0 -0.0012709540219236683 0.025108307825375296 0 -0.0014046027193589711 0.024986291699624762 0 -0.0014662804775636799 0.025130347963775342 0 -0.0012709540219236683 0.025108307825375296 0 -0.0014662804775636799 0.025130347963775342 0 -0.0013674940409791965 0.025376438946731764 0 -0.0012709540219236683 0.025108307825375296 0 -0.0013674940409791965 0.025376438946731764 0 -0.001078343546599569 0.025312590970325049 0 -0.0017751329915390646 0.026196082886109733 0 -0.0010161205013086846 0.025250136730829566 0 -0.0018975175585520731 0.025597251127916859 0 -0.0014082171597828805 0.025023466134247559 0 -0.0014662804775636799 0.025130347963775342 0 -0.0018975175585520731 0.025597251127916859 0 -0.0014662804775636799 0.025130347963775342 0 -0.0015150374993496119 0.025668384309393187 0 -0.0016798689349941695 0.026753558750469295 0 -0.0014563302223292423 0.025836991994428876 0 -0.00045905159178550524 0.025958139400927231 0 -0.0018975175585520731 0.025597251127916859 0 -0.0015150374993496119 0.025668384309393187 0 -0.001778662474011963 0.025921038422093454 0 -0.0013674940409791965 0.025376438946731764 0 -0.001078343546599569 0.025312590970325049 0 -0.0015150374993496119 0.025668384309393187 0 -0.001078343546599569 0.025312590970325049 0 -0.0015150374993496119 0.025668384309393187 0 -0.00093059745663465079 0.025830889299469181 0 -0.00092841319510985861 0.025166188421615141 0 -0.00073555419843139081 0.025466017538980139 0 -0.001078343546599569 0.025312590970325049 0 -0.00093059745663465079 0.025830889299469181 0 -0.0003434087637536703 0.025178211681051076 0 -0.0010749410889072321 0.024821205533240794 0 -0.00074113205969658592 0.024236110893302753 0 -0.00044380271136287527 0.024993955176223302 0 -0.00017807905642257751 0.024536457855720461 0 -0.00074113205969658592 0.024236110893302753 0 -0.00044380271136287527 0.024993955176223302 0 -0.001078343546599569 0.025312590970325049 0 -0.0003434087637536703 0.025178211681051076 0 -0.00084209082717251677 0.024861961444864463 0 -0.0010938853333643541 0.025038394782259072 0 -0.001078343546599569 0.025312590970325049 0 -0.00084209082717251677 0.024861961444864463 0 -0.00091929503978720141 0.025521789479498881 0 -0.00044380271136287527 0.024993955176223302 0 -0.00047349408743656599 0.025682651098283951 0 -0.0010749410889072321 0.024821205533240794 0 -0.00091929503978720141 0.025521789479498881 0 -0.00044380271136287527 0.024993955176223302 0 -0.0010749410889072321 0.024821205533240794 0 -0.00091929503978720141 0.025521789479498881 0 -0.0014030668379312505 0.025452244954172323 0 -0.0015150374993496119 0.025668384309393187 0 -0.00093059745663465079 0.025830889299469181 0 -0.0013945251296421999 0.026284323006046093 0 -0.00092841319510985861 0.025166188421615141 0 -0.0014019397870318577 0.025894073457203789 0 -0.0015150374993496119 0.025668384309393187 0 -0.0016507363532733417 0.026094915256195512 0 -0.0013945251296421999 0.026284323006046093 0 -0.0015150374993496119 0.025668384309393187 0 -0.001778662474011963 0.025921038422093454 0 -0.0016507363532733417 0.026094915256195512 0 -0.001778662474011963 0.025921038422093454 0 -0.0016507363532733417 0.026094915256195512 0 -0.0018481095400137383 0.026209824881311843 0 -0.0016507363532733417 0.026094915256195512 0 -0.0016731279581208352 0.026292803971185452 0 -0.0013945251296421999 0.026284323006046093 0 -0.0016731279581208352 0.026292803971185452 0 -0.0016529746980544458 0.026339894245761247 0 -0.0018821152422640183 0.026410481746422652 0 -0.0014019397870318577 0.025894073457203789 0 -0.0016224973834190197 0.026271900492627651 0 -0.0016731279581208352 0.026292803971185452 0 -0.0013945251296421999 0.026284323006046093 0 -0.0016529746980544458 0.026339894245761247 0 -0.0016507363532733417 0.026094915256195512 0 -0.0016731279581208352 0.026292803971185452 0 -0.0018481095400137383 0.026209824881311843 0 -0.0014030668379312505 0.025452244954172323 0 -0.0013079600922389215 0.025997587166015645 0 -0.0016529746980544458 0.026339894245761247 0 -0.00091929503978720141 0.025521789479498881 0 -0.0014030668379312505 0.025452244954172323 0 -0.0013079600922389215 0.025997587166015645 0 -0.0013079600922389215 0.025997587166015645 0 -0.0012311777348928315 0.026269255894876786 0 -0.00091056535009899082 0.026127272703053879 0 -0.0013079600922389215 0.025997587166015645 0 -0.001458061326898723 0.026427679324354202 0 -0.0012311777348928315 0.026269255894876786 0 -0.0016529746980544458 0.026339894245761247 0 -0.0018274702397559775 0.026481511235785148 0 -0.0018821152422640183 0.026410481746422652 0 -0.0013079600922389215 0.025997587166015645 0 -0.0016529746980544458 0.026339894245761247 0 -0.001458061326898723 0.026427679324354202 0 -0.0016529746980544458 0.026339894245761247 0 -0.0017637244258138869 0.026615370024630308 0 -0.0018274702397559775 0.026481511235785148 0 -0.0016529746980544458 0.026339894245761247 0 -0.0017637244258138869 0.026615370024630308 0 -0.001458061326898723 0.026427679324354202 0 -0.0017637244258138869 0.026615370024630308 0 -0.001458061326898723 0.026427679324354202 0 -0.0015893874985495149 0.026897994162988628 0 -0.001458061326898723 0.026427679324354202 0 -0.0015893874985495149 0.026897994162988628 0 -0.00090395618081392257 0.027317025615973885 0 -0.001458061326898723 0.026427679324354202 0 -0.0012311777348928315 0.026269255894876786 0 -0.0012403227612775292 0.026613290040446793 0 -0.0014243131976177954 0.026453006532011099 0 -0.0010964960067982382 0.026954855516579636 0 -0.00091056535009899082 0.026127272703053879 0 -0.00062100071023233141 0.026527213249553001 0 -0.0012403227612775292 0.026613290040446793 0 -0.0012311777348928315 0.026269255894876786 0 -0.00091056535009899082 0.026127272703053879 0 -0.0012403227612775292 0.026613290040446793 0 -0.00091929503978720141 0.025521789479498881 0 -0.0013079600922389215 0.025997587166015645 0 -0.00091056535009899082 0.026127272703053879 0 -0.00091929503978720141 0.025521789479498881 0 -0.00091056535009899082 0.026127272703053879 0 -0.00047349408743656599 0.025682651098283951 0 -0.00091056535009899082 0.026127272703053879 0 -0.00047349408743656599 0.025682651098283951 0 -0.00044615777144180901 0.026098850607512977 0 -0.00091056535009899082 0.026127272703053879 0 -0.00044615777144180901 0.026098850607512977 0 -0.00062100071023233141 0.026527213249553001 0 -0.00062100071023233141 0.026527213249553001 0 -0.00072859132405800461 0.026900015629326417 0 -0.0012403227612775292 0.026613290040446793 0 -0.00072859132405800461 0.026900015629326417 0 -0.0010067245213748249 0.027100516575506654 0 -0.0012403227612775292 0.026613290040446793 0 -0.00071706101914303596 0.027627608187402754 0 -0.0010964960067982382 0.026954855516579636 0 -0.00022951451453284667 0.027012280533028815 0 -0.00072859132405800461 0.026900015629326417 0 -0.00063030625127415108 0.027251024386893682 0 -0.00072859132405800461 0.026900015629326417 0 -0.00063030625127415108 0.027251024386893682 0 -0.0010067245213748249 0.027100516575506654 0 -0.00022951451453284667 0.027012280533028815 0 -0.00062100071023233141 0.026527213249553001 0 -0.00072859132405800461 0.026900015629326417 0 -0.00063030625127415108 0.027251024386893682 0 -0.0010067245213748249 0.027100516575506654 0 -0.00075017154012214753 0.027688330889388574 0 -0.00029516784238380766 0.027533719717192158 0 -0.00063030625127415108 0.027251024386893682 0 -0.00075017154012214753 0.027688330889388574 0 -0.0005353446093467742 0.028092396989774757 0 -0.00071821856513888313 0.028500634297352952 0 -0.00019952472415321859 0.028744695858103138 0 -0.00071706101914303596 0.027627608187402754 0 -0.00080555016274023842 0.028137634541601269 0 -0.0005353446093467742 0.028092396989774757 0 -0.00071821856513888313 0.028500634297352952 0 -0.00085900097588276789 0.028255634818770334 0 -0.0011705448312992774 0.028340375193508932 0 -0.0012626889363580144 0.028346791162610949 0 -0.0014009330287108243 0.028229597260372285 0 -0.0011225705358143794 0.028186893366943178 0 -0.0015741154137404053 0.028064028155311897 0 -0.00080555016274023842 0.028137634541601269 0 -0.0012626889363580144 0.028346791162610949 0 -0.00071821856513888313 0.028500634297352952 0 -0.00019952472415321859 0.028744695858103138 0 -0.00078133771526500825 0.028515398385326563 0 -0.0014009330287108243 0.028229597260372285 0 -0.0015666654180416502 0.028181224725876641 0 -0.0015741154137404053 0.028064028155311897 0 -0.0015542964173212274 0.028363883200481145 0 -0.0014009330287108243 0.028229597260372285 0 -0.0015856922313094537 0.028257639972705157 0 -0.0015542964173212274 0.028363883200481145 0 -0.0014009330287108243 0.028229597260372285 0 -0.0014118333113254753 0.028430706017767225 0 -0.0014009330287108243 0.028229597260372285 0 -0.0015856922313094537 0.028257639972705157 0 -0.0015666654180416502 0.028181224725876641 0 -0.0014009330287108243 0.028229597260372285 0 -0.0011225705358143794 0.028186893366943178 0 -0.0012008553758759788 0.028431999745794169 0 -0.0019737235362027976 0.02825188168951405 0 -0.0020378167612325232 0.028341573977408357 0 -0.001981976211992489 0.028372029446125668 0 -0.0019737235362027976 0.02825188168951405 0 -0.0018909038163913261 0.028346696453877825 0 -0.001981976211992489 0.028372029446125668 0 -0.0019737235362027976 0.02825188168951405 0 -0.0018909038163913261 0.028346696453877825 0 -0.0017775144735813983 0.028278457943545186 0 -0.0019484014720171105 0.028239199153052019 0 -0.0012626889363580144 0.028346791162610949 0 -0.0018909038163913261 0.028346696453877825 0 -0.0017839342774812145 0.028377160302298914 0 -0.0017775144735813983 0.028278457943545186 0 -0.0019737235362027976 0.02825188168951405 0 -0.001694800084477159 0.028207185734009793 0 -0.0015741154137404053 0.028064028155311897 0 -0.0019737235362027976 0.02825188168951405 0 -0.0017775144735813983 0.028278457943545186 0 -0.001694800084477159 0.028207185734009793 0 -0.0017839342774812145 0.028377160302298914 0 -0.0017775144735813983 0.028278457943545186 0 -0.0016824075908001336 0.028330613534778223 0 -0.0017775144735813983 0.028278457943545186 0 -0.0016863362140262159 0.028268532938995082 0 -0.001694800084477159 0.028207185734009793 0 -0.0017775144735813983 0.028278457943545186 0 -0.0016824075908001336 0.028330613534778223 0 -0.0016863362140262159 0.028268532938995082 0 -0.0015542964173212274 0.028363883200481145 0 -0.0016824075908001336 0.028330613534778223 0 -0.0015856922313094537 0.028257639972705157 0 -0.0016863362140262159 0.028268532938995082 0 -0.0015856922313094537 0.028257639972705157 0 -0.001694800084477159 0.028207185734009793 0 -0.0016824075908001336 0.028330613534778223 0 -0.0016863362140262159 0.028268532938995082 0 -0.0015856922313094537 0.028257639972705157 0 -0.0015856922313094537 0.028257639972705157 0 -0.0015666654180416502 0.028181224725876641 0 -0.001694800084477159 0.028207185734009793 0 -0.0015666654180416502 0.028181224725876641 0 -0.001694800084477159 0.028207185734009793 0 -0.0015741154137404053 0.028064028155311897 0 -0.0012626889363580144 0.028346791162610949 0 -0.0015244148698855 0.028271537245220982 0 -0.00078584678340076709 0.02851988772148438 0 -0.00085900097588276789 0.028255634818770334 0 -0.0012959864893220179 0.028345063022498441 0 -0.0018031566248633804 0.028262830887084065 0 -0.0016523151280961696 0.02823873394492684 0 -0.0017550517767600535 0.028197566868752102 0 -0.00071821856513888313 0.028500634297352952 0 -0.00078584678340076709 0.02851988772148438 0 -0.00085900097588276789 0.028255634818770334 0 -0.0005353446093467742 0.028092396989774757 0 -0.00085900097588276789 0.028255634818770334 0 -0.0010017202115327293 0.027988589564038633 0 -0.00085900097588276789 0.028255634818770334 0 -0.0012959864893220179 0.028345063022498441 0 -0.0010017202115327293 0.027988589564038633 0 -0.0017550517767600535 0.028197566868752102 0 -0.0018256112954404523 0.028217770232217176 0 -0.0018283161267545363 0.02816191931099183 0 -0.0015244148698855 0.028271537245220982 0 -0.0017992700452710286 0.028169600968653837 0 -0.0012959864893220179 0.028345063022498441 0 -0.0014163198658710386 0.027899118504490405 0 -0.0018283161267545363 0.02816191931099183 0 -0.0018031566248633804 0.028262830887084065 0 -0.0017550517767600535 0.028197566868752102 0 -0.0018256112954404523 0.028217770232217176 0 -0.0014163198658710386 0.027899118504490405 0 -0.0018899728665512357 0.027943645460664347 0 -0.0018283161267545363 0.02816191931099183 0 -0.0014163198658710386 0.027899118504490405 0 -0.0016467210377488391 0.02733565803255366 0 -0.0018899728665512357 0.027943645460664347 0 -0.0005353446093467742 0.028092396989774757 0 -0.0010017202115327293 0.027988589564038633 0 -0.00090395618081392257 0.027317025615973885 0 -0.0014163198658710386 0.027899118504490405 0 -0.0010017202115327293 0.027988589564038633 0 -0.00090395618081392257 0.027317025615973885 0 -0.0012959864893220179 0.028345063022498441 0 -0.0014163198658710386 0.027899118504490405 0 -0.0010017202115327293 0.027988589564038633 0 -0.0015893874985495149 0.026897994162988628 0 -0.0016467210377488391 0.02733565803255366 0 -0.0019930524754751479 0.026864139099644357 0 -0.0014163198658710386 0.027899118504490405 0 -0.00090395618081392257 0.027317025615973885 0 -0.0016467210377488391 0.02733565803255366 0 -0.0015893874985495149 0.026897994162988628 0 -0.00090395618081392257 0.027317025615973885 0 -0.0016467210377488391 0.02733565803255366 0 -0.0020138727422920489 0.027294094441353212 0 -0.0023476103109852662 0.027179400898197904 0 -0.0018899728665512357 0.027943645460664347 0 -0.0016467210377488391 0.02733565803255366 0 -0.0020138727422920489 0.027294094441353212 0 -0.0019930524754751479 0.026864139099644357 0 -0.0020138727422920489 0.027294094441353212 0 -0.0023476103109852662 0.027179400898197904 0 -0.0019930524754751479 0.026864139099644357 0 -0.0016467210377488391 0.02733565803255366 0 -0.0020138727422920489 0.027294094441353212 0 -0.0018899728665512357 0.027943645460664347 0 -0.0019497135974624648 0.02853275549193297 0 -0.0019374501066340788 0.02816748427319329 0 -0.001891058495835194 0.028289198344581799 0 -0.0021083600153678187 0.027866805285202377 0 -0.0018613368079301972 0.027970911829504848 0 -0.0019497135974624648 0.02853275549193297 0 -0.0019374501066340788 0.02816748427319329 0 -0.0018899728665512357 0.027943645460664347 0 -0.0019374501066340788 0.02816748427319329 0 -0.0018899728665512357 0.027943645460664347 0 -0.0018283161267545363 0.02816191931099183 0 -0.0018256112954404523 0.028217770232217176 0 -0.0018283161267545363 0.02816191931099183 0 -0.0018720400586392729 0.028214852526045973 0 -0.0018256112954404523 0.028217770232217176 0 -0.0018720400586392729 0.028214852526045973 0 -0.0018633945157996751 0.028237434285765119 0 -0.0018720400586392729 0.028214852526045973 0 -0.0019059284826600097 0.02822597891041799 0 -0.0018882085619375589 0.028234146411203993 0 -0.0018720400586392729 0.028214852526045973 0 -0.0018633945157996751 0.028237434285765119 0 -0.0018882085619375589 0.028234146411203993 0 -0.0019374501066340788 0.02816748427319329 0 -0.0018283161267545363 0.02816191931099183 0 -0.0018720400586392729 0.028214852526045973 0 -0.0019374501066340788 0.02816748427319329 0 -0.0018720400586392729 0.028214852526045973 0 -0.0019059284826600097 0.02822597891041799 0 -0.001891058495835194 0.028289198344581799 0 -0.0018818042997442391 0.028253007049182519 0 -0.0019059284826600097 0.02822597891041799 0 -0.0019374501066340788 0.02816748427319329 0 -0.001891058495835194 0.028289198344581799 0 -0.0019059284826600097 0.02822597891041799 0 -0.001891058495835194 0.028289198344581799 0 -0.0018818042997442391 0.028253007049182519 0 -0.0018397520346249852 0.028255433566523706 0 -0.0018818042997442391 0.028253007049182519 0 -0.0018833945679310408 0.028238586872700148 0 -0.0018397520346249852 0.028255433566523706 0 -0.0018818042997442391 0.028253007049182519 0 -0.0019059284826600097 0.02822597891041799 0 -0.0018833945679310408 0.028238586872700148 0 -0.0019059284826600097 0.02822597891041799 0 -0.0018833945679310408 0.028238586872700148 0 -0.0018882085619375589 0.028234146411203993 0 -0.002080163591061657 0.028317516713309548 0 -0.0020808260029311237 0.028338844359674532 0 -0.0018042622946324381 0.028209548580979533 0 -0.001960090386617546 0.028279388278805887 0 -0.001828340571368382 0.028222251543080692 0 -0.0018541796092336037 0.028227282365929359 0 -0.0018910870317001558 0.028234874602951317 0 -0.0018042622946324381 0.028209548580979533 0 -0.0018833945679310408 0.028238586872700148 0 -0.0018871852003439905 0.0282360909534374 0 -0.0018882085619375589 0.028234146411203993 0 -0.0018833945679310408 0.028238586872700148 0 -0.0018763453099015952 0.028234849023781185 0 -0.0018871852003439905 0.0282360909534374 0 -0.0018763453099015952 0.028234849023781185 0 -0.0018871852003439905 0.0282360909534374 0 -0.0018910870317001558 0.028234874602951317 0 -0.0018833945679310408 0.028238586872700148 0 -0.0018537788880931385 0.028234146308889742 0 -0.0018397520346249852 0.028255433566523706 0 -0.0018763453099015952 0.028234849023781185 0 -0.0018537788880931385 0.028234146308889742 0 -0.0018541796092336037 0.028227282365929359 0 -0.0018833945679310408 0.028238586872700148 0 -0.0018763453099015952 0.028234849023781185 0 -0.0018537788880931385 0.028234146308889742 0 -0.0018537788880931385 0.028234146308889742 0 -0.0018541796092336037 0.028227282365929359 0 -0.0018361131849518777 0.028227565128022415 0 -0.0018763453099015952 0.028234849023781185 0 -0.0018541796092336037 0.028227282365929359 0 -0.0018910870317001558 0.028234874602951317 0 -0.0018031566248633804 0.028262830887084065 0 -0.0018910870317001558 0.028234874602951317 0 -0.0018633945157996751 0.028237434285765119 0 -0.0019484014720171105 0.028239199153052019 0 -0.001960090386617546 0.028279388278805887 0 -0.002080163591061657 0.028317516713309548 0 -0.0020808260029311237 0.028338844359674532 0 -0.0020378167612325232 0.028341573977408357 0 -0.0019737235362027976 0.02825188168951405 0 -0.0020808260029311237 0.028338844359674532 0 -0.0020378167612325232 0.028341573977408357 0 -0.0018031566248633804 0.028262830887084065 0 -0.0018256112954404523 0.028217770232217176 0 -0.0018633945157996751 0.028237434285765119 0 -0.0018871852003439905 0.0282360909534374 0 -0.0018633945157996751 0.028237434285765119 0 -0.0018882085619375589 0.028234146411203993 0 -0.0018871852003439905 0.0282360909534374 0 -0.0018910870317001558 0.028234874602951317 0 -0.0018633945157996751 0.028237434285765119 0 -0.0016370990700746058 0.030352531150300007 0 -0.001797447035812803 0.030194438333604672 0 -0.0010543815258190663 0.031534503815591912 0 -0.0015607217340036987 0.032605951631216719 0 -0.0023510088972301295 0.031158181097445115 0 -0.0017773198855819815 0.028228399013673963 0 -0.0018164028545348398 0.028218633843225947 0 -0.0018042622946324381 0.028209548580979533 0 -0.0017773198855819815 0.028228399013673963 0 -0.0018042622946324381 0.028209548580979533 0 -0.0017988328430897857 0.028192900784594601 0 -0.0017773198855819815 0.028228399013673963 0 -0.0016299792347667951 0.028255953218622662 0 -0.0017988328430897857 0.028192900784594601 0 -0.0018541796092336037 0.028227282365929359 0 -0.0018164028545348398 0.028218633843225947 0 -0.0018361131849518777 0.028227565128022415 0 -0.0018541796092336037 0.028227282365929359 0 -0.0018164028545348398 0.028218633843225947 0 -0.0018042622946324381 0.028209548580979533 0 -0.0017773198855819815 0.028228399013673963 0 -0.0018164028545348398 0.028218633843225947 0 -0.0018205565520001497 0.028232176027937844 0 -0.0018164028545348398 0.028218633843225947 0 -0.0018361131849518777 0.028227565128022415 0 -0.0018205565520001497 0.028232176027937844 0 -0.0018537788880931385 0.028234146308889742 0 -0.0018205565520001497 0.028232176027937844 0 -0.0018397520346249852 0.028255433566523706 0 -0.0018205565520001497 0.028232176027937844 0 -0.001768533147197266 0.028255444396271902 0 -0.0018397520346249852 0.028255433566523706 0 -0.0018537788880931385 0.028234146308889742 0 -0.0018361131849518777 0.028227565128022415 0 -0.0018205565520001497 0.028232176027937844 0 -0.0017773198855819815 0.028228399013673963 0 -0.0018205565520001497 0.028232176027937844 0 -0.001768533147197266 0.028255444396271902 0 -0.0017773198855819815 0.028228399013673963 0 -0.001768533147197266 0.028255444396271902 0 -0.0016299792347667951 0.028255953218622662 0 -0.001768533147197266 0.028255444396271902 0 -0.0018397520346249852 0.028255433566523706 0 -0.0017476853271264602 0.028328820108263274 0 -0.001768533147197266 0.028255444396271902 0 -0.0017476853271264602 0.028328820108263274 0 -0.0016299792347667951 0.028255953218622662 0 -0.001891058495835194 0.028289198344581799 0 -0.0018397520346249852 0.028255433566523706 0 -0.0017476853271264602 0.028328820108263274 0 -0.0017476853271264602 0.028328820108263274 0 -0.0016299792347667951 0.028255953218622662 0 -0.0015636040816414487 0.028443648742182213 0 -0.0016299792347667951 0.028255953218622662 0 -0.0015636040816414487 0.028443648742182213 0 -0.0012937585158109563 0.028571279035771693 0 -0.0016370990700746058 0.030352531150300007 0 -0.00097969525376015529 0.03109571499777989 0 -0.0015636040816414487 0.028443648742182213 0 -0.0014965436413533278 0.028598089374671159 0 -0.0012937585158109563 0.028571279035771693 0 -0.0015636040816414487 0.028443648742182213 0 -0.0014965436413533278 0.028598089374671159 0 -0.0017078236421798386 0.028523217294985935 0 -0.0017476853271264602 0.028328820108263274 0 -0.0015636040816414487 0.028443648742182213 0 -0.0017078236421798386 0.028523217294985935 0 -0.0014965436413533278 0.028598089374671159 0 -0.0017078236421798386 0.028523217294985935 0 -0.0015264214783161476 0.028795572211085568 0 -0.0014965436413533278 0.028598089374671159 0 -0.0015264214783161476 0.028795572211085568 0 -0.0013942146897628269 0.028814373728909225 0 -0.0019497135974624648 0.02853275549193297 0 -0.001891058495835194 0.028289198344581799 0 -0.0017078236421798386 0.028523217294985935 0 -0.001891058495835194 0.028289198344581799 0 -0.0017476853271264602 0.028328820108263274 0 -0.0017078236421798386 0.028523217294985935 0 -0.0021083600153678187 0.027866805285202377 0 -0.0019400267682957275 0.027946278272867071 0 -0.0019497135974624648 0.02853275549193297 0 -0.0017078236421798386 0.028523217294985935 0 -0.0016264197885707782 0.029019945684282896 0 -0.0017078236421798386 0.028523217294985935 0 -0.0015264214783161476 0.028795572211085568 0 -0.0016264197885707782 0.029019945684282896 0 -0.0015264214783161476 0.028795572211085568 0 -0.0013881037535781004 0.029045626602025157 0 -0.0013942146897628269 0.028814373728909225 0 -0.0015264214783161476 0.028795572211085568 0 -0.0016264197885707782 0.029019945684282896 0 -0.0013881037535781004 0.029045626602025157 0 -0.002399799200587905 0.026767014509070094 0 -0.0022896647060894199 0.026675815455102721 0 -0.0021305058845499814 0.026587609458593554 0 -0.0016264197885707782 0.029019945684282896 0 -0.0012874933014875105 0.029210901283336529 0 -0.0013881037535781004 0.029045626602025157 0 -0.0019400267682957275 0.027946278272867071 0 -0.0018827036022246899 0.027589292398476076 0 -0.0022896647060894199 0.026675815455102721 0 -0.002349129665653261 0.026653440100020593 0 -0.002438497298533274 0.026750863885605609 0 -0.002399799200587905 0.026767014509070094 0 -0.0022896647060894199 0.026675815455102721 0 -0.002349129665653261 0.026653440100020593 0 -0.002349129665653261 0.026653440100020593 0 -0.0021864329856024437 0.026557843407666017 0 -0.0022939706786270762 0.026536205415921468 0 -0.0023476103109852662 0.027179400898197904 0 -0.002399799200587905 0.026767014509070094 0 -0.0022670706318398746 0.026758326655423489 0 -0.002399799200587905 0.026767014509070094 0 -0.002349129665653261 0.026653440100020593 0 -0.0022670706318398746 0.026758326655423489 0 -0.0023476103109852662 0.027179400898197904 0 -0.0022670706318398746 0.026758326655423489 0 -0.0019930524754751479 0.026864139099644357 0 -0.0022670706318398746 0.026758326655423489 0 -0.0019930524754751479 0.026864139099644357 0 -0.0020003197455929298 0.026599819899450743 0 -0.0017637244258138869 0.026615370024630308 0 -0.0015893874985495149 0.026897994162988628 0 -0.0019930524754751479 0.026864139099644357 0 -0.0017637244258138869 0.026615370024630308 0 -0.0019930524754751479 0.026864139099644357 0 -0.0020003197455929298 0.026599819899450743 0 -0.0020003197455929298 0.026599819899450743 0 -0.0021864329856024437 0.026557843407666017 0 -0.0018821152422640183 0.026410481746422652 0 -0.0017637244258138869 0.026615370024630308 0 -0.0018274702397559775 0.026481511235785148 0 -0.0020003197455929298 0.026599819899450743 0 -0.0018274702397559775 0.026481511235785148 0 -0.0020003197455929298 0.026599819899450743 0 -0.0018821152422640183 0.026410481746422652 0 -0.0022670706318398746 0.026758326655423489 0 -0.0020003197455929298 0.026599819899450743 0 -0.0021864329856024437 0.026557843407666017 0 -0.002349129665653261 0.026653440100020593 0 -0.0022670706318398746 0.026758326655423489 0 -0.0021864329856024437 0.026557843407666017 0 -0.0021864329856024437 0.026557843407666017 0 -0.0021138755343460118 0.026334222094328778 0 -0.0018821152422640183 0.026410481746422652 0 -0.0021864329856024437 0.026557843407666017 0 -0.0021138755343460118 0.026334222094328778 0 -0.0022939706786270762 0.026536205415921468 0 -0.0021138755343460118 0.026334222094328778 0 -0.0022882721184789481 0.026423277176075313 0 -0.0022939706786270762 0.026536205415921468 0 -0.0016731279581208352 0.026292803971185452 0 -0.0018821152422640183 0.026410481746422652 0 -0.0018481095400137383 0.026209824881311843 0 -0.0021138755343460118 0.026334222094328778 0 -0.0018821152422640183 0.026410481746422652 0 -0.0018481095400137383 0.026209824881311843 0 -0.0021138755343460118 0.026334222094328778 0 -0.0018481095400137383 0.026209824881311843 0 -0.0019784126723012591 0.026037933574715819 0 -0.001778662474011963 0.025921038422093454 0 -0.0018481095400137383 0.026209824881311843 0 -0.0019784126723012591 0.026037933574715819 0 -0.0021138755343460118 0.026334222094328778 0 -0.0019784126723012591 0.026037933574715819 0 -0.0022508304771786058 0.026080023742553405 0 -0.0021138755343460118 0.026334222094328778 0 -0.0022508304771786058 0.026080023742553405 0 -0.0022882721184789481 0.026423277176075313 0 -0.0024548702619403393 0.026650667203826046 0 -0.002430164785083577 0.026723413500446512 0 -0.0026917994536514553 0.027261178713717287 0 -0.0023920249806467179 0.027238289583839052 0 -0.002438497298533274 0.026750863885605609 0 -0.0026917994536514553 0.027261178713717287 0 -0.0027489232278480901 0.027267152357657802 0 -0.002438497298533274 0.026750863885605609 0 -0.0022508304771786058 0.026080023742553405 0 -0.0022882721184789481 0.026423277176075313 0 -0.002438497298533274 0.026750863885605609 0 -0.0023920249806467179 0.027238289583839052 0 -0.002438497298533274 0.026750863885605609 0 -0.0021253069983955871 0.027162771497608276 0 -0.002438497298533274 0.026750863885605609 0 -0.002057672476497368 0.026911489589962326 0 -0.0021253069983955871 0.027162771497608276 0 -0.0022150650317953671 0.027382139921134929 0 -0.0023920249806467179 0.027238289583839052 0 -0.0021253069983955871 0.027162771497608276 0 -0.0022896647060894199 0.026675815455102721 0 -0.002438497298533274 0.026750863885605609 0 -0.002178292660550443 0.026756873398116096 0 -0.002438497298533274 0.026750863885605609 0 -0.002178292660550443 0.026756873398116096 0 -0.002057672476497368 0.026911489589962326 0 -0.002349129665653261 0.026653440100020593 0 -0.002438497298533274 0.026750863885605609 0 -0.0022939706786270762 0.026536205415921468 0 -0.0022882721184789481 0.026423277176075313 0 -0.002438497298533274 0.026750863885605609 0 -0.0022939706786270762 0.026536205415921468 0 -0.0018719219184939919 0.026909202249741616 0 -0.0017399098414778683 0.026978604887019475 0 -0.0017751385604073814 0.026865214691852983 0 -0.0018719219184939919 0.026909202249741616 0 -0.0019009369496754171 0.026991631667092435 0 -0.0017653580696260582 0.027034189003613908 0 -0.0018719219184939919 0.026909202249741616 0 -0.0017399098414778683 0.026978604887019475 0 -0.0017653580696260582 0.027034189003613908 0 -0.0017399098414778683 0.026978604887019475 0 -0.0017751385604073814 0.026865214691852983 0 -0.0016620964889174214 0.026904987396865566 0 -0.0017399098414778683 0.026978604887019475 0 -0.0016620964889174214 0.026904987396865566 0 -0.0016501861650977593 0.027001544277967436 0 -0.0017751385604073814 0.026865214691852983 0 -0.0016967853101654416 0.026824447903180417 0 -0.0016620964889174214 0.026904987396865566 0 -0.0017751385604073814 0.026865214691852983 0 -0.0016967853101654416 0.026824447903180417 0 -0.0018240964951012047 0.026762268488614346 0 -0.0018719219184939919 0.026909202249741616 0 -0.0017751385604073814 0.026865214691852983 0 -0.0019716801763038057 0.026782018707827766 0 -0.0017751385604073814 0.026865214691852983 0 -0.0019716801763038057 0.026782018707827766 0 -0.0018240964951012047 0.026762268488614346 0 -0.0019716801763038057 0.026782018707827766 0 -0.002178292660550443 0.026756873398116096 0 -0.002057672476497368 0.026911489589962326 0 -0.0018719219184939919 0.026909202249741616 0 -0.0019716801763038057 0.026782018707827766 0 -0.002057672476497368 0.026911489589962326 0 -0.0018719219184939919 0.026909202249741616 0 -0.002057672476497368 0.026911489589962326 0 -0.0019009369496754171 0.026991631667092435 0 -0.002057672476497368 0.026911489589962326 0 -0.0019009369496754171 0.026991631667092435 0 -0.0019319124674369147 0.027112434627242176 0 -0.0019009369496754171 0.026991631667092435 0 -0.0019319124674369147 0.027112434627242176 0 -0.0017940634691630032 0.027107409029702961 0 -0.002057672476497368 0.026911489589962326 0 -0.0019319124674369147 0.027112434627242176 0 -0.0021253069983955871 0.027162771497608276 0 -0.0019319124674369147 0.027112434627242176 0 -0.0021253069983955871 0.027162771497608276 0 -0.0018197036301296492 0.027338689188713711 0 -0.0019521118458923684 0.027542598592558035 0 -0.0021253069983955871 0.027162771497608276 0 -0.0018197036301296492 0.027338689188713711 0 -0.0019319124674369147 0.027112434627242176 0 -0.0018197036301296492 0.027338689188713711 0 -0.0017940634691630032 0.027107409029702961 0 -0.0015541640878939055 0.027616668708342708 0 -0.0016368370037180432 0.027172579395253069 0 -0.0014395940017065919 0.027115541146078476 0 -0.0015541640878939055 0.027616668708342708 0 -0.0018197036301296492 0.027338689188713711 0 -0.0016368370037180432 0.027172579395253069 0 -0.0016136420777604888 0.028203491996390259 0 -0.0017306335120820444 0.028368626059018281 0 -0.0018197036301296492 0.027338689188713711 0 -0.0016368370037180432 0.027172579395253069 0 -0.0017940634691630032 0.027107409029702961 0 -0.0017399098414778683 0.026978604887019475 0 -0.0017653580696260582 0.027034189003613908 0 -0.0017407383616913385 0.027112069280872765 0 -0.0016368370037180432 0.027172579395253069 0 -0.0017940634691630032 0.027107409029702961 0 -0.0017653580696260582 0.027034189003613908 0 -0.0016368370037180432 0.027172579395253069 0 -0.0017653580696260582 0.027034189003613908 0 -0.0015693143832865794 0.027159936022719627 0 -0.002014150954612002 0.027402065829049672 0 -0.0017306335120820444 0.028368626059018281 0 -0.0019009369496754171 0.026991631667092435 0 -0.0017940634691630032 0.027107409029702961 0 -0.0017653580696260582 0.027034189003613908 0 -0.0017399098414778683 0.026978604887019475 0 -0.0017407383616913385 0.027112069280872765 0 -0.0016501861650977593 0.027001544277967436 0 -0.0017407383616913385 0.027112069280872765 0 -0.0015466984811930095 0.027098394813611097 0 -0.0016501861650977593 0.027001544277967436 0 -0.0017306335120820444 0.028368626059018281 0 -0.001223250537915417 0.028799589487563077 0 -0.00050391260342704403 0.030495492690835988 0 -0.0010315597738347468 0.029969071215035427 0 -0.00072855840603372891 0.029913935400574191 0 -0.0015466984811930095 0.027098394813611097 0 -0.0014511617026451299 0.02708637958515122 0 -0.0015520074050680431 0.026896084172506825 0 -0.001223250537915417 0.028799589487563077 0 -0.0006104207235177986 0.029240839907382053 0 4.9868217693851123e-05 0.030466167840633149 0 -0.00050391260342704403 0.030495492690835988 0 -0.00031754564774055105 0.029838016534814979 0 -0.00019817450115609738 0.031584900819975663 0 -0.00045545975044013616 0.031439091592402463 0 -0.00050391260342704403 0.030495492690835988 0 -0.00072855840603372891 0.029913935400574191 0 -0.00031754564774055105 0.029838016534814979 0 -0.0006104207235177986 0.029240839907382053 0 -0.00045545975044013616 0.031439091592402463 0 -0.00019084995628291371 0.032963458877082151 0 -0.00019440474928196429 0.032983146020351482 0 -0.00017503179047946753 0.032995464889487201 0 -0.00019084995628291371 0.032963458877082151 0 -0.00019440474928196429 0.032983146020351482 0 -0.00021172634377091229 0.032974936846015088 0 -0.00045545975044013616 0.031439091592402463 0 -0.00021719180418274539 0.033161267881426475 0 -0.00064380910198033213 0.03070962913086343 0 -0.00059666077210464448 0.03070530734851068 0 -0.00065351710002410027 0.030616778964564745 0 7.2361263709290469e-05 0.033885443588383586 0 -0.00021719180418274539 0.033161267881426475 0 0.00016282224834879904 0.034749121650348165 0 0.0001268164192130659 0.034743078647758267 0 0.00015619824724112533 0.034727557914322749 0 -0.00064380910198033213 0.03070962913086343 0 -0.00068469832467207251 0.030643597561325314 0 -0.00065351710002410027 0.030616778964564745 0 -0.0016620964889174214 0.026904987396865566 0 -0.0016501861650977593 0.027001544277967436 0 -0.0015520074050680431 0.026896084172506825 0 -0.0015466984811930095 0.027098394813611097 0 -0.0016501861650977593 0.027001544277967436 0 -0.0015520074050680431 0.026896084172506825 0 -0.0006104207235177986 0.029240839907382053 0 -0.0012767798641726076 0.028521166742383443 0 -0.0012767798641726076 0.028521166742383443 0 -0.0010149584191768209 0.030212770018904808 0 -0.0016967853101654416 0.026824447903180417 0 -0.0016620964889174214 0.026904987396865566 0 -0.0015520074050680431 0.026896084172506825 0 -0.00068469832467207251 0.030643597561325314 0 -0.00065351710002410027 0.030616778964564745 0 -0.00072990405874041625 0.030576109369193159 0 -0.0016967853101654416 0.026824447903180417 0 -0.0015520074050680431 0.026896084172506825 0 -0.0016757505954473548 0.026682610345938201 0 -0.00021719180418274539 0.033161267881426475 0 -0.0010149584191768209 0.030212770018904808 0 -0.00021719180418274539 0.033161267881426475 0 -2.4698034601385552e-05 0.034749157008424507 0 -0.00038871129637076568 0.034253430783248641 0 -0.00025625483314366043 0.034342911418277305 0 -0.00028396554796251164 0.034431122242581526 0 0.0001268164192130659 0.034743078647758267 0 0.00013131947365177556 0.034699671521250183 0 4.6963693078623976e-05 0.034692593179069017 0 0.00016956553307023487 0.034677012060647085 0 0.00019076559312540349 0.034669713020789479 0 0.00017145432003699176 0.03473275741336411 0 0.00016282224834879904 0.034749121650348165 0 0.00015619824724112533 0.034727557914322749 0 0.00017145432003699176 0.03473275741336411 0 0.0001268164192130659 0.034743078647758267 0 0.00013131947365177556 0.034699671521250183 0 0.00015619824724112533 0.034727557914322749 0 0.00013131947365177556 0.034699671521250183 0 0.00015619824724112533 0.034727557914322749 0 0.00016956553307023487 0.034677012060647085 0 0.00015619824724112533 0.034727557914322749 0 0.00016956553307023487 0.034677012060647085 0 0.00017145432003699176 0.03473275741336411 0 0.00019377879643979069 0.034598163787181467 0 0.00022542817512580864 0.034538358810095579 0 0.00019076559312540349 0.034669713020789479 0 0.00016956553307023487 0.034677012060647085 0 0.00019377879643979069 0.034598163787181467 0 0.00019076559312540349 0.034669713020789479 0 0.00013131947365177556 0.034699671521250183 0 0.00016956553307023487 0.034677012060647085 0 0.00013935496678582431 0.034617445685740759 0 0.00016956553307023487 0.034677012060647085 0 0.00019377879643979069 0.034598163787181467 0 0.00013935496678582431 0.034617445685740759 0 0.00019377879643979069 0.034598163787181467 0 0.00013935496678582431 0.034617445685740759 0 0.00019323615333038049 0.034473117799310456 0 4.6963693078623976e-05 0.034692593179069017 0 6.1177597006227522e-05 0.034522119152644276 0 -0.00019428409300800486 0.034431136875829535 0 4.6963693078623976e-05 0.034692593179069017 0 0.00013935496678582431 0.034617445685740759 0 6.1177597006227522e-05 0.034522119152644276 0 0.00013131947365177556 0.034699671521250183 0 4.6963693078623976e-05 0.034692593179069017 0 0.00013935496678582431 0.034617445685740759 0 0.00013935496678582431 0.034617445685740759 0 6.1177597006227522e-05 0.034522119152644276 0 0.00019323615333038049 0.034473117799310456 0 -0.0010149584191768209 0.030212770018904808 0 -0.0007068934681067735 0.032247395204142444 0 -0.00025625483314366043 0.034342911418277305 0 -0.00028396554796251164 0.034431122242581526 0 -0.00028999736668005091 0.034534149280591925 0 -0.0011596068492553374 0.029263849349995746 0 -0.0012874933014875105 0.029210901283336529 0 -0.0012677565550920976 0.029149673780761495 0 -0.0011596068492553374 0.029263849349995746 0 -0.0012976208640112035 0.029031757734157743 0 -0.0012677565550920976 0.029149673780761495 0 -0.00028396554796251164 0.034431122242581526 0 -0.00028999736668005091 0.034534149280591925 0 -0.00019428409300800486 0.034431136875829535 0 -2.4698034601385552e-05 0.034749157008424507 0 -0.00023174698306991414 0.034366964171084036 0 -0.0011544981650810618 0.029473744325649899 0 -0.0012976208640112035 0.029031757734157743 0 -0.0012677565550920976 0.029149673780761495 0 -0.0010149584191768209 0.030212770018904808 0 -0.0018827036022246899 0.027589292398476076 0 -0.0016757505954473548 0.026682610345938201 0 -0.0019484070172051953 0.026702106957171748 0 -0.0021305058845499814 0.026587609458593554 0 -0.0019716801763038057 0.026782018707827766 0 -0.0019484070172051953 0.026702106957171748 0 -0.0018240964951012047 0.026762268488614346 0 -0.0016967853101654416 0.026824447903180417 0 -0.0016757505954473548 0.026682610345938201 0 -0.0018240964951012047 0.026762268488614346 0 -0.0016757505954473548 0.026682610345938201 0 -0.0019484070172051953 0.026702106957171748 0 -0.0018240964951012047 0.026762268488614346 0 -0.0019716801763038057 0.026782018707827766 0 -0.002178292660550443 0.026756873398116096 0 -0.0021173383921172036 0.026692547957605915 0 -0.0022896647060894199 0.026675815455102721 0 -0.002178292660550443 0.026756873398116096 0 -0.0021173383921172036 0.026692547957605915 0 -0.0019716801763038057 0.026782018707827766 0 -0.0019484070172051953 0.026702106957171748 0 -0.0021173383921172036 0.026692547957605915 0 -0.0019484070172051953 0.026702106957171748 0 -0.0021173383921172036 0.026692547957605915 0 -0.0021305058845499814 0.026587609458593554 0 -0.0022896647060894199 0.026675815455102721 0 -0.0021173383921172036 0.026692547957605915 0 -0.0021305058845499814 0.026587609458593554 0 -0.0012874933014875105 0.029210901283336529 0 -0.0012645459983403064 0.029195423439819377 0 -0.0013881037535781004 0.029045626602025157 0 -0.0012874933014875105 0.029210901283336529 0 -0.0012677565550920976 0.029149673780761495 0 -0.0012645459983403064 0.029195423439819377 0 -0.0011544981650810618 0.029473744325649899 0 -0.0012677565550920976 0.029149673780761495 0 -0.0012645459983403064 0.029195423439819377 0 -0.0012645459983403064 0.029195423439819377 0 -0.0013881037535781004 0.029045626602025157 0 -0.0013059330356379524 0.029042243274742037 0 -0.0011544981650810618 0.029473744325649899 0 -0.0013059330356379524 0.029042243274742037 0 -0.0012937585158109563 0.028571279035771693 0 -0.0012879932328030465 0.029543782118493241 0 -0.00097969525376015529 0.03109571499777989 0 -0.00028999736668005091 0.034534149280591925 0 -0.00049286736037429629 0.033975474044675658 0 -0.00085553494433751359 0.03341470641933858 0 -0.0011544981650810618 0.029473744325649899 0 -0.00066609268853179675 0.033906930742756275 0 -0.00085553494433751359 0.03341470641933858 0 -0.0011544981650810618 0.029473744325649899 0 -0.0012976208640112035 0.029031757734157743 0 -0.00085553494433751359 0.03341470641933858 0 -0.0007068934681067735 0.032247395204142444 0 -0.00075420975054900342 0.033198125466535285 0 -0.0011544981650810618 0.029473744325649899 0 -0.0012645459983403064 0.029195423439819377 0 -0.0013059330356379524 0.029042243274742037 0 -0.00049286736037429629 0.033975474044675658 0 -0.00085553494433751359 0.03341470641933858 0 -0.00055742987470914151 0.033721223436874621 0 -0.0013059330356379524 0.029042243274742037 0 -0.0013942146897628269 0.028814373728909225 0 -0.0012937585158109563 0.028571279035771693 0 -0.0013881037535781004 0.029045626602025157 0 -0.0013059330356379524 0.029042243274742037 0 -0.0013942146897628269 0.028814373728909225 0 -0.00019428409300800486 0.034431136875829535 0 -0.00012166772920942911 0.034037088776164209 0 8.4886438197796869e-05 0.034338299897126084 0 -0.00028999736668005091 0.034534149280591925 0 -0.00030295250781701283 0.034259909138932676 0 -0.00049286736037429629 0.033975474044675658 0 -0.00019428409300800486 0.034431136875829535 0 -0.00030295250781701283 0.034259909138932676 0 -0.00028313736234576226 0.034110588850080711 0 -0.00030295250781701283 0.034259909138932676 0 -0.00049286736037429629 0.033975474044675658 0 -0.00028313736234576226 0.034110588850080711 0 -0.00028999736668005091 0.034534149280591925 0 -0.00019428409300800486 0.034431136875829535 0 -0.00030295250781701283 0.034259909138932676 0 -0.00038698040124107724 0.033910526950736083 0 -0.00028313736234576226 0.034110588850080711 0 -0.00012166772920942911 0.034037088776164209 0 -0.00038698040124107724 0.033910526950736083 0 -0.00012166772920942911 0.034037088776164209 0 -0.00042410697969375309 0.03371930598020266 0 -0.00049286736037429629 0.033975474044675658 0 -0.00038698040124107724 0.033910526950736083 0 -0.00028313736234576226 0.034110588850080711 0 -0.00049286736037429629 0.033975474044675658 0 -0.00038698040124107724 0.033910526950736083 0 -0.00055742987470914151 0.033721223436874621 0 -0.00019428409300800486 0.034431136875829535 0 -0.00028313736234576226 0.034110588850080711 0 -0.00012166772920942911 0.034037088776164209 0 -0.00012166772920942911 0.034037088776164209 0 -0.00042410697969375309 0.03371930598020266 0 -0.0001373854775589571 0.033581763184447201 0 -0.00038698040124107724 0.033910526950736083 0 -0.00042410697969375309 0.03371930598020266 0 -0.00055742987470914151 0.033721223436874621 0 -0.00042410697969375309 0.03371930598020266 0 -0.0001373854775589571 0.033581763184447201 0 -0.00054377531200896091 0.033493436946240462 0 -0.0014965436413533278 0.028598089374671159 0 -0.0013942146897628269 0.028814373728909225 0 -0.0012937585158109563 0.028571279035771693 0 -0.00066609268853179675 0.033906930742756275 0 -0.00085553494433751359 0.03341470641933858 0 -0.00071679833418250344 0.033669482513469413 0 -0.00042410697969375309 0.03371930598020266 0 -0.0006452968456743378 0.033616903937541444 0 -0.00054377531200896091 0.033493436946240462 0 -0.00042410697969375309 0.03371930598020266 0 -0.00055742987470914151 0.033721223436874621 0 -0.0006452968456743378 0.033616903937541444 0 -0.00085553494433751359 0.03341470641933858 0 -0.00055742987470914151 0.033721223436874621 0 -0.0006452968456743378 0.033616903937541444 0 -0.00085553494433751359 0.03341470641933858 0 -0.0006452968456743378 0.033616903937541444 0 -0.00071679833418250344 0.033669482513469413 0 -0.00069639445353591252 0.033599272040956828 0 -0.00054377531200896091 0.033493436946240462 0 -0.00086294044281450563 0.033272152404976031 0 -0.00071679833418250344 0.033669482513469413 0 -0.00069639445353591252 0.033599272040956828 0 -0.00054377531200896091 0.033493436946240462 0 -0.0006452968456743378 0.033616903937541444 0 -0.00071679833418250344 0.033669482513469413 0 -0.00054377531200896091 0.033493436946240462 0 -0.00066609268853179675 0.033906930742756275 0 -0.00069639445353591252 0.033599272040956828 0 -0.00086294044281450563 0.033272152404976031 0 -0.00066609268853179675 0.033906930742756275 0 -0.00071679833418250344 0.033669482513469413 0 -0.00069639445353591252 0.033599272040956828 0 -0.0015607217340036987 0.032605951631216719 0 -0.00066609268853179675 0.033906930742756275 0 -0.00086294044281450563 0.033272152404976031 0 -0.0015607217340036987 0.032605951631216719 0 -0.00086294044281450563 0.033272152404976031 0 -0.00052170354984987764 0.032834056462701135 0 -0.00054377531200896091 0.033493436946240462 0 -0.00086294044281450563 0.033272152404976031 0 -0.00052170354984987764 0.032834056462701135 0 -0.0001373854775589571 0.033581763184447201 0 -0.00052170354984987764 0.032834056462701135 0 0.00033515049356693465 0.032911237302226878 0 -0.0001373854775589571 0.033581763184447201 0 -0.00054377531200896091 0.033493436946240462 0 -0.00052170354984987764 0.032834056462701135 0 0.00034880990019711612 0.03377426450350049 0 0.00016673019025898516 0.033187851242428699 0 -0.00052170354984987764 0.032834056462701135 0 0.00033515049356693465 0.032911237302226878 0 -2.7552362766186393e-05 0.031578513619036575 0 -0.0010543815258190663 0.031534503815591912 0 -0.0015607217340036987 0.032605951631216719 0 -0.00052170354984987764 0.032834056462701135 0 -0.0010543815258190663 0.031534503815591912 0 -0.00052170354984987764 0.032834056462701135 0 -2.7552362766186393e-05 0.031578513619036575 0 0.0002112491661044041 0.034715970461584832 0 0.00013656069157752816 0.034850364842572465 0 0.00028450378868127206 0.034844195271387157 0 0.0004263152183862374 0.034676158424859022 0 0.0002112491661044041 0.034715970461584832 0 0.00028450378868127206 0.034844195271387157 0 0.0004263152183862374 0.034676158424859022 0 0.00028450378868127206 0.034844195271387157 0 0.00039923262354732501 0.034808752839709009 0 0.0004263152183862374 0.034676158424859022 0 0.0002112491661044041 0.034715970461584832 0 0.00034462638412038351 0.034274126213000404 0 0.0002112491661044041 0.034715970461584832 0 0.00034462638412038351 0.034274126213000404 0 0.00018229610534137606 0.034597197103511237 0 0.00034462638412038351 0.034274126213000404 0 0.00022542817512580864 0.034538358810095579 0 0.00018229610534137606 0.034597197103511237 0 -0.00012166772920942911 0.034037088776164209 0 -0.0001373854775589571 0.033581763184447201 0 0.00034462638412038351 0.034274126213000404 0 0.00034880990019711612 0.03377426450350049 0 0.00036182479579362496 0.034189809293584478 0 -0.0001373854775589571 0.033581763184447201 0 0.00033515049356693465 0.032911237302226878 0 0.00034462638412038351 0.034274126213000404 0 -0.00012166772920942911 0.034037088776164209 0 0.00034462638412038351 0.034274126213000404 0 8.4886438197796869e-05 0.034338299897126084 0 0.00034462638412038351 0.034274126213000404 0 0.00019323615333038049 0.034473117799310456 0 8.4886438197796869e-05 0.034338299897126084 0 6.1177597006227522e-05 0.034522119152644276 0 0.00019323615333038049 0.034473117799310456 0 8.4886438197796869e-05 0.034338299897126084 0 6.1177597006227522e-05 0.034522119152644276 0 -0.00019428409300800486 0.034431136875829535 0 8.4886438197796869e-05 0.034338299897126084 0 0.00034462638412038351 0.034274126213000404 0 0.00019323615333038049 0.034473117799310456 0 0.00022542817512580864 0.034538358810095579 0 0.00019377879643979069 0.034598163787181467 0 0.00019323615333038049 0.034473117799310456 0 0.00022542817512580864 0.034538358810095579 0 0.00022542817512580864 0.034538358810095579 0 0.00013688985030679718 0.034714383708140485 0 0.00018229610534137606 0.034597197103511237 0 0.00022542817512580864 0.034538358810095579 0 0.00013688985030679718 0.034714383708140485 0 0.00015560891338380504 0.03472218628730659 0 0.00013688985030679718 0.034714383708140485 0 6.24183172439364e-05 0.03486144169620238 0 9.6720501602789709e-05 0.034827360780915514 0 0.00013688985030679718 0.034714383708140485 0 9.6720501602789709e-05 0.034827360780915514 0 0.00015560891338380504 0.03472218628730659 0 0.00013688985030679718 0.034714383708140485 0 9.8721430062334071e-05 0.034796132137483504 0 6.24183172439364e-05 0.03486144169620238 0 0.00013688985030679718 0.034714383708140485 0 0.00018229610534137606 0.034597197103511237 0 9.8721430062334071e-05 0.034796132137483504 0 0.0002112491661044041 0.034715970461584832 0 0.00018229610534137606 0.034597197103511237 0 9.8721430062334071e-05 0.034796132137483504 0 0.0002112491661044041 0.034715970461584832 0 9.8721430062334071e-05 0.034796132137483504 0 0.00013656069157752816 0.034850364842572465 0 9.8721430062334071e-05 0.034796132137483504 0 0.00013656069157752816 0.034850364842572465 0 4.4898521037524415e-05 0.034932263376033681 0 1.5512018761114907e-08 0.034999898296700103 0 4.4898521037524415e-05 0.034932263376033681 0 3.6403280328306063e-05 0.034913921360698777 0 1.5512018761114907e-08 0.034999898296700103 0 4.4898521037524415e-05 0.034932263376033681 0 1.129685769029421e-08 0.034999940481898556 0 9.8721430062334071e-05 0.034796132137483504 0 4.4898521037524415e-05 0.034932263376033681 0 3.6403280328306063e-05 0.034913921360698777 0 1.5512018761114907e-08 0.034999898296700103 0 3.6403280328306063e-05 0.034913921360698777 0 2.5428313078006555e-08 0.034999825161267976 0 3.6403280328306063e-05 0.034913921360698777 0 2.5428313078006555e-08 0.034999825161267976 0 6.24183172439364e-05 0.03486144169620238 0 9.8721430062334071e-05 0.034796132137483504 0 3.6403280328306063e-05 0.034913921360698777 0 6.24183172439364e-05 0.03486144169620238 0 6.24183172439364e-05 0.03486144169620238 0 5.5109712045248695e-08 0.034999872438689177 0 9.6720501602789709e-05 0.034827360780915514 0 2.5428313078006555e-08 0.034999825161267976 0 6.24183172439364e-05 0.03486144169620238 0 5.5109712045248695e-08 0.034999872438689177 0 5.5109712045248695e-08 0.034999872438689177 0 6.1513467931489623e-05 0.034893184925012484 0 9.6720501602789709e-05 0.034827360780915514 0 5.5109712045248695e-08 0.034999872438689177 0 6.1513467931489623e-05 0.034893184925012484 0 3.0299865409613619e-08 0.034999699098637885 0 6.1513467931489623e-05 0.034893184925012484 0 0.00012426034280265877 0.03480442392470625 0 9.2590251212882493e-05 0.034827247635606177 0 6.1513467931489623e-05 0.034893184925012484 0 9.6720501602789709e-05 0.034827360780915514 0 0.00012426034280265877 0.03480442392470625 0 0.00015560891338380504 0.03472218628730659 0 0.00016438337225760727 0.034738617564797659 0 0.00012426034280265877 0.03480442392470625 0 9.6720501602789709e-05 0.034827360780915514 0 0.00015560891338380504 0.03472218628730659 0 0.00012426034280265877 0.03480442392470625 0 0.00022542817512580864 0.034538358810095579 0 0.00015560891338380504 0.03472218628730659 0 0.00019076559312540349 0.034669713020789479 0 0.00015560891338380504 0.03472218628730659 0 0.00019076559312540349 0.034669713020789479 0 0.00016438337225760727 0.034738617564797659 0 0.00019076559312540349 0.034669713020789479 0 0.00016438337225760727 0.034738617564797659 0 0.00017145432003699176 0.03473275741336411 0 0.00016438337225760727 0.034738617564797659 0 0.00015525989874368623 0.034765871434162328 0 0.00017145432003699176 0.03473275741336411 0 0.00015525989874368623 0.034765871434162328 0 0.00017145432003699176 0.03473275741336411 0 0.00016666640922294575 0.034749337766427794 0 0.00016438337225760727 0.034738617564797659 0 0.00015525989874368623 0.034765871434162328 0 0.00012426034280265877 0.03480442392470625 0 0.00015525989874368623 0.034765871434162328 0 0.00012426034280265877 0.03480442392470625 0 0.00013441335304986048 0.034781140105760597 0 0.00012426034280265877 0.03480442392470625 0 0.00013441335304986048 0.034781140105760597 0 9.2590251212882493e-05 0.034827247635606177 0 0.00015525989874368623 0.034765871434162328 0 0.00013441335304986048 0.034781140105760597 0 0.00016358643302139751 0.034741296872358156 0 0.00013441335304986048 0.034781140105760597 0 0.00011589679339658853 0.034758992858798986 0 9.2590251212882493e-05 0.034827247635606177 0 4.6583008424295781e-06 0.034707488678957392 0 -2.2604564292232301e-05 0.033667524082682643 0 0.00013441335304986048 0.034781140105760597 0 0.00011589679339658853 0.034758992858798986 0 0.00016358643302139751 0.034741296872358156 0 0.00015525989874368623 0.034765871434162328 0 0.00016666640922294575 0.034749337766427794 0 0.00016358643302139751 0.034741296872358156 0 0.00016282224834879904 0.034749121650348165 0 0.00017145432003699176 0.03473275741336411 0 0.00016666640922294575 0.034749337766427794 0 7.2361263709290469e-05 0.033885443588383586 0 -2.2604564292232301e-05 0.033667524082682643 0 0.00016282224834879904 0.034749121650348165 0 0.00016666640922294575 0.034749337766427794 0 0.00016358643302139751 0.034741296872358156 0 -0.00017587173338027635 0.033092157558614561 0 -0.00034522768372610257 0.032805330442226867 0 -1.5116682943872017e-06 0.032746917789530761 0 -0.00045545975044013616 0.031439091592402463 0 -2.2604564292232301e-05 0.033667524082682643 0 -0.00017587173338027635 0.033092157558614561 0 -1.5116682943872017e-06 0.032746917789530761 0 1.9764479665052987e-05 0.033027644421793775 0 -1.5116682943872017e-06 0.032746917789530761 0 1.9764479665052987e-05 0.033027644421793775 0 0.00026219279857512314 0.032895057183534374 0 -3.0934318814588077e-05 0.034225001360460146 0 3.2595896327363645e-05 0.034207219306854483 0 -1.0622943630365877e-05 0.034186803498627086 0 1.8150489976410283e-06 0.034994060510833806 0 1.8728609481366185e-06 0.034991851140043051 0 1.2751969063221293e-06 0.034995983902876018 0 4.6583008424295781e-06 0.034707488678957392 0 4.8989682178127099e-05 0.034278665868323871 0 -2.2604564292232301e-05 0.033667524082682643 0 4.8989682178127099e-05 0.034278665868323871 0 9.1990803620731475e-05 0.035095785938483955 0 4.8989682178127099e-05 0.034278665868323871 0 1.2086055691970526e-06 0.03499736345222039 0 1.8728609481366185e-06 0.034991851140043051 0 1.2751969063221293e-06 0.034995983902876018 0 1.2086055691970526e-06 0.03499736345222039 0 1.2751969063221293e-06 0.034995983902876018 0 8.465217871906559e-10 0.034999995811713092 0 1.2751969063221293e-06 0.034995983902876018 0 8.465217871906559e-10 0.034999995811713092 0 9.5694151851063629e-07 0.034997549654249518 0 6.1513467931489623e-05 0.034893184925012484 0 3.0299865409613619e-08 0.034999699098637885 0 6.3774076428060146e-05 0.034866137446600678 0 8.465217871906559e-10 0.034999995811713092 0 3.9983354781413237e-10 0.034999999077196503 0 9.5694151851063629e-07 0.034997549654249518 0 2.9184444055062774e-08 0.034999957735902615 0 3.9887651079261705e-05 0.034935591480070749 0 6.1513467931489623e-05 0.034893184925012484 0 6.3774076428060146e-05 0.034866137446600678 0 9.2590251212882493e-05 0.034827247635606177 0 1.8150489976410283e-06 0.034994060510833806 0 1.2751969063221293e-06 0.034995983902876018 0 9.5694151851063629e-07 0.034997549654249518 0 9.5907022558681175e-05 0.034820014193134484 0 6.3774076428060146e-05 0.034866137446600678 0 9.2590251212882493e-05 0.034827247635606177 0 4.6583008424295781e-06 0.034707488678957392 0 3.9887651079261705e-05 0.034935591480070749 0 4.6583008424295781e-06 0.034707488678957392 0 5.3291467427443135e-05 0.03479527205986991 0 1.1035759828477689e-05 0.034933297899962919 0 7.4676932420477391e-06 0.03498397816596658 0 2.7716940031151725e-05 0.034976300909278807 0 2.0137141953185345e-05 0.03492624907371094 0 -3.0798481527159318e-05 0.034823015926813534 0 1.1035759828477689e-05 0.034933297899962919 0 -2.8462045511782253e-05 0.034732480720317913 0 -2.389327562725142e-05 0.03489445817012559 0 1.1035759828477689e-05 0.034933297899962919 0 9.6917585194750091e-08 0.034980051805350687 0 7.4676932420477391e-06 0.03498397816596658 0 1.1035759828477689e-05 0.034933297899962919 0 9.6917585194750091e-08 0.034980051805350687 0 6.8236481426151531e-09 0.034999912142750632 0 9.6917585194750091e-08 0.034980051805350687 0 -4.1733653298625016e-09 0.034999979969628371 0 6.8236481426151531e-09 0.034999912142750632 0 9.6917585194750091e-08 0.034980051805350687 0 -4.1733653298625016e-09 0.034999979969628371 0 7.4676932420477391e-06 0.03498397816596658 0 -4.1733653298625016e-09 0.034999979969628371 0 7.4676932420477391e-06 0.03498397816596658 0 4.9903180985874882e-06 0.03499098004572114 0 7.4676932420477391e-06 0.03498397816596658 0 2.7716940031151725e-05 0.034976300909278807 0 1.4776655871612695e-05 0.034979247461936806 0 -2.8462045511782253e-05 0.034732480720317913 0 -0.00014898096963532914 0.034651261170484136 0 -0.00011550953535540159 0.034725541254520466 0 2.7716940031151725e-05 0.034976300909278807 0 -8.729157515512136e-06 0.034971880704529806 0 1.9067580373414914e-05 0.034969271128312947 0 -3.0798481527159318e-05 0.034823015926813534 0 -1.3903340201174988e-05 0.034940258992889502 0 2.7716940031151725e-05 0.034976300909278807 0 1.9067580373414914e-05 0.034969271128312947 0 1.4776655871612695e-05 0.034979247461936806 0 -2.8462045511782253e-05 0.034732480720317913 0 -0.00014898096963532914 0.034651261170484136 0 -0.00013980210951884708 0.03455001206682539 0 -0.0002299724163677849 0.03462100573191295 0 -0.00019143816416603913 0.034587890328734147 0 -0.0002456041490030766 0.034529403035070516 0 -0.0002299724163677849 0.03462100573191295 0 -0.00019143816416603913 0.034587890328734147 0 -0.00014898096963532914 0.034651261170484136 0 -0.00019143816416603913 0.034587890328734147 0 -0.00014898096963532914 0.034651261170484136 0 -0.00013980210951884708 0.03455001206682539 0 -0.00014898096963532914 0.034651261170484136 0 -0.00011550953535540159 0.034725541254520466 0 -0.00016313790209778993 0.034725120446585156 0 -0.0002299724163677849 0.03462100573191295 0 -0.00014898096963532914 0.034651261170484136 0 -0.0002101166130065246 0.034689429223426625 0 -0.00014898096963532914 0.034651261170484136 0 -0.0002101166130065246 0.034689429223426625 0 -0.00016313790209778993 0.034725120446585156 0 -0.00020229290066238042 0.034765835514717625 0 -8.0757747517596121e-05 0.034863653264399226 0 -0.0002944322212735029 0.034799648145853498 0 -8.0757747517596121e-05 0.034863653264399226 0 -0.0001415768318342503 0.034819741909630539 0 -0.00015291631771066896 0.034784603860012808 0 -8.5446868928207526e-05 0.034859906716094388 0 -0.00023083770918582577 0.034765595380427353 0 -0.0002101166130065246 0.034689429223426625 0 -0.00020229290066238042 0.034765835514717625 0 -0.00016313790209778993 0.034725120446585156 0 -0.0002101166130065246 0.034689429223426625 0 -0.00020229290066238042 0.034765835514717625 0 -0.00028096003656319282 0.03469761822614946 0 -0.00020229290066238042 0.034765835514717625 0 -0.00016313790209778993 0.034725120446585156 0 -0.00012189824354406467 0.034784119471856237 0 -0.00011550953535540159 0.034725541254520466 0 -0.00016313790209778993 0.034725120446585156 0 -0.00012189824354406467 0.034784119471856237 0 -0.00020229290066238042 0.034765835514717625 0 -0.00012189824354406467 0.034784119471856237 0 -8.0757747517596121e-05 0.034863653264399226 0 -2.8462045511782253e-05 0.034732480720317913 0 -8.0757747517596121e-05 0.034863653264399226 0 -2.389327562725142e-05 0.03489445817012559 0 -2.8462045511782253e-05 0.034732480720317913 0 -0.00012189824354406467 0.034784119471856237 0 -8.0757747517596121e-05 0.034863653264399226 0 -2.8462045511782253e-05 0.034732480720317913 0 -0.00011550953535540159 0.034725541254520466 0 -0.00012189824354406467 0.034784119471856237 0 -8.0757747517596121e-05 0.034863653264399226 0 -2.389327562725142e-05 0.03489445817012559 0 -3.5020058020100375e-05 0.034922683955924641 0 -8.0757747517596121e-05 0.034863653264399226 0 -3.5020058020100375e-05 0.034922683955924641 0 -9.8887262689210571e-05 0.034890610955725931 0 -0.0001415768318342503 0.034819741909630539 0 -9.8887262689210571e-05 0.034890610955725931 0 -0.00015486115360234708 0.034906530870045277 0 -8.0757747517596121e-05 0.034863653264399226 0 -0.0001415768318342503 0.034819741909630539 0 -9.8887262689210571e-05 0.034890610955725931 0 -9.8887262689210571e-05 0.034890610955725931 0 -9.4645498864365899e-05 0.034943558629106079 0 -0.00015486115360234708 0.034906530870045277 0 2.6715869563445244e-05 0.035017561287176757 0 1.4680584224112688e-05 0.035000718386010814 0 -3.5020058020100375e-05 0.034922683955924641 0 -9.4645498864365899e-05 0.034943558629106079 0 -1.6909359214380209e-05 0.034944575605010103 0 0.00013398784365806644 0.035089763790473495 0 6.0320718975190553e-05 0.035105483608550619 0 7.6620786679885427e-05 0.035047271820594708 0 -3.5020058020100375e-05 0.034922683955924641 0 -9.8887262689210571e-05 0.034890610955725931 0 -9.4645498864365899e-05 0.034943558629106079 0 1.4680584224112688e-05 0.035000718386010814 0 -3.2513426534579265e-06 0.034983662041475093 0 -8.1379890442625848e-06 0.034995543643877781 0 -2.1484242997240588e-06 0.034996644153477613 0 -1.135396112118677e-06 0.035000465820149367 0 1.4680584224112688e-05 0.035000718386010814 0 1.7242515852038022e-05 0.035035669373904121 0 -1.1497308554836595e-05 0.034958885403952561 0 2.6219107374529904e-06 0.034955228203189664 0 3.1477651145796789e-06 0.034989918092453595 0 -3.5020058020100375e-05 0.034922683955924641 0 -1.1497308554836595e-05 0.034958885403952561 0 2.6219107374529904e-06 0.034955228203189664 0 -3.8298244787165633e-05 0.034925054697170603 0 1.4680584224112688e-05 0.035000718386010814 0 1.1035759828477689e-05 0.034933297899962919 0 -2.389327562725142e-05 0.03489445817012559 0 2.6219107374529904e-06 0.034955228203189664 0 -2.389327562725142e-05 0.03489445817012559 0 -3.5020058020100375e-05 0.034922683955924641 0 2.6219107374529904e-06 0.034955228203189664 0 6.8236481426151531e-09 0.034999912142750632 0 3.1477651145796789e-06 0.034989918092453595 0 6.9978626865178437e-09 0.034999996657051599 0 1.1035759828477689e-05 0.034933297899962919 0 2.6219107374529904e-06 0.034955228203189664 0 6.8236481426151531e-09 0.034999912142750632 0 2.6219107374529904e-06 0.034955228203189664 0 6.8236481426151531e-09 0.034999912142750632 0 3.1477651145796789e-06 0.034989918092453595 0 3.1477651145796789e-06 0.034989918092453595 0 -2.1484242997240588e-06 0.034996644153477613 0 6.9978626865178437e-09 0.034999996657051599 0 -8.1379890442625848e-06 0.034995543643877781 0 3.1477651145796789e-06 0.034989918092453595 0 -2.1484242997240588e-06 0.034996644153477613 0 -2.1484242997240588e-06 0.034996644153477613 0 6.9978626865178437e-09 0.034999996657051599 0 -1.135396112118677e-06 0.035000465820149367 0 6.9978626865178437e-09 0.034999996657051599 0 -1.135396112118677e-06 0.035000465820149367 0 -4.0829005616602099e-09 0.035000003217553893 0 1.7242515852038022e-05 0.035035669373904121 0 -2.9007571445652635e-09 0.03500000312069336 0 6.0320718975190553e-05 0.035105483608550619 0 2.4635881546784721e-05 0.035055951618228082 0 7.6620786679885427e-05 0.035047271820594708 0 2.4635881546784721e-05 0.035055951618228082 0 3.0599718568286663e-05 0.035001802943075588 0 7.6620786679885427e-05 0.035047271820594708 0 3.0599718568286663e-05 0.035001802943075588 0 8.0943527652366733e-05 0.03499729831662117 0 7.6620786679885427e-05 0.035047271820594708 0 2.4635881546784721e-05 0.035055951618228082 0 3.0599718568286663e-05 0.035001802943075588 0 1.1730280080296187e-08 0.035000092377489508 0 3.0599718568286663e-05 0.035001802943075588 0 4.0716846317194142e-05 0.0349751789608874 0 1.129685769029421e-08 0.034999940481898556 0 3.0599718568286663e-05 0.035001802943075588 0 1.1730280080296187e-08 0.035000092377489508 0 1.129685769029421e-08 0.034999940481898556 0 3.0599718568286663e-05 0.035001802943075588 0 4.0716846317194142e-05 0.0349751789608874 0 8.0943527652366733e-05 0.03499729831662117 0 4.0716846317194142e-05 0.0349751789608874 0 8.801882933461419e-05 0.034952601971000218 0 8.0943527652366733e-05 0.03499729831662117 0 4.4898521037524415e-05 0.034932263376033681 0 4.0716846317194142e-05 0.0349751789608874 0 8.801882933461419e-05 0.034952601971000218 0 4.4898521037524415e-05 0.034932263376033681 0 4.0716846317194142e-05 0.0349751789608874 0 1.129685769029421e-08 0.034999940481898556 0 0.00013656069157752816 0.034850364842572465 0 0.00016772204619278173 0.034920994244210191 0 8.801882933461419e-05 0.034952601971000218 0 0.00013656069157752816 0.034850364842572465 0 0.00016772204619278173 0.034920994244210191 0 0.00028450378868127206 0.034844195271387157 0 0.00013656069157752816 0.034850364842572465 0 4.4898521037524415e-05 0.034932263376033681 0 8.801882933461419e-05 0.034952601971000218 0 8.801882933461419e-05 0.034952601971000218 0 0.00013353831192250312 0.034976452956600401 0 8.0943527652366733e-05 0.03499729831662117 0 0.00016772204619278173 0.034920994244210191 0 0.00013353831192250312 0.034976452956600401 0 0.00019909255574075037 0.034975402745490568 0 0.00016772204619278173 0.034920994244210191 0 8.801882933461419e-05 0.034952601971000218 0 0.00013353831192250312 0.034976452956600401 0 0.00013353831192250312 0.034976452956600401 0 0.00013583689553465318 0.035020991666994086 0 0.00019909255574075037 0.034975402745490568 0 0.00013353831192250312 0.034976452956600401 0 0.00013583689553465318 0.035020991666994086 0 8.0943527652366733e-05 0.03499729831662117 0 0.00013583689553465318 0.035020991666994086 0 8.0943527652366733e-05 0.03499729831662117 0 7.6620786679885427e-05 0.035047271820594708 0 0.00013398784365806644 0.035089763790473495 0 0.00013583689553465318 0.035020991666994086 0 7.6620786679885427e-05 0.035047271820594708 0 0.00013398784365806644 0.035089763790473495 0 0.00013583689553465318 0.035020991666994086 0 0.00018887306502740853 0.035025673562437 0 0.00013398784365806644 0.035089763790473495 0 0.00020782353774461914 0.035069052244312504 0 0.00018887306502740853 0.035025673562437 0 0.00020782353774461914 0.035069052244312504 0 0.00023464914995429073 0.03501397738531245 0 0.00018887306502740853 0.035025673562437 0 -1.2946239911051253e-05 0.035021243046332459 0 0.00012093479806407032 0.034954527848100374 0 0.00020782353774461914 0.035069052244312504 0 0.00023464914995429073 0.03501397738531245 0 0.00027310567606728705 0.035048479296799107 0 0.0003021979455098922 0.034970524932504903 0 0.00012093479806407032 0.034954527848100374 0 0.00032463209854167492 0.034901109662361686 0 0.00034440621314205187 0.034874614354115471 0 0.00034284064160129744 0.034881013266644466 0 0.00013583689553465318 0.035020991666994086 0 0.00018887306502740853 0.035025673562437 0 0.00019909255574075037 0.034975402745490568 0 0.00023464914995429073 0.03501397738531245 0 0.00018887306502740853 0.035025673562437 0 0.00019909255574075037 0.034975402745490568 0 0.0003021979455098922 0.034970524932504903 0 0.00022383511712830285 0.034939839384119924 0 0.0001739415903712769 0.03491821959890027 0 0.00022383511712830285 0.034939839384119924 0 0.00026843040817670164 0.034919639462509582 0 0.00034440621314205187 0.034874614354115471 0 0.00028450378868127206 0.034844195271387157 0 0.00032463209854167492 0.034901109662361686 0 0.00026843040817670164 0.034919639462509582 0 0.00034440621314205187 0.034874614354115471 0 0.00034440621314205187 0.034874614354115471 0 0.00028450378868127206 0.034844195271387157 0 0.00039923262354732501 0.034808752839709009 0 0.00016772204619278173 0.034920994244210191 0 0.00026843040817670164 0.034919639462509582 0 0.00028450378868127206 0.034844195271387157 0 -0.0010543815258190663 0.031534503815591912 0 -0.00096034274655020662 0.031030240381395454 0 -2.7552362766186393e-05 0.031578513619036575 0 -0.00096034274655020662 0.031030240381395454 0 -2.7552362766186393e-05 0.031578513619036575 0 -0.00056311000238811566 0.030574758582479735 0 0.00016673019025898516 0.033187851242428699 0 -6.9766962059453677e-05 0.03272768753566159 0 0.00034440621314205187 0.034874614354115471 0 0.00039923262354732501 0.034808752839709009 0 0.00036268344224721203 0.03485597859352263 0 0.00034440621314205187 0.034874614354115471 0 0.00035012053847761166 0.034870266520254017 0 0.00034284064160129744 0.034881013266644466 0 0.00034440621314205187 0.034874614354115471 0 0.00035012053847761166 0.034870266520254017 0 0.00036268344224721203 0.03485597859352263 0 -0.00056311000238811566 0.030574758582479735 0 -0.00083991984088333113 0.030694043181583336 0 -0.00093763140749190629 0.03001235209935291 0 -0.000918820425786393 0.030288108657815279 0 -0.00076678931284839089 0.031037611580642329 0 0.00035012053847761166 0.034870266520254017 0 0.00036268344224721203 0.03485597859352263 0 0.00035333312769406951 0.034863847396225979 0 -0.00096034274655020662 0.031030240381395454 0 -0.00056311000238811566 0.030574758582479735 0 -0.00083991984088333113 0.030694043181583336 0 0.00035333312769406951 0.034863847396225979 0 0.00034823469586569899 0.034867104265743604 0 0.00034073093195755521 0.034854342096791661 0 -0.00056311000238811566 0.030574758582479735 0 -0.00093763140749190629 0.03001235209935291 0 -0.00094869286231046707 0.029966522766433162 0 -6.9766962059453677e-05 0.03272768753566159 0 -0.00049405835101656837 0.032419112744391014 0 0.00034823469586569899 0.034867104265743604 0 0.0003457308837134461 0.034872474888870734 0 0.00034073093195755521 0.034854342096791661 0 0.00036268344224721203 0.03485597859352263 0 0.00035333312769406951 0.034863847396225979 0 0.00034073093195755521 0.034854342096791661 0 0.00035333312769406951 0.034863847396225979 0 0.00034823469586569899 0.034867104265743604 0 0.00034725974003207353 0.03487295084259958 0 0.00034284064160129744 0.034881013266644466 0 0.0003457308837134461 0.034872474888870734 0 0.00034382510982972634 0.034876704288229143 0 0.00032463209854167492 0.034901109662361686 0 0.00034284064160129744 0.034881013266644466 0 0.00034382510982972634 0.034876704288229143 0 0.00035012053847761166 0.034870266520254017 0 0.00034284064160129744 0.034881013266644466 0 0.00034725974003207353 0.03487295084259958 0 0.00035012053847761166 0.034870266520254017 0 0.00035333312769406951 0.034863847396225979 0 0.00034725974003207353 0.03487295084259958 0 0.00034823469586569899 0.034867104265743604 0 0.00034725974003207353 0.03487295084259958 0 0.0003457308837134461 0.034872474888870734 0 0.00034284064160129744 0.034881013266644466 0 0.00034725974003207353 0.03487295084259958 0 0.0003457308837134461 0.034872474888870734 0 -0.00024771932860204139 0.034967024789723931 0 -0.00026109061459648239 0.034954417644520931 0 -0.00021400027989443597 0.034910402149637941 0 0.0003457308837134461 0.034872474888870734 0 0.00034382510982972634 0.034876704288229143 0 0.0003439907092989204 0.034873230290276482 0 0.0003457308837134461 0.034872474888870734 0 0.0003439907092989204 0.034873230290276482 0 0.00034299314618122412 0.034870526469023437 0 0.00012093479806407032 0.034954527848100374 0 0.00020316320728484548 0.034929772960499116 0 0.00034440594165528331 0.03487314523123404 0 0.0003439907092989204 0.034873230290276482 0 0.00034299314618122412 0.034870526469023437 0 0.00012093479806407032 0.034954527848100374 0 -3.1368621219867345e-05 0.034795117209236004 0 0.0003457308837134461 0.034872474888870734 0 0.00034299314618122412 0.034870526469023437 0 0.00034073093195755521 0.034854342096791661 0 -3.1368621219867345e-05 0.034795117209236004 0 -0.00049405835101656837 0.032419112744391014 0 -0.00028248666410824716 0.034344364147187979 0 -2.8255963236680539e-05 0.034273361144743907 0 7.0163517530121824e-05 0.034093217333030654 0 -0.00028248666410824716 0.034344364147187979 0 -2.8255963236680539e-05 0.034273361144743907 0 -3.9537621640529489e-05 0.034401987043535628 0 -2.8255963236680539e-05 0.034273361144743907 0 -3.9537621640529489e-05 0.034401987043535628 0 0.00011808642253148852 0.034402437608565366 0 2.7951103472656391e-05 0.034586499798081455 0 -1.5245686762050183e-05 0.034634342213410586 0 -4.2177208424334452e-05 0.034618817487273308 0 -0.00028248666410824716 0.034344364147187979 0 -3.9537621640529489e-05 0.034401987043535628 0 2.7951103472656391e-05 0.034586499798081455 0 -4.3270760445886095e-05 0.03456410388899115 0 2.7951103472656391e-05 0.034586499798081455 0 -4.2177208424334452e-05 0.034618817487273308 0 -3.1368621219867345e-05 0.034795117209236004 0 -6.5379278040817785e-05 0.034475294932639823 0 -1.5245686762050183e-05 0.034634342213410586 0 3.6201213957883222e-06 0.034680865592061065 0 -6.4916874192395718e-05 0.034678052864071572 0 2.7951103472656391e-05 0.034586499798081455 0 -1.5245686762050183e-05 0.034634342213410586 0 3.6201213957883222e-06 0.034680865592061065 0 -6.4916874192395718e-05 0.034678052864071572 0 -0.00012578441499503604 0.034735359425950296 0 -8.5123575468056689e-05 0.03474782045409372 0 3.6201213957883222e-06 0.034680865592061065 0 -6.4916874192395718e-05 0.034678052864071572 0 -8.5123575468056689e-05 0.03474782045409372 0 -1.5245686762050183e-05 0.034634342213410586 0 -6.4916874192395718e-05 0.034678052864071572 0 -4.2177208424334452e-05 0.034618817487273308 0 -4.3270760445886095e-05 0.03456410388899115 0 -4.2177208424334452e-05 0.034618817487273308 0 -0.00012816208334903552 0.034663927522769186 0 -6.4916874192395718e-05 0.034678052864071572 0 -4.2177208424334452e-05 0.034618817487273308 0 -0.00012816208334903552 0.034663927522769186 0 -3.1368621219867345e-05 0.034795117209236004 0 -0.00018706988355893459 0.034786976518422143 0 -0.00018588380037625607 0.034955071378228036 0 -0.00024771932860204139 0.034967024789723931 0 -0.00021400027989443597 0.034910402149637941 0 -9.4645498864365899e-05 0.034943558629106079 0 -0.00018588380037625607 0.034955071378228036 0 -0.00015486115360234708 0.034906530870045277 0 -0.00018588380037625607 0.034955071378228036 0 -0.00021400027989443597 0.034910402149637941 0 -0.00015486115360234708 0.034906530870045277 0 2.6715869563445244e-05 0.035017561287176757 0 -1.2946239911051253e-05 0.035021243046332459 0 -0.0001415768318342503 0.034819741909630539 0 -0.00012578441499503604 0.034735359425950296 0 -0.00015291631771066896 0.034784603860012808 0 -0.00013270371492616413 0.034807309788115623 0 -0.00018706988355893459 0.034786976518422143 0 -0.0001415768318342503 0.034819741909630539 0 -0.00012816208334903552 0.034663927522769186 0 -0.00012578441499503604 0.034735359425950296 0 -0.0001415768318342503 0.034819741909630539 0 -0.00021400027989443597 0.034910402149637941 0 -0.00015486115360234708 0.034906530870045277 0 -6.4916874192395718e-05 0.034678052864071572 0 -0.00012816208334903552 0.034663927522769186 0 -0.00012578441499503604 0.034735359425950296 0 -0.00023083770918582577 0.034765595380427353 0 -0.00026824924597182778 0.034970687227842245 0 -0.0002944322212735029 0.034799648145853498 0 -0.00039132109884328011 0.034670148655632387 0 -0.00051054611443063713 0.034737937533724117 0 -0.00012578441499503604 0.034735359425950296 0 -0.00015291631771066896 0.034784603860012808 0 -8.5123575468056689e-05 0.03474782045409372 0 -0.0002944322212735029 0.034799648145853498 0 -0.00028096003656319282 0.03469761822614946 0 -0.00039132109884328011 0.034670148655632387 0 -0.00020229290066238042 0.034765835514717625 0 -0.0002944322212735029 0.034799648145853498 0 -0.00028096003656319282 0.03469761822614946 0 -0.0002299724163677849 0.03462100573191295 0 -0.0002101166130065246 0.034689429223426625 0 -0.00028096003656319282 0.03469761822614946 0 -0.0002299724163677849 0.03462100573191295 0 -0.00028096003656319282 0.03469761822614946 0 -0.00031694171711925894 0.034593872711683404 0 -0.00028096003656319282 0.03469761822614946 0 -0.00031694171711925894 0.034593872711683404 0 -0.00039132109884328011 0.034670148655632387 0 -0.0002299724163677849 0.03462100573191295 0 -0.00031694171711925894 0.034593872711683404 0 -0.0002456041490030766 0.034529403035070516 0 -0.00039132109884328011 0.034670148655632387 0 -0.00050990793387867251 0.034555841693605642 0 -0.00051054611443063713 0.034737937533724117 0 -0.00031694171711925894 0.034593872711683404 0 -0.00039132109884328011 0.034670148655632387 0 -0.00041257402454062027 0.034544147770935667 0 -0.00039132109884328011 0.034670148655632387 0 -0.00050990793387867251 0.034555841693605642 0 -0.00041257402454062027 0.034544147770935667 0 -0.00050990793387867251 0.034555841693605642 0 -0.00066838044217791982 0.034553694581254471 0 -0.00051054611443063713 0.034737937533724117 0 -0.00068005114087628133 0.032317817862197284 0 -0.00038566661834576603 0.032905706443785536 0 -0.0006723247530299475 0.030029186156520813 0 -0.00069371472966002978 0.030147155852709707 0 -0.00073052536921079181 0.030064091867467491 0 -0.00038566661834576603 0.032905706443785536 0 -0.00026824924597182778 0.034970687227842245 0 -0.00066838044217791982 0.034553694581254471 0 -0.0007179635941316361 0.034683551200163712 0 -0.00051054611443063713 0.034737937533724117 0 3.6201213957883222e-06 0.034680865592061065 0 2.9879272613803584e-05 0.034744169862278705 0 -8.5123575468056689e-05 0.03474782045409372 0 -0.00090280788669779987 0.030091000625839841 0 -0.00098847556570524453 0.030152404786256703 0 -0.00089399268250844801 0.03022909049290002 0 -0.00090280788669779987 0.030091000625839841 0 -0.00081336329686026337 0.03018912969254859 0 -0.00089399268250844801 0.03022909049290002 0 -0.00067583703054573921 0.03014920002396956 0 -0.00070914452881977376 0.030142862936734939 0 -0.0007653149707581747 0.030450859922704857 0 -0.00070914452881977376 0.030142862936734939 0 -0.00079362009665258522 0.030098392577390963 0 -0.00073052536921079181 0.030064091867467491 0 -0.00069371472966002978 0.030147155852709707 0 -0.00070914452881977376 0.030142862936734939 0 -0.00073052536921079181 0.030064091867467491 0 -0.00038566661834576603 0.032905706443785536 0 -0.00052308942975622433 0.032686793660018129 0 -0.00090280788669779987 0.030091000625839841 0 -0.00081336329686026337 0.03018912969254859 0 -0.00079362009665258522 0.030098392577390963 0 -0.00081336329686026337 0.03018912969254859 0 -0.00070914452881977376 0.030142862936734939 0 -0.00079362009665258522 0.030098392577390963 0 -0.00079362009665258522 0.030098392577390963 0 -0.00073052536921079181 0.030064091867467491 0 -0.00082427933044596229 0.030024659399714423 0 -0.0006723247530299475 0.030029186156520813 0 -0.00073052536921079181 0.030064091867467491 0 -0.00076298227280396642 0.02999144288115833 0 -0.00073052536921079181 0.030064091867467491 0 -0.00076298227280396642 0.02999144288115833 0 -0.00082427933044596229 0.030024659399714423 0 -0.00082427933044596229 0.030024659399714423 0 -0.00091708779441746651 0.029987802850254434 0 -0.000856380767401464 0.029918606485934262 0 -0.00090280788669779987 0.030091000625839841 0 -0.00079362009665258522 0.030098392577390963 0 -0.00082427933044596229 0.030024659399714423 0 -0.00090280788669779987 0.030091000625839841 0 -0.00082427933044596229 0.030024659399714423 0 -0.00091708779441746651 0.029987802850254434 0 -0.00090280788669779987 0.030091000625839841 0 -0.00091708779441746651 0.029987802850254434 0 -0.0010401373803721045 0.030004773922737909 0 -0.0010401373803721045 0.030004773922737909 0 -0.0011752754098649162 0.030060962248868436 0 -0.0011538574784801373 0.029978640926140498 0 -0.0010401373803721045 0.030004773922737909 0 -0.0011752754098649162 0.030060962248868436 0 -0.00098847556570524453 0.030152404786256703 0 -0.00090280788669779987 0.030091000625839841 0 -0.0010401373803721045 0.030004773922737909 0 -0.00098847556570524453 0.030152404786256703 0 -0.0011752754098649162 0.030060962248868436 0 -0.00098847556570524453 0.030152404786256703 0 -0.0010378416208833927 0.030209470211977334 0 -0.0011810679075064143 0.030066259596666412 0 -0.0011785433717207674 0.030120561807395318 0 -0.0011752754098649162 0.030060962248868436 0 -0.0010378416208833927 0.030209470211977334 0 -0.0010960123543471494 0.030254245401285105 0 -0.0011752754098649162 0.030060962248868436 0 -0.0012683429145679424 0.029993040608816808 0 -0.0012486378736982836 0.029990613362231161 0 -0.0012683429145679424 0.029993040608816808 0 -0.0012834562011047263 0.030015724320465932 0 -0.0012486378736982836 0.029990613362231161 0 -0.0012834562011047263 0.030015724320465932 0 -0.0013002872309768394 0.029999377935158951 0 -0.0012486378736982836 0.029990613362231161 0 -0.0011785433717207674 0.030120561807395318 0 -0.0011583992077903295 0.030206686075424732 0 -0.0010960123543471494 0.030254245401285105 0 -0.0010480449679580934 0.030276257620103445 0 -0.0010795908204013775 0.030322662782806799 0 -0.0012683429145679424 0.029993040608816808 0 -0.0012234331569119959 0.030069089648464789 0 -0.0012834562011047263 0.030015724320465932 0 -0.0010378416208833927 0.030209470211977334 0 -0.0010960123543471494 0.030254245401285105 0 -0.0010480449679580934 0.030276257620103445 0 -0.0010378416208833927 0.030209470211977334 0 -0.0010480449679580934 0.030276257620103445 0 -0.0010101227263010363 0.030227457633260006 0 -0.0010480449679580934 0.030276257620103445 0 -0.0010101227263010363 0.030227457633260006 0 -0.0010146937137144347 0.030287856134229595 0 -0.0009827960990677852 0.030238151201926369 0 -0.00091208071158177344 0.030727166284139608 0 -0.00098847556570524453 0.030152404786256703 0 -0.00091153170295552358 0.030353982126498039 0 -0.00089399268250844801 0.03022909049290002 0 -0.00098530259865667606 0.030186155686283089 0 -0.0009827960990677852 0.030238151201926369 0 -0.00098847556570524453 0.030152404786256703 0 -0.0010378416208833927 0.030209470211977334 0 -0.0010101227263010363 0.030227457633260006 0 -0.00091153170295552358 0.030353982126498039 0 -0.00089399268250844801 0.03022909049290002 0 -0.00076218888332766721 0.030386671251446347 0 -0.00090214536715264707 0.029661347951414032 0 -0.00055701797464566857 0.031888950238545107 0 -0.00081336329686026337 0.03018912969254859 0 -0.00089399268250844801 0.03022909049290002 0 -0.00076218888332766721 0.030386671251446347 0 -0.00081336329686026337 0.03018912969254859 0 -0.00070914452881977376 0.030142862936734939 0 -0.0007653149707581747 0.030450859922704857 0 3.6201213957883222e-06 0.034680865592061065 0 2.9879272613803584e-05 0.034744169862278705 0 0.00010813271134471314 0.034622743477122513 0 2.7951103472656391e-05 0.034586499798081455 0 3.6201213957883222e-06 0.034680865592061065 0 0.00010813271134471314 0.034622743477122513 0 -0.00038566661834576603 0.032905706443785536 0 -0.00055701797464566857 0.031888950238545107 0 -0.00055701797464566857 0.031888950238545107 0 -0.00012279595254318753 0.033634453709110231 0 -0.00055960128552286995 0.031773385461816954 0 -0.00067034152101849275 0.032057311422009203 0 -0.00048748288235607993 0.032140698330581863 0 2.7951103472656391e-05 0.034586499798081455 0 0.00010813271134471314 0.034622743477122513 0 0.00011808642253148852 0.034402437608565366 0 -0.00091153170295552358 0.030353982126498039 0 -0.00076218888332766721 0.030386671251446347 0 -0.00081781148134831363 0.030533551339394199 0 -0.00055701797464566857 0.031888950238545107 0 -0.00091208071158177344 0.030727166284139608 0 -3.9537621640529489e-05 0.034401987043535628 0 2.7951103472656391e-05 0.034586499798081455 0 0.00011808642253148852 0.034402437608565366 0 -0.0010670226827349894 0.030339879595866037 0 -0.0010658946368552434 0.030340304788557291 0 -0.0010559316710705001 0.030346273317987251 0 -0.00067034152101849275 0.032057311422009203 0 -0.00048748288235607993 0.032140698330581863 0 -0.00041568571651198164 0.032507040164644598 0 -0.0010670226827349894 0.030339879595866037 0 -0.0010658946368552434 0.030340304788557291 0 -0.0010668851916524405 0.030334248550869126 0 -0.00091208071158177344 0.030727166284139608 0 -0.00049405835101656837 0.032419112744391014 0 -2.8255963236680539e-05 0.034273361144743907 0 0.00011808642253148852 0.034402437608565366 0 7.0163517530121824e-05 0.034093217333030654 0 -0.00012279595254318753 0.033634453709110231 0 -0.00049405835101656837 0.032419112744391014 0 -0.0010668851916524405 0.030334248550869126 0 -0.0010920927451296874 0.030354521738473018 0 -0.0010795908204013775 0.030322662782806799 0 -0.0010480449679580934 0.030276257620103445 0 -0.0010146937137144347 0.030287856134229595 0 -0.0010668851916524405 0.030334248550869126 0 -0.0010480449679580934 0.030276257620103445 0 -0.0010668851916524405 0.030334248550869126 0 -0.0010795908204013775 0.030322662782806799 0 -0.00091208071158177344 0.030727166284139608 0 -0.0010012304877557781 0.030245711162036858 0 -0.0010658946368552434 0.030340304788557291 0 -0.0010668851916524405 0.030334248550869126 0 -0.0010920927451296874 0.030354521738473018 0 -0.0010920927451296874 0.030354521738473018 0 -0.001151388865293827 0.030404855318498042 0 -0.0010795908204013775 0.030322662782806799 0 -0.0011390904548586049 0.03038410064643348 0 -0.0011583992077903295 0.030206686075424732 0 -0.001151388865293827 0.030404855318498042 0 -0.0012394396303258861 0.030337124064136543 0 -0.0012234331569119959 0.030069089648464789 0 -0.0010920927451296874 0.030354521738473018 0 -0.0010944717923844424 0.03040055035627573 0 -0.001151388865293827 0.030404855318498042 0 -0.00096024532525230521 0.030246504765037492 0 -0.0010270948708555722 0.030430891594521607 0 -0.00092542825864280916 0.030585091980194996 0 -0.0010658946368552434 0.030340304788557291 0 -0.0010559316710705001 0.030346273317987251 0 -0.0010559960630094074 0.030346917351364147 0 -0.00076678931284839089 0.031037611580642329 0 -0.00079983469987859217 0.030667467805839101 0 -0.0010552369876179167 0.030346979047604916 0 -0.0010559316710705001 0.030346273317987251 0 -0.0010559960630094074 0.030346917351364147 0 -0.00076678931284839089 0.031037611580642329 0 -0.00049405835101656837 0.032419112744391014 0 -0.0010658946368552434 0.030340304788557291 0 -0.0010920927451296874 0.030354521738473018 0 -0.0010559960630094074 0.030346917351364147 0 -0.0010920927451296874 0.030354521738473018 0 -0.0010559960630094074 0.030346917351364147 0 -0.0010944717923844424 0.03040055035627573 0 -0.0010559960630094074 0.030346917351364147 0 -0.0010944717923844424 0.03040055035627573 0 -0.0010270948708555722 0.030430891594521607 0 -0.00096024532525230521 0.030246504765037492 0 -0.0010559960630094074 0.030346917351364147 0 -0.0010270948708555722 0.030430891594521607 0 -0.00083991984088333113 0.030694043181583336 0 -0.00096024532525230521 0.030246504765037492 0 -0.00092542825864280916 0.030585091980194996 0 -0.0010270948708555722 0.030430891594521607 0 -0.00092542825864280916 0.030585091980194996 0 -0.0010955830723589815 0.030540326923072288 0 -0.00083991984088333113 0.030694043181583336 0 -0.00092542825864280916 0.030585091980194996 0 -0.0010237499845467718 0.030696481544387429 0 -0.00092542825864280916 0.030585091980194996 0 -0.0010237499845467718 0.030696481544387429 0 -0.0010955830723589815 0.030540326923072288 0 -0.0011613229229907335 0.030692131782658252 0 -0.0010955830723589815 0.030540326923072288 0 -0.0012221260818361468 0.030546679299326515 0 -0.0010237499845467718 0.030696481544387429 0 -0.0011613229229907335 0.030692131782658252 0 -0.0010955830723589815 0.030540326923072288 0 -0.0010237499845467718 0.030696481544387429 0 -0.0011613229229907335 0.030692131782658252 0 -0.0011166425324181713 0.030815230083082221 0 -0.0010944717923844424 0.03040055035627573 0 -0.0010270948708555722 0.030430891594521607 0 -0.0010955830723589815 0.030540326923072288 0 -0.0010944717923844424 0.03040055035627573 0 -0.0010955830723589815 0.030540326923072288 0 -0.001151388865293827 0.030404855318498042 0 -0.0010955830723589815 0.030540326923072288 0 -0.001151388865293827 0.030404855318498042 0 -0.0012221260818361468 0.030546679299326515 0 -0.0012394396303258861 0.030337124064136543 0 -0.0012221260818361468 0.030546679299326515 0 -0.0012918695635322664 0.030402258157837914 0 -0.001151388865293827 0.030404855318498042 0 -0.0012394396303258861 0.030337124064136543 0 -0.0012221260818361468 0.030546679299326515 0 -0.0012221260818361468 0.030546679299326515 0 -0.0012448612515142527 0.030670623382560928 0 -0.0012883958651146675 0.030551577598078073 0 -0.0012221260818361468 0.030546679299326515 0 -0.0012883958651146675 0.030551577598078073 0 -0.0012918695635322664 0.030402258157837914 0 -0.0011613229229907335 0.030692131782658252 0 -0.0012221260818361468 0.030546679299326515 0 -0.0012448612515142527 0.030670623382560928 0 -0.0012893310125384435 0.030706388946412828 0 -0.0012857922638612818 0.03076233328771133 0 -0.0013356923816728783 0.03038363114235608 0 -0.002080163591061657 0.028317516713309548 0 -0.0018042622946324381 0.028209548580979533 0 -0.0017988328430897857 0.028192900784594601 0 -0.0012448612515142527 0.030670623382560928 0 -0.0012893310125384435 0.030706388946412828 0 -0.0011961712181269993 0.030896206087204389 0 -0.0012448612515142527 0.030670623382560928 0 -0.0012893310125384435 0.030706388946412828 0 -0.0012883958651146675 0.030551577598078073 0 -0.0012893310125384435 0.030706388946412828 0 -0.0013064606839091727 0.03090099622569473 0 -0.0011961712181269993 0.030896206087204389 0 -0.0014941425367747008 0.03063498301263445 0 -0.001797447035812803 0.030194438333604672 0 -0.0010543815258190663 0.031534503815591912 0 -0.0013064606839091727 0.03090099622569473 0 -0.0011961712181269993 0.030896206087204389 0 -0.0010143847443837659 0.031558072605713694 0 -0.001797447035812803 0.030194438333604672 0 -0.0010543815258190663 0.031534503815591912 0 -0.00096034274655020662 0.031030240381395454 0 -0.0011961712181269993 0.030896206087204389 0 -0.00096034274655020662 0.031030240381395454 0 -0.0010237499845467718 0.030696481544387429 0 -0.0011166425324181713 0.030815230083082221 0 -0.00096034274655020662 0.031030240381395454 0 -0.0011166425324181713 0.030815230083082221 0 -0.0011961712181269993 0.030896206087204389 0 -0.00096034274655020662 0.031030240381395454 0 -0.00083991984088333113 0.030694043181583336 0 -0.0010237499845467718 0.030696481544387429 0 -0.0011613229229907335 0.030692131782658252 0 -0.0011166425324181713 0.030815230083082221 0 -0.0011961712181269993 0.030896206087204389 0 -0.0011613229229907335 0.030692131782658252 0 -0.0012448612515142527 0.030670623382560928 0 -0.0011961712181269993 0.030896206087204389 0 -0.0016353826183587356 0.029239926290642405 0 -0.0018237378924447828 0.028967379795142294 0 -0.0020920534910981669 0.028216462811509843 0 -0.0021433824159744282 0.028239800868773562 0 -0.002194256057038033 0.028227758302690524 0 -0.0020378167612325232 0.028341573977408357 0 -0.0020455369231351752 0.028459852870962758 0 -0.001981976211992489 0.028372029446125668 0 -0.002080163591061657 0.028317516713309548 0 -0.0020378167612325232 0.028341573977408357 0 -0.0020455369231351752 0.028459852870962758 0 -0.002080163591061657 0.028317516713309548 0 -0.0020920534910981669 0.028216462811509843 0 -0.0021433824159744282 0.028239800868773562 0 -0.0020545908175228066 0.028348280775044112 0 -0.0021549548770233235 0.028304970499807396 0 -0.001797447035812803 0.030194438333604672 0 -0.0016353826183587356 0.029239926290642405 0 -0.0012893310125384435 0.030706388946412828 0 -0.0012883958651146675 0.030551577598078073 0 -0.0013356923816728783 0.03038363114235608 0 -0.002080163591061657 0.028317516713309548 0 -0.0017988328430897857 0.028192900784594601 0 -0.0020920534910981669 0.028216462811509843 0 -0.0012883958651146675 0.030551577598078073 0 -0.0013356923816728783 0.03038363114235608 0 -0.0012918695635322664 0.030402258157837914 0 -0.0013356923816728783 0.03038363114235608 0 -0.0012918695635322664 0.030402258157837914 0 -0.0013179827902474323 0.030290505742387015 0 -0.0012394396303258861 0.030337124064136543 0 -0.0012918695635322664 0.030402258157837914 0 -0.0012884089853518236 0.030224131571364336 0 -0.0012918695635322664 0.030402258157837914 0 -0.0013179827902474323 0.030290505742387015 0 -0.0012884089853518236 0.030224131571364336 0 -0.0013356923816728783 0.03038363114235608 0 -0.0013332642678286202 0.030207542405578165 0 -0.0013548182916930899 0.030102315172118876 0 -0.0013179827902474323 0.030290505742387015 0 -0.0013332642678286202 0.030207542405578165 0 -0.0013196084260862291 0.030159123026322125 0 -0.0013356923816728783 0.03038363114235608 0 -0.0013179827902474323 0.030290505742387015 0 -0.0013332642678286202 0.030207542405578165 0 -0.0013332642678286202 0.030207542405578165 0 -0.0013196084260862291 0.030159123026322125 0 -0.0013323492947442698 0.030084401890054988 0 -0.0013196084260862291 0.030159123026322125 0 -0.0013185455516667034 0.030040428249584673 0 -0.0013323492947442698 0.030084401890054988 0 -0.0013179827902474323 0.030290505742387015 0 -0.0013196084260862291 0.030159123026322125 0 -0.0012884089853518236 0.030224131571364336 0 -0.0013196084260862291 0.030159123026322125 0 -0.0012884089853518236 0.030224131571364336 0 -0.0013034458872957884 0.030080426968813707 0 -0.0013196084260862291 0.030159123026322125 0 -0.0013034458872957884 0.030080426968813707 0 -0.0013185455516667034 0.030040428249584673 0 -0.0012394396303258861 0.030337124064136543 0 -0.0012884089853518236 0.030224131571364336 0 -0.0012234331569119959 0.030069089648464789 0 -0.0012884089853518236 0.030224131571364336 0 -0.0012234331569119959 0.030069089648464789 0 -0.0013034458872957884 0.030080426968813707 0 -0.0012234331569119959 0.030069089648464789 0 -0.0013034458872957884 0.030080426968813707 0 -0.0012834562011047263 0.030015724320465932 0 -0.0013034458872957884 0.030080426968813707 0 -0.0012834562011047263 0.030015724320465932 0 -0.0013002872309768394 0.029999377935158951 0 -0.0013034458872957884 0.030080426968813707 0 -0.0013002872309768394 0.029999377935158951 0 -0.0013185455516667034 0.030040428249584673 0 -0.0013074754419217386 0.029949995764952032 0 -0.0013002872309768394 0.029999377935158951 0 -0.0012732291533831459 0.029947768843583814 0 -0.0013074754419217386 0.029949995764952032 0 -0.0013002872309768394 0.029999377935158951 0 -0.0013185455516667034 0.030040428249584673 0 -0.0013074754419217386 0.029949995764952032 0 -0.001288904947228471 0.029852678905697233 0 -0.0012732291533831459 0.029947768843583814 0 -0.001288904947228471 0.029852678905697233 0 -0.0012204068902774831 0.029896750223846816 0 -0.0012732291533831459 0.029947768843583814 0 -0.001288904947228471 0.029852678905697233 0 -0.0013104988535280642 0.02990485710894775 0 -0.0012888745626084583 0.029808651453614589 0 -0.0013074754419217386 0.029949995764952032 0 -0.0013104988535280642 0.02990485710894775 0 -0.0013221092047525271 0.029997186513776839 0 -0.0013074754419217386 0.029949995764952032 0 -0.001288904947228471 0.029852678905697233 0 -0.0013104988535280642 0.02990485710894775 0 -0.0013104988535280642 0.02990485710894775 0 -0.0013221092047525271 0.029997186513776839 0 -0.0013305737515252243 0.030005020843925669 0 -0.0013104988535280642 0.02990485710894775 0 -0.0013305737515252243 0.030005020843925669 0 -0.0013254398708376673 0.029916375789668034 0 -0.0013104988535280642 0.02990485710894775 0 -0.0013254398708376673 0.029916375789668034 0 -0.0012888745626084583 0.029808651453614589 0 -0.0013074754419217386 0.029949995764952032 0 -0.0013185455516667034 0.030040428249584673 0 -0.0013221092047525271 0.029997186513776839 0 -0.0013221092047525271 0.029997186513776839 0 -0.0013323492947442698 0.030084401890054988 0 -0.0013305737515252243 0.030005020843925669 0 -0.0013185455516667034 0.030040428249584673 0 -0.0013221092047525271 0.029997186513776839 0 -0.0013323492947442698 0.030084401890054988 0 -0.0013332642678286202 0.030207542405578165 0 -0.0013323492947442698 0.030084401890054988 0 -0.0013548182916930899 0.030102315172118876 0 -0.0013323492947442698 0.030084401890054988 0 -0.0013548182916930899 0.030102315172118876 0 -0.0013305737515252243 0.030005020843925669 0 -0.0021606719638464149 0.028748319410338063 0 -0.0016526126101177783 0.028891261584795783 0 -0.0016805542825839455 0.029107598494994405 0 -0.0013548182916930899 0.030102315172118876 0 -0.0013305737515252243 0.030005020843925669 0 -0.0013254398708376673 0.029916375789668034 0 -0.0018943032371028213 0.028689445112284412 0 -0.0016526126101177783 0.028891261584795783 0 -0.0016746984191774645 0.028726696919361881 0 -0.0018237378924447828 0.028967379795142294 0 -0.0017629429200964565 0.028838152268200707 0 -0.0018237378924447828 0.028967379795142294 0 -0.0014345413433061855 0.02957197641536238 0 -0.0018943032371028213 0.028689445112284412 0 -0.0016746984191774645 0.028726696919361881 0 -0.0017562661623002286 0.028621261077102396 0 -0.0018074610990209971 0.02852042053989352 0 -0.0017562661623002286 0.028621261077102396 0 -0.0016733800052481378 0.028443023026905795 0 -0.0018943032371028213 0.028689445112284412 0 -0.0018074610990209971 0.02852042053989352 0 -0.0017562661623002286 0.028621261077102396 0 -0.0017562661623002286 0.028621261077102396 0 -0.0016733800052481378 0.028443023026905795 0 -0.0015504770915411789 0.028494505380872566 0 -0.0016746984191774645 0.028726696919361881 0 -0.0017562661623002286 0.028621261077102396 0 -0.0015662752752982952 0.028634841941992898 0 -0.0017562661623002286 0.028621261077102396 0 -0.0015504770915411789 0.028494505380872566 0 -0.0015662752752982952 0.028634841941992898 0 -0.0015542964173212274 0.028363883200481145 0 -0.0016733800052481378 0.028443023026905795 0 -0.0015504770915411789 0.028494505380872566 0 -0.0015542964173212274 0.028363883200481145 0 -0.0016824075908001336 0.028330613534778223 0 -0.0016733800052481378 0.028443023026905795 0 -0.0017839342774812145 0.028377160302298914 0 -0.0018074610990209971 0.02852042053989352 0 -0.0019051162036016606 0.028453622327582369 0 -0.0017839342774812145 0.028377160302298914 0 -0.0018074610990209971 0.02852042053989352 0 -0.0016733800052481378 0.028443023026905795 0 -0.0017839342774812145 0.028377160302298914 0 -0.0016824075908001336 0.028330613534778223 0 -0.0016733800052481378 0.028443023026905795 0 -0.0018909038163913261 0.028346696453877825 0 -0.0019051162036016606 0.028453622327582369 0 -0.001981976211992489 0.028372029446125668 0 -0.0018909038163913261 0.028346696453877825 0 -0.0017839342774812145 0.028377160302298914 0 -0.0019051162036016606 0.028453622327582369 0 -0.0020455369231351752 0.028459852870962758 0 -0.0019051162036016606 0.028453622327582369 0 -0.001981976211992489 0.028372029446125668 0 -0.0021549548770233235 0.028304970499807396 0 -0.0018237378924447828 0.028967379795142294 0 -0.0020455369231351752 0.028459852870962758 0 -0.0018943032371028213 0.028689445112284412 0 -0.0019051162036016606 0.028453622327582369 0 -0.0018943032371028213 0.028689445112284412 0 -0.0018074610990209971 0.02852042053989352 0 -0.0019051162036016606 0.028453622327582369 0 -0.00080555016274023842 0.028137634541601269 0 -0.00095199360649186643 0.028407960744241536 0 -0.0011225705358143794 0.028186893366943178 0 -0.0012008553758759788 0.028431999745794169 0 -0.00084868669049978297 0.028510131381681625 0 -0.0012008553758759788 0.028431999745794169 0 -0.0010959492339765412 0.028708942024262756 0 -0.00084868669049978297 0.028510131381681625 0 -0.0012008553758759788 0.028431999745794169 0 -0.0013015173293900711 0.028588065523663862 0 -0.0010959492339765412 0.028708942024262756 0 -0.0012008553758759788 0.028431999745794169 0 -0.0014118333113254753 0.028430706017767225 0 -0.0013015173293900711 0.028588065523663862 0 -0.0014009330287108243 0.028229597260372285 0 -0.0012008553758759788 0.028431999745794169 0 -0.0014118333113254753 0.028430706017767225 0 -0.0015542964173212274 0.028363883200481145 0 -0.0014118333113254753 0.028430706017767225 0 -0.0015504770915411789 0.028494505380872566 0 -0.0014118333113254753 0.028430706017767225 0 -0.0015504770915411789 0.028494505380872566 0 -0.0014458576373535168 0.028567867640190529 0 -0.0014458576373535168 0.028567867640190529 0 -0.0015662752752982952 0.028634841941992898 0 -0.001433794749287072 0.028771799467092088 0 -0.0015504770915411789 0.028494505380872566 0 -0.0014458576373535168 0.028567867640190529 0 -0.0015662752752982952 0.028634841941992898 0 -0.0013015173293900711 0.028588065523663862 0 -0.001433794749287072 0.028771799467092088 0 -0.0010959492339765412 0.028708942024262756 0 -0.0014458576373535168 0.028567867640190529 0 -0.0013015173293900711 0.028588065523663862 0 -0.001433794749287072 0.028771799467092088 0 -0.0014118333113254753 0.028430706017767225 0 -0.0014458576373535168 0.028567867640190529 0 -0.0013015173293900711 0.028588065523663862 0 -0.001433794749287072 0.028771799467092088 0 -0.0012971686216327162 0.029053129147974418 0 -0.0010959492339765412 0.028708942024262756 0 -0.0016746984191774645 0.028726696919361881 0 -0.0015662752752982952 0.028634841941992898 0 -0.001433794749287072 0.028771799467092088 0 -0.0016526126101177783 0.028891261584795783 0 -0.0016746984191774645 0.028726696919361881 0 -0.001433794749287072 0.028771799467092088 0 -0.0016526126101177783 0.028891261584795783 0 -0.0016805542825839455 0.029107598494994405 0 -0.0012971686216327162 0.029053129147974418 0 -0.0016526126101177783 0.028891261584795783 0 -0.001433794749287072 0.028771799467092088 0 -0.0012971686216327162 0.029053129147974418 0 -0.0012971686216327162 0.029053129147974418 0 -0.0010959492339765412 0.028708942024262756 0 -0.00090169914110216961 0.028967749001667743 0 -0.0012971686216327162 0.029053129147974418 0 -0.00090169914110216961 0.028967749001667743 0 -0.00091118287371476576 0.029355660557219401 0 -0.0010959492339765412 0.028708942024262756 0 -0.00090169914110216961 0.028967749001667743 0 -0.00084868669049978297 0.028510131381681625 0 -0.00091118287371476576 0.029355660557219401 0 -0.001220519619555235 0.029589499790785758 0 -0.00083842840012303443 0.029626599581792777 0 -0.0012971686216327162 0.029053129147974418 0 -0.00091118287371476576 0.029355660557219401 0 -0.001220519619555235 0.029589499790785758 0 -0.0016805542825839455 0.029107598494994405 0 -0.0012971686216327162 0.029053129147974418 0 -0.001220519619555235 0.029589499790785758 0 -0.0014345413433061855 0.02957197641536238 0 -0.0012497767575791198 0.029600812176404093 0 -0.0013254398708376673 0.029916375789668034 0 -0.001220519619555235 0.029589499790785758 0 -0.0012888745626084583 0.029808651453614589 0 -0.001288904947228471 0.029852678905697233 0 -0.001220519619555235 0.029589499790785758 0 -0.0012888745626084583 0.029808651453614589 0 -0.001220519619555235 0.029589499790785758 0 -0.0010404630925713292 0.02983520439012325 0 -0.0012204068902774831 0.029896750223846816 0 -0.001288904947228471 0.029852678905697233 0 -0.001220519619555235 0.029589499790785758 0 -0.0012204068902774831 0.029896750223846816 0 -0.001220519619555235 0.029589499790785758 0 -0.0010404630925713292 0.02983520439012325 0 -0.00083842840012303443 0.029626599581792777 0 -0.0010404630925713292 0.02983520439012325 0 -0.00099676472152855937 0.029950458242757674 0 -0.0011360635508588671 0.029948967063979363 0 -0.0010404630925713292 0.02983520439012325 0 -0.00099676472152855937 0.029950458242757674 0 -0.00074934980697347053 0.029845422679457868 0 -0.00099676472152855937 0.029950458242757674 0 -0.0011360635508588671 0.029948967063979363 0 -0.0011504153229192234 0.029992632060410855 0 -0.0011360635508588671 0.029948967063979363 0 -0.0012126965060795119 0.029993569157688877 0 -0.0011504153229192234 0.029992632060410855 0 -0.0011360635508588671 0.029948967063979363 0 -0.0012204068902774831 0.029896750223846816 0 -0.0012126965060795119 0.029993569157688877 0 -0.0010404630925713292 0.02983520439012325 0 -0.0011360635508588671 0.029948967063979363 0 -0.0012204068902774831 0.029896750223846816 0 -0.0012204068902774831 0.029896750223846816 0 -0.0012732291533831459 0.029947768843583814 0 -0.0012126965060795119 0.029993569157688877 0 -0.0012732291533831459 0.029947768843583814 0 -0.0012486378736982836 0.029990613362231161 0 -0.0012126965060795119 0.029993569157688877 0 -0.0013002872309768394 0.029999377935158951 0 -0.0012732291533831459 0.029947768843583814 0 -0.0012486378736982836 0.029990613362231161 0 -0.0011752754098649162 0.030060962248868436 0 -0.0012486378736982836 0.029990613362231161 0 -0.0012126965060795119 0.029993569157688877 0 -0.0011752754098649162 0.030060962248868436 0 -0.0012126965060795119 0.029993569157688877 0 -0.0011976084923541403 0.029991688272807075 0 -0.0011752754098649162 0.030060962248868436 0 -0.0011538574784801373 0.029978640926140498 0 -0.0011976084923541403 0.029991688272807075 0 -0.0011538574784801373 0.029978640926140498 0 -0.0011976084923541403 0.029991688272807075 0 -0.0012141572313432649 0.029905810425083685 0 -0.0011976084923541403 0.029991688272807075 0 -0.0012180990468437041 0.029944772896396802 0 -0.0012141572313432649 0.029905810425083685 0 -0.0011976084923541403 0.029991688272807075 0 -0.0012180990468437041 0.029944772896396802 0 -0.0011504153229192234 0.029992632060410855 0 -0.0011504153229192234 0.029992632060410855 0 -0.0012306754278552188 0.029915402107066748 0 -0.0010631885892807612 0.029980875844262251 0 -0.00020511205828125848 0.026174528186639626 0 -2.3897711542939605e-05 0.026044155184253959 0 -0.0012180990468437041 0.029944772896396802 0 -0.0011504153229192234 0.029992632060410855 0 -0.0012306754278552188 0.029915402107066748 0 -0.00099676472152855937 0.029950458242757674 0 -0.0011504153229192234 0.029992632060410855 0 -0.0010631885892807612 0.029980875844262251 0 -0.0012126965060795119 0.029993569157688877 0 -0.0011976084923541403 0.029991688272807075 0 -0.0011504153229192234 0.029992632060410855 0 -0.0013464075334748953 0.02976822993669348 0 -0.0012141572313432649 0.029905810425083685 0 -0.0012636662425774862 0.029760385859364483 0 -0.00046241636287158483 0.02646495972874794 0 -0.00020511205828125848 0.026174528186639626 0 0.00041055176722613776 0.023166845223825217 0 0.00081800557277572931 0.022445913816532142 0 0.001008037023052981 0.022978948600062207 0 -0.0012180990468437041 0.029944772896396802 0 -0.0013464075334748953 0.02976822993669348 0 -0.0012141572313432649 0.029905810425083685 0 -0.0012180990468437041 0.029944772896396802 0 -0.0013464075334748953 0.02976822993669348 0 -0.0012306754278552188 0.029915402107066748 0 -0.0011538574784801373 0.029978640926140498 0 -0.0012141572313432649 0.029905810425083685 0 -0.0010985715701121595 0.029881871070672996 0 -0.0010985715701121595 0.029881871070672996 0 -0.0012636662425774862 0.029760385859364483 0 -0.0011414948399612423 0.029674455522458034 0 -0.0012141572313432649 0.029905810425083685 0 -0.0010985715701121595 0.029881871070672996 0 -0.0012636662425774862 0.029760385859364483 0 -0.0012636662425774862 0.029760385859364483 0 -0.0011414948399612423 0.029674455522458034 0 -0.0014503226137054682 0.029504177561989454 0 -0.0011414948399612423 0.029674455522458034 0 -0.0011861930794937481 0.029390774747891216 0 -0.00092677447558044059 0.029621737143180581 0 -0.0011414948399612423 0.029674455522458034 0 -0.0011861930794937481 0.029390774747891216 0 -0.0014503226137054682 0.029504177561989454 0 -0.0013464075334748953 0.02976822993669348 0 -0.0012636662425774862 0.029760385859364483 0 -0.0014503226137054682 0.029504177561989454 0 -0.00046241636287158483 0.02646495972874794 0 -0.00071864300689738158 0.026809611151343456 0 0.00041055176722613776 0.023166845223825217 0 1.0455073102029254e-05 0.024146234713318875 0 0.0011384522254682581 0.023835713319026963 0 0.00041055176722613776 0.023166845223825217 0 0.001008037023052981 0.022978948600062207 0 0.0011384522254682581 0.023835713319026963 0 0.0006545678081878696 0.024681055226177494 0 0.0011384522254682581 0.023835713319026963 0 0.001313559828277406 0.024597189906171168 0 1.0455073102029254e-05 0.024146234713318875 0 0.0006545678081878696 0.024681055226177494 0 0.0011384522254682581 0.023835713319026963 0 0.0006545678081878696 0.024681055226177494 0 0.0010387002511101457 0.025568409778620373 0 0.001313559828277406 0.024597189906171168 0 0.0006545678081878696 0.024681055226177494 0 0.0010387002511101457 0.025568409778620373 0 -0.00047693846539691501 0.025434975736189469 0 1.0455073102029254e-05 0.024146234713318875 0 0.0006545678081878696 0.024681055226177494 0 -0.00047693846539691501 0.025434975736189469 0 0.0010387002511101457 0.025568409778620373 0 0.00045503522129312283 0.026592273934879423 0 -0.00047693846539691501 0.025434975736189469 0 0.0010387002511101457 0.025568409778620373 0 0.0012359888330892225 0.026464797575879238 0 0.00045503522129312283 0.026592273934879423 0 0.0010387002511101457 0.025568409778620373 0 0.0012359888330892225 0.026464797575879238 0 0.0016709167239128942 0.025857219310986161 0 0.0012359888330892225 0.026464797575879238 0 0.00045503522129312283 0.026592273934879423 0 0.00059633678768811552 0.027290766270547509 0 0.00045503522129312283 0.026592273934879423 0 0.00059633678768811552 0.027290766270547509 0 -0.00017489979861723152 0.027657856003751317 0 0.00059633678768811552 0.027290766270547509 0 -0.00017489979861723152 0.027657856003751317 0 -9.5992534776822975e-05 0.028124223939354737 0 0.0012359888330892225 0.026464797575879238 0 0.00059633678768811552 0.027290766270547509 0 0.0014787848015181586 0.027119549586971874 0 0.0012359888330892225 0.026464797575879238 0 0.0014787848015181586 0.027119549586971874 0 0.0017811683890300845 0.026401894869907488 0 -0.00097723327944005496 0.027813471529752838 0 -0.00089018081380369464 0.028631869074715214 0 -0.00060221431027181465 0.028319948516998088 0 -0.00017489979861723152 0.027657856003751317 0 -0.00097723327944005496 0.027813471529752838 0 -0.00060221431027181465 0.028319948516998088 0 -0.00017489979861723152 0.027657856003751317 0 -9.5992534776822975e-05 0.028124223939354737 0 -0.00060221431027181465 0.028319948516998088 0 0.00045503522129312283 0.026592273934879423 0 -0.00017489979861723152 0.027657856003751317 0 -0.00097723327944005496 0.027813471529752838 0 0.00045503522129312283 0.026592273934879423 0 -0.00097723327944005496 0.027813471529752838 0 -0.00047693846539691501 0.025434975736189469 0 -0.00097723327944005496 0.027813471529752838 0 -0.0014948694504473199 0.028979552830310683 0 -0.00096194831631185509 0.029096861078068879 0 -0.0010021647596703757 0.027741081848562148 0 -0.00094867415267255195 0.027212551294100218 0 -0.0011861930794937481 0.029390774747891216 0 -0.0014503226137054682 0.029504177561989454 0 -0.0014948694504473199 0.028979552830310683 0 -0.00071864300689738158 0.026809611151343456 0 -0.00094867415267255195 0.027212551294100218 0 -0.0011861930794937481 0.029390774747891216 0 -0.0014948694504473199 0.028979552830310683 0 -0.00096194831631185509 0.029096861078068879 0 -0.0011861930794937481 0.029390774747891216 0 -0.00096194831631185509 0.029096861078068879 0 -0.00092677447558044059 0.029621737143180581 0 -0.00096194831631185509 0.029096861078068879 0 -0.00085292092317685024 0.029443430744726211 0 -0.00092677447558044059 0.029621737143180581 0 -0.00085292092317685024 0.029443430744726211 0 -0.00088063675331689982 0.028779224395876768 0 -0.00081729969893138668 0.02938358596920642 0 -0.00096194831631185509 0.029096861078068879 0 -0.00085292092317685024 0.029443430744726211 0 -0.00088063675331689982 0.028779224395876768 0 -0.00097723327944005496 0.027813471529752838 0 -0.00096194831631185509 0.029096861078068879 0 -0.00088063675331689982 0.028779224395876768 0 -0.00097723327944005496 0.027813471529752838 0 -0.00088063675331689982 0.028779224395876768 0 -0.00089018081380369464 0.028631869074715214 0 -0.00088063675331689982 0.028779224395876768 0 -0.00089018081380369464 0.028631869074715214 0 -0.00099256828626582755 0.028939359403143454 0 -0.00088063675331689982 0.028779224395876768 0 -0.00099256828626582755 0.028939359403143454 0 -0.00081729969893138668 0.02938358596920642 0 -0.00089018081380369464 0.028631869074715214 0 -0.00099256828626582755 0.028939359403143454 0 -0.0010031005255051572 0.028931512021921121 0 -0.001023336385664585 0.029055793318065556 0 -0.0012900067379663155 0.028815358346744729 0 -0.00099256828626582755 0.028939359403143454 0 -0.0017536587451605261 0.028893309973128271 0 -0.0013982689002167185 0.029197365956152369 0 -0.00099256828626582755 0.028939359403143454 0 -0.0013982689002167185 0.029197365956152369 0 -0.0010031005255051572 0.028931512021921121 0 -0.00099256828626582755 0.028939359403143454 0 -0.00074539894505544881 0.029680623714450058 0 -0.00081729969893138668 0.02938358596920642 0 -0.00099256828626582755 0.028939359403143454 0 -0.00074539894505544881 0.029680623714450058 0 -0.00065482021029058374 0.029370167286360008 0 -0.00074539894505544881 0.029680623714450058 0 -0.00049873924171427956 0.030004330244665232 0 -0.00065482021029058374 0.029370167286360008 0 -0.00074539894505544881 0.029680623714450058 0 -0.00070111326565376988 0.03020996641485282 0 -0.00049873924171427956 0.030004330244665232 0 -0.00074539894505544881 0.029680623714450058 0 -0.00081729969893138668 0.02938358596920642 0 -0.00072476822844035104 0.029811666516979141 0 -0.00085292092317685024 0.029443430744726211 0 -0.00081729969893138668 0.02938358596920642 0 -0.00072476822844035104 0.029811666516979141 0 -0.00074539894505544881 0.029680623714450058 0 -0.00072476822844035104 0.029811666516979141 0 -0.00070111326565376988 0.03020996641485282 0 -0.00072476822844035104 0.029811666516979141 0 -0.00074809556025449649 0.029881604097884849 0 -0.00070111326565376988 0.03020996641485282 0 -0.00072476822844035104 0.029811666516979141 0 -0.00074809556025449649 0.029881604097884849 0 -0.0007637698821126366 0.029821115166482573 0 -0.0007637698821126366 0.029821115166482573 0 -0.00080181900804326359 0.029849412689946196 0 -0.00078231435148231341 0.029845779015453697 0 -0.00074809556025449649 0.029881604097884849 0 -0.0007637698821126366 0.029821115166482573 0 -0.00078231435148231341 0.029845779015453697 0 -0.0007637698821126366 0.029821115166482573 0 -0.00080587326973629106 0.029741839155584253 0 -0.0008736386610654676 0.029814370481973669 0 -0.0007637698821126366 0.029821115166482573 0 -0.0008736386610654676 0.029814370481973669 0 -0.00080181900804326359 0.029849412689946196 0 -0.00072476822844035104 0.029811666516979141 0 -0.0007637698821126366 0.029821115166482573 0 -0.00080587326973629106 0.029741839155584253 0 -0.00085292092317685024 0.029443430744726211 0 -0.00072476822844035104 0.029811666516979141 0 -0.00080587326973629106 0.029741839155584253 0 -0.00085292092317685024 0.029443430744726211 0 -0.00080587326973629106 0.029741839155584253 0 -0.00092677447558044059 0.029621737143180581 0 -0.0011414948399612423 0.029674455522458034 0 -0.00092677447558044059 0.029621737143180581 0 -0.0009937583458335729 0.029760566419534604 0 -0.00092677447558044059 0.029621737143180581 0 -0.0009937583458335729 0.029760566419534604 0 -0.0008736386610654676 0.029814370481973669 0 -0.00080587326973629106 0.029741839155584253 0 -0.00092677447558044059 0.029621737143180581 0 -0.0008736386610654676 0.029814370481973669 0 -0.0008736386610654676 0.029814370481973669 0 -0.00095410101793008239 0.029900879575928803 0 -0.000856380767401464 0.029918606485934262 0 -0.0009937583458335729 0.029760566419534604 0 -0.0008736386610654676 0.029814370481973669 0 -0.00095410101793008239 0.029900879575928803 0 -0.0010985715701121595 0.029881871070672996 0 -0.0011414948399612423 0.029674455522458034 0 -0.0009937583458335729 0.029760566419534604 0 -0.0010985715701121595 0.029881871070672996 0 -0.0009937583458335729 0.029760566419534604 0 -0.00095410101793008239 0.029900879575928803 0 -0.0010401373803721045 0.030004773922737909 0 -0.0010985715701121595 0.029881871070672996 0 -0.00095410101793008239 0.029900879575928803 0 -0.0010401373803721045 0.030004773922737909 0 -0.0011538574784801373 0.029978640926140498 0 -0.0010985715701121595 0.029881871070672996 0 -0.00091708779441746651 0.029987802850254434 0 -0.0010401373803721045 0.030004773922737909 0 -0.00095410101793008239 0.029900879575928803 0 -0.00091708779441746651 0.029987802850254434 0 -0.00095410101793008239 0.029900879575928803 0 -0.000856380767401464 0.029918606485934262 0 -0.00076298227280396642 0.02999144288115833 0 -0.000856380767401464 0.029918606485934262 0 -0.00074538433414496721 0.029932457083161241 0 -0.00087390117677053967 0.029922351507551251 0 -0.0007123413919568755 0.029853548471441123 0 -0.000856380767401464 0.029918606485934262 0 -0.00078593508425588935 0.029876042946706614 0 -0.00080181900804326359 0.029849412689946196 0 -0.00076298227280396642 0.02999144288115833 0 -0.00082427933044596229 0.030024659399714423 0 -0.000856380767401464 0.029918606485934262 0 -0.0006723247530299475 0.030029186156520813 0 -0.00076298227280396642 0.02999144288115833 0 -0.00074538433414496721 0.029932457083161241 0 -0.00078593508425588935 0.029876042946706614 0 -0.00080181900804326359 0.029849412689946196 0 -0.00078231435148231341 0.029845779015453697 0 -0.0008736386610654676 0.029814370481973669 0 -0.000856380767401464 0.029918606485934262 0 -0.00080181900804326359 0.029849412689946196 0 -0.00076044365841723097 0.030597915501253271 0 -0.00086320524684729307 0.031556715213974622 0 -0.00078035075494300987 0.031580346531081077 0 -0.00098469239353057175 0.032099980655320395 0 -0.00032147100352706377 0.032024616484468603 0 -0.00082306101055574165 0.029855789773283705 0 -0.00078231435148231341 0.029845779015453697 0 -0.0007954510758023508 0.02985788900841943 0 -0.00078593508425588935 0.029876042946706614 0 -0.00078231435148231341 0.029845779015453697 0 -0.0007954510758023508 0.02985788900841943 0 -0.0006723247530299475 0.030029186156520813 0 -0.00074538433414496721 0.029932457083161241 0 -0.00064123992799941011 0.02993997338987368 0 -0.00068005114087628133 0.032317817862197284 0 -0.00086320524684729307 0.031556715213974622 0 -0.0007123413919568755 0.029853548471441123 0 -0.00086320524684729307 0.031556715213974622 0 -0.00086320524684729307 0.031556715213974622 0 -0.00039048110630627745 0.033327976026420396 0 -0.00050990793387867251 0.034555841693605642 0 -0.00066838044217791982 0.034553694581254471 0 -0.00061734832710645627 0.034414180645004892 0 -0.00050990793387867251 0.034555841693605642 0 -0.00061734832710645627 0.034414180645004892 0 -0.00045016396040660007 0.03441057252417988 0 -0.00050990793387867251 0.034555841693605642 0 -0.00041257402454062027 0.034544147770935667 0 -0.00045016396040660007 0.03441057252417988 0 -0.00041257402454062027 0.034544147770935667 0 -0.00045016396040660007 0.03441057252417988 0 -0.00034214896133781401 0.034494875202280756 0 -0.00045016396040660007 0.03441057252417988 0 -0.00034214896133781401 0.034494875202280756 0 -0.00027535302457690788 0.034395913970747601 0 -0.00031694171711925894 0.034593872711683404 0 -0.00041257402454062027 0.034544147770935667 0 -0.00034214896133781401 0.034494875202280756 0 -0.00031694171711925894 0.034593872711683404 0 -0.0002456041490030766 0.034529403035070516 0 -0.00034214896133781401 0.034494875202280756 0 -0.0002456041490030766 0.034529403035070516 0 -0.00034214896133781401 0.034494875202280756 0 -0.00027535302457690788 0.034395913970747601 0 0.000181001702879184 0.031167468867615889 0 0.00010194667120953696 0.031017111914859823 0 0.00027985511085642259 0.031031703922680027 0 -2.6842667546236029e-05 0.033131032426794355 0 -3.7910997056787632e-05 0.031147234262292257 0 0.000181001702879184 0.031167468867615889 0 0.00010431446781480617 0.031016159177679473 0 0.00010194667120953696 0.031017111914859823 0 -0.00039048110630627745 0.033327976026420396 0 -2.6842667546236029e-05 0.033131032426794355 0 -0.00078035075494300987 0.031580346531081077 0 -0.00032147100352706377 0.032024616484468603 0 -0.00011376376291099856 0.031500442117686003 0 -0.00032147100352706377 0.032024616484468603 0 0.00034505371937797869 0.031949750934980883 0 -0.00011376376291099856 0.031500442117686003 0 -3.7910997056787632e-05 0.031147234262292257 0 -0.0002936246016866355 0.030906227501565259 0 0.00010431446781480617 0.031016159177679473 0 0.00010194667120953696 0.031017111914859823 0 0.00017139999834570377 0.031148161020594582 0 0.00010194667120953696 0.031017111914859823 0 0.00017139999834570377 0.031148161020594582 0 7.2303248570873332e-05 0.031133932983749817 0 0.00017139999834570377 0.031148161020594582 0 7.2303248570873332e-05 0.031133932983749817 0 8.910033636264814e-05 0.031266211384417868 0 0.00010431446781480617 0.031016159177679473 0 0.00017139999834570377 0.031148161020594582 0 0.00031715784884187704 0.031181809309744679 0 0.00021172004165981339 0.030626996102252915 0 -0.00019414949850847749 0.032901608779905021 0 0.00010194667120953696 0.031017111914859823 0 -0.00010213019328464357 0.031109502510768772 0 -0.00035166525377112139 0.031014564211944807 0 0.00010194667120953696 0.031017111914859823 0 7.2303248570873332e-05 0.031133932983749817 0 -0.00010213019328464357 0.031109502510768772 0 7.2303248570873332e-05 0.031133932983749817 0 -0.00010213019328464357 0.031109502510768772 0 8.910033636264814e-05 0.031266211384417868 0 8.910033636264814e-05 0.031266211384417868 0 0.00021254129174328977 0.031621282041176958 0 -0.00038088559118697602 0.03136623090918933 0 -0.00010213019328464357 0.031109502510768772 0 8.910033636264814e-05 0.031266211384417868 0 -0.00038088559118697602 0.03136623090918933 0 0.00017139999834570377 0.031148161020594582 0 0.00023082143537729634 0.031389022390675765 0 0.00031715784884187704 0.031181809309744679 0 0.00017139999834570377 0.031148161020594582 0 8.910033636264814e-05 0.031266211384417868 0 0.00023082143537729634 0.031389022390675765 0 8.910033636264814e-05 0.031266211384417868 0 0.00023082143537729634 0.031389022390675765 0 0.00021254129174328977 0.031621282041176958 0 0.00023082143537729634 0.031389022390675765 0 4.3613054518398792e-05 0.031719960430978709 0 -0.00034587068314842376 0.031250730959618278 0 -0.00087003635061605922 0.029898510656368893 0 -0.00081636647488186127 0.02987825885048092 0 -0.00085838451939830259 0.029970378534986925 0 -0.0002936246016866355 0.030906227501565259 0 -0.00059052023971159419 0.030576129258337085 0 0.00016759766224382517 0.03148272347112295 0 -0.0002936246016866355 0.030906227501565259 0 -0.00076044365841723097 0.030597915501253271 0 -0.0002936246016866355 0.030906227501565259 0 -0.00082306101055574165 0.029855789773283705 0 -0.00087003635061605922 0.029898510656368893 0 -0.00081636647488186127 0.02987825885048092 0 -0.00078035075494300987 0.031580346531081077 0 -0.00011376376291099856 0.031500442117686003 0 -0.00057305159592136096 0.031056304776317822 0 -0.00074809556025449649 0.029881604097884849 0 -0.00078231435148231341 0.029845779015453697 0 -0.00081636647488186127 0.02987825885048092 0 -0.00082306101055574165 0.029855789773283705 0 -0.00078231435148231341 0.029845779015453697 0 -0.00081636647488186127 0.02987825885048092 0 -0.00074809556025449649 0.029881604097884849 0 -0.00085838451939830259 0.029970378534986925 0 -0.00070111326565376988 0.03020996641485282 0 -0.00074809556025449649 0.029881604097884849 0 -0.00081636647488186127 0.02987825885048092 0 -0.00085838451939830259 0.029970378534986925 0 -0.00059052023971159419 0.030576129258337085 0 -0.00068178101444305126 0.030323661200234862 0 -0.00034587068314842376 0.031250730959618278 0 -0.00070111326565376988 0.03020996641485282 0 -0.00025569066435571518 0.030694338761700978 0 0.00023082143537729634 0.031389022390675765 0 -0.00025569066435571518 0.030694338761700978 0 4.5756806457501172e-06 0.030849021729538066 0 0.00023082143537729634 0.031389022390675765 0 -0.00034587068314842376 0.031250730959618278 0 -0.00025569066435571518 0.030694338761700978 0 -0.00025569066435571518 0.030694338761700978 0 4.5756806457501172e-06 0.030849021729538066 0 -0.00049873924171427956 0.030004330244665232 0 -0.00070111326565376988 0.03020996641485282 0 -0.00025569066435571518 0.030694338761700978 0 -0.00049873924171427956 0.030004330244665232 0 -0.00049873924171427956 0.030004330244665232 0 -0.00020006275650958657 0.029820127562450525 0 -0.00065482021029058374 0.029370167286360008 0 4.5756806457501172e-06 0.030849021729538066 0 -0.00020006275650958657 0.029820127562450525 0 0.00035397593585542183 0.030139424418221004 0 4.5756806457501172e-06 0.030849021729538066 0 -0.00049873924171427956 0.030004330244665232 0 -0.00020006275650958657 0.029820127562450525 0 -0.00020006275650958657 0.029820127562450525 0 -3.7712390835603601e-05 0.029301597581147702 0 0.00035397593585542183 0.030139424418221004 0 -0.00020006275650958657 0.029820127562450525 0 -3.7712390835603601e-05 0.029301597581147702 0 -0.00065482021029058374 0.029370167286360008 0 -0.002426763210901036 0.029059607786842977 0 -0.0017536587451605261 0.028893309973128271 0 -0.0019620853873915764 0.029251317292507583 0 -0.00064275145891927422 0.031536631825588531 0 -0.0012900067379663155 0.028815358346744729 0 0.00049119404996429174 0.03468634322651714 0 -0.00019977834997011152 0.034366937366988176 0 0.0001355033016333042 0.034834435568522094 0 0.00050408263082101022 0.034693946027809314 0 -5.1047462606828334e-05 0.034830196107745244 0 0.00050408263082101022 0.034693946027809314 0 0.00010997987060661787 0.03400033095696068 0 -0.000450985086423559 0.03385671021631232 0 0.00018111365332446335 0.034875563888508689 0 0.0001355033016333042 0.034834435568522094 0 0.00050408263082101022 0.034693946027809314 0 0.00018111365332446335 0.034875563888508689 0 0.00050408263082101022 0.034693946027809314 0 0.00031700052356002976 0.034870796863633265 0 0.0012338812248513698 0.034676562208910078 0 0.00068188790334380584 0.034280372075948161 0 0.00083179777238425335 0.033735091873512292 0 -0.00064275145891927422 0.031536631825588531 0 0.00073407249490542112 0.0320811716399622 0 0.0012338812248513698 0.034676562208910078 0 0.00050408263082101022 0.034693946027809314 0 0.00052036266872661392 0.034888744618143348 0 0.0012338812248513698 0.034676562208910078 0 0.00050408263082101022 0.034693946027809314 0 0.00068188790334380584 0.034280372075948161 0 0.00050408263082101022 0.034693946027809314 0 0.00068188790334380584 0.034280372075948161 0 0.00010997987060661787 0.03400033095696068 0 0.00068188790334380584 0.034280372075948161 0 0.00083179777238425335 0.033735091873512292 0 0.00010997987060661787 0.03400033095696068 0 0.00083179777238425335 0.033735091873512292 0 2.6072572801421987e-05 0.033599776645736087 0 -2.8136610941650439e-05 0.033126500219211132 0 0.00083179777238425335 0.033735091873512292 0 0.00010997987060661787 0.03400033095696068 0 2.6072572801421987e-05 0.033599776645736087 0 0.00010997987060661787 0.03400033095696068 0 2.6072572801421987e-05 0.033599776645736087 0 -0.0002605636804464422 0.033714288861548126 0 2.6072572801421987e-05 0.033599776645736087 0 -2.8136610941650439e-05 0.033126500219211132 0 -0.00030060793647362726 0.033458682642987708 0 2.6072572801421987e-05 0.033599776645736087 0 -0.00030060793647362726 0.033458682642987708 0 -0.0002605636804464422 0.033714288861548126 0 0.00083179777238425335 0.033735091873512292 0 -2.8136610941650439e-05 0.033126500219211132 0 0.00028966475340584669 0.032094848413183392 0 -2.8136610941650439e-05 0.033126500219211132 0 -0.00029844719577477332 0.033179251599871826 0 -0.00030060793647362726 0.033458682642987708 0 -2.8136610941650439e-05 0.033126500219211132 0 0.00028966475340584669 0.032094848413183392 0 -0.00035724589821257204 0.032738835920066038 0 -2.8136610941650439e-05 0.033126500219211132 0 -0.00029844719577477332 0.033179251599871826 0 -0.00035724589821257204 0.032738835920066038 0 4.5756806457501172e-06 0.030849021729538066 0 0.00035397593585542183 0.030139424418221004 0 0.00028966475340584669 0.032094848413183392 0 4.5756806457501172e-06 0.030849021729538066 0 0.00028966475340584669 0.032094848413183392 0 0.00022483054611646154 0.031427407151369102 0 0.00073407249490542112 0.0320811716399622 0 0.00025681207863322562 0.031922528457245837 0 0.00023082143537729634 0.031389022390675765 0 4.5756806457501172e-06 0.030849021729538066 0 0.00022483054611646154 0.031427407151369102 0 0.00028966475340584669 0.032094848413183392 0 0.00022483054611646154 0.031427407151369102 0 0.00021254129174328977 0.031621282041176958 0 0.00023082143537729634 0.031389022390675765 0 0.00022483054611646154 0.031427407151369102 0 0.00021254129174328977 0.031621282041176958 0 -0.00035724589821257204 0.032738835920066038 0 0.00021254129174328977 0.031621282041176958 0 -0.00038088559118697602 0.03136623090918933 0 -0.00038130419828061269 0.032813229526515907 0 -0.00049551444392190614 0.032790084602432698 0 0.00028966475340584669 0.032094848413183392 0 -0.00035724589821257204 0.032738835920066038 0 0.00021254129174328977 0.031621282041176958 0 -0.0003337663679576208 0.033623051972751568 0 -0.00019003793412281455 0.034297874719891264 0 -0.0006385909719691012 0.034200274085711781 0 -0.00035724589821257204 0.032738835920066038 0 -0.0003337663679576208 0.033623051972751568 0 -0.0006385909719691012 0.034200274085711781 0 -0.00031219876694299362 0.033873680620608575 0 -8.6507502512597523e-05 0.034467783241941601 0 -0.00019003793412281455 0.034297874719891264 0 -0.0003337663679576208 0.033623051972751568 0 -0.00031219876694299362 0.033873680620608575 0 -0.00019003793412281455 0.034297874719891264 0 -0.00031219876694299362 0.033873680620608575 0 -0.00041050920977020482 0.033679348165316571 0 -0.00024111305332293376 0.0339225448518026 0 -0.00035724589821257204 0.032738835920066038 0 -0.0003337663679576208 0.033623051972751568 0 -0.00039160508382901025 0.033382843834775452 0 -0.00029844719577477332 0.033179251599871826 0 -0.00035724589821257204 0.032738835920066038 0 -0.00039160508382901025 0.033382843834775452 0 -0.0003337663679576208 0.033623051972751568 0 -0.00031219876694299362 0.033873680620608575 0 -0.00039160508382901025 0.033382843834775452 0 -0.00031219876694299362 0.033873680620608575 0 -0.00039160508382901025 0.033382843834775452 0 -0.00041050920977020482 0.033679348165316571 0 -0.00029844719577477332 0.033179251599871826 0 -0.00039160508382901025 0.033382843834775452 0 -0.00030060793647362726 0.033458682642987708 0 -0.00039160508382901025 0.033382843834775452 0 -0.00030060793647362726 0.033458682642987708 0 -0.00041050920977020482 0.033679348165316571 0 -0.00030060793647362726 0.033458682642987708 0 -0.0002605636804464422 0.033714288861548126 0 -0.00041050920977020482 0.033679348165316571 0 0.00010997987060661787 0.03400033095696068 0 -0.0002605636804464422 0.033714288861548126 0 -0.000450985086423559 0.03385671021631232 0 -0.0002605636804464422 0.033714288861548126 0 -0.00041050920977020482 0.033679348165316571 0 -0.000450985086423559 0.03385671021631232 0 -5.2671930849370577e-05 0.034915393420410674 0 -5.1047462606828334e-05 0.034830196107745244 0 -3.6849523037546893e-05 0.034970496417189197 0 -0.00019977834997011152 0.034366937366988176 0 -0.00017825503765940304 0.034460706913258511 0 -0.00041050920977020482 0.033679348165316571 0 -0.000450985086423559 0.03385671021631232 0 -0.00024111305332293376 0.0339225448518026 0 -5.2671930849370577e-05 0.034915393420410674 0 -5.7320870478425439e-05 0.034885668482505829 0 -5.1047462606828334e-05 0.034830196107745244 0 -5.2671930849370577e-05 0.034915393420410674 0 -6.2194691686532331e-05 0.034905182669621351 0 -5.1805894653376071e-05 0.034916074606399568 0 -5.2671930849370577e-05 0.034915393420410674 0 -3.3241433919934315e-05 0.034935087711157047 0 -5.1805894653376071e-05 0.034916074606399568 0 -5.2671930849370577e-05 0.034915393420410674 0 -6.2194691686532331e-05 0.034905182669621351 0 -5.7320870478425439e-05 0.034885668482505829 0 -6.2194691686532331e-05 0.034905182669621351 0 -4.9508152547929158e-05 0.034893115922972395 0 -5.7320870478425439e-05 0.034885668482505829 0 -6.2194691686532331e-05 0.034905182669621351 0 -4.9508152547929158e-05 0.034893115922972395 0 -7.532485702029948e-05 0.034905474607691493 0 0.00018111365332446335 0.034875563888508689 0 0.0001355033016333042 0.034834435568522094 0 -4.9508152547929158e-05 0.034893115922972395 0 0.0001355033016333042 0.034834435568522094 0 -4.9508152547929158e-05 0.034893115922972395 0 -5.1047462606828334e-05 0.034830196107745244 0 -4.9508152547929158e-05 0.034893115922972395 0 -5.7320870478425439e-05 0.034885668482505829 0 -5.1047462606828334e-05 0.034830196107745244 0 7.4086812171407346e-09 0.034999888612525142 0 -7.8169331798313525e-06 0.034970299389970295 0 -1.1575211619516807e-05 0.034984805046467816 0 7.4086812171407346e-09 0.034999888612525142 0 -7.8169331798313525e-06 0.034970299389970295 0 9.2430791254190103e-06 0.034984450396963226 0 -5.2671930849370577e-05 0.034915393420410674 0 -3.3241433919934315e-05 0.034935087711157047 0 -3.6849523037546893e-05 0.034970496417189197 0 -7.8169331798313525e-06 0.034970299389970295 0 -3.3241433919934315e-05 0.034935087711157047 0 -3.6849523037546893e-05 0.034970496417189197 0 -7.8169331798313525e-06 0.034970299389970295 0 -3.6849523037546893e-05 0.034970496417189197 0 -1.1575211619516807e-05 0.034984805046467816 0 7.4086812171407346e-09 0.034999888612525142 0 -1.1575211619516807e-05 0.034984805046467816 0 -1.1754331800839741e-08 0.035000044491546027 0 -3.6849523037546893e-05 0.034970496417189197 0 -1.1575211619516807e-05 0.034984805046467816 0 -1.1754331800839741e-08 0.035000044491546027 0 -0.00017825503765940304 0.034460706913258511 0 -1.3415848449151383e-07 0.034999752245808834 0 -0.00024111305332293376 0.0339225448518026 0 1.7764359624700885e-07 0.034998557495504436 0 -8.6507502512597523e-05 0.034467783241941601 0 -0.00031219876694299362 0.033873680620608575 0 -0.00024111305332293376 0.0339225448518026 0 -8.6507502512597523e-05 0.034467783241941601 0 -8.6507502512597523e-05 0.034467783241941601 0 -3.8930873548745649e-05 0.034701918766778229 0 -0.00019003793412281455 0.034297874719891264 0 1.7764359624700885e-07 0.034998557495504436 0 -8.6507502512597523e-05 0.034467783241941601 0 -4.1612965521697521e-08 0.034999853971887006 0 -8.6507502512597523e-05 0.034467783241941601 0 -4.1612965521697521e-08 0.034999853971887006 0 -3.8930873548745649e-05 0.034701918766778229 0 -4.1612965521697521e-08 0.034999853971887006 0 6.9057971524279721e-08 0.034999558983479506 0 -3.8930873548745649e-05 0.034701918766778229 0 6.9057971524279721e-08 0.034999558983479506 0 -6.434797232828867e-05 0.034697291474010454 0 -3.8930873548745649e-05 0.034701918766778229 0 1.617277834516533e-07 0.034999766063850857 0 -6.0009154136753905e-05 0.035104484159505525 0 -8.4341827953786038e-11 0.03499999656161492 0 7.8696128142937562e-06 0.034984763892532592 0 3.7696931620329463e-06 0.034991648514564912 0 -8.4341827953786038e-11 0.03499999656161492 0 3.7696931620329463e-06 0.034991648514564912 0 7.1336761723431217e-09 0.034999980781375853 0 7.8696128142937562e-06 0.034984763892532592 0 3.7696931620329463e-06 0.034991648514564912 0 9.3995754571257742e-06 0.034980247764233051 0 -6.434797232828867e-05 0.034697291474010454 0 -3.8930873548745649e-05 0.034701918766778229 0 -0.00019003793412281455 0.034297874719891264 0 -0.00049551444392190614 0.032790084602432698 0 -0.00019414949850847749 0.032901608779905021 0 -0.00019003793412281455 0.034297874719891264 0 -0.0006385909719691012 0.034200274085711781 0 -0.00052779374418033479 0.03469604661487144 0 -0.00010213019328464357 0.031109502510768772 0 -0.00038088559118697602 0.03136623090918933 0 -0.00035166525377112139 0.031014564211944807 0 7.8696128142937562e-06 0.034984763892532592 0 1.5560782434695478e-05 0.034958647958235931 0 1.2075438699350686e-05 0.034970430947518776 0 -6.434797232828867e-05 0.034697291474010454 0 -0.00019003793412281455 0.034297874719891264 0 -0.00052779374418033479 0.03469604661487144 0 -6.0009154136753905e-05 0.035104484159505525 0 -0.00019414949850847749 0.032901608779905021 0 7.8696128142937562e-06 0.034984763892532592 0 1.2075438699350686e-05 0.034970430947518776 0 9.3995754571257742e-06 0.034980247764233051 0 0.00026158311011671617 0.033878606290708727 0 -0.00011722801319665787 0.035186124679276787 0 1.2075438699350686e-05 0.034970430947518776 0 1.5529999321263747e-05 0.034958166958331816 0 9.3995754571257742e-06 0.034980247764233051 0 2.2061674379032792e-05 0.034969042222560226 0 1.5249568768931645e-05 0.034970099574243282 0 9.3995754571257742e-06 0.034980247764233051 0 0.000181001702879184 0.031167468867615889 0 0.00027985511085642259 0.031031703922680027 0 0.00030976643727968127 0.031171510467735742 0 1.5560782434695478e-05 0.034958647958235931 0 1.2075438699350686e-05 0.034970430947518776 0 1.5529999321263747e-05 0.034958166958331816 0 -0.00019414949850847749 0.032901608779905021 0 0.00026158311011671617 0.033878606290708727 0 -2.6842667546236029e-05 0.033131032426794355 0 0.00026158311011671617 0.033878606290708727 0 -0.0002456041490030766 0.034529403035070516 0 -0.00027535302457690788 0.034395913970747601 0 -0.00013980210951884708 0.03455001206682539 0 -2.6842667546236029e-05 0.033131032426794355 0 -1.3903340201174988e-05 0.034940258992889502 0 -5.3771122549034093e-06 0.034763958741483615 0 1.4918477522993134e-05 0.034958824643159296 0 -8.729157515512136e-06 0.034971880704529806 0 -0.00020232410807912224 0.034777316190520054 0 -5.3771122549034093e-06 0.034763958741483615 0 -8.729157515512136e-06 0.034971880704529806 0 0.00026158311011671617 0.033878606290708727 0 0.00010434622104805595 0.035210415042755516 0 1.4918477522993134e-05 0.034958824643159296 0 -8.729157515512136e-06 0.034971880704529806 0 1.9067580373414914e-05 0.034969271128312947 0 -0.00019143816416603913 0.034587890328734147 0 -0.0002456041490030766 0.034529403035070516 0 -0.00013980210951884708 0.03455001206682539 0 1.5249568768931645e-05 0.034970099574243282 0 1.4776655871612695e-05 0.034979247461936806 0 9.3995754571257742e-06 0.034980247764233051 0 2.2061674379032792e-05 0.034969042222560226 0 1.4918477522993134e-05 0.034958824643159296 0 1.5249568768931645e-05 0.034970099574243282 0 1.4918477522993134e-05 0.034958824643159296 0 1.5249568768931645e-05 0.034970099574243282 0 1.9067580373414914e-05 0.034969271128312947 0 1.5249568768931645e-05 0.034970099574243282 0 1.9067580373414914e-05 0.034969271128312947 0 1.4776655871612695e-05 0.034979247461936806 0 7.4676932420477391e-06 0.03498397816596658 0 1.4776655871612695e-05 0.034979247461936806 0 4.9903180985874882e-06 0.03499098004572114 0 1.4776655871612695e-05 0.034979247461936806 0 4.9903180985874882e-06 0.03499098004572114 0 9.3995754571257742e-06 0.034980247764233051 0 -4.1733653298625016e-09 0.034999979969628371 0 4.9903180985874882e-06 0.03499098004572114 0 7.1336761723431217e-09 0.034999980781375853 0 4.9903180985874882e-06 0.03499098004572114 0 3.7696931620329463e-06 0.034991648514564912 0 7.1336761723431217e-09 0.034999980781375853 0 4.9903180985874882e-06 0.03499098004572114 0 3.7696931620329463e-06 0.034991648514564912 0 9.3995754571257742e-06 0.034980247764233051 0 0.0064276730411909214 0.016304747662107429 0 0.0056959372564810507 0.017796363109268683 0 0.0067861163971149711 0.017516243750126226 0 0.0064276730411909214 0.016304747662107429 0 0.0081494973435009051 0.017286603536398808 0 0.0067861163971149711 0.017516243750126226 0 0.0064276730411909214 0.016304747662107429 0 0.0081494973435009051 0.017286603536398808 0 0.00841581665557164 0.015921069343701275 0 0.0081494973435009051 0.017286603536398808 0 0.00841581665557164 0.015921069343701275 0 0.0095327475052801487 0.017810588447677925 0 0.00841581665557164 0.015921069343701275 0 0.0066911718213846305 0.014942701673726003 0 0.0076932004945388021 0.014050933337663829 0 0.00841581665557164 0.015921069343701275 0 0.0092956762997036171 0.015099932616716518 0 0.0076932004945388021 0.014050933337663829 0 0.0064276730411909214 0.016304747662107429 0 0.00841581665557164 0.015921069343701275 0 0.0066911718213846305 0.014942701673726003 0 0.0064276730411909214 0.016304747662107429 0 0.0066911718213846305 0.014942701673726003 0 0.0054746507150162504 0.01536472240887334 0 0.0066911718213846305 0.014942701673726003 0 0.0054746507150162504 0.01536472240887334 0 0.0056848779656692803 0.014013159967380066 0 0.0054746507150162504 0.01536472240887334 0 0.004368907194400075 0.014868150670802277 0 0.0056848779656692803 0.014013159967380066 0 0.0054746507150162504 0.01536472240887334 0 0.004368907194400075 0.014868150670802277 0 0.0042168285130567938 0.01668495837362928 0 0.004368907194400075 0.014868150670802277 0 0.0041874218400522346 0.016400916881579155 0 0.002832572434232438 0.015753448636042947 0 0.0043558190041215359 0.015005824620915991 0 0.0042125937656348209 0.016526214250748586 0 0.0064276730411909214 0.016304747662107429 0 0.0042168285130567938 0.01668495837362928 0 0.0056959372564810507 0.017796363109268683 0 0.0064276730411909214 0.016304747662107429 0 0.0054746507150162504 0.01536472240887334 0 0.0042168285130567938 0.01668495837362928 0 0.0056959372564810507 0.017796363109268683 0 0.0053470970797971805 0.019145207441385995 0 0.0069570649146698717 0.018668685665935499 0 0.0056959372564810507 0.017796363109268683 0 0.0041804024399485287 0.018453513736909219 0 0.0053470970797971805 0.019145207441385995 0 0.0042125937656348209 0.016526214250748586 0 0.0040825785519574302 0.018035703990827268 0 0.0042168285130567938 0.01668495837362928 0 0.0056959372564810507 0.017796363109268683 0 0.0041804024399485287 0.018453513736909219 0 0.0041874218400522346 0.016400916881579155 0 0.0040164239713419122 0.017843990209676551 0 0.0032487797315411669 0.016934518466817431 0 0.0040825785519574302 0.018035703990827268 0 0.0045132928977274188 0.020295920642462002 0 0.0041804024399485287 0.018453513736909219 0 0.0053470970797971805 0.019145207441385995 0 0.0041706277914607083 0.020162600218607125 0 0.0053470970797971805 0.019145207441385995 0 0.0053118855306735838 0.020422230965399944 0 0.0041706277914607083 0.020162600218607125 0 0.0053470970797971805 0.019145207441385995 0 0.0063267934055567538 0.019910345308780174 0 0.0053118855306735838 0.020422230965399944 0 0.0063267934055567538 0.019910345308780174 0 0.0069570649146698717 0.018668685665935499 0 0.00721631566905972 0.019739624092532385 0 0.0053470970797971805 0.019145207441385995 0 0.0063267934055567538 0.019910345308780174 0 0.0069570649146698717 0.018668685665935499 0 0.0081494973435009051 0.017286603536398808 0 0.0067861163971149711 0.017516243750126226 0 0.0069570649146698717 0.018668685665935499 0 0.0056959372564810507 0.017796363109268683 0 0.0067861163971149711 0.017516243750126226 0 0.0069570649146698717 0.018668685665935499 0 0.0067099312686953903 0.018615256352378599 0 0.0090114009811419829 0.019394506990009688 0 0.0081494973435009051 0.017286603536398808 0 0.0069570649146698717 0.018668685665935499 0 0.0086674247384155752 0.018836255725861176 0 0.0069570649146698717 0.018668685665935499 0 0.0077351581163780233 0.019157339765270631 0 0.00721631566905972 0.019739624092532385 0 0.0077351581163780233 0.019157339765270631 0 0.00721631566905972 0.019739624092532385 0 0.0078107954956251934 0.01981262070040871 0 0.0077351581163780233 0.019157339765270631 0 0.0078107954956251934 0.01981262070040871 0 0.008588621052347074 0.01933585143709473 0 0.0090114009811419829 0.019394506990009688 0 0.0060608937008515386 0.01258687292580795 0 0.0036187793263059574 0.0094508090688658897 0 0.0013364532123756314 0.0076240163425272695 0 0.00086020001878734785 0.0083324802087816948 0 0.00079990046215839162 0.0083197655428608915 0 0.00075007886741446713 0.0078255354304985012 0 0.0057514206589145359 0.001871788298654839 0 0.005757491610610504 0.0021370819546210301 0 0.0050513922561733647 0.0022348609095225848 0 0.0051678455793246212 0.012599946122377716 0 0.006553959804982995 0.012894272874626292 0 0.0064923988669833279 0.0089015342660740716 0 0.0060608937008515386 0.01258687292580795 0 0.0036187793263059574 0.0094508090688658897 0 0.0036187793263059574 0.0094508090688658897 0 0.0060322507994025436 0.0087228587288604303 0 0.0060608937008515386 0.01258687292580795 0 0.0060322507994025436 0.0087228587288604303 0 0.0060322507994025436 0.0087228587288604303 0 0.0082847886254193773 0.011815561288723101 0 0.0060322507994025436 0.0087228587288604303 0 0.0066919199484981136 0.0022365383972339156 0 0.0102494926152821 0.019065114025723636 0 0.010376877408589688 0.018714233705791079 0 0.0095327475052801487 0.017810588447677925 0 0.0057133157844247127 0.0022298231152548579 0 0.0055449382622418403 0.0027265445854425699 0 0.0057754301274188357 0.0034478389654532282 0 0.010376877408589688 0.018714233705791079 0 0.0095327475052801487 0.017810588447677925 0 0.010381410090804261 0.016780187372042909 0 0.005757491610610504 0.0021370819546210301 0 0.0055449382622418403 0.0027265445854425699 0 0.0050513922561733647 0.0022348609095225848 0 0.0055449382622418403 0.0027265445854425699 0 0.0050513922561733647 0.0022348609095225848 0 0.0049614052608861151 0.0028594007792604823 0 0.0055449382622418403 0.0027265445854425699 0 0.0049614052608861151 0.0028594007792604823 0 0.0057754301274188357 0.0034478389654532282 0 0.0081494973435009051 0.017286603536398808 0 0.0086674247384155752 0.018836255725861176 0 0.0095327475052801487 0.017810588447677925 0 0.0086674247384155752 0.018836255725861176 0 0.0102494926152821 0.019065114025723636 0 0.0095327475052801487 0.017810588447677925 0 0.0024787989932182329 0.00094127372879506375 0 0.0041377194572676627 0.0014115319881747035 0 0.0036135955975203529 0.0023032343595325109 0 0.0041377194572676627 0.0014115319881747035 0 0.0045029980551713911 0.0024819816875097625 0 0.0036135955975203529 0.0023032343595325109 0 0.0042228021739871818 -0.0048809976883204629 0 0.0012273024474285441 0.0052637702109016608 0 0.0041377194572676627 0.0014115319881747035 0 0.0050513922561733647 0.0022348609095225848 0 0.0045029980551713911 0.0024819816875097625 0 0.00077276588479723973 0.0082715691361830903 0 -0.00019492981669730756 0.0080024715097944364 0 0.0001994394864989568 0.0076392813982080737 0 0.0036187793263059574 0.0094508090688658897 0 0.0012273024474285441 0.0052637702109016608 0 0.0057514206589145359 0.001871788298654839 0 0.0041377194572676627 0.0014115319881747035 0 0.0050513922561733647 0.0022348609095225848 0 0.0045029980551713911 0.0024819816875097625 0 0.0036135955975203529 0.0023032343595325109 0 0.0047510266166583869 0.003551071571977166 0 0.0049614052608861151 0.0028594007792604823 0 0.0045029980551713911 0.0024819816875097625 0 0.0047510266166583869 0.003551071571977166 0 0.0063943101566326906 -0.005442786515592277 0 0.007050330586419646 -0.005211871327028922 0 0.0050513922561733647 0.0022348609095225848 0 0.0049614052608861151 0.0028594007792604823 0 0.0045029980551713911 0.0024819816875097625 0 0.0079787238474652855 -0.012789650651315312 0 0.008842578489911752 -0.013043865258641927 0 0.0087068476108702123 -0.01162155998649567 0 0.008842578489911752 -0.013043865258641927 0 0.0087068476108702123 -0.01162155998649567 0 0.0097867232260380414 -0.011888558819905189 0 0.0097867232260380414 -0.011888558819905189 0 0.010742621837168908 -0.01070362566886951 0 0.009443202750594154 -0.010344038863400655 0 0.0087068476108702123 -0.01162155998649567 0 0.0097867232260380414 -0.011888558819905189 0 0.009443202750594154 -0.010344038863400655 0 0.008168884955470428 -0.010459073277009647 0 0.0087068476108702123 -0.01162155998649567 0 0.009443202750594154 -0.010344038863400655 0 0.00841581665557164 0.015921069343701275 0 0.0095327475052801487 0.017810588447677925 0 0.010381410090804261 0.016780187372042909 0 0.0047510266166583869 0.003551071571977166 0 0.0057754301274188357 0.0034478389654532282 0 0.0058321804214927211 0.0047181815740905348 0 0.0049614052608861151 0.0028594007792604823 0 0.0047510266166583869 0.003551071571977166 0 0.0057754301274188357 0.0034478389654532282 0 0.007050330586419646 -0.005211871327028922 0 0.007841791211174922 0.0030345647480746088 0 0.0082847886254193773 0.011815561288723101 0 0.007841791211174922 0.0030345647480746088 0 0.00841581665557164 0.015921069343701275 0 0.010381410090804261 0.016780187372042909 0 0.0092956762997036171 0.015099932616716518 0 0.010381410090804261 0.016780187372042909 0 0.010349072448113531 0.014766180116524093 0 0.0092956762997036171 0.015099932616716518 0 0.010349072448113531 0.014766180116524093 0 0.0092956762997036171 0.015099932616716518 0 0.0096558469736000799 0.014002259682520059 0 0.0092956762997036171 0.015099932616716518 0 0.0096558469736000799 0.014002259682520059 0 0.0076932004945388021 0.014050933337663829 0 0.0060432662382747951 -0.0088770391250210419 0 0.005870450991708449 -0.0091486632012247101 0 0.0067577795720060157 -0.0082220490256916679 0 0.0060432662382747951 -0.0088770391250210419 0 0.005870450991708449 -0.0091486632012247101 0 0.0059254778092546088 -0.0090244123972884928 0 0.0078138503677628642 0.0049229696436282906 0 0.0082118071813104248 -0.006088653754291292 0 0.007841791211174922 0.0030345647480746088 0 0.0078138503677628642 0.0049229696436282906 0 0.010742621837168908 -0.01070362566886951 0 0.010744149475684511 -0.010220358389143504 0 0.009443202750594154 -0.010344038863400655 0 0.0071253996991621675 0.0012059393117379972 0 0.0071454252664811153 0.0012209355219951075 0 0.0071294416175178782 0.0012088068208999439 0 0.007841791211174922 0.0030345647480746088 0 0.0082118071813104248 -0.006088653754291292 0 0.005954195609580909 -0.0091856984105978794 0 0.0059254778092546088 -0.0090244123972884928 0 0.0058090404936300159 -0.0091735360741402663 0 0.0082118071813104248 -0.006088653754291292 0 0.0067634868494183212 -0.0094170700577635488 0 0.005870450991708449 -0.0091486632012247101 0 0.0058759422620772456 -0.0091076634005828865 0 0.0059254778092546088 -0.0090244123972884928 0 0.0060008204175414966 -0.008883263398583011 0 0.0054712370624942757 -0.0085350149049174401 0 0.0060432662382747951 -0.0088770391250210419 0 0.0059254778092546088 -0.0090244123972884928 0 0.0058557571946134561 -0.0090800973125262537 0 0.0060432662382747951 -0.0088770391250210419 0 0.0050133868507001812 -0.0079981470687081873 0 0.0054733805122407992 -0.0081094946757698898 0 0.0059254778092546088 -0.0090244123972884928 0 0.0058557571946134561 -0.0090800973125262537 0 0.0058090404936300159 -0.0091735360741402663 0 0.0060432662382747951 -0.0088770391250210419 0 0.0054733805122407992 -0.0081094946757698898 0 0.0061324891451755232 -0.0082614705801203076 0 0.0054733805122407992 -0.0081094946757698898 0 0.0061324891451755232 -0.0082614705801203076 0 0.0065848949648789727 -0.0074381457581057259 0 0.0078138503677628642 0.0049229696436282906 0 0.0073151035815078418 0.0021613496102155239 0 0.0060432662382747951 -0.0088770391250210419 0 0.0061324891451755232 -0.0082614705801203076 0 0.0067577795720060157 -0.0082220490256916679 0 0.006734506747843449 -0.0099806741119141847 0 0.0075881037705804706 -0.010237184900417954 0 0.0053204435132208176 -0.009586324943075708 0 0.005698449272279681 -0.0093832973974668273 0 0.005531783244312063 -0.0093030235454383131 0 0.0082118071813104248 -0.006088653754291292 0 0.0075881037705804706 -0.010237184900417954 0 0.005698449272279681 -0.0093832973974668273 0 0.0058090404936300159 -0.0091735360741402663 0 0.005531783244312063 -0.0093030235454383131 0 0.005954195609580909 -0.0091856984105978794 0 0.005698449272279681 -0.0093832973974668273 0 0.0058090404936300159 -0.0091735360741402663 0 0.0056799285370782134 -0.0091067277096019503 0 0.0058090404936300159 -0.0091735360741402663 0 0.005531783244312063 -0.0093030235454383131 0 0.0058557571946134561 -0.0090800973125262537 0 0.0056799285370782134 -0.0091067277096019503 0 0.0058090404936300159 -0.0091735360741402663 0 0.0056799285370782134 -0.0091067277096019503 0 0.005531783244312063 -0.0093030235454383131 0 0.0054074741033791314 -0.0090960217417673135 0 0.0056799285370782134 -0.0091067277096019503 0 0.0054074741033791314 -0.0090960217417673135 0 0.0056943258532843963 -0.0087961938971612037 0 0.0051366881382953842 -0.0087301600564940011 0 0.0054074741033791314 -0.0090960217417673135 0 0.0056943258532843963 -0.0087961938971612037 0 0.0058557571946134561 -0.0090800973125262537 0 0.0056799285370782134 -0.0091067277096019503 0 0.0056943258532843963 -0.0087961938971612037 0 0.0054712370624942757 -0.0085350149049174401 0 0.0052384273070394116 -0.0082501199259792726 0 0.0050133868507001812 -0.0079981470687081873 0 0.0048189408401903321 -0.0076959998944962152 0 0.0051453420168806651 -0.0077622333621861486 0 0.0048298802385725271 -0.0077623153513765412 0 0.0049476638636940734 -0.0076569811558636139 0 0.0048189408401903321 -0.0076959998944962152 0 0.0049476638636940734 -0.0076569811558636139 0 0.0048189408401903321 -0.0076959998944962152 0 0.0051453420168806651 -0.0077622333621861486 0 0.0051366881382953842 -0.0087301600564940011 0 0.0050699788826390341 -0.0081146993480522098 0 0.0056943258532843963 -0.0087961938971612037 0 0.0050755067030933271 -0.0081086435855886648 0 0.0052384273070394116 -0.0082501199259792726 0 0.0050699788826390341 -0.0081146993480522098 0 0.0048298802385725271 -0.0077623153513765412 0 0.0048189408401903321 -0.0076959998944962152 0 0.0056713476911448126 -0.0079510972218006272 0 0.005975163119699891 -0.0080736325560691428 0 0.0055036367785271552 -0.0078628649729407529 0 0.0060467156395429119 -0.0069604263796422027 0 0.0059181346683532766 -0.0078117699613380661 0 0.0055036367785271552 -0.0078628649729407529 0 0.0051453420168806651 -0.0077622333621861486 0 0.0053768048911540505 -0.0076774944225608752 0 0.0054733805122407992 -0.0081094946757698898 0 0.0055036367785271552 -0.0078628649729407529 0 0.0059181346683532766 -0.0078117699613380661 0 0.0050133868507001812 -0.0079981470687081873 0 0.0054733805122407992 -0.0081094946757698898 0 0.0052866925126277726 -0.0079144601350824746 0 0.0054733805122407992 -0.0081094946757698898 0 0.0055036367785271552 -0.0078628649729407529 0 0.0052866925126277726 -0.0079144601350824746 0 0.0050133868507001812 -0.0079981470687081873 0 0.0052866925126277726 -0.0079144601350824746 0 0.0051453420168806651 -0.0077622333621861486 0 0.0055036367785271552 -0.0078628649729407529 0 0.0052866925126277726 -0.0079144601350824746 0 0.0051453420168806651 -0.0077622333621861486 0 0.0051453420168806651 -0.0077622333621861486 0 0.005153620612343676 -0.0076004045278350689 0 0.0053768048911540505 -0.0076774944225608752 0 0.0049476638636940734 -0.0076569811558636139 0 0.0051453420168806651 -0.0077622333621861486 0 0.005153620612343676 -0.0076004045278350689 0 0.0055147829115291241 -0.0078215477212927424 0 0.0058573747064795956 -0.0073185308372297614 0 0.0053172722776854047 -0.0074277420392746037 0 0.0053768048911540505 -0.0076774944225608752 0 0.0056426570011722712 -0.007649194659622255 0 0.0053172722776854047 -0.0074277420392746037 0 0.005153620612343676 -0.0076004045278350689 0 0.0053768048911540505 -0.0076774944225608752 0 0.0055036367785271552 -0.0078628649729407529 0 0.0053768048911540505 -0.0076774944225608752 0 0.0056426570011722712 -0.007649194659622255 0 0.0070978079315446811 -0.0067025383688324603 0 0.0068148305040576403 -0.0068213055067747495 0 0.006600997400474218 -0.0074355370905503596 0 0.0065584176966113428 -0.0067783854079756026 0 0.0068148305040576403 -0.0068213055067747495 0 0.006600997400474218 -0.0074355370905503596 0 0.0061750629815247281 -0.00043285391992767491 0 0.006946855817591557 -0.00047995938201223729 0 0.0065584176966113428 -0.0067783854079756026 0 0.0060467156395429119 -0.0069604263796422027 0 0.006600997400474218 -0.0074355370905503596 0 0.0067505163635763052 0.011203017911594148 0 0.0064725237644197488 0.012642534002510607 0 0.0058261854220933648 0.011741357557445991 0 0.0067505163635763052 0.011203017911594148 0 0.0058261854220933648 0.011741357557445991 0 0.0056478011534147913 0.010769006406762177 0 0.006946855817591557 -0.00047995938201223729 0 0.006193540730686284 0.0068423212533151988 0 0.0080304242976715085 -0.0067588275208217783 0 0.0065848949648789727 -0.0074381457581057259 0 0.0067577795720060157 -0.0082220490256916679 0 0.0060467156395429119 -0.0069604263796422027 0 0.006600997400474218 -0.0074355370905503596 0 0.0059181346683532766 -0.0078117699613380661 0 0.006946855817591557 -0.00047995938201223729 0 0.0073151035815078418 0.0021613496102155239 0 0.006946855817591557 -0.00047995938201223729 0 0.005975163119699891 -0.0080736325560691428 0 0.0078564339140663863 0.01251938532635097 0 0.0064725237644197488 0.012642534002510607 0 0.0073531967818563611 0.013791273729497617 0 0.0061324891451755232 -0.0082614705801203076 0 0.0065848949648789727 -0.0074381457581057259 0 0.0067577795720060157 -0.0082220490256916679 0 0.0067505163635763052 0.011203017911594148 0 0.0078564339140663863 0.01251938532635097 0 0.0064725237644197488 0.012642534002510607 0 0.0066911718213846305 0.014942701673726003 0 0.0076932004945388021 0.014050933337663829 0 0.0056848779656692803 0.014013159967380066 0 0.0078232493153673147 0.014755116035451378 0 0.0056574041779059404 0.013836342923908881 0 0.0064725237644197488 0.012642534002510607 0 0.0073531967818563611 0.013791273729497617 0 0.0056848779656692803 0.014013159967380066 0 0.0078138503677628642 0.0049229696436282906 0 0.0078232493153673147 0.014755116035451378 0 0.0088878918634856408 0.013667720139576121 0 0.0078564339140663863 0.01251938532635097 0 0.0073531967818563611 0.013791273729497617 0 0.004368907194400075 0.014868150670802277 0 0.0043469432059686473 0.013559287257420383 0 0.0056848779656692803 0.014013159967380066 0 0.004368907194400075 0.014868150670802277 0 0.0043469432059686473 0.013559287257420383 0 0.0029246847466576241 0.014392360255979102 0 0.0064725237644197488 0.012642534002510607 0 0.0056848779656692803 0.014013159967380066 0 0.0051227912380537085 0.012533916032524363 0 0.0043469432059686473 0.013559287257420383 0 0.0056848779656692803 0.014013159967380066 0 0.0051227912380537085 0.012533916032524363 0 0.0064725237644197488 0.012642534002510607 0 0.0051227912380537085 0.012533916032524363 0 0.0058261854220933648 0.011741357557445991 0 0.0043469432059686473 0.013559287257420383 0 0.0051227912380537085 0.012533916032524363 0 0.0038922804297000465 0.012439238903860606 0 0.0043469432059686473 0.013559287257420383 0 0.0038922804297000465 0.012439238903860606 0 0.0032516213013976079 0.013209762458534557 0 0.0046986433196363007 0.011485846208345226 0 0.0045026685508021353 0.010312201533761993 0 0.0030948968785054491 0.011325629895254867 0 0.0051227912380537085 0.012533916032524363 0 0.0038922804297000465 0.012439238903860606 0 0.0046986433196363007 0.011485846208345226 0 0.0038922804297000465 0.012439238903860606 0 0.0046986433196363007 0.011485846208345226 0 0.0030948968785054491 0.011325629895254867 0 0.0051227912380537085 0.012533916032524363 0 0.0046986433196363007 0.011485846208345226 0 0.0058261854220933648 0.011741357557445991 0 0.0046986433196363007 0.011485846208345226 0 0.0058261854220933648 0.011741357557445991 0 0.0056478011534147913 0.010769006406762177 0 0.0060055342944611827 0.0028535831545682976 0 0.0060827483504520144 0.0029093854880171801 0 0.0060199191898564555 0.0029113388914561934 0 0.0046986433196363007 0.011485846208345226 0 0.0056478011534147913 0.010769006406762177 0 0.0045026685508021353 0.010312201533761993 0 0.006193540730686284 0.0068423212533151988 0 0.0049114705091203971 0.0077663669977114727 0 0.0060055342944611827 0.0028535831545682976 0 0.0060199191898564555 0.0029113388914561934 0 0.0059500546756349644 0.0029156172105888356 0 0.0061750629815247281 -0.00043285391992767491 0 0.0049114705091203971 0.0077663669977114727 0 0.0058820580203199583 0.0064230836482541149 0 0.0053712321878142929 0.006811530007890176 0 0.0055029149170148948 0.0065280901282317198 0 0.0063650670752983945 0.01074307987300588 0 0.0055733334717291763 0.010434512729566133 0 0.0038004626974182691 0.012581946883746364 0 0.0049114705091203971 0.0077663669977114727 0 0.0034007371327442726 0.012100201499548826 0 0.0058185662237876688 0.0073294746107365845 0 0.0053934806338874547 0.0088450604928350194 0 0.0053712321878142929 0.006811530007890176 0 0.0055029149170148948 0.0065280901282317198 0 0.0051318945332734329 0.0067226578033213399 0 0.0049114705091203971 0.0077663669977114727 0 0.0053934806338874547 0.0088450604928350194 0 0.0043703863074801876 0.0086184945439903449 0 0.0053934806338874547 0.0088450604928350194 0 0.0044143282273484772 0.010682620084075462 0 0.0059859601967189651 0.011297470863138655 0 0.0043184873593267387 0.012144591653129188 0 0.0028371653654484129 0.010054994492703834 0 0.0044143282273484772 0.010682620084075462 0 0.0043184873593267387 0.012144591653129188 0 0.0053934806338874547 0.0088450604928350194 0 0.0039003186639820974 0.011842817074980173 0 0.0055733334717291763 0.010434512729566133 0 0.0034640063144877505 0.011509413019492949 0 0.0038004626974182691 0.012581946883746364 0 0.0034640063144877505 0.011509413019492949 0 0.0038004626974182691 0.012581946883746364 0 0.0013512155251928426 0.012576301555952756 0 0.0030948968785054491 0.011325629895254867 0 0.0028159382701398333 0.01251584840196749 0 0.001646453025786324 0.012361584907303842 0 0.0038922804297000465 0.012439238903860606 0 0.0030948968785054491 0.011325629895254867 0 0.0028159382701398333 0.01251584840196749 0 0.0034007371327442726 0.012100201499548826 0 0.001740941780121189 0.014754807253684186 0 0.0038004626974182691 0.012581946883746364 0 0.0013512155251928426 0.012576301555952756 0 0.0012306660671864186 0.014402879225464727 0 0.0030501617165192003 0.020108234915145108 0 0.0032754230694361105 0.019829477063118474 0 0.0032252890229643337 0.020346386605667326 0 0.0030460721780651494 0.01616994633961099 0 0.001740941780121189 0.014754807253684186 0 0.0030501617165192003 0.020108234915145108 0 0.0029614273618080219 0.020019495789654163 0 0.0030007325948398205 0.020273037372144153 0 0.0024365143484851273 0.020391549491980878 0 0.0023153972461691132 0.020381284548384882 0 0.0030501617165192003 0.020108234915145108 0 0.0030007325948398205 0.020273037372144153 0 0.0032252890229643337 0.020346386605667326 0 0.0039003186639820974 0.011842817074980173 0 0.0030460721780651494 0.01616994633961099 0 0.0038181073704316097 0.017425707282257057 0 0.0025014584309257975 0.015871029084052933 0 0.0027746868804876634 0.017947646913081552 0 0.0030460721780651494 0.01616994633961099 0 0.0023153972461691132 0.020381284548384882 0 0.0030501617165192003 0.020108234915145108 0 0.0032754230694361105 0.019829477063118474 0 0.0029526260110293084 0.019995756259196119 0 0.004050520489509885 0.013938492969923773 0 0.0038181073704316097 0.017425707282257057 0 0.0025014584309257975 0.015871029084052933 0 0.0028371653654484129 0.010054994492703834 0 0.0043184873593267387 0.012144591653129188 0 0.0026379565259865641 0.012992972455028324 0 0.0036549915697860693 0.009653981729105714 0 0.0030460721780651494 0.01616994633961099 0 0.0025014584309257975 0.015871029084052933 0 0.00056777300716997256 0.015395314765415502 0 0.0027746868804876634 0.017947646913081552 0 0.0010756497542458786 0.019427144621279199 0 0.0023153972461691132 0.020381284548384882 0 0.0014300707917201617 0.022407633465827088 0 0.0011389890154750225 0.022944223747253609 0 0.0020456368547136492 0.023119584548383938 0 0.0010756497542458786 0.019427144621279199 0 0.00068636620153439605 0.023450271636130143 0 0.0013658707496042883 0.022516948593513282 0 0.0011389890154750225 0.022944223747253609 0 0.00091637236898285766 0.022549063432170346 0 0.0011389890154750225 0.022944223747253609 0 0.0020456368547136492 0.023119584548383938 0 0.0012328400250284533 0.023533992250839287 0 0.0011389890154750225 0.022944223747253609 0 0.0012328400250284533 0.023533992250839287 0 0.00067333274370031022 0.023305188454665705 0 0.0023153972461691132 0.020381284548384882 0 0.0016584996033156792 0.022214983695150653 0 0.0029614273618080219 0.020019495789654163 0 0.0030007325948398205 0.020273037372144153 0 0.0028002824962898212 0.020489846851369859 0 0.0029614273618080219 0.020019495789654163 0 0.0028002824962898212 0.020489846851369859 0 0.002524614039672946 0.020562601403042148 0 0.0020039819155102559 0.018722158019402992 0 0.001740941780121189 0.014754807253684186 0 0.0029614273618080219 0.020019495789654163 0 0.002524614039672946 0.020562601403042148 0 0.0022061556362527645 0.020498935288813969 0 0.0010974896407560928 0.014363290575391626 0 0.00095698372102551014 0.014020740384499764 0 0.0016830780448883135 0.013206334576313393 0 0.00095698372102551014 0.014020740384499764 0 0.00046917941226227441 0.014008933553717467 0 0.0016830780448883135 0.013206334576313393 0 0.0028002824962898212 0.020489846851369859 0 0.0024637927638405813 0.020904835698412304 0 0.0032252890229643337 0.020346386605667326 0 0.0028002824962898212 0.020489846851369859 0 0.002524614039672946 0.020562601403042148 0 0.0024637927638405813 0.020904835698412304 0 0.002524614039672946 0.020562601403042148 0 0.0024256193249920697 0.020732164121660398 0 0.0024637927638405813 0.020904835698412304 0 0.002524614039672946 0.020562601403042148 0 0.0022061556362527645 0.020498935288813969 0 0.0022738904837577233 0.020744465693361275 0 0.0023866057245806658 0.020836019286058573 0 0.0021981755802244524 0.020947445352548343 0 0.0024637927638405813 0.020904835698412304 0 0.0024256193249920697 0.020732164121660398 0 0.0023866057245806658 0.020836019286058573 0 0.0022738904837577233 0.020744465693361275 0 0.002524614039672946 0.020562601403042148 0 0.0024256193249920697 0.020732164121660398 0 0.0022738904837577233 0.020744465693361275 0 0.0024256193249920697 0.020732164121660398 0 0.0023866057245806658 0.020836019286058573 0 0.0024637927638405813 0.020904835698412304 0 0.0023866057245806658 0.020836019286058573 0 0.0022738904837577233 0.020744465693361275 0 0.0021981755802244524 0.020947445352548343 0 0.0022738904837577233 0.020744465693361275 0 0.0020024709287684871 0.020925789682023455 0 0.0021981755802244524 0.020947445352548343 0 0.0022061556362527645 0.020498935288813969 0 0.0022738904837577233 0.020744465693361275 0 0.0020024709287684871 0.020925789682023455 0 0.0025416892964509647 0.020595321869682801 0 0.0019352143606713686 0.021102526623178946 0 0.0021525658833096342 0.021220932635352855 0 0.0020039819155102559 0.018722158019402992 0 0.0018878204271392104 0.021472547880560577 0 0.0020039819155102559 0.018722158019402992 0 0.0009062718853223231 0.017997623715238911 0 0.00054868519962370237 0.014550085266043823 0 0.00073289951842825244 0.0150577778876427 0 -0.00040159366346100537 0.015194899830562549 0 0.0021981755802244524 0.020947445352548343 0 0.0024637927638405813 0.020904835698412304 0 0.0018680503411616029 0.021301893210219077 0 0.00046917941226227441 0.014008933553717467 0 0.00054868519962370237 0.014550085266043823 0 -0.00040159366346100537 0.015194899830562549 0 0.0020024709287684871 0.020925789682023455 0 0.0021981755802244524 0.020947445352548343 0 0.0018680503411616029 0.021301893210219077 0 0.0010974896407560928 0.014363290575391626 0 0.00095698372102551014 0.014020740384499764 0 0.00054868519962370237 0.014550085266043823 0 0.00095698372102551014 0.014020740384499764 0 0.00046917941226227441 0.014008933553717467 0 0.00054868519962370237 0.014550085266043823 0 0.0010974896407560928 0.014363290575391626 0 0.00054868519962370237 0.014550085266043823 0 0.00073289951842825244 0.0150577778876427 0 0.0010974896407560928 0.014363290575391626 0 0.0016074645870269907 0.014838190330585026 0 0.00073289951842825244 0.0150577778876427 0 0.0016002298027208595 0.013884771121305565 0 0.001740941780121189 0.014754807253684186 0 0.0010974896407560928 0.014363290575391626 0 0.0016074645870269907 0.014838190330585026 0 0.0016830780448883135 0.013206334576313393 0 0.0016074645870269907 0.014838190330585026 0 0.0029246847466576241 0.014392360255979102 0 0.0024510284230177203 0.013469248977673648 0 0.0043469432059686473 0.013559287257420383 0 0.0029246847466576241 0.014392360255979102 0 0.0032516213013976079 0.013209762458534557 0 0.0029246847466576241 0.014392360255979102 0 0.0024510284230177203 0.013469248977673648 0 0.0032516213013976079 0.013209762458534557 0 0.0024510284230177203 0.013469248977673648 0 0.0032516213013976079 0.013209762458534557 0 0.0028159382701398333 0.01251584840196749 0 0.0038922804297000465 0.012439238903860606 0 0.0032516213013976079 0.013209762458534557 0 0.0028159382701398333 0.01251584840196749 0 0.0024510284230177203 0.013469248977673648 0 0.0028159382701398333 0.01251584840196749 0 0.001646453025786324 0.012361584907303842 0 0.0016074645870269907 0.014838190330585026 0 0.0024510284230177203 0.013469248977673648 0 0.001646453025786324 0.012361584907303842 0 0.0030007325948398205 0.020273037372144153 0 0.0028002824962898212 0.020489846851369859 0 0.0032252890229643337 0.020346386605667326 0 -0.00050493802219968547 0.028706234815979413 0 -0.00017880312872954577 0.028941235150570753 0 -0.00058865892067748091 0.029233791820669298 0 -0.00090169914110216961 0.028967749001667743 0 -0.00050493802219968547 0.028706234815979413 0 -0.00058865892067748091 0.029233791820669298 0 -0.00090169914110216961 0.028967749001667743 0 -0.00050493802219968547 0.028706234815979413 0 -0.00084868669049978297 0.028510131381681625 0 -0.00050493802219968547 0.028706234815979413 0 -0.00084868669049978297 0.028510131381681625 0 -0.00050358678883130181 0.028141123570096876 0 -0.0011990892517225525 0.027874712101708363 0 -0.00084868669049978297 0.028510131381681625 0 -0.00050358678883130181 0.028141123570096876 0 -0.00050493802219968547 0.028706234815979413 0 -0.00050358678883130181 0.028141123570096876 0 0.00019918247471210882 0.028285136849985414 0 -0.00042067544623986431 0.028002902802530018 0 0.00019291451747061416 0.028284358124082531 0 4.211916396383604e-05 0.027768762902937928 0 -0.00027472371770635034 0.027937826157257966 0 0.00019918247471210882 0.028285136849985414 0 -0.00050493802219968547 0.028706234815979413 0 -0.00017880312872954577 0.028941235150570753 0 0.00019918247471210882 0.028285136849985414 0 -0.00017880312872954577 0.028941235150570753 0 0.00019918247471210882 0.028285136849985414 0 0.00031801122733339201 0.029065252407348328 0 0.00019918247471210882 0.028285136849985414 0 0.00075563785238401513 0.028210868566650522 0 0.00031801122733339201 0.029065252407348328 0 0.00060422501505022572 0.025654619543694374 0 0.0001078156507190294 0.026426431279788106 0 0.0004553224958237631 0.02265352049151681 0 0.00067333274370031022 0.023305188454665705 0 7.1545354592562988e-05 0.023482168095671319 0 0.00054801215118901656 0.027686550628651326 0 0.00019918247471210882 0.028285136849985414 0 0.00075563785238401513 0.028210868566650522 0 0.0011389890154750225 0.022944223747253609 0 0.0004553224958237631 0.02265352049151681 0 0.00091637236898285766 0.022549063432170346 0 0.0011389890154750225 0.022944223747253609 0 0.0004553224958237631 0.02265352049151681 0 0.00067333274370031022 0.023305188454665705 0 0.0022061556362527645 0.020498935288813969 0 0.0020024709287684871 0.020925789682023455 0 0.0016463935698550613 0.020924187488067531 0 0.0012328400250284533 0.023533992250839287 0 0.00067333274370031022 0.023305188454665705 0 0.00047557423128219396 0.023937034206330841 0 0.0016584996033156792 0.022214983695150653 0 0.0012701960488310212 0.021984976122248256 0 0.0020024709287684871 0.020925789682023455 0 0.0016463935698550613 0.020924187488067531 0 0.0017952292406922007 0.021084256295577634 0 0.0020024709287684871 0.020925789682023455 0 0.0018680503411616029 0.021301893210219077 0 0.0017952292406922007 0.021084256295577634 0 0.0018680503411616029 0.021301893210219077 0 0.0017952292406922007 0.021084256295577634 0 0.0015553083728097026 0.021263694705004946 0 0.0016463935698550613 0.020924187488067531 0 0.0017952292406922007 0.021084256295577634 0 0.0015553083728097026 0.021263694705004946 0 0.0012701960488310212 0.021984976122248256 0 0.00022641650386713799 0.026091013885707327 0 0.0016463935698550613 0.020924187488067531 0 0.0015553083728097026 0.021263694705004946 0 0.0012511737895770239 0.021235718856975679 0 0.00047557423128219396 0.023937034206330841 0 7.1545354592562988e-05 0.023482168095671319 0 -0.00030705455145507233 0.024354064224603927 0 0.0001078156507190294 0.026426431279788106 0 0.00022641650386713799 0.026091013885707327 0 0.00067333274370031022 0.023305188454665705 0 0.00047557423128219396 0.023937034206330841 0 7.1545354592562988e-05 0.023482168095671319 0 -0.00017880312872954577 0.028941235150570753 0 0.00031801122733339201 0.029065252407348328 0 -0.00025463498240932268 0.029337426885091729 0 0.00031801122733339201 0.029065252407348328 0 -0.00025463498240932268 0.029337426885091729 0 -0.00016036889179522082 0.029755497970225642 0 -0.00017880312872954577 0.028941235150570753 0 -0.00025463498240932268 0.029337426885091729 0 -0.00058865892067748091 0.029233791820669298 0 -0.00016036889179522082 0.029755497970225642 0 -0.00053455474540222976 0.029598612664655372 0 -0.00074934980697347053 0.029845422679457868 0 0.00022641650386713799 0.026091013885707327 0 -0.0013303044411353995 0.030217404344792569 0 -0.00025463498240932268 0.029337426885091729 0 -0.00016036889179522082 0.029755497970225642 0 -0.00053455474540222976 0.029598612664655372 0 -0.0010404630925713292 0.02983520439012325 0 -0.00083842840012303443 0.029626599581792777 0 -0.00074934980697347053 0.029845422679457868 0 -0.00053455474540222976 0.029598612664655372 0 -0.00083842840012303443 0.029626599581792777 0 -0.00074934980697347053 0.029845422679457868 0 -0.00091118287371476576 0.029355660557219401 0 -0.00083842840012303443 0.029626599581792777 0 -0.00058865892067748091 0.029233791820669298 0 -0.00025463498240932268 0.029337426885091729 0 -0.00053455474540222976 0.029598612664655372 0 -0.00058865892067748091 0.029233791820669298 0 -0.00053455474540222976 0.029598612664655372 0 -0.00083842840012303443 0.029626599581792777 0 -0.00058865892067748091 0.029233791820669298 0 -0.00090169914110216961 0.028967749001667743 0 -0.00091118287371476576 0.029355660557219401 0 -0.00058865892067748091 0.029233791820669298 0 0.00019252415573076516 0.025666772076206282 0 -2.3897711542939605e-05 0.026044155184253959 0 0.0011215701373629581 0.021693837612901255 0 0.0012788194044028112 0.021847761692554729 0 0.0010295873718337556 0.022077578760780633 0 -0.00099676472152855937 0.029950458242757674 0 -0.00080672508689523092 0.0299207002290535 0 -0.0010631885892807612 0.029980875844262251 0 -0.00099676472152855937 0.029950458242757674 0 -0.00080672508689523092 0.0299207002290535 0 -0.00074934980697347053 0.029845422679457868 0 0.0012511737895770239 0.021235718856975679 0 0.0011215701373629581 0.021693837612901255 0 0.001467947509794134 0.021557315442423102 0 0.00022641650386713799 0.026091013885707327 0 0.00019252415573076516 0.025666772076206282 0 -0.00063329067220363044 0.029759836036981561 0 -0.00080672508689523092 0.0299207002290535 0 -0.00074934980697347053 0.029845422679457868 0 0.0011215701373629581 0.021693837612901255 0 0.0012788194044028112 0.021847761692554729 0 0.001467947509794134 0.021557315442423102 0 0.0014899342105214382 0.021819817391749693 0 0.0017959021029493054 0.02172772926525535 0 0.0015326885950047947 0.022052680804296607 0 0.0014899342105214382 0.021819817391749693 0 0.001467947509794134 0.021557315442423102 0 0.0017959021029493054 0.02172772926525535 0 0.0012788194044028112 0.021847761692554729 0 0.0014899342105214382 0.021819817391749693 0 0.001467947509794134 0.021557315442423102 0 0.0018680503411616029 0.021301893210219077 0 0.0015553083728097026 0.021263694705004946 0 0.001467947509794134 0.021557315442423102 0 0.0015553083728097026 0.021263694705004946 0 0.0012511737895770239 0.021235718856975679 0 0.001467947509794134 0.021557315442423102 0 -0.0012534185993867879 0.016485758421324537 0 -0.00040159366346100537 0.015194899830562549 0 -0.00028920598051361025 0.016211969596477069 0 0.0018878204271392104 0.021472547880560577 0 0.0015267829890554274 0.021450861756807039 0 0.0019352143606713686 0.021102526623178946 0 0.001467947509794134 0.021557315442423102 0 0.0017959021029493054 0.02172772926525535 0 0.00016424434028186271 0.019116437193021089 0 0.0009062718853223231 0.017997623715238911 0 0.0019352143606713686 0.021102526623178946 0 0.0017959021029493054 0.02172772926525535 0 0.0021525658833096342 0.021220932635352855 0 -0.0012534185993867879 0.016485758421324537 0 -0.0012000432329463695 0.017390998357540006 0 -0.00044432392329100192 0.017080549762210472 0 -0.0012534185993867879 0.016485758421324537 0 -0.00028920598051361025 0.016211969596477069 0 -0.00044432392329100192 0.017080549762210472 0 0.0009660813857151002 0.019569159145656698 0 0.00072530411944304754 0.02034302764949766 0 -0.0012534185993867879 0.016485758421324537 0 -0.0012000432329463695 0.017390998357540006 0 -0.0020632348646761516 0.017743607704720499 0 -0.0012000432329463695 0.017390998357540006 0 -0.00064530295352625139 0.018084273442791572 0 -0.0020632348646761516 0.017743607704720499 0 -0.0012000432329463695 0.017390998357540006 0 -0.00064530295352625139 0.018084273442791572 0 -0.00044432392329100192 0.017080549762210472 0 0.0028992699069765788 0.021261902537165978 0 0.0023594357960456235 0.021691660053428426 0 0.003145432297876121 0.021841258724473664 0 0.0028992699069765788 0.021261902537165978 0 0.0023594357960456235 0.021691660053428426 0 0.0021610062894409448 0.021106332710230546 0 0.00072530411944304754 0.02034302764949766 0 0.0016165819697047774 0.022177153083760177 0 0.0023594357960456235 0.021691660053428426 0 0.0021610062894409448 0.021106332710230546 0 0.001745957689690041 0.021763805363924849 0 0.00016424434028186271 0.019116437193021089 0 0.00072530411944304754 0.02034302764949766 0 0.0015256816076713077 0.022037829288970051 0 0.0013637505448701312 0.022005034782587873 0 0.0013888400911685056 0.022302703562795182 0 0.00072530411944304754 0.02034302764949766 0 0.0017001616402921354 0.021642312421106015 0 0.0014899342105214382 0.021819817391749693 0 0.0015326885950047947 0.022052680804296607 0 0.0013637505448701312 0.022005034782587873 0 0.0012788194044028112 0.021847761692554729 0 0.0012425499696496569 0.022113140729081725 0 0.0010295873718337556 0.022077578760780633 0 0.0012788194044028112 0.021847761692554729 0 0.0012425499696496569 0.022113140729081725 0 0.0013637505448701312 0.022005034782587873 0 0.0012788194044028112 0.021847761692554729 0 0.0014899342105214382 0.021819817391749693 0 0.0013637505448701312 0.022005034782587873 0 0.0012425499696496569 0.022113140729081725 0 0.0013637505448701312 0.022005034782587873 0 0.0013888400911685056 0.022302703562795182 0 0.0012425499696496569 0.022113140729081725 0 0.0013888400911685056 0.022302703562795182 0 0.0011542292583012943 0.022314459365810863 0 0.00081800557277572931 0.022445913816532142 0 0.0011542292583012943 0.022314459365810863 0 0.0010295873718337556 0.022077578760780633 0 0.0012425499696496569 0.022113140729081725 0 0.0011542292583012943 0.022314459365810863 0 0.0010295873718337556 0.022077578760780633 0 0.0023259924603388667 0.016765218447117234 0 0.002832572434232438 0.015753448636042947 0 0.0013048534787711752 0.016007137273665047 0 0.0023259924603388667 0.016765218447117234 0 0.0013048534787711752 0.016007137273665047 0 0.0014716082003520675 0.017473362742584049 0 0.0041874218400522346 0.016400916881579155 0 0.0032487797315411669 0.016934518466817431 0 0.002832572434232438 0.015753448636042947 0 0.0023259924603388667 0.016765218447117234 0 0.0032487797315411669 0.016934518466817431 0 0.002832572434232438 0.015753448636042947 0 0.004368907194400075 0.014868150670802277 0 0.0029246847466576241 0.014392360255979102 0 0.002832572434232438 0.015753448636042947 0 0.0016074645870269907 0.014838190330585026 0 0.002832572434232438 0.015753448636042947 0 0.0013048534787711752 0.016007137273665047 0 0.0016074645870269907 0.014838190330585026 0 0.0029246847466576241 0.014392360255979102 0 0.002832572434232438 0.015753448636042947 0 0.0016074645870269907 0.014838190330585026 0 0.00073289951842825244 0.0150577778876427 0 0.0013048534787711752 0.016007137273665047 0 0.00073289951842825244 0.0150577778876427 0 0.00033258269477604404 0.015807096834178094 0 0.0013048534787711752 0.016007137273665047 0 0.00073289951842825244 0.0150577778876427 0 -0.00040159366346100537 0.015194899830562549 0 0.00033258269477604404 0.015807096834178094 0 -0.00040159366346100537 0.015194899830562549 0 0.00033258269477604404 0.015807096834178094 0 -0.00028920598051361025 0.016211969596477069 0 0.00033258269477604404 0.015807096834178094 0 -0.00028920598051361025 0.016211969596477069 0 0.00038695329405263147 0.016650498990641228 0 -0.00028920598051361025 0.016211969596477069 0 0.00038695329405263147 0.016650498990641228 0 -0.00044432392329100192 0.017080549762210472 0 0.00038695329405263147 0.016650498990641228 0 0.0013048534787711752 0.016007137273665047 0 0.0014716082003520675 0.017473362742584049 0 0.00033258269477604404 0.015807096834178094 0 0.00038695329405263147 0.016650498990641228 0 0.0013048534787711752 0.016007137273665047 0 0.00032151789603224445 0.017580495751797522 0 0.00080612859271643098 0.018470820390664985 0 0.0014716082003520675 0.017473362742584049 0 0.00038695329405263147 0.016650498990641228 0 0.00032151789603224445 0.017580495751797522 0 0.0014716082003520675 0.017473362742584049 0 -0.00064530295352625139 0.018084273442791572 0 0.00032151789603224445 0.017580495751797522 0 0.00080612859271643098 0.018470820390664985 0 0.00038695329405263147 0.016650498990641228 0 -0.00044432392329100192 0.017080549762210472 0 0.00032151789603224445 0.017580495751797522 0 -0.00064530295352625139 0.018084273442791572 0 -0.00044432392329100192 0.017080549762210472 0 0.00032151789603224445 0.017580495751797522 0 0.0028992699069765788 0.021261902537165978 0 0.0035972949382249036 0.021336527365976427 0 0.003145432297876121 0.021841258724473664 0 0.0009660813857151002 0.019569159145656698 0 0.0022554855848784436 0.019918662470911057 0 0.00080612859271643098 0.018470820390664985 0 0.0023198232824425272 0.018879064437817769 0 0.0014716082003520675 0.017473362742584049 0 0.0022554855848784436 0.019918662470911057 0 0.0032670706578054663 0.020113455250002781 0 0.0035972949382249036 0.021336527365976427 0 0.0042862668710807617 0.021350140724079075 0 0.0039625080474453671 0.021794736435788973 0 0.0023259924603388667 0.016765218447117234 0 0.0014716082003520675 0.017473362742584049 0 0.0028835595077471268 0.017882596119038252 0 0.0023198232824425272 0.018879064437817769 0 0.0014716082003520675 0.017473362742584049 0 0.0028835595077471268 0.017882596119038252 0 0.0023259924603388667 0.016765218447117234 0 0.0032487797315411669 0.016934518466817431 0 0.0028835595077471268 0.017882596119038252 0 0.0040164239713419122 0.017843990209676551 0 0.0032487797315411669 0.016934518466817431 0 0.0028835595077471268 0.017882596119038252 0 0.0032670706578054663 0.020113455250002781 0 0.0045132928977274188 0.020295920642462002 0 0.0023198232824425272 0.018879064437817769 0 0.0028835595077471268 0.017882596119038252 0 0.0038697419137314866 0.019276563343268115 0 0.0040164239713419122 0.017843990209676551 0 0.0028835595077471268 0.017882596119038252 0 0.0038697419137314866 0.019276563343268115 0 0.0044771709569347536 0.021590978991678292 0 0.004294822814727298 0.022045071906408677 0 0.0048359207462976344 0.021464745828304262 0 0.0042862668710807617 0.021350140724079075 0 0.0044771709569347536 0.021590978991678292 0 0.0047987225980210017 0.021372480825140261 0 0.0044771709569347536 0.021590978991678292 0 0.0047987225980210017 0.021372480825140261 0 0.0048359207462976344 0.021464745828304262 0 0.004294822814727298 0.022045071906408677 0 0.0046128502766582596 0.022384895366388213 0 0.0048359207462976344 0.021464745828304262 0 0.004294822814727298 0.022045071906408677 0 0.0039625080474453671 0.021794736435788973 0 0.0038606863738415396 0.022412738232326663 0 0.004294822814727298 0.022045071906408677 0 0.0038606863738415396 0.022412738232326663 0 0.0040161192913380842 0.022879446563274113 0 0.0044771709569347536 0.021590978991678292 0 0.004294822814727298 0.022045071906408677 0 0.0039625080474453671 0.021794736435788973 0 0.0042862668710807617 0.021350140724079075 0 0.0044771709569347536 0.021590978991678292 0 0.0039625080474453671 0.021794736435788973 0 0.0035972949382249036 0.021336527365976427 0 0.0039625080474453671 0.021794736435788973 0 0.003145432297876121 0.021841258724473664 0 0.0039625080474453671 0.021794736435788973 0 0.003145432297876121 0.021841258724473664 0 0.0034973997512493275 0.022290332402408478 0 0.003145432297876121 0.021841258724473664 0 0.0030179739512319649 0.022562618309987008 0 0.0034973997512493275 0.022290332402408478 0 0.0030179739512319649 0.022562618309987008 0 0.0034973997512493275 0.022290332402408478 0 0.0034335478056491155 0.023044142365797209 0 0.0039625080474453671 0.021794736435788973 0 0.0034973997512493275 0.022290332402408478 0 0.0038606863738415396 0.022412738232326663 0 0.0034973997512493275 0.022290332402408478 0 0.0038606863738415396 0.022412738232326663 0 0.0034335478056491155 0.023044142365797209 0 0.0038606863738415396 0.022412738232326663 0 0.0034335478056491155 0.023044142365797209 0 0.0040161192913380842 0.022879446563274113 0 0.0034335478056491155 0.023044142365797209 0 0.0034948760223962941 0.023700477796797695 0 0.0040161192913380842 0.022879446563274113 0 0.0034335478056491155 0.023044142365797209 0 0.0029121226437342738 0.023157773015198408 0 0.0029580825634168348 0.023982824183541678 0 0.0030179739512319649 0.022562618309987008 0 0.0034335478056491155 0.023044142365797209 0 0.0029121226437342738 0.023157773015198408 0 0.0034335478056491155 0.023044142365797209 0 0.0029580825634168348 0.023982824183541678 0 0.0034948760223962941 0.023700477796797695 0 0.0034948760223962941 0.023700477796797695 0 0.0040252779131672483 0.023647636815852267 0 0.0035292916845752914 0.024277673254884516 0 0.0034948760223962941 0.023700477796797695 0 0.0040252779131672483 0.023647636815852267 0 0.0040161192913380842 0.022879446563274113 0 0.0040252779131672483 0.023647636815852267 0 0.0044305555404389055 0.023048637165872785 0 0.0040161192913380842 0.022879446563274113 0 0.0040252779131672483 0.023647636815852267 0 0.0046887932823584241 0.023552681300079051 0 0.004478856523616008 0.024069503881026386 0 0.0046887932823584241 0.023552681300079051 0 0.0044305555404389055 0.023048637165872785 0 0.0050855014671036215 0.022822225648860571 0 0.0040252779131672483 0.023647636815852267 0 0.0046887932823584241 0.023552681300079051 0 0.0044305555404389055 0.023048637165872785 0 0.0046887932823584241 0.023552681300079051 0 0.0049986688584079302 0.024041719855089738 0 0.0052648925456904062 0.023564926835837295 0 0.0044305555404389055 0.023048637165872785 0 0.0046128502766582596 0.022384895366388213 0 0.0050855014671036215 0.022822225648860571 0 0.004294822814727298 0.022045071906408677 0 0.0046128502766582596 0.022384895366388213 0 0.0040161192913380842 0.022879446563274113 0 0.0044305555404389055 0.023048637165872785 0 0.0046128502766582596 0.022384895366388213 0 0.0040161192913380842 0.022879446563274113 0 0.001008037023052981 0.022978948600062207 0 0.0013456629520317406 0.022584980733483487 0 0.0014870200030277737 0.023174849913158175 0 0.00081800557277572931 0.022445913816532142 0 0.0011542292583012943 0.022314459365810863 0 0.0013456629520317406 0.022584980733483487 0 0.00081800557277572931 0.022445913816532142 0 0.001008037023052981 0.022978948600062207 0 0.0013456629520317406 0.022584980733483487 0 0.001745957689690041 0.021763805363924849 0 0.0013456629520317406 0.022584980733483487 0 0.0021054585277480286 0.02222158626718243 0 0.0013888400911685056 0.022302703562795182 0 0.0011542292583012943 0.022314459365810863 0 0.0013456629520317406 0.022584980733483487 0 0.0016165819697047774 0.022177153083760177 0 0.0013512697905485561 0.022492316920830455 0 0.0013456629520317406 0.022584980733483487 0 0.0020648815679632226 0.022879240455847587 0 0.0021054585277480286 0.02222158626718243 0 0.0013456629520317406 0.022584980733483487 0 0.0020648815679632226 0.022879240455847587 0 0.0014870200030277737 0.023174849913158175 0 0.0020648815679632226 0.022879240455847587 0 0.002544048334827929 0.022327149476375003 0 0.0025885885796186952 0.022878273256789698 0 0.0020648815679632226 0.022879240455847587 0 0.0021054585277480286 0.02222158626718243 0 0.002544048334827929 0.022327149476375003 0 0.0023594357960456235 0.021691660053428426 0 0.001745957689690041 0.021763805363924849 0 0.0021054585277480286 0.02222158626718243 0 0.0023594357960456235 0.021691660053428426 0 0.0021054585277480286 0.02222158626718243 0 0.002544048334827929 0.022327149476375003 0 0.0023594357960456235 0.021691660053428426 0 0.003145432297876121 0.021841258724473664 0 0.002544048334827929 0.022327149476375003 0 0.003145432297876121 0.021841258724473664 0 0.0030179739512319649 0.022562618309987008 0 0.002544048334827929 0.022327149476375003 0 0.0030179739512319649 0.022562618309987008 0 0.002544048334827929 0.022327149476375003 0 0.0025885885796186952 0.022878273256789698 0 0.0030179739512319649 0.022562618309987008 0 0.0029121226437342738 0.023157773015198408 0 0.0025885885796186952 0.022878273256789698 0 0.0029121226437342738 0.023157773015198408 0 0.0025885885796186952 0.022878273256789698 0 0.0024522577934376153 0.023512993672513055 0 0.0029580825634168348 0.023982824183541678 0 0.0024522577934376153 0.023512993672513055 0 0.0023506831237799786 0.024207575124361391 0 0.0029121226437342738 0.023157773015198408 0 0.0029580825634168348 0.023982824183541678 0 0.0024522577934376153 0.023512993672513055 0 0.0024522577934376153 0.023512993672513055 0 0.0019510832438260316 0.023645568047384651 0 0.0023506831237799786 0.024207575124361391 0 0.0020648815679632226 0.022879240455847587 0 0.0025885885796186952 0.022878273256789698 0 0.0024522577934376153 0.023512993672513055 0 0.0020648815679632226 0.022879240455847587 0 0.0024522577934376153 0.023512993672513055 0 0.0019510832438260316 0.023645568047384651 0 0.0014870200030277737 0.023174849913158175 0 0.0019510832438260316 0.023645568047384651 0 0.0011384522254682581 0.023835713319026963 0 0.0020648815679632226 0.022879240455847587 0 0.0014870200030277737 0.023174849913158175 0 0.0019510832438260316 0.023645568047384651 0 0.0019510832438260316 0.023645568047384651 0 0.0018492584310536514 0.024412531314735263 0 0.0023506831237799786 0.024207575124361391 0 0.0019510832438260316 0.023645568047384651 0 0.0011384522254682581 0.023835713319026963 0 0.0018492584310536514 0.024412531314735263 0 0.0011384522254682581 0.023835713319026963 0 0.001313559828277406 0.024597189906171168 0 0.0018492584310536514 0.024412531314735263 0 0.001008037023052981 0.022978948600062207 0 0.0014870200030277737 0.023174849913158175 0 0.0011384522254682581 0.023835713319026963 0 0.0017258888070206843 0.025138347912895431 0 0.0019945929204348819 0.025480497306185765 0 0.0016709167239128942 0.025857219310986161 0 0.0010387002511101457 0.025568409778620373 0 0.0017258888070206843 0.025138347912895431 0 0.001313559828277406 0.024597189906171168 0 0.0010387002511101457 0.025568409778620373 0 0.0017258888070206843 0.025138347912895431 0 0.0016709167239128942 0.025857219310986161 0 0.0017258888070206843 0.025138347912895431 0 0.001313559828277406 0.024597189906171168 0 0.0018492584310536514 0.024412531314735263 0 0.0017258888070206843 0.025138347912895431 0 0.0018492584310536514 0.024412531314735263 0 0.0022347974950389015 0.024948899518406269 0 0.0017258888070206843 0.025138347912895431 0 0.0019945929204348819 0.025480497306185765 0 0.0022347974950389015 0.024948899518406269 0 0.0019945929204348819 0.025480497306185765 0 0.0022347974950389015 0.024948899518406269 0 0.0022770185949022186 0.025438066043513778 0 0.0022347974950389015 0.024948899518406269 0 0.0026103002359278713 0.024677885308622312 0 0.0026284065252656667 0.025186882899729212 0 0.0022347974950389015 0.024948899518406269 0 0.0026284065252656667 0.025186882899729212 0 0.0022770185949022186 0.025438066043513778 0 0.0022347974950389015 0.024948899518406269 0 0.0023506831237799786 0.024207575124361391 0 0.0026103002359278713 0.024677885308622312 0 0.0018492584310536514 0.024412531314735263 0 0.0022347974950389015 0.024948899518406269 0 0.0023506831237799786 0.024207575124361391 0 0.0029580825634168348 0.023982824183541678 0 0.0023506831237799786 0.024207575124361391 0 0.0026103002359278713 0.024677885308622312 0 0.0029580825634168348 0.023982824183541678 0 0.0026103002359278713 0.024677885308622312 0 0.0029767930320069237 0.024596814714859427 0 0.0026284065252656667 0.025186882899729212 0 0.0029767930320069237 0.024596814714859427 0 0.0030416282617604972 0.025103565815104686 0 0.0026103002359278713 0.024677885308622312 0 0.0026284065252656667 0.025186882899729212 0 0.0029767930320069237 0.024596814714859427 0 0.0026284065252656667 0.025186882899729212 0 0.0028464988029104007 0.025358989511397839 0 0.0026316831787045387 0.025567526033927319 0 0.0026284065252656667 0.025186882899729212 0 0.0028464988029104007 0.025358989511397839 0 0.0030416282617604972 0.025103565815104686 0 0.0026284065252656667 0.025186882899729212 0 0.0026316831787045387 0.025567526033927319 0 0.0023974960637188135 0.025655928242760338 0 0.0028464988029104007 0.025358989511397839 0 0.0026316831787045387 0.025567526033927319 0 0.0028327891385552658 0.025557552631468219 0 0.0026136208559908616 0.025708827386987397 0 0.0026316831787045387 0.025567526033927319 0 0.0028327891385552658 0.025557552631468219 0 0.0026136208559908616 0.025708827386987397 0 0.0028327891385552658 0.025557552631468219 0 0.0026495756513289941 0.025725976375430979 0 0.0026136208559908616 0.025708827386987397 0 0.0026316831787045387 0.025567526033927319 0 0.0024558575214421955 0.025801589935488964 0 0.0026136208559908616 0.025708827386987397 0 0.0024558575214421955 0.025801589935488964 0 0.0024805182973195931 0.02587050892763643 0 0.0026316831787045387 0.025567526033927319 0 0.0024558575214421955 0.025801589935488964 0 0.0023974960637188135 0.025655928242760338 0 0.0024558575214421955 0.025801589935488964 0 0.0022608517381868943 0.025929181221788829 0 0.0023368575018712563 0.025987621647539295 0 0.0024558575214421955 0.025801589935488964 0 0.0023974960637188135 0.025655928242760338 0 0.0022608517381868943 0.025929181221788829 0 0.0026284065252656667 0.025186882899729212 0 0.0023974960637188135 0.025655928242760338 0 0.0022770185949022186 0.025438066043513778 0 0.0023974960637188135 0.025655928242760338 0 0.0022770185949022186 0.025438066043513778 0 0.0020839254520653699 0.025891726723079926 0 0.0019945929204348819 0.025480497306185765 0 0.0022770185949022186 0.025438066043513778 0 0.0020839254520653699 0.025891726723079926 0 0.0019945929204348819 0.025480497306185765 0 0.0020839254520653699 0.025891726723079926 0 0.0016709167239128942 0.025857219310986161 0 0.0020839254520653699 0.025891726723079926 0 0.0017811683890300845 0.026401894869907488 0 0.0021357895630564195 0.026235128660707159 0 0.0020839254520653699 0.025891726723079926 0 0.0022608517381868943 0.025929181221788829 0 0.0021357895630564195 0.026235128660707159 0 0.0023974960637188135 0.025655928242760338 0 0.0020839254520653699 0.025891726723079926 0 0.0022608517381868943 0.025929181221788829 0 0.0022608517381868943 0.025929181221788829 0 0.0021357895630564195 0.026235128660707159 0 0.0023368575018712563 0.025987621647539295 0 0.0017811683890300845 0.026401894869907488 0 0.0018341680816723618 0.026631249650887139 0 0.0021357895630564195 0.026235128660707159 0 0.0014787848015181586 0.027119549586971874 0 0.0017811683890300845 0.026401894869907488 0 0.0018341680816723618 0.026631249650887139 0 0.0020839254520653699 0.025891726723079926 0 0.0017811683890300845 0.026401894869907488 0 0.0016709167239128942 0.025857219310986161 0 0.0012359888330892225 0.026464797575879238 0 0.0017811683890300845 0.026401894869907488 0 0.0016709167239128942 0.025857219310986161 0 0.0045577687282960608 0.024675942867019279 0 0.0039737590575209241 0.024392043504701446 0 0.0039991677943261696 0.02502298012182071 0 0.0039737590575209241 0.024392043504701446 0 0.0033939332857031409 0.024774962452940918 0 0.0039991677943261696 0.02502298012182071 0 0.0030389980151452282 0.025361311433609066 0 0.0031515107956911884 0.025341031147385597 0 0.0030014577106848325 0.025267681433943045 0 0.0042525842312149519 0.024174528208276203 0 0.003444327783355483 0.025275944198690677 0 0.0042525842312149519 0.024174528208276203 0 0.0042148880757325825 0.024542212665142428 0 0.0047565863034641194 0.024738729012962153 0 0.004478856523616008 0.024069503881026386 0 0.0039737590575209241 0.024392043504701446 0 0.0047565863034641194 0.024738729012962153 0 0.0049986688584079302 0.024041719855089738 0 0.004478856523616008 0.024069503881026386 0 0.0046887932823584241 0.023552681300079051 0 0.0049986688584079302 0.024041719855089738 0 0.004478856523616008 0.024069503881026386 0 0.0040252779131672483 0.023647636815852267 0 0.004478856523616008 0.024069503881026386 0 0.0039737590575209241 0.024392043504701446 0 0.0040252779131672483 0.023647636815852267 0 0.0039737590575209241 0.024392043504701446 0 0.0035292916845752914 0.024277673254884516 0 0.0029580825634168348 0.023982824183541678 0 0.0034948760223962941 0.023700477796797695 0 0.0035292916845752914 0.024277673254884516 0 0.0029580825634168348 0.023982824183541678 0 0.0035292916845752914 0.024277673254884516 0 0.0029767930320069237 0.024596814714859427 0 0.0029767930320069237 0.024596814714859427 0 0.0033939332857031409 0.024774962452940918 0 0.0030416282617604972 0.025103565815104686 0 0.0035292916845752914 0.024277673254884516 0 0.0029767930320069237 0.024596814714859427 0 0.0033939332857031409 0.024774962452940918 0 0.0039737590575209241 0.024392043504701446 0 0.0035292916845752914 0.024277673254884516 0 0.0033939332857031409 0.024774962452940918 0 0.0033939332857031409 0.024774962452940918 0 0.0033091114964608715 0.025315247930643669 0 0.0039991677943261696 0.02502298012182071 0 0.0033939332857031409 0.024774962452940918 0 0.0033091114964608715 0.025315247930643669 0 0.0030416282617604972 0.025103565815104686 0 0.0033091114964608715 0.025315247930643669 0 0.0030416282617604972 0.025103565815104686 0 0.003094011168179471 0.025385306236791468 0 0.0028464988029104007 0.025358989511397839 0 0.0030416282617604972 0.025103565815104686 0 0.003094011168179471 0.025385306236791468 0 0.0028464988029104007 0.025358989511397839 0 0.003094011168179471 0.025385306236791468 0 0.0028327891385552658 0.025557552631468219 0 0.003094011168179471 0.025385306236791468 0 0.0029980684056521759 0.025490423573591148 0 0.0028327891385552658 0.025557552631468219 0 0.003094011168179471 0.025385306236791468 0 0.0029980684056521759 0.025490423573591148 0 0.0031714561314675166 0.025365620769289866 0 0.0029980684056521759 0.025490423573591148 0 0.0028327891385552658 0.025557552631468219 0 0.0028562710182259057 0.025670249280502891 0 0.0033091114964608715 0.025315247930643669 0 0.0031714561314675166 0.025365620769289866 0 0.0031795560800051935 0.025250161189534208 0 0.0033091114964608715 0.025315247930643669 0 0.003094011168179471 0.025385306236791468 0 0.0031714561314675166 0.025365620769289866 0 0.0031714561314675166 0.025365620769289866 0 0.0031795560800051935 0.025250161189534208 0 0.0031734201614005771 0.02521577955943468 0 0.0031795560800051935 0.025250161189534208 0 0.0030399980643627616 0.025206371249427328 0 0.0030825597188991411 0.025123835752043647 0 0.0033991363250873968 0.025267575491348181 0 0.003444327783355483 0.025275944198690677 0 0.0033091114964608715 0.025315247930643669 0 0.0031795560800051935 0.025250161189534208 0 0.0031515107956911884 0.025341031147385597 0 0.0031795560800051935 0.025250161189534208 0 0.0031515107956911884 0.025341031147385597 0 0.0030399980643627616 0.025206371249427328 0 0.0031515107956911884 0.025341031147385597 0 0.0030014577106848325 0.025267681433943045 0 0.0030399980643627616 0.025206371249427328 0 0.0030014577106848325 0.025267681433943045 0 0.0030399980643627616 0.025206371249427328 0 0.0028730165793756112 0.025107305684606698 0 0.0030399980643627616 0.025206371249427328 0 0.0029451334992159238 0.025055944443298488 0 0.0030825597188991411 0.025123835752043647 0 0.0030399980643627616 0.025206371249427328 0 0.0028730165793756112 0.025107305684606698 0 0.0029451334992159238 0.025055944443298488 0 0.0051361923296304249 0.0054938988857236156 0 0.0038142120290257956 0.0062192251803881229 0 0.0030894519782521546 0.0042171311118409079 0 0.0031334673524991774 0.0087950087394686304 0 0.005998307865865647 0.019549796791364114 0 0.0051361923296304249 0.0054938988857236156 0 0.0038142120290257956 0.0062192251803881229 0 0.0050383855667081798 0.0083537987964405584 0 0.0038142120290257956 0.0062192251803881229 0 0.0019897149435162448 0.0069025545449260973 0 0.0050383855667081798 0.0083537987964405584 0 0.0064170331582517753 0.020793372525515958 0 0.0065994006257897976 0.02123373627835343 0 0.0070056323616417499 0.021121833344045667 0 0.0037861014045246833 0.014873853096391642 0 0.005998307865865647 0.019549796791364114 0 0.0030014577106848325 0.025267681433943045 0 0.0028730165793756112 0.025107305684606698 0 0.0029169861305439223 0.025267740583096186 0 0.0018241175931223046 0.0046242310034382257 0 0.0015078983016369358 0.0040213457481282537 0 0.0021982647431279083 0.003990656260115708 0 0.0018241175931223046 0.0046242310034382257 0 0.0025714923598062992 0.0050254936599605105 0 0.0021982647431279083 0.003990656260115708 0 0.0038142120290257956 0.0062192251803881229 0 0.0019897149435162448 0.0069025545449260973 0 0.0030894519782521546 0.0042171311118409079 0 0.0025714923598062992 0.0050254936599605105 0 0.0030894519782521546 0.0042171311118409079 0 0.0021982647431279083 0.003990656260115708 0 0.0031334673524991774 0.0087950087394686304 0 0.0030241102083212851 0.0032720448255265911 0 0.0031334673524991774 0.0087950087394686304 0 0.0041267289992190622 0.014173054719012394 0 0.0011713379455436078 0.0045953876046227922 0 0.0031334673524991774 0.0087950087394686304 0 0.0018241175931223046 0.0046242310034382257 0 0.0021502755015204034 0.0047973165307319109 0 0.0014638756130749145 0.0050288608383848256 0 0.0021502755015204034 0.0047973165307319109 0 0.0014638756130749145 0.0050288608383848256 0 0.0018452708890839789 0.0054215782407552905 0 0.0014638756130749145 0.0050288608383848256 0 0.0018452708890839789 0.0054215782407552905 0 0.001107149927965966 0.005567692940462555 0 0.0063970348566102881 0.021431374075959336 0 0.0065994006257897976 0.02123373627835343 0 0.0066477270378135205 0.021499224159257601 0 0.0064170331582517753 0.020793372525515958 0 0.0063970348566102881 0.021431374075959336 0 0.0065994006257897976 0.02123373627835343 0 0.0063970348566102881 0.021431374075959336 0 0.0066477270378135205 0.021499224159257601 0 0.0065308144853177003 0.021810723009203965 0 0.0063970348566102881 0.021431374075959336 0 0.0065308144853177003 0.021810723009203965 0 0.0066830239131829439 0.021787869195272994 0 0.0018452708890839789 0.0054215782407552905 0 0.0015719007659984426 0.0060662074526802627 0 0.001107149927965966 0.005567692940462555 0 0.0041267289992190622 0.014173054719012394 0 0.0041683508849299066 0.013757089486213155 0 0.0030389980151452282 0.025361311433609066 0 0.0030014577106848325 0.025267681433943045 0 0.0029169861305439223 0.025267740583096186 0 0.0053805440566331271 0.022152955750665778 0 0.0054073240100578771 0.022145006080243852 0 0.0054120865136597016 0.022133327535258221 0 0.0042525842312149519 0.024174528208276203 0 0.005998307865865647 0.019549796791364114 0 0.005998307865865647 0.019549796791364114 0 0.0060722443545584339 0.022645963502233489 0 0.0070056323616417499 0.021121833344045667 0 0.0066477270378135205 0.021499224159257601 0 0.0069300877354704004 0.021623562268483495 0 0.0065994006257897976 0.02123373627835343 0 0.0070056323616417499 0.021121833344045667 0 0.0066477270378135205 0.021499224159257601 0 0.0066477270378135205 0.021499224159257601 0 0.0069300877354704004 0.021623562268483495 0 0.0065308144853177003 0.021810723009203965 0 0.0060722443545584339 0.022645963502233489 0 0.0068103394291463429 0.021631619006001458 0 0.0049986688584079302 0.024041719855089738 0 0.0057199198944022393 0.024162043738693743 0 0.0052648925456904062 0.023564926835837295 0 0.0047565863034641194 0.024738729012962153 0 0.0049986688584079302 0.024041719855089738 0 0.0057199198944022393 0.024162043738693743 0 0.0042525842312149519 0.024174528208276203 0 0.0060722443545584339 0.022645963502233489 0 0.0057199198944022393 0.024162043738693743 0 0.0052648925456904062 0.023564926835837295 0 0.0058659853003423783 0.023169138990932665 0 0.0052648925456904062 0.023564926835837295 0 0.0050855014671036215 0.022822225648860571 0 0.0058659853003423783 0.023169138990932665 0 0.0046887932823584241 0.023552681300079051 0 0.0052648925456904062 0.023564926835837295 0 0.0050855014671036215 0.022822225648860571 0 0.0050855014671036215 0.022822225648860571 0 0.0051607459833285909 0.02194965438601355 0 0.0059261519673783286 0.02176475229995186 0 0.0050855014671036215 0.022822225648860571 0 0.0058659853003423783 0.023169138990932665 0 0.0059261519673783286 0.02176475229995186 0 0.0046128502766582596 0.022384895366388213 0 0.0050855014671036215 0.022822225648860571 0 0.0051607459833285909 0.02194965438601355 0 0.0062996650447072833 0.021767566584021975 0 0.0064557022906406416 0.021755383075967055 0 0.0059261519673783286 0.02176475229995186 0 0.0060434789658285202 0.022524638530209491 0 0.0059863565722409638 0.021777510947631536 0 0.0063175436669236501 0.021966603155271408 0 0.0062996650447072833 0.021767566584021975 0 0.0065308144853177003 0.021810723009203965 0 0.0060722443545584339 0.022645963502233489 0 0.0060434789658285202 0.022524638530209491 0 0.0062996650447072833 0.021767566584021975 0 0.0065308144853177003 0.021810723009203965 0 0.0064557022906406416 0.021755383075967055 0 0.0065308144853177003 0.021810723009203965 0 0.0066830239131829439 0.021787869195272994 0 0.0064557022906406416 0.021755383075967055 0 0.0066830239131829439 0.021787869195272994 0 0.0066897348379147906 0.021551407798553059 0 0.0064557022906406416 0.021755383075967055 0 0.0041683508849299066 0.013757089486213155 0 0.0043591081443993436 0.014048129576198144 0 0.0066830239131829439 0.021787869195272994 0 0.0066897348379147906 0.021551407798553059 0 0.0073386668816487251 0.0214679653226903 0 0.0066897348379147906 0.021551407798553059 0 0.0070841516750717905 0.021062551974464327 0 0.0073386668816487251 0.0214679653226903 0 0.0066897348379147906 0.021551407798553059 0 0.0064557022906406416 0.021755383075967055 0 0.0059261519673783286 0.02176475229995186 0 0.0066897348379147906 0.021551407798553059 0 0.0064968243540435185 0.0211715216765084 0 0.0070841516750717905 0.021062551974464327 0 0.0064968243540435185 0.0211715216765084 0 0.0070841516750717905 0.021062551974464327 0 0.0067986917728563787 0.020519076278507121 0 0.0066897348379147906 0.021551407798553059 0 0.0064968243540435185 0.0211715216765084 0 0.0059261519673783286 0.02176475229995186 0 0.0070841516750717905 0.021062551974464327 0 0.0073929364890486038 0.020327254576573764 0 0.0080908815167567479 0.020516217703496886 0 0.0070841516750717905 0.021062551974464327 0 0.0073929364890486038 0.020327254576573764 0 0.0067986917728563787 0.020519076278507121 0 0.00721631566905972 0.019739624092532385 0 0.0073929364890486038 0.020327254576573764 0 0.0067986917728563787 0.020519076278507121 0 0.00721631566905972 0.019739624092532385 0 0.0078107954956251934 0.01981262070040871 0 0.0073929364890486038 0.020327254576573764 0 0.0063267934055567538 0.019910345308780174 0 0.00721631566905972 0.019739624092532385 0 0.0067986917728563787 0.020519076278507121 0 0.0064968243540435185 0.0211715216765084 0 0.0067986917728563787 0.020519076278507121 0 0.0060949438073695334 0.020835517402273008 0 0.0063267934055567538 0.019910345308780174 0 0.0067986917728563787 0.020519076278507121 0 0.0060949438073695334 0.020835517402273008 0 0.0063267934055567538 0.019910345308780174 0 0.0060949438073695334 0.020835517402273008 0 0.0053118855306735838 0.020422230965399944 0 0.0060949438073695334 0.020835517402273008 0 0.0053118855306735838 0.020422230965399944 0 0.0055366846761547382 0.021238443314751412 0 0.0051370497061596189 0.020411392540217212 0 0.0045132928977274188 0.020295920642462002 0 0.0053118855306735838 0.020422230965399944 0 0.0047376639815559368 0.020383579021057044 0 0.0048359207462976344 0.021464745828304262 0 0.0045132928977274188 0.020295920642462002 0 0.0047528597856994724 0.021521885832239348 0 0.0053118855306735838 0.020422230965399944 0 0.0048359207462976344 0.021464745828304262 0 0.0055366846761547382 0.021238443314751412 0 0.0046128502766582596 0.022384895366388213 0 0.0048359207462976344 0.021464745828304262 0 0.0051607459833285909 0.02194965438601355 0 0.0048359207462976344 0.021464745828304262 0 0.0051607459833285909 0.02194965438601355 0 0.0055366846761547382 0.021238443314751412 0 0.0051607459833285909 0.02194965438601355 0 0.0059261519673783286 0.02176475229995186 0 0.0055366846761547382 0.021238443314751412 0 0.0060949438073695334 0.020835517402273008 0 0.0059261519673783286 0.02176475229995186 0 0.0055366846761547382 0.021238443314751412 0 0.0064968243540435185 0.0211715216765084 0 0.0060949438073695334 0.020835517402273008 0 0.0059261519673783286 0.02176475229995186 0 -4.4361768514528922e-05 0.0071585435103534139 0 0.0001994394864989568 0.0076392813982080737 0 0.00039980228348245728 0.0070898558503772486 0 -4.4361768514528922e-05 0.0071585435103534139 0 0.00039980228348245728 0.0070898558503772486 0 -1.6996682710840698e-05 0.0066696585065041348 0 -4.4361768514528922e-05 0.0071585435103534139 0 -0.00051061707309567295 0.0067892585810482809 0 -1.6996682710840698e-05 0.0066696585065041348 0 -0.0011089460324351726 0.0069874715127708851 0 -0.00051061707309567295 0.0067892585810482809 0 -0.00049203026004638662 0.0073395725407679963 0 -4.4361768514528922e-05 0.0071585435103534139 0 -0.00051061707309567295 0.0067892585810482809 0 -0.00049203026004638662 0.0073395725407679963 0 -0.0011683283790413122 0.0077073313920192465 0 -0.00019492981669730756 0.0080024715097944364 0 -0.00049203026004638662 0.0073395725407679963 0 -4.4361768514528922e-05 0.0071585435103534139 0 -0.00049203026004638662 0.0073395725407679963 0 0.0001994394864989568 0.0076392813982080737 0 -0.00019492981669730756 0.0080024715097944364 0 -0.00049203026004638662 0.0073395725407679963 0 0.0001994394864989568 0.0076392813982080737 0 0.0001994394864989568 0.0076392813982080737 0 0.00068768261608417262 0.0074229658104035439 0 0.00039980228348245728 0.0070898558503772486 0 0.00077276588479723973 0.0082715691361830903 0 0.0001994394864989568 0.0076392813982080737 0 0.00075007886741446713 0.0078255354304985012 0 0.00086020001878734785 0.0083324802087816948 0 0.00075007886741446713 0.0078255354304985012 0 0.0010829117370891785 0.0074959498937761486 0 0.00075007886741446713 0.0078255354304985012 0 0.00068768261608417262 0.0074229658104035439 0 0.0010829117370891785 0.0074959498937761486 0 0.0001994394864989568 0.0076392813982080737 0 0.00075007886741446713 0.0078255354304985012 0 0.00068768261608417262 0.0074229658104035439 0 0.0060608937008515386 0.01258687292580795 0 0.0043811826425065375 0.014289581608775992 0 0.0078107954956251934 0.01981262070040871 0 0.008588621052347074 0.01933585143709473 0 0.0080908815167567479 0.020516217703496886 0 0.0078107954956251934 0.01981262070040871 0 0.0073929364890486038 0.020327254576573764 0 0.0080908815167567479 0.020516217703496886 0 0.0010829117370891785 0.0074959498937761486 0 0.00091965015531403241 0.0070190789284742304 0 0.0013160531512151415 0.0067624035308514593 0 0.0043811826425065375 0.014289581608775992 0 0.0043591081443993436 0.014048129576198144 0 0.0070841516750717905 0.021062551974464327 0 0.0080908815167567479 0.020516217703496886 0 0.0073386668816487251 0.0214679653226903 0 0.00068768261608417262 0.0074229658104035439 0 0.0010829117370891785 0.0074959498937761486 0 0.00091965015531403241 0.0070190789284742304 0 0.00068768261608417262 0.0074229658104035439 0 0.00091965015531403241 0.0070190789284742304 0 0.00039980228348245728 0.0070898558503772486 0 0.00091965015531403241 0.0070190789284742304 0 0.00039980228348245728 0.0070898558503772486 0 0.00059415768801143515 0.0066191002711977224 0 0.00059415768801143515 0.0066191002711977224 0 0.0013160531512151415 0.0067624035308514593 0 0.000848325106819912 0.0061667178496077604 0 0.00091965015531403241 0.0070190789284742304 0 0.00059415768801143515 0.0066191002711977224 0 0.0013160531512151415 0.0067624035308514593 0 0.0015719007659984426 0.0060662074526802627 0 0.000848325106819912 0.0061667178496077604 0 0.001107149927965966 0.005567692940462555 0 0.0015719007659984426 0.0060662074526802627 0 0.0013160531512151415 0.0067624035308514593 0 0.000848325106819912 0.0061667178496077604 0 0.000848325106819912 0.0061667178496077604 0 0.00016677859682116334 0.0062162822210429895 0 0.00038354705207448506 0.0056906342539782837 0 0.00059415768801143515 0.0066191002711977224 0 0.000848325106819912 0.0061667178496077604 0 0.00016677859682116334 0.0062162822210429895 0 0.00016677859682116334 0.0062162822210429895 0 -0.00051192892358418269 0.0062196886211703731 0 -0.000289206138605432 0.0057475670135115724 0 0.00016677859682116334 0.0062162822210429895 0 -0.000289206138605432 0.0057475670135115724 0 0.00038354705207448506 0.0056906342539782837 0 0.00016677859682116334 0.0062162822210429895 0 -1.6996682710840698e-05 0.0066696585065041348 0 -0.00051192892358418269 0.0062196886211703731 0 0.00039980228348245728 0.0070898558503772486 0 0.00059415768801143515 0.0066191002711977224 0 -1.6996682710840698e-05 0.0066696585065041348 0 0.00059415768801143515 0.0066191002711977224 0 0.00016677859682116334 0.0062162822210429895 0 -1.6996682710840698e-05 0.0066696585065041348 0 -0.0009950362839645096 0.0064244239057068674 0 -0.00051061707309567295 0.0067892585810482809 0 -0.00051192892358418269 0.0062196886211703731 0 -0.00051061707309567295 0.0067892585810482809 0 -1.6996682710840698e-05 0.0066696585065041348 0 -0.00051192892358418269 0.0062196886211703731 0 -0.00088108769441668487 0.005562064314205791 0 -0.00051192892358418269 0.0062196886211703731 0 -0.000289206138605432 0.0057475670135115724 0 -0.00088108769441668487 0.005562064314205791 0 -0.0009583261378313645 0.0050134774181778662 0 -0.00060043815949667966 0.0053733531456915421 0 -0.00088108769441668487 0.005562064314205791 0 -0.000289206138605432 0.0057475670135115724 0 -0.00060043815949667966 0.0053733531456915421 0 -0.00060043815949667966 0.0053733531456915421 0 -0.00012878319029128611 0.0053532729117721457 0 -0.00044876543436954495 0.0049391922388862634 0 -0.000289206138605432 0.0057475670135115724 0 -0.00060043815949667966 0.0053733531456915421 0 -0.00012878319029128611 0.0053532729117721457 0 -0.000289206138605432 0.0057475670135115724 0 -0.00012878319029128611 0.0053532729117721457 0 0.00038354705207448506 0.0056906342539782837 0 -0.00012878319029128611 0.0053532729117721457 0 0.00038354705207448506 0.0056906342539782837 0 0.00055236501683295796 0.0050806173850160598 0 -0.00012878319029128611 0.0053532729117721457 0 -0.00044876543436954495 0.0049391922388862634 0 0.00055236501683295796 0.0050806173850160598 0 -0.00044876543436954495 0.0049391922388862634 0 0.00055236501683295796 0.0050806173850160598 0 -0.00060753055579435445 0.0042963681498372963 0 -0.0009583261378313645 0.0050134774181778662 0 -0.00044876543436954495 0.0049391922388862634 0 -0.00060753055579435445 0.0042963681498372963 0 -0.0009583261378313645 0.0050134774181778662 0 -0.00060043815949667966 0.0053733531456915421 0 -0.00044876543436954495 0.0049391922388862634 0 0.001107149927965966 0.005567692940462555 0 0.00038354705207448506 0.0056906342539782837 0 0.00055236501683295796 0.0050806173850160598 0 0.000848325106819912 0.0061667178496077604 0 0.001107149927965966 0.005567692940462555 0 0.00038354705207448506 0.0056906342539782837 0 0.0014638756130749145 0.0050288608383848256 0 0.001107149927965966 0.005567692940462555 0 0.00055236501683295796 0.0050806173850160598 0 0.0014638756130749145 0.0050288608383848256 0 0.00055236501683295796 0.0050806173850160598 0 0.0010318205259114495 0.0045427425295596824 0 0.0018241175931223046 0.0046242310034382257 0 0.0014638756130749145 0.0050288608383848256 0 0.0010318205259114495 0.0045427425295596824 0 0.00055236501683295796 0.0050806173850160598 0 0.0010318205259114495 0.0045427425295596824 0 8.1068982331940689e-05 0.0043560233807637717 0 0.00052410051931019044 0.0050196311466925957 0 0.0001468735507674543 0.0039857041813716769 0 0.0010318205259114495 0.0045427425295596824 0 8.1068982331940689e-05 0.0043560233807637717 0 0.00076862775818683094 0.0036822964984797937 0 0.0018241175931223046 0.0046242310034382257 0 0.0010318205259114495 0.0045427425295596824 0 0.0015078983016369358 0.0040213457481282537 0 0.0010318205259114495 0.0045427425295596824 0 0.0015078983016369358 0.0040213457481282537 0 0.00076862775818683094 0.0036822964984797937 0 -0.0016773028942100596 0.0038931491056747565 0 -0.00060753055579435445 0.0042963681498372963 0 -0.00080188396174087041 0.0036814974145109938 0 -0.0009583261378313645 0.0050134774181778662 0 -0.0016773028942100596 0.0038931491056747565 0 -0.00060753055579435445 0.0042963681498372963 0 0.00055236501683295796 0.0050806173850160598 0 -0.00060753055579435445 0.0042963681498372963 0 0.00022719880854853974 0.0036305736627063627 0 -0.00060753055579435445 0.0042963681498372963 0 0.00022719880854853974 0.0036305736627063627 0 -0.00080188396174087041 0.0036814974145109938 0 0.00022719880854853974 0.0036305736627063627 0 -0.00080188396174087041 0.0036814974145109938 0 -0.0011451680362335034 0.0029023880617244919 0 -0.0016773028942100596 0.0038931491056747565 0 -0.00080188396174087041 0.0036814974145109938 0 -0.0011451680362335034 0.0029023880617244919 0 -0.0011451680362335034 0.0029023880617244919 0 -0.00025487454523483269 0.0021401978712675966 0 -0.0013655784878240265 0.0022205764866852595 0 0.00022719880854853974 0.0036305736627063627 0 -0.0011451680362335034 0.0029023880617244919 0 -0.00025487454523483269 0.0021401978712675966 0 0.0001468735507674543 0.0039857041813716769 0 -0.00042207951276831837 0.0025717612714561415 0 -0.00025487454523483269 0.0021401978712675966 0 -0.0013655784878240265 0.0022205764866852595 0 -0.0017259851853552394 0.001406477446286071 0 0.0015078983016369358 0.0040213457481282537 0 0.00076862775818683094 0.0036822964984797937 0 0.0017626980449132897 0.0030632910986542819 0 8.1068982331940689e-05 0.0043560233807637717 0 -0.00058915330003472312 0.0030176590418380957 0 0.00076862775818683094 0.0036822964984797937 0 -0.00058915330003472312 0.0030176590418380957 0 0.00067446547977992181 0.0025780434059847566 0 -0.00012636854100930321 0.0019792939420821489 0 -0.00058915330003472312 0.0030176590418380957 0 0.00076862775818683094 0.0036822964984797937 0 0.00067446547977992181 0.0025780434059847566 0 0.00067446547977992181 0.0025780434059847566 0 0.0013758931740007886 0.0021201127247677371 0 0.0017626980449132897 0.0030632910986542819 0 0.00076862775818683094 0.0036822964984797937 0 0.00067446547977992181 0.0025780434059847566 0 0.0017626980449132897 0.0030632910986542819 0 0.00067446547977992181 0.0025780434059847566 0 0.0013758931740007886 0.0021201127247677371 0 0.00079318717828489053 0.0015321584819148293 0 0.0013758931740007886 0.0021201127247677371 0 0.00079318717828489053 0.0015321584819148293 0 0.0015678921783076911 0.0013083462162219671 0 0.00079318717828489053 0.0015321584819148293 0 0.00013053697904888864 0.00082072297680186104 0 -0.00012636854100930321 0.0019792939420821489 0 0.00067446547977992181 0.0025780434059847566 0 0.00079318717828489053 0.0015321584819148293 0 -0.00012636854100930321 0.0019792939420821489 0 0.00079318717828489053 0.0015321584819148293 0 0.00013053697904888864 0.00082072297680186104 0 0.0011987977307592395 0.00031335602147520653 0 0.00079318717828489053 0.0015321584819148293 0 0.0015678921783076911 0.0013083462162219671 0 0.0011987977307592395 0.00031335602147520653 0 -0.00025487454523483269 0.0021401978712675966 0 -0.00085643247126830256 0.00062251947311279653 0 -0.0017259851853552394 0.001406477446286071 0 -0.00058915330003472312 0.0030176590418380957 0 -0.0011943898492754125 0.0013077730981858758 0 -0.00012636854100930321 0.0019792939420821489 0 0.00013053697904888864 0.00082072297680186104 0 -0.0011943898492754125 0.0013077730981858758 0 -0.00012636854100930321 0.0019792939420821489 0 -0.00042207951276831837 0.0025717612714561415 0 -0.0010193464601203331 0.00096029249883676678 0 0.00013053697904888864 0.00082072297680186104 0 -0.0011943898492754125 0.0013077730981858758 0 -0.00058881765751876984 -0.00017937511859379322 0 -0.0010193464601203331 0.00096029249883676678 0 -0.0014902921467393427 -0.00053972230954770254 0 -0.00085643247126830256 0.00062251947311279653 0 -0.0015210791135717155 -0.00063993917241649142 0 -0.0019972428285622954 -5.4058097199544789e-05 0 -0.0011943898492754125 0.0013077730981858758 0 -0.0015210791135717155 -0.00063993917241649142 0 -0.00058881765751876984 -0.00017937511859379322 0 -0.0015210791135717155 -0.00063993917241649142 0 -0.0012005649252955781 -0.0013226771534835698 0 -0.00058881765751876984 -0.00017937511859379322 0 -0.0015210791135717155 -0.00063993917241649142 0 -0.0012005649252955781 -0.0013226771534835698 0 -0.0023283042778147757 -0.0017629403336972879 0 -0.0012005649252955781 -0.0013226771534835698 0 -0.00039967538465298183 -0.001499161224324432 0 -0.00058881765751876984 -0.00017937511859379322 0 -0.00039967538465298183 -0.001499161224324432 0 -0.00058881765751876984 -0.00017937511859379322 0 0.00031664338837488208 -0.00062049203293016797 0 0.00013053697904888864 0.00082072297680186104 0 -0.00058881765751876984 -0.00017937511859379322 0 0.00031664338837488208 -0.00062049203293016797 0 0.00013053697904888864 0.00082072297680186104 0 0.0011987977307592395 0.00031335602147520653 0 0.00031664338837488208 -0.00062049203293016797 0 0.0011987977307592395 0.00031335602147520653 0 0.0012880762362529265 -0.0010638429708877564 0 0.001994096375521036 -0.00033736399107381468 0 0.0011987977307592395 0.00031335602147520653 0 0.0012880762362529265 -0.0010638429708877564 0 0.00031664338837488208 -0.00062049203293016797 0 0.0012880762362529265 -0.0010638429708877564 0 0.00031664338837488208 -0.00062049203293016797 0 0.00035772634560072333 -0.0018740031733215773 0 -0.00039967538465298183 -0.001499161224324432 0 0.00031664338837488208 -0.00062049203293016797 0 0.00035772634560072333 -0.0018740031733215773 0 0.0012880762362529265 -0.0010638429708877564 0 0.00035772634560072333 -0.0018740031733215773 0 0.0013270374584151978 -0.0022927693087216065 0 -6.4257760062040709e-05 0.00099402574783817674 0 -0.00073365265817476079 5.381485446556823e-05 0 -0.0014824631719144831 0.0041287801458314245 0 -0.0014816562251386937 0.003927709257043905 0 -0.0017923768496183859 0.0039012346561735686 0 -0.0014824631719144831 0.0041287801458314245 0 -0.0014816562251386937 0.003927709257043905 0 -0.0012903475350016607 0.0040703142786905327 0 0.00035772634560072333 -0.0018740031733215773 0 0.0013270374584151978 -0.0022927693087216065 0 0.00019833569495924936 -0.003078667659893496 0 -0.0009917835649248597 -0.0029609349403748719 0 -0.0011324527076168286 -0.0026253539108000807 0 -0.0010327001061917283 -0.0030634860534391709 0 0.00035772634560072333 -0.0018740031733215773 0 0.00019833569495924936 -0.003078667659893496 0 -0.00058482758372732332 -0.0025933379280663168 0 -0.0011324527076168286 -0.0026253539108000807 0 -0.0015053684143994635 -0.0029931977259305053 0 -0.0010327001061917283 -0.0030634860534391709 0 -0.00073365265817476079 5.381485446556823e-05 0 -0.00059923649519458429 -0.0027611907327670148 0 -0.0011324527076168286 -0.0026253539108000807 0 -0.0016711501445672008 -0.0026291658430063775 0 -0.0015053684143994635 -0.0029931977259305053 0 -0.0011324527076168286 -0.0026253539108000807 0 -0.0016711501445672008 -0.0026291658430063775 0 -0.0013924902136997193 -0.0021500774431289617 0 -0.0012005649252955781 -0.0013226771534835698 0 -0.0013924902136997193 -0.0021500774431289617 0 -0.0023283042778147757 -0.0017629403336972879 0 -0.0016711501445672008 -0.0026291658430063775 0 -0.0013924902136997193 -0.0021500774431289617 0 -0.0021322699739202682 -0.0023873281684774891 0 -0.0012005649252955781 -0.0013226771534835698 0 -0.00039967538465298183 -0.001499161224324432 0 -0.0013924902136997193 -0.0021500774431289617 0 -0.00039967538465298183 -0.001499161224324432 0 0.00035772634560072333 -0.0018740031733215773 0 -0.00058482758372732332 -0.0025933379280663168 0 -0.00039967538465298183 -0.001499161224324432 0 -0.00058482758372732332 -0.0025933379280663168 0 -0.0013924902136997193 -0.0021500774431289617 0 -0.00059923649519458429 -0.0027611907327670148 0 -0.0014497426427439836 -0.0021466373675401774 0 0.00013823524297478185 0.0058633052982050154 0 0.00097489023631867704 0.0059568938334833678 0 0.00017942146557980729 0.0050210856882596799 0 -0.0014781343287499373 0.013060406409259097 0 -0.0018193840655138819 0.010415042652356999 0 0.0007145713855575078 0.01312232083054541 0 -0.0034817529474010889 0.014187318997999056 0 -0.0014781343287499373 0.013060406409259097 0 -0.0018193840655138819 0.010415042652356999 0 -0.0034817529474010889 0.014187318997999056 0 -0.0014781343287499373 0.013060406409259097 0 -0.0014218099300132416 0.015882051240773489 0 -0.0012086705340790468 0.0098127002360128071 0 -0.0015826201433148048 0.0073293802917321262 0 -0.0034817529474010889 0.014187318997999056 0 -0.0018193840655138819 0.010415042652356999 0 -0.0030751142359440745 0.0091532097156328505 0 -0.0013270959305899097 0.0093013215634860664 0 -0.0015826201433148048 0.0073293802917321262 0 0.00098656366617240693 0.0043630665176753094 0 0.00017942146557980729 0.0050210856882596799 0 0.00021620180247732684 0.0043014591010124108 0 0.00097489023631867704 0.0059568938334833678 0 0.00098656366617240693 0.0043630665176753094 0 0.00017942146557980729 0.0050210856882596799 0 0.00017942146557980729 0.0050210856882596799 0 -0.00039889411195405573 0.0042768353077165481 0 0.00021620180247732684 0.0043014591010124108 0 0.00017942146557980729 0.0050210856882596799 0 -0.00070192111215572524 0.005404476307725046 0 -0.00039889411195405573 0.0042768353077165481 0 -0.00070192111215572524 0.005404476307725046 0 -0.0012664800297967364 0.0038311120429248328 0 -0.00039889411195405573 0.0042768353077165481 0 -0.0012903475350016607 0.0040703142786905327 0 -0.0010734967830414183 0.0041542597123208911 0 -0.0012664800297967364 0.0038311120429248328 0 -0.0014816562251386937 0.003927709257043905 0 -0.0012903475350016607 0.0040703142786905327 0 -0.0012664800297967364 0.0038311120429248328 0 -0.00094426229420840999 0.0050567307644667579 0 -0.0012560123348912464 0.0037889576167154681 0 -0.0014824631719144831 0.0041287801458314245 0 -0.0012903475350016607 0.0040703142786905327 0 -0.0011542041783355926 0.0043257479182516982 0 -0.0012903475350016607 0.0040703142786905327 0 -0.0011542041783355926 0.0043257479182516982 0 -0.0010734967830414183 0.0041542597123208911 0 -6.4257760062040709e-05 0.00099402574783817674 0 0.00069267669505134193 0.0011599225599349639 0 0.0012880762362529265 -0.0010638429708877564 0 0.0013270374584151978 -0.0022927693087216065 0 0.0024714335209537813 -0.0014534277978529033 0 -0.00094426229420840999 0.0050567307644667579 0 0.00043746931206020131 0.0043724968141054341 0 0.00013823524297478185 0.0058633052982050154 0 -0.00070192111215572524 0.005404476307725046 0 0.00010455552622154848 0.0071003673281082921 0 -0.0011542041783355926 0.0043257479182516982 0 -0.0010734967830414183 0.0041542597123208911 0 -0.00081059867940626003 0.0045310224978400765 0 0.00013823524297478185 0.0058633052982050154 0 0.00017942146557980729 0.0050210856882596799 0 -0.00070192111215572524 0.005404476307725046 0 0.00069267669505134193 0.0011599225599349639 0 0.00043746931206020131 0.0043724968141054341 0 0.0024714335209537813 -0.0014534277978529033 0 0.0028030651872678158 -0.00023055698260206279 0 0.0036326557227853843 -0.00059615448616195802 0 0.0012880762362529265 -0.0010638429708877564 0 0.0024714335209537813 -0.0014534277978529033 0 0.001994096375521036 -0.00033736399107381468 0 0.0024714335209537813 -0.0014534277978529033 0 0.001994096375521036 -0.00033736399107381468 0 0.0028030651872678158 -0.00023055698260206279 0 0.0011987977307592395 0.00031335602147520653 0 0.001994096375521036 -0.00033736399107381468 0 0.0022740853556450246 0.0006020485276294783 0 0.001994096375521036 -0.00033736399107381468 0 0.0028030651872678158 -0.00023055698260206279 0 0.0022740853556450246 0.0006020485276294783 0 0.0028030651872678158 -0.00023055698260206279 0 0.003162059940643783 0.00051968144847384446 0 0.0036326557227853843 -0.00059615448616195802 0 0.0028030651872678158 -0.00023055698260206279 0 0.003162059940643783 0.00051968144847384446 0 0.0022740853556450246 0.0006020485276294783 0 0.0036326557227853843 -0.00059615448616195802 0 0.004345453940266559 0.00073844842440906936 0 0.0038016172225396826 0.00071582367283259322 0 0.003162059940643783 0.00051968144847384446 0 0.0036326557227853843 -0.00059615448616195802 0 0.0038016172225396826 0.00071582367283259322 0 0.0014310240586951713 0.0079029516855829863 0 -2.9253339233862144e-05 0.0069078933930415256 0 0.0013781537762947733 0.0094197103242980931 0 0.00043746931206020131 0.0043724968141054341 0 0.0018511919071932668 0.0077255579377062209 0 -0.00098151807810147366 0.013617810162982927 0 0.0018511919071932668 0.0077255579377062209 0 -0.00098151807810147366 0.013617810162982927 0 0.00043746931206020131 0.0043724968141054341 0 0.00097489023631867704 0.0059568938334833678 0 0.00091394973436948834 0.0076961072801624564 0 0.00010455552622154848 0.0071003673281082921 0 0.00013823524297478185 0.0058633052982050154 0 0.00097489023631867704 0.0059568938334833678 0 0.00010455552622154848 0.0071003673281082921 0 -0.0012086705340790468 0.0098127002360128071 0 -0.00098151807810147366 0.013617810162982927 0 -0.003497386766874029 0.018275425926442886 0 -0.0014218099300132416 0.015882051240773489 0 -0.00096689316783081904 0.018335853007355775 0 -0.0034817529474010889 0.014187318997999056 0 -0.003497386766874029 0.018275425926442886 0 -0.0014218099300132416 0.015882051240773489 0 -0.00098151807810147366 0.013617810162982927 0 -0.0012340895999539492 0.021227538283546916 0 -0.0031772471310904942 0.018072719372079594 0 -0.0018339209259849918 0.019414025707810093 0 -0.00058881632627714097 0.020140974370804667 0 -0.003497386766874029 0.018275425926442886 0 -0.00058881632627714097 0.020140974370804667 0 -0.00096689316783081904 0.018335853007355775 0 -0.0031772471310904942 0.018072719372079594 0 -0.0018339209259849918 0.019414025707810093 0 -0.0031591424233543917 0.019589399866924997 0 -0.0018339209259849918 0.019414025707810093 0 -0.0023474438136508106 0.020169298169070579 0 -0.0020515389344061608 0.021023693484466213 0 -0.0018339209259849918 0.019414025707810093 0 -0.0021370981002547902 0.021637226422691627 0 -0.001121509802625914 0.020870275208816593 0 -0.0020379257178128377 0.020722465526053977 0 0.00091292843105245645 0.018342820059236771 0 -0.0023474438136508106 0.020169298169070579 0 -0.0023620544463403528 0.020834666431602353 0 -0.0031591424233543917 0.019589399866924997 0 0.0044188011980732063 0.0013756182182419396 0 0.0045895948592337707 0.0014965859274262696 0 0.0043054384661597184 0.0010443799370445468 0 -0.0023474438136508106 0.020169298169070579 0 -0.0023620544463403528 0.020834666431602353 0 -0.0020515389344061608 0.021023693484466213 0 0.0012804104153073218 0.011976884464971074 0 0.0018511919071932668 0.0077255579377062209 0 0.0044188011980732063 0.0013756182182419396 0 0.0042414946720928815 0.0014571298061570549 0 0.0044468178987203668 0.0016802407313943563 0 0.0044188011980732063 0.0013756182182419396 0 0.0047226247034081849 0.0015640186911832033 0 0.0044468178987203668 0.0016802407313943563 0 0.0011419005480673434 0.0085433274494877767 0 0.0012804104153073218 0.011976884464971074 0 -0.0018339209259849918 0.019414025707810093 0 -0.0023474438136508106 0.020169298169070579 0 -0.0031591424233543917 0.019589399866924997 0 0.0018511919071932668 0.0077255579377062209 0 0.0031187783714561701 0.0013800950506124034 0 0.004345453940266559 0.00073844842440906936 0 0.0038016172225396826 0.00071582367283259322 0 0.0043094632490463716 0.001285858867634343 0 0.0038016172225396826 0.00071582367283259322 0 0.0034555438893595909 0.0010783659787091731 0 0.0039214211520902419 0.0013164421687057689 0 0.003162059940643783 0.00051968144847384446 0 0.0038016172225396826 0.00071582367283259322 0 0.0034555438893595909 0.0010783659787091731 0 0.0034555438893595909 0.0010783659787091731 0 0.0039214211520902419 0.0013164421687057689 0 0.0035689243943905157 0.0016178366760058475 0 0.0038016172225396826 0.00071582367283259322 0 0.0043094632490463716 0.001285858867634343 0 0.0039214211520902419 0.0013164421687057689 0 0.0044188011980732063 0.0013756182182419396 0 0.0043054384661597184 0.0010443799370445468 0 0.0043094632490463716 0.001285858867634343 0 0.0039214211520902419 0.0013164421687057689 0 0.0042414946720928815 0.0014571298061570549 0 0.0040799454173257137 0.0016431427931723125 0 0.0043094632490463716 0.001285858867634343 0 0.0039214211520902419 0.0013164421687057689 0 0.0042414946720928815 0.0014571298061570549 0 0.0044188011980732063 0.0013756182182419396 0 0.0043094632490463716 0.001285858867634343 0 0.0042414946720928815 0.0014571298061570549 0 0.0042414946720928815 0.0014571298061570549 0 0.0040799454173257137 0.0016431427931723125 0 0.0044468178987203668 0.0016802407313943563 0 0.0040799454173257137 0.0016431427931723125 0 0.0038837194035341955 0.0019231988800303076 0 0.0042455868430265557 0.0020073523207183122 0 0.0040799454173257137 0.0016431427931723125 0 0.0042455868430265557 0.0020073523207183122 0 0.0044468178987203668 0.0016802407313943563 0 0.0035689243943905157 0.0016178366760058475 0 0.0038837194035341955 0.0019231988800303076 0 0.0036003112305893733 0.0022477809211179493 0 0.0040799454173257137 0.0016431427931723125 0 0.0035689243943905157 0.0016178366760058475 0 0.0038837194035341955 0.0019231988800303076 0 0.0039214211520902419 0.0013164421687057689 0 0.0040799454173257137 0.0016431427931723125 0 0.0035689243943905157 0.0016178366760058475 0 0.0038837194035341955 0.0019231988800303076 0 0.0036003112305893733 0.0022477809211179493 0 0.0040293101308237983 0.0023731987380842599 0 0.0038837194035341955 0.0019231988800303076 0 0.0042455868430265557 0.0020073523207183122 0 0.0040293101308237983 0.0023731987380842599 0 0.0042455868430265557 0.0020073523207183122 0 0.0040293101308237983 0.0023731987380842599 0 0.0044650582401892097 0.0024290162251830337 0 0.0044650582401892097 0.0024290162251830337 0 0.0049111727697860718 0.0018963706726864431 0 0.0045574456170469017 0.001973496685549535 0 0.0042455868430265557 0.0020073523207183122 0 0.0044650582401892097 0.0024290162251830337 0 0.0045574456170469017 0.001973496685549535 0 0.0044399592097536167 0.024603426052300394 0 0.0022669233952066136 0.015707513964520557 0 0.002802078341094312 0.024557746645794153 0 0.0026822618226941828 0.024294882194072529 0 0.0026958829194032715 0.024200220365783613 0 0.0012804104153073218 0.011976884464971074 0 0.0022669233952066136 0.015707513964520557 0 0.0016916624306098462 0.013983661070298749 0 0.0030233925326676749 0.016366839448243121 0 0.0031635169042089459 0.014878642585704989 0 0.0022669233952066136 0.015707513964520557 0 0.00091292843105245645 0.018342820059236771 0 0.0012804104153073218 0.011976884464971074 0 0.00091292843105245645 0.018342820059236771 0 0.0047226247034081849 0.0015640186911832033 0 0.004660353163921294 0.0017787952506464868 0 0.0044468178987203668 0.0016802407313943563 0 0.0047226247034081849 0.0015640186911832033 0 0.0049111727697860718 0.0018963706726864431 0 0.004660353163921294 0.0017787952506464868 0 0.004660353163921294 0.0017787952506464868 0 0.0044468178987203668 0.0016802407313943563 0 0.0045574456170469017 0.001973496685549535 0 0.0042455868430265557 0.0020073523207183122 0 0.0044468178987203668 0.0016802407313943563 0 0.0045574456170469017 0.001973496685549535 0 0.0049111727697860718 0.0018963706726864431 0 0.004660353163921294 0.0017787952506464868 0 0.0045574456170469017 0.001973496685549535 0 0.0015678921783076911 0.0013083462162219671 0 0.0011987977307592395 0.00031335602147520653 0 0.0022740853556450246 0.0006020485276294783 0 0.0015678921783076911 0.0013083462162219671 0 0.0022740853556450246 0.0006020485276294783 0 0.0023037449628975546 0.0014238524742389653 0 0.0022740853556450246 0.0006020485276294783 0 0.0023037449628975546 0.0014238524742389653 0 0.002985508685182838 0.0012478945635815356 0 0.003162059940643783 0.00051968144847384446 0 0.0022740853556450246 0.0006020485276294783 0 0.002985508685182838 0.0012478945635815356 0 0.003162059940643783 0.00051968144847384446 0 0.0034555438893595909 0.0010783659787091731 0 0.002985508685182838 0.0012478945635815356 0 0.0034555438893595909 0.0010783659787091731 0 0.0035689243943905157 0.0016178366760058475 0 0.002985508685182838 0.0012478945635815356 0 0.0035689243943905157 0.0016178366760058475 0 0.002985508685182838 0.0012478945635815356 0 0.0029155074486299708 0.002000548308721763 0 0.0036003112305893733 0.0022477809211179493 0 0.0029155074486299708 0.002000548308721763 0 0.003191519662398098 0.0027107515961094677 0 0.0035689243943905157 0.0016178366760058475 0 0.0036003112305893733 0.0022477809211179493 0 0.0029155074486299708 0.002000548308721763 0 0.0029155074486299708 0.002000548308721763 0 0.0020814360196581942 0.0020823437301353519 0 0.002507527256780509 0.002641494918013125 0 0.0023037449628975546 0.0014238524742389653 0 0.002985508685182838 0.0012478945635815356 0 0.0029155074486299708 0.002000548308721763 0 0.0023037449628975546 0.0014238524742389653 0 0.0029155074486299708 0.002000548308721763 0 0.0020814360196581942 0.0020823437301353519 0 0.0015678921783076911 0.0013083462162219671 0 0.0023037449628975546 0.0014238524742389653 0 0.0020814360196581942 0.0020823437301353519 0 0.0013758931740007886 0.0021201127247677371 0 0.0015678921783076911 0.0013083462162219671 0 0.0020814360196581942 0.0020823437301353519 0 0.0017626980449132897 0.0030632910986542819 0 0.0026471035231632411 0.003331263515780186 0 0.002507527256780509 0.002641494918013125 0 0.0020814360196581942 0.0020823437301353519 0 0.0017626980449132897 0.0030632910986542819 0 0.002507527256780509 0.002641494918013125 0 0.0013758931740007886 0.0021201127247677371 0 0.0020814360196581942 0.0020823437301353519 0 0.0017626980449132897 0.0030632910986542819 0 0.0026471035231632411 0.003331263515780186 0 0.002507527256780509 0.002641494918013125 0 0.003191519662398098 0.0027107515961094677 0 0.0029155074486299708 0.002000548308721763 0 0.002507527256780509 0.002641494918013125 0 0.003191519662398098 0.0027107515961094677 0 0.0026471035231632411 0.003331263515780186 0 0.003191519662398098 0.0027107515961094677 0 0.0034001869366139296 0.0034147862965298267 0 0.0026471035231632411 0.003331263515780186 0 0.0030894519782521546 0.0042171311118409079 0 0.0021982647431279083 0.003990656260115708 0 0.0026471035231632411 0.003331263515780186 0 0.0030894519782521546 0.0042171311118409079 0 0.0034001869366139296 0.0034147862965298267 0 0.0015078983016369358 0.0040213457481282537 0 0.0017626980449132897 0.0030632910986542819 0 0.0021982647431279083 0.003990656260115708 0 0.0017626980449132897 0.0030632910986542819 0 0.0026471035231632411 0.003331263515780186 0 0.0021982647431279083 0.003990656260115708 0 0.0022669233952066136 0.015707513964520557 0 0.0040611983361376162 0.013649792925321268 0 0.002802078341094312 0.024557746645794153 0 0.0026589211948657787 0.024321150143392863 0 0.0027500704599800288 0.024854556920669534 0 0.0044650582401892097 0.0024290162251830337 0 0.0049111727697860718 0.0018963706726864431 0 0.0049604019141293899 0.0033361262400930744 0 0.002802078341094312 0.024557746645794153 0 0.0027500704599800288 0.024854556920669534 0 0.0029684466165620601 0.024893888807037402 0 0.0044650582401892097 0.0024290162251830337 0 0.0049604019141293899 0.0033361262400930744 0 0.0039759176292522942 0.002896420676159344 0 0.0040293101308237983 0.0023731987380842599 0 0.0044650582401892097 0.0024290162251830337 0 0.0039759176292522942 0.002896420676159344 0 0.0036003112305893733 0.0022477809211179493 0 0.0040293101308237983 0.0023731987380842599 0 0.0039759176292522942 0.002896420676159344 0 0.0036003112305893733 0.0022477809211179493 0 0.003191519662398098 0.0027107515961094677 0 0.0039759176292522942 0.002896420676159344 0 0.0039759176292522942 0.002896420676159344 0 0.0040811806792140481 0.0037955306605604259 0 0.0034001869366139296 0.0034147862965298267 0 0.003191519662398098 0.0027107515961094677 0 0.0039759176292522942 0.002896420676159344 0 0.0034001869366139296 0.0034147862965298267 0 0.0049604019141293899 0.0033361262400930744 0 0.0039759176292522942 0.002896420676159344 0 0.0040811806792140481 0.0037955306605604259 0 0.0051361923296304249 0.0054938988857236156 0 0.0030894519782521546 0.0042171311118409079 0 0.0040811806792140481 0.0037955306605604259 0 0.0030894519782521546 0.0042171311118409079 0 0.0040811806792140481 0.0037955306605604259 0 0.0034001869366139296 0.0034147862965298267 0 0.0028730165793756112 0.025107305684606698 0 0.0027500704599800288 0.024854556920669534 0 0.0029451334992159238 0.025055944443298488 0 0.0051361923296304249 0.0054938988857236156 0 0.0049604019141293899 0.0033361262400930744 0 0.0040811806792140481 0.0037955306605604259 0 0.0037861014045246833 0.014873853096391642 0 0.0040611983361376162 0.013649792925321268 0 0.0029684466165620601 0.024893888807037402 0 0.0031266099855842664 0.025040811337672535 0 0.0030825597188991411 0.025123835752043647 0 0.0029451334992159238 0.025055944443298488 0 0.0029684466165620601 0.024893888807037402 0 0.0030825597188991411 0.025123835752043647 0 0.0027500704599800288 0.024854556920669534 0 0.0029451334992159238 0.025055944443298488 0 0.0029684466165620601 0.024893888807037402 0 0.002802078341094312 0.024557746645794153 0 0.0029684466165620601 0.024893888807037402 0 0.0031097541659613538 0.024693184391217805 0 0.0029684466165620601 0.024893888807037402 0 0.0031266099855842664 0.025040811337672535 0 0.0031097541659613538 0.024693184391217805 0 0.0024833642321939924 0.024909833102374442 0 0.0018207709227426345 0.024637460593666855 0 0.0010592008456350751 0.023572321575860034 0 0.0018647655847316372 0.024798244506743259 0 0.00037866375402941823 0.02333310895748595 0 0.0031266099855842664 0.025040811337672535 0 0.0032275776431320655 0.025212957491384958 0 0.0031097541659613538 0.024693184391217805 0 0.0031266099855842664 0.025040811337672535 0 0.0031734201614005771 0.02521577955943468 0 0.0032275776431320655 0.025212957491384958 0 0.0031266099855842664 0.025040811337672535 0 0.0030825597188991411 0.025123835752043647 0 0.0031734201614005771 0.02521577955943468 0 0.0031795560800051935 0.025250161189534208 0 0.0030825597188991411 0.025123835752043647 0 0.0031734201614005771 0.02521577955943468 0 0.0031714561314675166 0.025365620769289866 0 0.0028562710182259057 0.025670249280502891 0 0.0032275776431320655 0.025212957491384958 0 0.0031714561314675166 0.025365620769289866 0 0.0031734201614005771 0.02521577955943468 0 0.0032275776431320655 0.025212957491384958 0 0.0028562710182259057 0.025670249280502891 0 0.0027593336495115085 0.025433588564848817 0 0.0018647655847316372 0.024798244506743259 0 0.0029980684056521759 0.025490423573591148 0 0.0031714561314675166 0.025365620769289866 0 0.0028562710182259057 0.025670249280502891 0 0.0028778414331860677 0.025606767803908491 0 0.0024833642321939924 0.024909833102374442 0 0.0027593336495115085 0.025433588564848817 0 0.0025593672693043118 0.025668324899823319 0 0.0026831763092629592 0.025655431047724914 0 0.0028562710182259057 0.025670249280502891 0 0.0027593336495115085 0.025433588564848817 0 0.0026831763092629592 0.025655431047724914 0 0.0027593336495115085 0.025433588564848817 0 0.0018647655847316372 0.024798244506743259 0 0.0027430485047088352 0.023899665898532138 0 0.0027593336495115085 0.025433588564848817 0 0.0025593672693043118 0.025668324899823319 0 0.0023642842835168653 0.025830757389929453 0 0.0027087877766712302 0.02529615653103005 0 0.0025587195779591052 0.024939253991388594 0 0.0025593672693043118 0.025668324899823319 0 0.0023642842835168653 0.025830757389929453 0 0.0024574546147000083 0.025786426681355275 0 0.0018647655847316372 0.024798244506743259 0 0.0018006195340856655 0.02388077854796361 0 0.0027430485047088352 0.023899665898532138 0 0.0010592008456350751 0.023572321575860034 0 0.0018647655847316372 0.024798244506743259 0 0.0018006195340856655 0.02388077854796361 0 0.0017678226552864617 0.02326612857180136 0 0.0027430485047088352 0.023899665898532138 0 0.0024873426452688479 0.022647622801351335 0 0.0010592008456350751 0.023572321575860034 0 0.0018006195340856655 0.02388077854796361 0 0.0017678226552864617 0.02326612857180136 0 0.0018006195340856655 0.02388077854796361 0 0.0017678226552864617 0.02326612857180136 0 0.0027430485047088352 0.023899665898532138 0 0.0023700824418808209 0.022538525072801577 0 0.0024007818743992573 0.023567855272894827 0 0.0025587195779591052 0.024939253991388594 0 0.0024007818743992573 0.023567855272894827 0 0.0023642842835168653 0.025830757389929453 0 0.0021084136950779973 0.02559785757286601 0 0.0022623618102280162 0.025645785482527914 0 0.0017063139883311308 0.02529042743100865 0 0.0021077433483773188 0.024933174948934496 0 0.0017819616549842026 0.024949523840826129 0 0.0024007818743992573 0.023567855272894827 0 0.0019321972846785941 0.025380005329220579 0 0.0021084136950779973 0.02559785757286601 0 0.0022623618102280162 0.025645785482527914 0 0.0021287360187909662 0.025299787538289889 0 0.0026213986451927114 0.022122717216212708 0 0.002526464488473512 0.020753873778699687 0 0.0016534160790634856 0.020982778382716099 0 0.0026213986451927114 0.022122717216212708 0 0.0038824929934626736 0.020854946908212466 0 0.002526464488473512 0.020753873778699687 0 0.0038824929934626736 0.020854946908212466 0 0.002526464488473512 0.020753873778699687 0 0.0025327640790719901 0.019645279774069123 0 0.002526464488473512 0.020753873778699687 0 0.0025327640790719901 0.019645279774069123 0 0.0016401660888963295 0.019828533105707917 0 0.0016401660888963295 0.019828533105707917 0 0.0016534160790634856 0.020982778382716099 0 0.00056845475409226186 0.02053937595570407 0 0.002526464488473512 0.020753873778699687 0 0.0016401660888963295 0.019828533105707917 0 0.0016534160790634856 0.020982778382716099 0 0.0016534160790634856 0.020982778382716099 0 0.00056845475409226186 0.02053937595570407 0 0.00096360887378082744 0.02171875653757974 0 0.00056845475409226186 0.02053937595570407 0 0.00021032499571474233 0.021450207609643786 0 0.00096360887378082744 0.02171875653757974 0 0.0016401660888963295 0.019828533105707917 0 0.00056845475409226186 0.02053937595570407 0 0.0004915954886892663 0.019161695298088675 0 0.00056845475409226186 0.02053937595570407 0 -0.00058881632627714097 0.020140974370804667 0 0.0004915954886892663 0.019161695298088675 0 -0.0018339209259849918 0.019414025707810093 0 -0.00058881632627714097 0.020140974370804667 0 -0.001121509802625914 0.020870275208816593 0 -0.0021370981002547902 0.021637226422691627 0 -0.001121509802625914 0.020870275208816593 0 -0.00047462675922243673 0.021782098287957023 0 -0.00058881632627714097 0.020140974370804667 0 -0.001121509802625914 0.020870275208816593 0 -0.00027696055519392667 0.020953558301668056 0 -0.001121509802625914 0.020870275208816593 0 -0.00027696055519392667 0.020953558301668056 0 -0.00047462675922243673 0.021782098287957023 0 0.00056845475409226186 0.02053937595570407 0 -0.00058881632627714097 0.020140974370804667 0 -0.00027696055519392667 0.020953558301668056 0 0.00056845475409226186 0.02053937595570407 0 -0.00027696055519392667 0.020953558301668056 0 0.00021032499571474233 0.021450207609643786 0 -0.00027696055519392667 0.020953558301668056 0 0.00021032499571474233 0.021450207609643786 0 -0.00047462675922243673 0.021782098287957023 0 0.00021032499571474233 0.021450207609643786 0 -0.00047462675922243673 0.021782098287957023 0 0.00039028987260459399 0.022210529585741476 0 -0.0021370981002547902 0.021637226422691627 0 -0.00047462675922243673 0.021782098287957023 0 0.00037866375402941823 0.02333310895748595 0 0.002802078341094312 0.024557746645794153 0 0.0026958829194032715 0.024200220365783613 0 0.0031097541659613538 0.024693184391217805 0 0.00091292843105245645 0.018342820059236771 0 0.0018207709227426345 0.024637460593666855 0 -0.00047462675922243673 0.021782098287957023 0 0.00037866375402941823 0.02333310895748595 0 0.00039028987260459399 0.022210529585741476 0 0.0010592008456350751 0.023572321575860034 0 0.00037866375402941823 0.02333310895748595 0 0.0010170573743817114 0.022619166014650537 0 0.00037866375402941823 0.02333310895748595 0 0.0010170573743817114 0.022619166014650537 0 0.00039028987260459399 0.022210529585741476 0 0.0010592008456350751 0.023572321575860034 0 0.0026213986451927114 0.022122717216212708 0 0.0010170573743817114 0.022619166014650537 0 0.001145538912584331 0.023542910888553498 0 0.0023700824418808209 0.022538525072801577 0 0.0026213986451927114 0.022122717216212708 0 0.0010170573743817114 0.022619166014650537 0 0.00096360887378082744 0.02171875653757974 0 0.0026213986451927114 0.022122717216212708 0 0.0016534160790634856 0.020982778382716099 0 0.00096360887378082744 0.02171875653757974 0 0.00021032499571474233 0.021450207609643786 0 0.00096360887378082744 0.02171875653757974 0 0.00039028987260459399 0.022210529585741476 0 0.0010170573743817114 0.022619166014650537 0 0.00096360887378082744 0.02171875653757974 0 0.00039028987260459399 0.022210529585741476 0 0.002364755593564475 0.026300907359231653 0 0.0021448550817147168 0.026497989594518143 0 0.0019722824558151592 0.026476674459663358 0 0.002364755593564475 0.026300907359231653 0 0.0020884567669615505 0.026398575593793869 0 0.0019722824558151592 0.026476674459663358 0 0.0026813640441692077 0.026339579108231873 0 0.0020458442892218711 0.027472514207750914 0 0.0018341680816723618 0.026631249650887139 0 0.0020884567669615505 0.026398575593793869 0 0.0019722824558151592 0.026476674459663358 0 0.0018341680816723618 0.026631249650887139 0 0.0020884567669615505 0.026398575593793869 0 0.0021357895630564195 0.026235128660707159 0 0.0021357895630564195 0.026235128660707159 0 0.0022882646663763889 0.026227546573893527 0 0.0023436670412377921 0.026059006810580414 0 0.0020884567669615505 0.026398575593793869 0 0.0021357895630564195 0.026235128660707159 0 0.0022882646663763889 0.026227546573893527 0 0.0021357895630564195 0.026235128660707159 0 0.0023436670412377921 0.026059006810580414 0 0.0023368575018712563 0.025987621647539295 0 0.0022882646663763889 0.026227546573893527 0 0.002351506528085343 0.026079367821783942 0 0.0023436670412377921 0.026059006810580414 0 0.0022882646663763889 0.026227546573893527 0 0.0023818752860232779 0.026038362660433238 0 0.002351506528085343 0.026079367821783942 0 0.002364755593564475 0.026300907359231653 0 0.0020884567669615505 0.026398575593793869 0 0.0022882646663763889 0.026227546573893527 0 0.002364755593564475 0.026300907359231653 0 0.0022882646663763889 0.026227546573893527 0 0.0024310287535197917 0.026073706091284583 0 0.0022882646663763889 0.026227546573893527 0 0.0023818752860232779 0.026038362660433238 0 0.0024310287535197917 0.026073706091284583 0 0.0023818752860232779 0.026038362660433238 0 0.002386285655941752 0.025931074858074488 0 0.002351506528085343 0.026079367821783942 0 0.002386285655941752 0.025931074858074488 0 0.0023888299642713276 0.025986386113253102 0 0.0024266784392190694 0.025883932569353271 0 0.0023888299642713276 0.025986386113253102 0 0.0024421003631815382 0.02591187028651069 0 0.0024266784392190694 0.025883932569353271 0 0.002386285655941752 0.025931074858074488 0 0.0023888299642713276 0.025986386113253102 0 0.002351506528085343 0.026079367821783942 0 0.0023888299642713276 0.025986386113253102 0 0.002351506528085343 0.026079367821783942 0 0.0023436670412377921 0.026059006810580414 0 0.0023436670412377921 0.026059006810580414 0 0.0023368575018712563 0.025987621647539295 0 0.0024805182973195931 0.02587050892763643 0 0.0024558575214421955 0.025801589935488964 0 0.0023368575018712563 0.025987621647539295 0 0.0024805182973195931 0.02587050892763643 0 0.0023436670412377921 0.026059006810580414 0 0.0024805182973195931 0.02587050892763643 0 0.0024421003631815382 0.02591187028651069 0 0.0023888299642713276 0.025986386113253102 0 0.0023436670412377921 0.026059006810580414 0 0.0024421003631815382 0.02591187028651069 0 0.0024805182973195931 0.02587050892763643 0 0.0025424971587183357 0.025782818500421436 0 0.0026495756513289941 0.025725976375430979 0 0.0024805182973195931 0.02587050892763643 0 0.0024421003631815382 0.02591187028651069 0 0.0025424971587183357 0.025782818500421436 0 0.0026136208559908616 0.025708827386987397 0 0.0024805182973195931 0.02587050892763643 0 0.0026495756513289941 0.025725976375430979 0 0.0028562710182259057 0.025670249280502891 0 0.0026495756513289941 0.025725976375430979 0 0.0026831763092629592 0.025655431047724914 0 0.0028327891385552658 0.025557552631468219 0 0.0028562710182259057 0.025670249280502891 0 0.0026495756513289941 0.025725976375430979 0 0.0025424971587183357 0.025782818500421436 0 0.0026495756513289941 0.025725976375430979 0 0.0026831763092629592 0.025655431047724914 0 0.0025593672693043118 0.025668324899823319 0 0.0025424971587183357 0.025782818500421436 0 0.0026831763092629592 0.025655431047724914 0 0.0023642842835168653 0.025830757389929453 0 0.0024574546147000083 0.025786426681355275 0 0.002376849660971445 0.025819702954244548 0 0.0025593672693043118 0.025668324899823319 0 0.0025424971587183357 0.025782818500421436 0 0.0024574546147000083 0.025786426681355275 0 0.0024421003631815382 0.02591187028651069 0 0.0025424971587183357 0.025782818500421436 0 0.0024266784392190694 0.025883932569353271 0 0.0025424971587183357 0.025782818500421436 0 0.0024266784392190694 0.025883932569353271 0 0.0024574546147000083 0.025786426681355275 0 0.0024266784392190694 0.025883932569353271 0 0.0024574546147000083 0.025786426681355275 0 0.002376849660971445 0.025819702954244548 0 0.002386285655941752 0.025931074858074488 0 0.0024266784392190694 0.025883932569353271 0 0.002376849660971445 0.025819702954244548 0 0.0023642842835168653 0.025830757389929453 0 0.002376849660971445 0.025819702954244548 0 0.0022623618102280162 0.025645785482527914 0 0.002376849660971445 0.025819702954244548 0 0.0022623618102280162 0.025645785482527914 0 0.002379242399275712 0.025746525844731555 0 0.0022623618102280162 0.025645785482527914 0 0.0023424096302800432 0.025422426719810185 0 0.002379242399275712 0.025746525844731555 0 0.0022623618102280162 0.025645785482527914 0 0.0023424096302800432 0.025422426719810185 0 0.0021287360187909662 0.025299787538289889 0 0.0023424096302800432 0.025422426719810185 0 0.0024767675367534021 0.025551110784745805 0 0.002379242399275712 0.025746525844731555 0 0.0023424096302800432 0.025422426719810185 0 0.0024767675367534021 0.025551110784745805 0 0.002557719795861522 0.025221218089583768 0 0.0024767675367534021 0.025551110784745805 0 0.0026210310001979998 0.025448159520325989 0 0.002557719795861522 0.025221218089583768 0 0.0024767675367534021 0.025551110784745805 0 0.0024529018346964482 0.025749667693465962 0 0.002379242399275712 0.025746525844731555 0 0.0024767675367534021 0.025551110784745805 0 0.0024529018346964482 0.025749667693465962 0 0.0025657064644265663 0.025654834912798061 0 0.0024529018346964482 0.025749667693465962 0 0.002409887499155472 0.025875819022941067 0 0.0024624215241439394 0.025882454469621511 0 0.0024529018346964482 0.025749667693465962 0 0.002379242399275712 0.025746525844731555 0 0.002409887499155472 0.025875819022941067 0 0.002386285655941752 0.025931074858074488 0 0.002376849660971445 0.025819702954244548 0 0.002379242399275712 0.025746525844731555 0 0.002386285655941752 0.025931074858074488 0 0.002379242399275712 0.025746525844731555 0 0.002409887499155472 0.025875819022941067 0 0.0023818752860232779 0.026038362660433238 0 0.002386285655941752 0.025931074858074488 0 0.002409887499155472 0.025875819022941067 0 0.0023818752860232779 0.026038362660433238 0 0.0024624215241439394 0.025882454469621511 0 0.0024310287535197917 0.026073706091284583 0 0.0023818752860232779 0.026038362660433238 0 0.002409887499155472 0.025875819022941067 0 0.0024624215241439394 0.025882454469621511 0 0.0024310287535197917 0.026073706091284583 0 0.0026233774045055077 0.025768464658395333 0 0.0026541506772047203 0.025948091069301786 0 0.0024624215241439394 0.025882454469621511 0 0.0024310287535197917 0.026073706091284583 0 0.0026233774045055077 0.025768464658395333 0 0.0024529018346964482 0.025749667693465962 0 0.0024624215241439394 0.025882454469621511 0 0.0025657064644265663 0.025654834912798061 0 0.0024624215241439394 0.025882454469621511 0 0.0026233774045055077 0.025768464658395333 0 0.0025657064644265663 0.025654834912798061 0 0.0025657064644265663 0.025654834912798061 0 0.0026210310001979998 0.025448159520325989 0 0.0027411491063291252 0.025484301236703068 0 0.0024767675367534021 0.025551110784745805 0 0.0025657064644265663 0.025654834912798061 0 0.0026210310001979998 0.025448159520325989 0 0.0026210310001979998 0.025448159520325989 0 0.0027411491063291252 0.025484301236703068 0 0.0027267646487608419 0.025207021351325201 0 0.0027411491063291252 0.025484301236703068 0 0.0028948769418604354 0.025370073121924019 0 0.0027267646487608419 0.025207021351325201 0 0.0026233774045055077 0.025768464658395333 0 0.0025657064644265663 0.025654834912798061 0 0.0027411491063291252 0.025484301236703068 0 0.0026233774045055077 0.025768464658395333 0 0.0027411491063291252 0.025484301236703068 0 0.002935463943218905 0.025416296860893264 0 0.0027411491063291252 0.025484301236703068 0 0.002935463943218905 0.025416296860893264 0 0.0028948769418604354 0.025370073121924019 0 0.0023873456940974097 0.026543330465310117 0 0.0020458442892218711 0.027472514207750914 0 0.0026233774045055077 0.025768464658395333 0 0.002935463943218905 0.025416296860893264 0 0.0026541506772047203 0.025948091069301786 0 0.002935463943218905 0.025416296860893264 0 0.0026541506772047203 0.025948091069301786 0 0.0029148828479432522 0.02610333657122111 0 0.002364755593564475 0.026300907359231653 0 0.0024310287535197917 0.026073706091284583 0 0.0026541506772047203 0.025948091069301786 0 0.002364755593564475 0.026300907359231653 0 0.0026541506772047203 0.025948091069301786 0 0.0029148828479432522 0.02610333657122111 0 0.00181552482808074 0.027743708416715949 0 0.0018445160752129115 0.027765579293096601 0 0.0018511157139944842 0.027739171937182908 0 0.0018250600797784079 0.027789231573226082 0 0.00181552482808074 0.027743708416715949 0 0.0018445160752129115 0.027765579293096601 0 0.002935463943218905 0.025416296860893264 0 0.0027030279583776461 0.025294793527682147 0 0.0028948769418604354 0.025370073121924019 0 0.0027030279583776461 0.025294793527682147 0 0.0028948769418604354 0.025370073121924019 0 0.0026191807435683515 0.025271918817364288 0 0.0023873456940974097 0.026543330465310117 0 0.0023276260420888799 0.026385301536167929 0 0.0028948769418604354 0.025370073121924019 0 0.0028479238030660243 0.02479652007343074 0 0.0030933957858977957 0.024469677154049307 0 0.0028942991841407772 0.025297761681051176 0 0.002846500670409769 0.024880490683960071 0 0.0028948769418604354 0.025370073121924019 0 0.0027267646487608419 0.025207021351325201 0 0.0028479238030660243 0.02479652007343074 0 0.0027267646487608419 0.025207021351325201 0 0.0026716479990262641 0.024873594675173506 0 0.002557719795861522 0.025221218089583768 0 0.0026210310001979998 0.025448159520325989 0 0.0027267646487608419 0.025207021351325201 0 0.002557719795861522 0.025221218089583768 0 0.0027267646487608419 0.025207021351325201 0 0.0028479238030660243 0.02479652007343074 0 0.0026716479990262641 0.024873594675173506 0 0.0028479238030660243 0.02479652007343074 0 0.0026955820120667592 0.02446842923805596 0 0.0026716479990262641 0.024873594675173506 0 0.0028479238030660243 0.02479652007343074 0 0.0028631874536007205 0.024450163659379791 0 0.0026955820120667592 0.02446842923805596 0 0.0028479238030660243 0.02479652007343074 0 0.0030933957858977957 0.024469677154049307 0 0.0028631874536007205 0.024450163659379791 0 0.0023276260420888799 0.026385301536167929 0 0.0024156760290045482 0.025125574834960761 0 0.0027030279583776461 0.025294793527682147 0 0.0026191807435683515 0.025271918817364288 0 0.002586280370555292 0.025237839156802052 0 0.0028631874536007205 0.024450163659379791 0 0.0026955820120667592 0.02446842923805596 0 0.0028099472524752366 0.024078868320637721 0 0.0030933957858977957 0.024469677154049307 0 0.0028631874536007205 0.024450163659379791 0 0.0028099472524752366 0.024078868320637721 0 0.0026955820120667592 0.02446842923805596 0 0.0024924636320679027 0.024272298659247467 0 0.0024208921498085393 0.024648501183734 0 0.0026955820120667592 0.02446842923805596 0 0.0024924636320679027 0.024272298659247467 0 0.0028099472524752366 0.024078868320637721 0 0.0024924636320679027 0.024272298659247467 0 0.0024208921498085393 0.024648501183734 0 0.0021512739431477968 0.024300810098308923 0 0.0026955820120667592 0.02446842923805596 0 0.0024208921498085393 0.024648501183734 0 0.0026716479990262641 0.024873594675173506 0 0.0023424096302800432 0.025422426719810185 0 0.0024208921498085393 0.024648501183734 0 0.002557719795861522 0.025221218089583768 0 0.0024208921498085393 0.024648501183734 0 0.0026716479990262641 0.024873594675173506 0 0.002557719795861522 0.025221218089583768 0 0.0023424096302800432 0.025422426719810185 0 0.0024208921498085393 0.024648501183734 0 0.0021287360187909662 0.025299787538289889 0 0.0025179457862700054 0.024594514058794401 0 0.0019321972846785941 0.025380005329220579 0 0.0021077433483773188 0.024933174948934496 0 0.0021512739431477968 0.024300810098308923 0 0.0018932209496149289 0.024525884686106433 0 0.0024208921498085393 0.024648501183734 0 0.0021077433483773188 0.024933174948934496 0 0.0021512739431477968 0.024300810098308923 0 0.0021512739431477968 0.024300810098308923 0 0.002427796811653545 0.023850973781638255 0 0.0019333496626200398 0.023843465613783123 0 0.0021096623858611586 0.023583308638075645 0 0.002427796811653545 0.023850973781638255 0 0.0019333496626200398 0.023843465613783123 0 0.0021096623858611586 0.023583308638075645 0 0.0019333496626200398 0.023843465613783123 0 0.0018794742822267712 0.02363142856327774 0 0.0021096623858611586 0.023583308638075645 0 0.0018794742822267712 0.02363142856327774 0 0.0019418240697692719 0.0233787388330064 0 0.0021096623858611586 0.023583308638075645 0 0.0019418240697692719 0.0233787388330064 0 0.0021949425482394509 0.02326828730855162 0 0.0021096623858611586 0.023583308638075645 0 0.0023538161504314402 0.023482866775655982 0 0.0021949425482394509 0.02326828730855162 0 0.0023538161504314402 0.023482866775655982 0 0.0024651705022158844 0.023239031547378504 0 0.0021949425482394509 0.02326828730855162 0 0.0021096623858611586 0.023583308638075645 0 0.0023538161504314402 0.023482866775655982 0 0.002427796811653545 0.023850973781638255 0 0.0025861203215624012 0.023479952093703103 0 0.002982512108011248 0.023615748625395602 0 0.0026824070325227418 0.023157038081317322 0 0.0023538161504314402 0.023482866775655982 0 0.0025861203215624012 0.023479952093703103 0 0.002427796811653545 0.023850973781638255 0 0.0025861203215624012 0.023479952093703103 0 0.002427796811653545 0.023850973781638255 0 0.002982512108011248 0.023615748625395602 0 0.0023538161504314402 0.023482866775655982 0 0.0025861203215624012 0.023479952093703103 0 0.0024651705022158844 0.023239031547378504 0 0.0024924636320679027 0.024272298659247467 0 0.0021512739431477968 0.024300810098308923 0 0.002427796811653545 0.023850973781638255 0 0.002427796811653545 0.023850973781638255 0 0.0028099472524752366 0.024078868320637721 0 0.002982512108011248 0.023615748625395602 0 0.0024924636320679027 0.024272298659247467 0 0.002427796811653545 0.023850973781638255 0 0.0028099472524752366 0.024078868320637721 0 0.0030933957858977957 0.024469677154049307 0 0.0028099472524752366 0.024078868320637721 0 0.002982512108011248 0.023615748625395602 0 0.002586280370555292 0.025237839156802052 0 0.002454501559827993 0.025098265116593466 0 0.0025818380085111661 0.025146534950686094 0 0.0026191807435683515 0.025271918817364288 0 0.002586280370555292 0.025237839156802052 0 0.002454501559827993 0.025098265116593466 0 0.002846500670409769 0.024880490683960071 0 0.0027105182554592127 0.024256282001040796 0 0.002454501559827993 0.025098265116593466 0 0.0026034656577688248 0.024973235515041194 0 0.0025818380085111661 0.025146534950686094 0 0.0026034656577688248 0.024973235515041194 0 0.0025818380085111661 0.025146534950686094 0 0.0026813051003448398 0.025153780712032558 0 0.00181552482808074 0.027743708416715949 0 0.0018372820503445469 0.027704752199650334 0 0.0018511157139944842 0.027739171937182908 0 0.002586280370555292 0.025237839156802052 0 0.0025818380085111661 0.025146534950686094 0 0.0026813051003448398 0.025153780712032558 0 0.0023276260420888799 0.026385301536167929 0 0.0022246558626285323 0.026456301221024384 0 0.0026071333353422641 0.025318196809822269 0 0.002586280370555292 0.025237839156802052 0 0.0026813051003448398 0.025153780712032558 0 0.001658420874877176 0.0174566244891411 0 0.00033833811323802886 0.017619194085376558 0 0.0016394588117300852 0.018586944203118062 0 0.001658420874877176 0.0174566244891411 0 0.00033833811323802886 0.017619194085376558 0 0.00095755156473842752 0.016641961442613581 0 0.001658420874877176 0.0174566244891411 0 0.0020631146628592211 0.016354991791292958 0 0.00095755156473842752 0.016641961442613581 0 0.00039081401543382107 0.017364033974043479 0 0.00026894746198839742 0.01456785379416177 0 -0.0014218099300132416 0.015882051240773489 0 0.00033833811323802886 0.017619194085376558 0 -0.00096689316783081904 0.018335853007355775 0 0.00033833811323802886 0.017619194085376558 0 0.00095755156473842752 0.016641961442613581 0 -8.3995945222912973e-05 0.016038462509888413 0 -0.0014218099300132416 0.015882051240773489 0 0.00033833811323802886 0.017619194085376558 0 0.0007145713855575078 0.01312232083054541 0 0.00033833811323802886 0.017619194085376558 0 -0.00096689316783081904 0.018335853007355775 0 0.0004915954886892663 0.019161695298088675 0 -0.00058881632627714097 0.020140974370804667 0 -0.00096689316783081904 0.018335853007355775 0 0.0004915954886892663 0.019161695298088675 0 0.00033833811323802886 0.017619194085376558 0 0.0004915954886892663 0.019161695298088675 0 0.0016394588117300852 0.018586944203118062 0 0.0025327640790719901 0.019645279774069123 0 0.0016401660888963295 0.019828533105707917 0 0.0016394588117300852 0.018586944203118062 0 0.0016401660888963295 0.019828533105707917 0 0.0004915954886892663 0.019161695298088675 0 0.0016394588117300852 0.018586944203118062 0 0.0024007818743992573 0.023567855272894827 0 0.0022830667297783244 0.021488241031364787 0 0.0025327640790719901 0.019645279774069123 0 0.0016394588117300852 0.018586944203118062 0 0.0030216347375420236 0.018273975505089479 0 0.0038824929934626736 0.020854946908212466 0 0.0025327640790719901 0.019645279774069123 0 0.0030216347375420236 0.018273975505089479 0 0.001658420874877176 0.0174566244891411 0 0.0016394588117300852 0.018586944203118062 0 0.0030216347375420236 0.018273975505089479 0 0.0017063139883311308 0.02529042743100865 0 0.0014505441388021115 0.024897484667487934 0 0.0017819616549842026 0.024949523840826129 0 0.0014505441388021115 0.024897484667487934 0 0.0017819616549842026 0.024949523840826129 0 0.0018932209496149289 0.024525884686106433 0 0.0021077433483773188 0.024933174948934496 0 0.0017819616549842026 0.024949523840826129 0 0.0018932209496149289 0.024525884686106433 0 0.0021512739431477968 0.024300810098308923 0 0.0018932209496149289 0.024525884686106433 0 0.0018411248297448698 0.024018861901858094 0 0.0014505441388021115 0.024897484667487934 0 0.0018932209496149289 0.024525884686106433 0 0.0015897370433900244 0.023755429193096846 0 0.0018932209496149289 0.024525884686106433 0 0.0018411248297448698 0.024018861901858094 0 0.0015897370433900244 0.023755429193096846 0 0.0018411248297448698 0.024018861901858094 0 0.0015897370433900244 0.023755429193096846 0 0.0016872111541961267 0.023766846534808123 0 0.0021512739431477968 0.024300810098308923 0 0.0018411248297448698 0.024018861901858094 0 0.0019333496626200398 0.023843465613783123 0 0.001658420874877176 0.0174566244891411 0 0.0030216347375420236 0.018273975505089479 0 0.0020631146628592211 0.016354991791292958 0 0.0022830667297783244 0.021488241031364787 0 0.0016599731479348039 0.019197455102548108 0 0.0014505441388021115 0.024897484667487934 0 0.0015897370433900244 0.023755429193096846 0 0.0012335173615089085 0.021907464246077007 0 0.0015897370433900244 0.023755429193096846 0 0.0016872111541961267 0.023766846534808123 0 0.0016354559690803033 0.023654163630835591 0 0.0015897370433900244 0.023755429193096846 0 0.0012335173615089085 0.021907464246077007 0 0.002360191487249118 0.019775591999729066 0 0.0016819478753978196 0.024154351105556127 0 0.0019186312230468094 0.020410075880626353 0 0.0012335173615089085 0.021907464246077007 0 0.0015719256979000763 0.020467243006456581 0 0.002360191487249118 0.019775591999729066 0 0.0018411248297448698 0.024018861901858094 0 0.0016872111541961267 0.023766846534808123 0 0.0019333496626200398 0.023843465613783123 0 0.0016872111541961267 0.023766846534808123 0 0.0017563516472682526 0.023693547719712781 0 0.0016354559690803033 0.023654163630835591 0 0.0016872111541961267 0.023766846534808123 0 0.0017563516472682526 0.023693547719712781 0 0.0019333496626200398 0.023843465613783123 0 0.0017563516472682526 0.023693547719712781 0 0.0019333496626200398 0.023843465613783123 0 0.0018794742822267712 0.02363142856327774 0 0.0019186312230468094 0.020410075880626353 0 0.0026759384681634933 0.019900526245983052 0 0.0018343498337871087 0.023494960597524116 0 0.0016354559690803033 0.023654163630835591 0 0.0019428998485934992 0.023065265930348779 0 0.0018794742822267712 0.02363142856327774 0 0.0019418240697692719 0.0233787388330064 0 0.0018343498337871087 0.023494960597524116 0 0.0017563516472682526 0.023693547719712781 0 0.0018794742822267712 0.02363142856327774 0 0.0018343498337871087 0.023494960597524116 0 0.0017563516472682526 0.023693547719712781 0 0.0018343498337871087 0.023494960597524116 0 0.0016354559690803033 0.023654163630835591 0 0.0016599731479348039 0.019197455102548108 0 0.0010375256076599804 0.016219701889640253 0 0.0012335173615089085 0.021907464246077007 0 0.0015719256979000763 0.020467243006456581 0 0.00073627371986545443 0.017525412103662177 0 0.0020631146628592211 0.016354991791292958 0 0.0012835142994940725 0.014883138941981448 0 0.00094259656559028974 0.015771827816304436 0 0.0015719256979000763 0.020467243006456581 0 0.0024850961789309903 0.019465911258337951 0 0.00073627371986545443 0.017525412103662177 0 0.0019268398663233211 0.020302130543236579 0 0.0019186312230468094 0.020410075880626353 0 0.00035021650756574517 0.015102476602748478 0 0.00094259656559028974 0.015771827816304436 0 -8.3995945222912973e-05 0.016038462509888413 0 0.0012835142994940725 0.014883138941981448 0 0.00035021650756574517 0.015102476602748478 0 0.00023480369100259863 0.014310310932675435 0 0.0012835142994940725 0.014883138941981448 0 0.00035021650756574517 0.015102476602748478 0 0.00094259656559028974 0.015771827816304436 0 0.00094259656559028974 0.015771827816304436 0 0.00095755156473842752 0.016641961442613581 0 -8.3995945222912973e-05 0.016038462509888413 0 0.0020631146628592211 0.016354991791292958 0 0.00094259656559028974 0.015771827816304436 0 0.00095755156473842752 0.016641961442613581 0 -0.0014781343287499373 0.013060406409259097 0 -0.0014218099300132416 0.015882051240773489 0 0.0007145713855575078 0.01312232083054541 0 -0.0018193840655138819 0.010415042652356999 0 0.0007145713855575078 0.01312232083054541 0 0.00040530407371981123 0.0084248962470446186 0 0.00035021650756574517 0.015102476602748478 0 -8.3995945222912973e-05 0.016038462509888413 0 -0.00064078256434989668 0.014514557541804305 0 0.00026894746198839742 0.01456785379416177 0 -0.00014775153696260424 0.011470531093062019 0 0.00040530407371981123 0.0084248962470446186 0 -0.00020015186492453046 0.0054759134214780311 0 -0.0010668266760873563 0.0077970012813213139 0 -0.00064078256434989668 0.014514557541804305 0 -0.00024577221420532129 0.013472692104702744 0 0.00023480369100259863 0.014310310932675435 0 0.00035021650756574517 0.015102476602748478 0 -0.00064078256434989668 0.014514557541804305 0 0.00023480369100259863 0.014310310932675435 0 -0.00064078256434989668 0.014514557541804305 0 -0.00024577221420532129 0.013472692104702744 0 -0.001357784054010827 0.012734728173293887 0 -0.00024577221420532129 0.013472692104702744 0 -0.001357784054010827 0.012734728173293887 0 -6.402803402354691e-05 0.011922267152255859 0 -0.00014775153696260424 0.011470531093062019 0 -0.0007592379970301459 0.0090670793247835703 0 -0.00024577221420532129 0.013472692104702744 0 0.00061637937068113055 0.013527480826560799 0 -6.402803402354691e-05 0.011922267152255859 0 -0.00024577221420532129 0.013472692104702744 0 0.00061637937068113055 0.013527480826560799 0 0.00023480369100259863 0.014310310932675435 0 0.0012835142994940725 0.014883138941981448 0 0.00061637937068113055 0.013527480826560799 0 0.00023480369100259863 0.014310310932675435 0 0.0010375256076599804 0.016219701889640253 0 0.00062237257324348723 0.013766073371399916 0 0.00073627371986545443 0.017525412103662177 0 0.00061637937068113055 0.013527480826560799 0 0.0025762316939711991 0.014194066782933678 0 0.0024850961789309903 0.019465911258337951 0 0.00073627371986545443 0.017525412103662177 0 0.0025762316939711991 0.014194066782933678 0 0.0019186312230468094 0.020410075880626353 0 0.0022797965285566045 0.014120095256857782 0 0.0019418240697692719 0.0233787388330064 0 0.0018343498337871087 0.023494960597524116 0 0.0019428998485934992 0.023065265930348779 0 0.0019124971070983577 0.018506644543221564 0 0.0019305287410880123 0.014727051145238819 0 0.0043449740435068116 0.015568476922617744 0 0.0019428587734404228 0.024044208263088708 0 0.0026759384681634933 0.019900526245983052 0 0.003206395456686563 0.013586158790687254 0 0.0019305287410880123 0.014727051145238819 0 0.0043449740435068116 0.015568476922617744 0 0.003206395456686563 0.013586158790687254 0 0.0043449740435068116 0.015568476922617744 0 0.0044993448528276346 0.012980052432285658 0 0.003206395456686563 0.013586158790687254 0 0.0019305287410880123 0.014727051145238819 0 0.0021480317658153607 0.011184237520219879 0 0.00061637937068113055 0.013527480826560799 0 0.0025762316939711991 0.014194066782933678 0 0.0011669423327790745 0.012318052827476276 0 0.0025762316939711991 0.014194066782933678 0 0.0011669423327790745 0.012318052827476276 0 0.0021480317658153607 0.011184237520219879 0 0.0022797965285566045 0.014120095256857782 0 0.0021550266582999519 0.011505987239838728 0 0.0011669423327790745 0.012318052827476276 0 0.0021480317658153607 0.011184237520219879 0 0.00087859572478131268 0.011022726808769793 0 0.0031489507023275262 0.010457936813523252 0 0.0044993448528276346 0.012980052432285658 0 0.0046116161259814551 0.010682626588597076 0 0.003206395456686563 0.013586158790687254 0 0.0021480317658153607 0.011184237520219879 0 0.0044993448528276346 0.012980052432285658 0 0.0021480317658153607 0.011184237520219879 0 0.0031489507023275262 0.010457936813523252 0 0.0044993448528276346 0.012980052432285658 0 0.0031489507023275262 0.010457936813523252 0 0.0046116161259814551 0.010682626588597076 0 0.0037270041521695156 0.0093782173238074213 0 0.0021480317658153607 0.011184237520219879 0 0.0031489507023275262 0.010457936813523252 0 0.0015056552932496638 0.0098351424663528034 0 0.0031489507023275262 0.010457936813523252 0 0.0015056552932496638 0.0098351424663528034 0 0.0026403035305803246 0.0090418243898607413 0 0.0021480317658153607 0.011184237520219879 0 0.0015056552932496638 0.0098351424663528034 0 0.00087859572478131268 0.011022726808769793 0 0.00087859572478131268 0.011022726808769793 0 -0.00018348888636698129 0.0099963308464903217 0 -6.402803402354691e-05 0.011922267152255859 0 0.0015056552932496638 0.0098351424663528034 0 0.00087859572478131268 0.011022726808769793 0 -0.00018348888636698129 0.0099963308464903217 0 -0.00018348888636698129 0.0099963308464903217 0 -0.0013644357920658554 0.0090396832514445039 0 -0.0019159334927554886 0.010435237370882982 0 -0.00018348888636698129 0.0099963308464903217 0 -6.402803402354691e-05 0.011922267152255859 0 -0.0019159334927554886 0.010435237370882982 0 -0.001357784054010827 0.012734728173293887 0 -6.402803402354691e-05 0.011922267152255859 0 -0.0019159334927554886 0.010435237370882982 0 0.00061637937068113055 0.013527480826560799 0 0.0011669423327790745 0.012318052827476276 0 -6.402803402354691e-05 0.011922267152255859 0 0.0011669423327790745 0.012318052827476276 0 0.00087859572478131268 0.011022726808769793 0 -6.402803402354691e-05 0.011922267152255859 0 0.0028188094345596641 0.024416956319420518 0 0.0024200299744977023 0.024537419802119858 0 0.0025352362847579015 0.024379367434977647 0 0.0027613897515065423 0.024739095357403273 0 0.0024818733996601009 0.024696844945342782 0 0.0026949868701135293 0.024619759332839674 0 0.0026278366079221195 0.024785060287282685 0 0.002447998632928773 0.024773081521824804 0 0.0027613897515065423 0.024739095357403273 0 0.0025454631646020715 0.024416904976245303 0 0.0026949868701135293 0.024619759332839674 0 0.0026278366079221195 0.024785060287282685 0 0.0027611501676649691 0.024792473426874573 0 0.0026034656577688248 0.024973235515041194 0 0.0026278366079221195 0.024785060287282685 0 0.0027611501676649691 0.024792473426874573 0 0.0026034656577688248 0.024973235515041194 0 0.0026278366079221195 0.024785060287282685 0 0.002447998632928773 0.024773081521824804 0 0.002982512108011248 0.023615748625395602 0 0.0028538764400337065 0.022860962798604448 0 0.0026824070325227418 0.023157038081317322 0 0.002454501559827993 0.025098265116593466 0 0.002447998632928773 0.024773081521824804 0 0.0022746224739300719 0.024733872786568436 0 0.0027105182554592127 0.024256282001040796 0 0.0025438763162460806 0.024217499902194631 0 0.002454501559827993 0.025098265116593466 0 0.0026034656577688248 0.024973235515041194 0 0.002447998632928773 0.024773081521824804 0 0.002447998632928773 0.024773081521824804 0 0.0022746224739300719 0.024733872786568436 0 0.0024200299744977023 0.024537419802119858 0 0.0022746224739300719 0.024733872786568436 0 0.0024200299744977023 0.024537419802119858 0 0.0020614418415002252 0.023974153309104112 0 0.0028188094345596641 0.024416956319420518 0 0.002447998632928773 0.024773081521824804 0 0.0024200299744977023 0.024537419802119858 0 0.0025716120549333582 0.022601818993694883 0 0.0023051981100005933 0.022540943257901739 0 0.0026981134295288992 0.022064662835164946 0 0.0028538764400337065 0.022860962798604448 0 0.0025716120549333582 0.022601818993694883 0 0.0026981134295288992 0.022064662835164946 0 0.0025438763162460806 0.024217499902194631 0 0.0028855604327988815 0.020992812649538509 0 0.0025716120549333582 0.022601818993694883 0 0.0024322437287895744 0.022934388081118851 0 0.0023051981100005933 0.022540943257901739 0 0.0028538764400337065 0.022860962798604448 0 0.0025716120549333582 0.022601818993694883 0 0.0024322437287895744 0.022934388081118851 0 0.0028538764400337065 0.022860962798604448 0 0.0026824070325227418 0.023157038081317322 0 0.0024322437287895744 0.022934388081118851 0 0.0026824070325227418 0.023157038081317322 0 0.0024651705022158844 0.023239031547378504 0 0.0024322437287895744 0.022934388081118851 0 0.0025861203215624012 0.023479952093703103 0 0.0026824070325227418 0.023157038081317322 0 0.0024651705022158844 0.023239031547378504 0 0.0024322437287895744 0.022934388081118851 0 0.0021949425482394509 0.02326828730855162 0 0.0019499507154087906 0.023003265200471638 0 0.0024651705022158844 0.023239031547378504 0 0.0024322437287895744 0.022934388081118851 0 0.0021949425482394509 0.02326828730855162 0 0.0019418240697692719 0.0233787388330064 0 0.0021949425482394509 0.02326828730855162 0 0.0019499507154087906 0.023003265200471638 0 0.0026759384681634933 0.019900526245983052 0 0.0027250550769746052 0.020391538277559369 0 0.0026759384681634933 0.019900526245983052 0 0.0035632555311450129 0.014795127349988059 0 0.0024322437287895744 0.022934388081118851 0 0.0019499507154087906 0.023003265200471638 0 0.0023051981100005933 0.022540943257901739 0 0.0023145279304463392 0.019252226141182105 0 0.0031460443324514303 0.018255483238021099 0 0.0024449313511987645 0.017893861130840537 0 0.0024449313511987645 0.017893861130840537 0 0.0026152116299540873 0.017082130788121049 0 0.0025797677940412726 0.016518538144214175 0 0.0035632555311450129 0.014795127349988059 0 0.0034906510318987441 0.014493282995162912 0 0.0024449313511987645 0.017893861130840537 0 0.0031073512972903217 0.017456498356323822 0 0.0026152116299540873 0.017082130788121049 0 0.0031460443324514303 0.018255483238021099 0 0.0024449313511987645 0.017893861130840537 0 0.0031073512972903217 0.017456498356323822 0 0.0031073512972903217 0.017456498356323822 0 0.0026152116299540873 0.017082130788121049 0 0.003264434602740163 0.016808144059259452 0 0.0025797104694097388 0.016541457178572413 0 0.003264434602740163 0.016808144059259452 0 0.0036676069830405777 0.015807386360552657 0 0.0031198595947766611 0.016859705941597213 0 0.0034906510318987441 0.014493282995162912 0 0.0026152116299540873 0.017082130788121049 0 0.0025797104694097388 0.016541457178572413 0 0.003264434602740163 0.016808144059259452 0 0.003264434602740163 0.016808144059259452 0 0.0039805344814906191 0.017271938372747771 0 0.0036676069830405777 0.015807386360552657 0 0.0014911974418305915 0.021402357226316206 0 0.00094491638698760187 0.020319812014280698 0 0.0020932427469262452 0.020342398235558931 0 0.0021983271020739803 0.021232002957048555 0 0.0017864836203530905 0.019403737518385405 0 0.0028855604327988815 0.020992812649538509 0 0.0027130880723523934 0.016890882111539548 0 0.0023683780573270606 0.020369370384710268 0 0.0018710828339317349 0.018978063176662629 0 0.0017864836203530905 0.019403737518385405 0 0.00025667593118939425 0.022021142574086734 0 0.00036183640778452103 0.021786716642002314 0 1.6314723826266506e-05 0.021467801153762959 0 0.0023683780573270606 0.020369370384710268 0 0.0020932427469262452 0.020342398235558931 0 0.0017864836203530905 0.019403737518385405 0 0.0014911974418305915 0.021402357226316206 0 0.0017150460446478601 0.021300626790774459 0 0.0023690752353634778 0.020371383108266968 0 0.0020932427469262452 0.020342398235558931 0 0.0025337353461500917 0.020834703543442464 0 0.0014911974418305915 0.021402357226316206 0 0.0019735126034966938 0.022700047839212013 0 0.0019735126034966938 0.022700047839212013 0 0.0028855604327988815 0.020992812649538509 0 0.0020932427469262452 0.020342398235558931 0 0.0025337353461500917 0.020834703543442464 0 0.0021983271020739803 0.021232002957048555 0 0.0031073512972903217 0.017456498356323822 0 0.003264434602740163 0.016808144059259452 0 0.0039805344814906191 0.017271938372747771 0 0.0027250550769746052 0.020391538277559369 0 0.0028855604327988815 0.020992812649538509 0 0.0031460443324514303 0.018255483238021099 0 0.0031073512972903217 0.017456498356323822 0 0.0039805344814906191 0.017271938372747771 0 0.0024200299744977023 0.024537419802119858 0 0.0021889403014244239 0.023820523964223187 0 0.0020614418415002252 0.023974153309104112 0 0.002557232170936439 0.025024789165043637 0 0.0019735126034966938 0.022700047839212013 0 0.0024200299744977023 0.024537419802119858 0 0.0022959615328653669 0.024158231538346189 0 0.0024635461958384583 0.024234780284124083 0 0.0024200299744977023 0.024537419802119858 0 0.0025352362847579015 0.024379367434977647 0 0.0024635461958384583 0.024234780284124083 0 0.0022959615328653669 0.024158231538346189 0 0.0024635461958384583 0.024234780284124083 0 0.0023657905840861844 0.024086846844084783 0 0.0024635461958384583 0.024234780284124083 0 0.0023657905840861844 0.024086846844084783 0 0.0026685261645796646 0.024159133294314572 0 0.0013528781510163711 0.022355715342229795 0 0.0018918527171583243 0.022952630831739713 0 0.00048659254727265454 0.022013170013155118 0 0.00058999511165721153 0.021883914128261694 0 0.0011368598983209975 0.022003873741036115 0 0.0017822990966840579 0.022132961438266416 0 0.0017684285547032174 0.022093301242773707 0 0.0017356544229982151 0.022129936680696023 0 0.0019735126034966938 0.022700047839212013 0 0.0013528781510163711 0.022355715342229795 0 0.00025667593118939425 0.022021142574086734 0 0.0004632111183336603 0.022038119912088507 0 0.00036183640778452103 0.021786716642002314 0 0.0013528781510163711 0.022355715342229795 0 0.0010787412542662869 0.022303261337645718 0 0.0014911974418305915 0.021402357226316206 0 0.0013528781510163711 0.022355715342229795 0 0.00036183640778452103 0.021786716642002314 0 0.00058999511165721153 0.021883914128261694 0 0.00046672998479837754 0.021523398859619798 0 0.0004632111183336603 0.022038119912088507 0 0.00036183640778452103 0.021786716642002314 0 0.00058999511165721153 0.021883914128261694 0 0.00058999511165721153 0.021883914128261694 0 0.0011368598983209975 0.022003873741036115 0 0.00099398880510253988 0.021583172003967713 0 0.0026685261645796646 0.024159133294314572 0 0.0026203762039311131 0.024289038319127564 0 0.0027156871369604842 0.024268516141877694 0 0.0024635461958384583 0.024234780284124083 0 0.0026685261645796646 0.024159133294314572 0 0.0026203762039311131 0.024289038319127564 0 0.0026926416415373505 0.024390222609187176 0 0.0025352362847579015 0.024379367434977647 0 0.0026203762039311131 0.024289038319127564 0 0.0025352362847579015 0.024379367434977647 0 0.0024635461958384583 0.024234780284124083 0 0.0026203762039311131 0.024289038319127564 0 0.0026926416415373505 0.024390222609187176 0 0.0026203762039311131 0.024289038319127564 0 0.0027156871369604842 0.024268516141877694 0 0.0012638439213084043 0.021119594198923071 0 0.00099398880510253988 0.021583172003967713 0 0.0007558521993932879 0.021293362567335584 0 0.00058999511165721153 0.021883914128261694 0 0.00099398880510253988 0.021583172003967713 0 0.00046672998479837754 0.021523398859619798 0 0.00099398880510253988 0.021583172003967713 0 0.0007558521993932879 0.021293362567335584 0 0.00046672998479837754 0.021523398859619798 0 0.0007558521993932879 0.021293362567335584 0 0.00046672998479837754 0.021523398859619798 0 0.00031207943532872347 0.020827852197172016 0 0.0012638439213084043 0.021119594198923071 0 0.00031207943532872347 0.020827852197172016 0 0.00075492714698374545 0.020366624262571933 0 0.0012638439213084043 0.021119594198923071 0 0.0007558521993932879 0.021293362567335584 0 0.00031207943532872347 0.020827852197172016 0 0.00031207943532872347 0.020827852197172016 0 -0.00024811448143979592 0.020860222770925429 0 1.6314723826266506e-05 0.021467801153762959 0 0.00031207943532872347 0.020827852197172016 0 -0.00024811448143979592 0.020860222770925429 0 0.00010081146343042493 0.020333937592235719 0 0.00046672998479837754 0.021523398859619798 0 0.00031207943532872347 0.020827852197172016 0 1.6314723826266506e-05 0.021467801153762959 0 0.0017319305882300805 0.017964637952816245 0 0.00094491638698760187 0.020319812014280698 0 0.0013791157369862337 0.017602553424215493 0 0.0018710828339317349 0.018978063176662629 0 0.0017864836203530905 0.019403737518385405 0 0.0017319305882300805 0.017964637952816245 0 0.0027130880723523934 0.016890882111539548 0 0.00036183640778452103 0.021786716642002314 0 0.00046672998479837754 0.021523398859619798 0 1.6314723826266506e-05 0.021467801153762959 0 0.003350589768644953 0.014316827134211703 0 0.0036676069830405777 0.015807386360552657 0 0.0027409851612672613 0.014833032693013509 0 0.0046116161259814551 0.010682626588597076 0 0.0042673002522890758 0.0080143042363480712 0 0.0037270041521695156 0.0093782173238074213 0 0.0034906510318987441 0.014493282995162912 0 0.0041183175241778234 0.0092071532642619049 0 0.0040151827677816316 0.015006890047909439 0 0.0044159345050499331 0.011206221758562594 0 0.0037764010479790998 0.011100150551321344 0 0.0025797104694097388 0.016541457178572413 0 0.0036676069830405777 0.015807386360552657 0 0.0027409851612672613 0.014833032693013509 0 0.0034906510318987441 0.014493282995162912 0 0.0036461870432563629 0.013042930579923857 0 0.0042673002522890758 0.0080143042363480712 0 0.0039611121302107486 0.0054527572432600006 0 0.0036599804185766995 0.0070195027863700658 0 0.0041183175241778234 0.0092071532642619049 0 0.0037293174331826809 0.0062712801529587392 0 0.0036461870432563629 0.013042930579923857 0 0.0031179950178889574 0.01124674032625363 0 0.003350589768644953 0.014316827134211703 0 0.0027409851612672613 0.014833032693013509 0 0.0029014999625760871 0.013052076178827039 0 0.0044159345050499331 0.011206221758562594 0 0.0037764010479790998 0.011100150551321344 0 0.004859816380288845 0.0072084876523721029 0 0.0017319305882300805 0.017964637952816245 0 0.0018139740598879575 0.014121760355011333 0 0.002614755041155679 0.017169642052573465 0 0.0015059666004355442 0.014042801258454885 0 0.0016328203572244656 0.012777674858013646 0 0.0037764010479790998 0.011100150551321344 0 0.004859816380288845 0.0072084876523721029 0 0.0035274491096582731 0.0069760119833826408 0 0.0017319305882300805 0.017964637952816245 0 0.0031179950178889574 0.01124674032625363 0 0.0031179950178889574 0.01124674032625363 0 0.0018139740598879575 0.014121760355011333 0 0.0042342815130776579 0.0052433510431556972 0 0.0050044525836089645 0.0060445695144157258 0 0.0044057931203203872 0.0032877230631842285 0 0.0037293174331826809 0.0062712801529587392 0 0.0034764902849496824 0.0029657793997992913 0 0.0018139740598879575 0.014121760355011333 0 0.0026371105324319438 0.0062181848243082656 0 0.004859816380288845 0.0072084876523721029 0 0.0035274491096582731 0.0069760119833826408 0 0.0042342815130776579 0.0052433510431556972 0 0.0035274491096582731 0.0069760119833826408 0 0.0042342815130776579 0.0052433510431556972 0 0.0034456644685964461 0.002790809521061107 0 0.004859816380288845 0.0072084876523721029 0 0.0042342815130776579 0.0052433510431556972 0 0.0050044525836089645 0.0060445695144157258 0 -0.00051244590323402169 0.019850056870556593 0 0.00016851327647314572 0.01975154636038208 0 -0.0004083798440229023 0.018679755420476566 0 -0.00051244590323402169 0.019850056870556593 0 0.00016851327647314572 0.01975154636038208 0 0.00010081146343042493 0.020333937592235719 0 -0.00024811448143979592 0.020860222770925429 0 -0.00051244590323402169 0.019850056870556593 0 0.00010081146343042493 0.020333937592235719 0 0.00016851327647314572 0.01975154636038208 0 0.00010081146343042493 0.020333937592235719 0 0.00075492714698374545 0.020366624262571933 0 0.00031207943532872347 0.020827852197172016 0 0.00010081146343042493 0.020333937592235719 0 0.00075492714698374545 0.020366624262571933 0 0.00016851327647314572 0.01975154636038208 0 0.0012974594872780859 0.019698615568450047 0 0.00046802955558293341 0.019196060857684206 0 0.00016851327647314572 0.01975154636038208 0 0.00075492714698374545 0.020366624262571933 0 0.0012974594872780859 0.019698615568450047 0 0.0012371026175229971 0.019640487373852947 0 0.00038588230823459187 0.019686230858400003 0 0.00075492714698374545 0.020366624262571933 0 0.0012974594872780859 0.019698615568450047 0 0.0015481843870021584 0.020449557689243329 0 0.0012638439213084043 0.021119594198923071 0 0.00075492714698374545 0.020366624262571933 0 0.0015481843870021584 0.020449557689243329 0 0.00017241495823024083 0.0073154966100018402 0 -0.0015292557217892696 0.0073309928605067116 0 0.00029111569942712195 0.0056185847258590806 0 0.00017241495823024083 0.0073154966100018402 0 0.0012074514816874076 0.0077590639967090981 0 0.0016438785304370774 0.006625128559099594 0 0.00017241495823024083 0.0073154966100018402 0 -0.00083911886939215009 0.0080063121380285884 0 0.00041743576718925431 0.0086461635103116437 0 0.00017241495823024083 0.0073154966100018402 0 0.00041743576718925431 0.0086461635103116437 0 0.0012074514816874076 0.0077590639967090981 0 0.00017241495823024083 0.0073154966100018402 0 -0.0015292557217892696 0.0073309928605067116 0 -0.00083911886939215009 0.0080063121380285884 0 -0.0015150229453614668 0.0073264584326979756 0 -0.0015088340443774157 0.0081028426785880597 0 -0.0023254113761334489 0.0080469278909579469 0 -0.0015150229453614668 0.0073264584326979756 0 -0.0015088340443774157 0.0081028426785880597 0 -0.00083911886939215009 0.0080063121380285884 0 -0.000783984464389379 0.0050577377265792695 0 -0.00037185737009513863 0.0073228139396951403 0 -0.00083911886939215009 0.0080063121380285884 0 -0.0013644357920658554 0.0090396832514445039 0 -0.0004922600750606129 0.0089214277222976271 0 -0.0015088340443774157 0.0081028426785880597 0 -0.0013644357920658554 0.0090396832514445039 0 -0.0023254113761334489 0.0080469278909579469 0 -0.0015088340443774157 0.0081028426785880597 0 -0.00083911886939215009 0.0080063121380285884 0 -0.0013644357920658554 0.0090396832514445039 0 -0.00018348888636698129 0.0099963308464903217 0 -0.0013644357920658554 0.0090396832514445039 0 -0.0004922600750606129 0.0089214277222976271 0 0.0015056552932496638 0.0098351424663528034 0 -0.00018348888636698129 0.0099963308464903217 0 0.00041743576718925431 0.0086461635103116437 0 -0.00018348888636698129 0.0099963308464903217 0 -0.0004922600750606129 0.0089214277222976271 0 0.00041743576718925431 0.0086461635103116437 0 -0.00083911886939215009 0.0080063121380285884 0 -0.0004922600750606129 0.0089214277222976271 0 0.00041743576718925431 0.0086461635103116437 0 0.0015056552932496638 0.0098351424663528034 0 0.00041743576718925431 0.0086461635103116437 0 0.0016571167183317443 0.008561862597219156 0 0.0015056552932496638 0.0098351424663528034 0 0.0016571167183317443 0.008561862597219156 0 0.0026403035305803246 0.0090418243898607413 0 0.0023110370642619306 0.0083189723698565976 0 0.0016571167183317443 0.008561862597219156 0 0.0020656099001557025 0.0076186901117618047 0 0.0023110370642619306 0.0083189723698565976 0 0.0016571167183317443 0.008561862597219156 0 0.0026403035305803246 0.0090418243898607413 0 0.00041743576718925431 0.0086461635103116437 0 0.0016571167183317443 0.008561862597219156 0 0.0012074514816874076 0.0077590639967090981 0 0.0031489507023275262 0.010457936813523252 0 0.0037270041521695156 0.0093782173238074213 0 0.0026403035305803246 0.0090418243898607413 0 0.0037270041521695156 0.0093782173238074213 0 0.0026403035305803246 0.0090418243898607413 0 0.0034098672666628194 0.0084948252852509246 0 0.0023110370642619306 0.0083189723698565976 0 0.0026403035305803246 0.0090418243898607413 0 0.0029309233797090864 0.0081368894953251815 0 0.0026403035305803246 0.0090418243898607413 0 0.0034098672666628194 0.0084948252852509246 0 0.0029309233797090864 0.0081368894953251815 0 0.0042673002522890758 0.0080143042363480712 0 0.0037270041521695156 0.0093782173238074213 0 0.0034098672666628194 0.0084948252852509246 0 0.0034098672666628194 0.0084948252852509246 0 0.0034833689383584306 0.0079075176925113653 0 0.0029309233797090864 0.0081368894953251815 0 0.0042673002522890758 0.0080143042363480712 0 0.0034098672666628194 0.0084948252852509246 0 0.0034833689383584306 0.0079075176925113653 0 0.0042673002522890758 0.0080143042363480712 0 0.0034833689383584306 0.0079075176925113653 0 0.0036599804185766995 0.0070195027863700658 0 0.0028533052556101402 0.0074881146199230952 0 0.0029309233797090864 0.0081368894953251815 0 0.0020656099001557025 0.0076186901117618047 0 0.0034833689383584306 0.0079075176925113653 0 0.0028533052556101402 0.0074881146199230952 0 0.0032918605625552092 0.0072571105468545441 0 0.0034833689383584306 0.0079075176925113653 0 0.0028533052556101402 0.0074881146199230952 0 0.0029309233797090864 0.0081368894953251815 0 0.0028533052556101402 0.0074881146199230952 0 0.0026546336606122489 0.0068645323067930237 0 0.0020656099001557025 0.0076186901117618047 0 0.0026546336606122489 0.0068645323067930237 0 0.0032918605625552092 0.0072571105468545441 0 0.0032918643327068562 0.0064703334904256393 0 0.0028533052556101402 0.0074881146199230952 0 0.0026546336606122489 0.0068645323067930237 0 0.0032918605625552092 0.0072571105468545441 0 0.0034833689383584306 0.0079075176925113653 0 0.0036599804185766995 0.0070195027863700658 0 0.0032918605625552092 0.0072571105468545441 0 0.0036599804185766995 0.0070195027863700658 0 0.0032918605625552092 0.0072571105468545441 0 0.0032918643327068562 0.0064703334904256393 0 0.0016571167183317443 0.008561862597219156 0 0.0012074514816874076 0.0077590639967090981 0 0.0020656099001557025 0.0076186901117618047 0 0.0023110370642619306 0.0083189723698565976 0 0.0029309233797090864 0.0081368894953251815 0 0.0020656099001557025 0.0076186901117618047 0 0.0026546336606122489 0.0068645323067930237 0 0.0020656099001557025 0.0076186901117618047 0 0.0016438785304370774 0.006625128559099594 0 0.0012074514816874076 0.0077590639967090981 0 0.0020656099001557025 0.0076186901117618047 0 0.0016438785304370774 0.006625128559099594 0 0.0016438785304370774 0.006625128559099594 0 0.0024039017783735257 0.005227047729748701 0 0.00029111569942712195 0.0056185847258590806 0 0.0016438785304370774 0.006625128559099594 0 0.002646706095833784 0.0061579705433576449 0 0.0024039017783735257 0.005227047729748701 0 0.0026546336606122489 0.0068645323067930237 0 0.0016438785304370774 0.006625128559099594 0 0.002646706095833784 0.0061579705433576449 0 0.0039611121302107486 0.0054527572432600006 0 0.0036599804185766995 0.0070195027863700658 0 0.0032918643327068562 0.0064703334904256393 0 0.0032918643327068562 0.0064703334904256393 0 0.002646706095833784 0.0061579705433576449 0 0.0031320648969309153 0.0056413800848900044 0 0.0026546336606122489 0.0068645323067930237 0 0.0032918643327068562 0.0064703334904256393 0 0.002646706095833784 0.0061579705433576449 0 0.002646706095833784 0.0061579705433576449 0 0.0024039017783735257 0.005227047729748701 0 0.0031320648969309153 0.0056413800848900044 0 0.0024039017783735257 0.005227047729748701 0 0.0031320648969309153 0.0056413800848900044 0 0.0032518967611788498 0.005055774204374675 0 0.0039611121302107486 0.0054527572432600006 0 0.0031320648969309153 0.0056413800848900044 0 0.0032518967611788498 0.005055774204374675 0 0.0039611121302107486 0.0054527572432600006 0 0.0032918643327068562 0.0064703334904256393 0 0.0031320648969309153 0.0056413800848900044 0 0.0039611121302107486 0.0054527572432600006 0 0.0033166723945156503 0.0041540539260953102 0 0.0034456644685964461 0.002790809521061107 0 0.0039611121302107486 0.0054527572432600006 0 0.0032518967611788498 0.005055774204374675 0 0.0033166723945156503 0.0041540539260953102 0 0.0024039017783735257 0.005227047729748701 0 0.0032518967611788498 0.005055774204374675 0 0.0033166723945156503 0.0041540539260953102 0 0.0024039017783735257 0.005227047729748701 0 0.0033166723945156503 0.0041540539260953102 0 0.0020014317438661233 0.00389821728109172 0 0.0019908489743043706 0.0031484416190710545 0 0.00057975010734202901 0.004408555180723305 0 0.0024039017783735257 0.005227047729748701 0 0.0020014317438661233 0.00389821728109172 0 0.00029111569942712195 0.0056185847258590806 0 0.0018669190793294986 0.0025187682688170908 0 0.00088595247034681278 0.0030335332126762561 0 0.0008135059858366473 0.0022497764357258358 0 0.00088595247034681278 0.0030335332126762561 0 7.5905303842108062e-05 0.0022484119408379189 0 0.0008135059858366473 0.0022497764357258358 0 0.00017241495823024083 0.0073154966100018402 0 0.0016438785304370774 0.006625128559099594 0 0.00029111569942712195 0.0056185847258590806 0 -0.000783984464389379 0.0050577377265792695 0 0.00057975010734202901 0.004408555180723305 0 6.351719622496562e-05 0.0037252617281233131 0 0.00088595247034681278 0.0030335332126762561 0 4.7340915133499779e-05 0.0029728173823682347 0 0.00088595247034681278 0.0030335332126762561 0 4.7340915133499779e-05 0.0029728173823682347 0 7.5905303842108062e-05 0.0022484119408379189 0 7.5905303842108062e-05 0.0022484119408379189 0 -0.00052558000068773816 0.0023958595241509433 0 -0.00066914994945603621 0.0016971875808417687 0 4.7340915133499779e-05 0.0029728173823682347 0 7.5905303842108062e-05 0.0022484119408379189 0 -0.00052558000068773816 0.0023958595241509433 0 -0.00052558000068773816 0.0023958595241509433 0 -0.0014549137528410581 0.0020446400360344557 0 -0.00066914994945603621 0.0016971875808417687 0 -0.00052558000068773816 0.0023958595241509433 0 -0.00068724794194867476 0.002977135532197619 0 -0.0014549137528410581 0.0020446400360344557 0 -0.00074425150741957904 0.002151217643203729 0 -0.0014705073942782869 0.0015991366254510932 0 -0.001490532438953778 0.001925749673187032 0 -0.0008514726554987186 0.0018354767530460109 0 -0.0015292115730186687 0.0010738291912794919 0 -0.001490532438953778 0.001925749673187032 0 -0.0008514726554987186 0.0018354767530460109 0 -0.001024241652015223 0.0023091522628464938 0 -0.001490532438953778 0.001925749673187032 0 -0.001024241652015223 0.0023091522628464938 0 -0.0014424751930272872 0.0025185822353109796 0 6.351719622496562e-05 0.0037252617281233131 0 4.7340915133499779e-05 0.0029728173823682347 0 -0.00068724794194867476 0.002977135532197619 0 -0.000783984464389379 0.0050577377265792695 0 -0.00074425150741957904 0.002151217643203729 0 4.7340915133499779e-05 0.0029728173823682347 0 -0.00052558000068773816 0.0023958595241509433 0 -0.00068724794194867476 0.002977135532197619 0 -0.0008514726554987186 0.0018354767530460109 0 -0.00051726876741409623 0.0024858033951251431 0 -0.001024241652015223 0.0023091522628464938 0 -5.6589587047728262e-05 0.00263100359706931 0 -0.0008514726554987186 0.0018354767530460109 0 -0.00051726876741409623 0.0024858033951251431 0 -0.000783984464389379 0.0050577377265792695 0 -0.0010144876052575491 0.0046493032858848302 0 -0.00080502629380891136 0.002444535612823619 0 -0.0010144876052575491 0.0046493032858848302 0 -5.6589587047728262e-05 0.00263100359706931 0 -0.00051726876741409623 0.0024858033951251431 0 -0.00045335852830023625 0.0029998194756187366 0 -0.00051726876741409623 0.0024858033951251431 0 -0.00044480115468528014 0.0029863124155898469 0 -0.0010603195073689154 0.002846222462175382 0 -0.00051726876741409623 0.0024858033951251431 0 -0.001024241652015223 0.0023091522628464938 0 -0.0010603195073689154 0.002846222462175382 0 -0.001024241652015223 0.0023091522628464938 0 -0.0014424751930272872 0.0025185822353109796 0 -0.0010603195073689154 0.002846222462175382 0 -0.0014424751930272872 0.0025185822353109796 0 -0.0010603195073689154 0.002846222462175382 0 -0.0017236887271449143 0.003216386308379021 0 -0.0010603195073689154 0.002846222462175382 0 -0.0012259153386926032 0.0036178463354556122 0 -0.0017236887271449143 0.003216386308379021 0 -0.0012259153386926032 0.0036178463354556122 0 -0.0017236887271449143 0.003216386308379021 0 -0.002107430630336304 0.0041734607538724397 0 -0.0006188986869199647 0.0030978730999597259 0 -0.0012259153386926032 0.0036178463354556122 0 -0.00046049935131072298 0.0041743338873600688 0 -0.0013644357920658554 0.0090396832514445039 0 -0.0023254113761334489 0.0080469278909579469 0 -0.0019159334927554886 0.010435237370882982 0 -0.0010144876052575491 0.0046493032858848302 0 -0.0012161786934513088 0.0074894612152220409 0 -0.00044480115468528014 0.0029863124155898469 0 -0.0010603195073689154 0.002846222462175382 0 -0.0012259153386926032 0.0036178463354556122 0 -0.0010144876052575491 0.0046493032858848302 0 -0.00081085621411423371 0.0031709068784353108 0 -0.0026116928487760417 0.0033112004781905534 0 -0.0023186868012476181 0.0029621614927111809 0 -0.0028204812698426601 0.0029353924495926775 0 -0.0026116928487760417 0.0033112004781905534 0 -0.0022677308451380189 0.0035115582704398785 0 -0.0023186868012476181 0.0029621614927111809 0 -0.0026116928487760417 0.0033112004781905534 0 -0.0028204812698426601 0.0029353924495926775 0 -0.0029713327665647294 0.0033682515762503825 0 -0.0026116928487760417 0.0033112004781905534 0 -0.0029713327665647294 0.0033682515762503825 0 -0.0026713947663485542 0.0037831811230101789 0 -0.0029713327665647294 0.0033682515762503825 0 -0.0030989084918523896 0.0037667914878387909 0 -0.0026713947663485542 0.0037831811230101789 0 -0.0026116928487760417 0.0033112004781905534 0 -0.0022677308451380189 0.0035115582704398785 0 -0.0026713947663485542 0.0037831811230101789 0 -0.0022677308451380189 0.0035115582704398785 0 -0.0017236887271449143 0.003216386308379021 0 -0.002107430630336304 0.0041734607538724397 0 -0.0022677308451380189 0.0035115582704398785 0 -0.0017236887271449143 0.003216386308379021 0 -0.0023186868012476181 0.0029621614927111809 0 -0.0017236887271449143 0.003216386308379021 0 -0.0019761897536247006 0.0024113706122353643 0 -0.0023186868012476181 0.0029621614927111809 0 -0.0014424751930272872 0.0025185822353109796 0 -0.0017236887271449143 0.003216386308379021 0 -0.0019761897536247006 0.0024113706122353643 0 -0.001490532438953778 0.001925749673187032 0 -0.0014424751930272872 0.0025185822353109796 0 -0.0019761897536247006 0.0024113706122353643 0 -0.0019761897536247006 0.0024113706122353643 0 -0.0023186868012476181 0.0029621614927111809 0 -0.002587552251334212 0.002339535471113964 0 -0.0028204812698426601 0.0029353924495926775 0 -0.002587552251334212 0.002339535471113964 0 -0.003111089494101358 0.0026235071063594939 0 -0.0023186868012476181 0.0029621614927111809 0 -0.0028204812698426601 0.0029353924495926775 0 -0.002587552251334212 0.002339535471113964 0 -0.0019761897536247006 0.0024113706122353643 0 -0.002587552251334212 0.002339535471113964 0 -0.0020754466560651006 0.0017157037074820884 0 -0.002587552251334212 0.002339535471113964 0 -0.002692430388969695 0.0016247739422124775 0 -0.0020754466560651006 0.0017157037074820884 0 -0.001490532438953778 0.001925749673187032 0 -0.0020754466560651006 0.0017157037074820884 0 -0.0015292115730186687 0.0010738291912794919 0 -0.001490532438953778 0.001925749673187032 0 -0.0019761897536247006 0.0024113706122353643 0 -0.0020754466560651006 0.0017157037074820884 0 -0.0020754466560651006 0.0017157037074820884 0 -0.0015292115730186687 0.0010738291912794919 0 -0.002215373461309178 0.0010605973875783305 0 -0.002692430388969695 0.0016247739422124775 0 -0.0020754466560651006 0.0017157037074820884 0 -0.002215373461309178 0.0010605973875783305 0 -0.002215373461309178 0.0010605973875783305 0 -0.0028160224929264671 0.00093019365385472433 0 -0.0024426025547024145 0.00064853428357337331 0 -0.002692430388969695 0.0016247739422124775 0 -0.002215373461309178 0.0010605973875783305 0 -0.0028160224929264671 0.00093019365385472433 0 -0.002692430388969695 0.0016247739422124775 0 -0.0028160224929264671 0.00093019365385472433 0 -0.0033893579229188494 0.0016209813101677041 0 -0.0028160224929264671 0.00093019365385472433 0 -0.0033423918600351764 0.0010073825955521859 0 -0.0033893579229188494 0.0016209813101677041 0 -0.0033423918600351764 0.0010073825955521859 0 -0.0033893579229188494 0.0016209813101677041 0 -0.0041385569224123937 0.0016015972729316371 0 -0.0033423918600351764 0.0010073825955521859 0 -0.0041385569224123937 0.0016015972729316371 0 -0.0037550186030549933 0.00056664807314967609 0 -0.0033893579229188494 0.0016209813101677041 0 -0.003821009195054082 0.002001231596788792 0 -0.0041385569224123937 0.0016015972729316371 0 -0.003821009195054082 0.002001231596788792 0 -0.0034774896279492558 0.0020745081223190378 0 -0.0036830207879422834 0.0023112562951631607 0 -0.0033893579229188494 0.0016209813101677041 0 -0.003821009195054082 0.002001231596788792 0 -0.0034774896279492558 0.0020745081223190378 0 -0.0033893579229188494 0.0016209813101677041 0 -0.0034774896279492558 0.0020745081223190378 0 -0.0031142847351918464 0.0021175376612686063 0 -0.002692430388969695 0.0016247739422124775 0 -0.0033893579229188494 0.0016209813101677041 0 -0.0031142847351918464 0.0021175376612686063 0 -0.0034774896279492558 0.0020745081223190378 0 -0.0031142847351918464 0.0021175376612686063 0 -0.0034225762425609848 0.0024272541728129551 0 -0.002587552251334212 0.002339535471113964 0 -0.002692430388969695 0.0016247739422124775 0 -0.0031142847351918464 0.0021175376612686063 0 -0.0023128204608672694 -0.0023080524208786085 0 -0.00197000395185254 -0.0026628457243666743 0 -0.0014400532081567656 -0.002632343024503811 0 -0.002123254770137081 -0.0019578282726920885 0 -0.0023128204608672694 -0.0023080524208786085 0 -0.001943836056526049 -0.0020773798597481376 0 -0.002123254770137081 -0.0019578282726920885 0 -0.0023128204608672694 -0.0023080524208786085 0 -0.0023800973442680037 -0.0018271995659457148 0 -0.0023128204608672694 -0.0023080524208786085 0 -0.0027932171964201976 -0.0025028131490519539 0 -0.0023800973442680037 -0.0018271995659457148 0 -0.0035450994660844461 -0.00028375216117806587 0 -0.0032965454022227838 -0.00061888813266177886 0 -0.0027932171964201976 -0.0025028131490519539 0 -0.0023800973442680037 -0.0018271995659457148 0 -0.0029245501041162566 -0.001769338125529098 0 -0.0027932171964201976 -0.0025028131490519539 0 -0.0024804070940732778 -0.0028097363519899291 0 -0.002619666977003512 -0.0032658458636973513 0 -0.0035450994660844461 -0.00028375216117806587 0 -0.0027525587276499373 -0.0010854958171596389 0 -0.003821009195054082 0.002001231596788792 0 -0.0041385569224123937 0.0016015972729316371 0 -0.0043958815907862818 0.0025424680023428833 0 -0.0024804070940732778 -0.0028097363519899291 0 -0.0021272866653801801 -0.0028401946128012536 0 -0.002619666977003512 -0.0032658458636973513 0 -0.0023128204608672694 -0.0023080524208786085 0 -0.0027932171964201976 -0.0025028131490519539 0 -0.0023335105377079442 -0.002618456592271134 0 -0.0027932171964201976 -0.0025028131490519539 0 -0.0024804070940732778 -0.0028097363519899291 0 -0.0023335105377079442 -0.002618456592271134 0 -0.0023335105377079442 -0.002618456592271134 0 -0.0021272866653801801 -0.0028401946128012536 0 -0.00197000395185254 -0.0026628457243666743 0 -0.0023128204608672694 -0.0023080524208786085 0 -0.0023335105377079442 -0.002618456592271134 0 -0.00197000395185254 -0.0026628457243666743 0 -0.0024804070940732778 -0.0028097363519899291 0 -0.0023335105377079442 -0.002618456592271134 0 -0.0021272866653801801 -0.0028401946128012536 0 -0.0021272866653801801 -0.0028401946128012536 0 -0.0019279272562471243 -0.0028347507729118296 0 -0.0019039439382012814 -0.0030226492399473464 0 -0.0019279272562471243 -0.0028347507729118296 0 -0.00197000395185254 -0.0026628457243666743 0 -0.0017200502062858995 -0.0028017751272492739 0 -0.0021272866653801801 -0.0028401946128012536 0 -0.0019279272562471243 -0.0028347507729118296 0 -0.00197000395185254 -0.0026628457243666743 0 -0.0013499909658288285 -0.0031908643606669783 0 -0.0013626782929368083 -0.0032698344253109428 0 -0.0013076912913636621 -0.0032980720529656171 0 -0.0019039439382012814 -0.0030226492399473464 0 -0.0024684758169480217 -0.0032850620524234684 0 -0.0024925966500928135 -0.003188435034201889 0 -0.0021272866653801801 -0.0028401946128012536 0 -0.0019039439382012814 -0.0030226492399473464 0 -0.0024925966500928135 -0.003188435034201889 0 -0.0016391759187444773 -0.0031828548080897203 0 -0.0019735420002031444 -0.0025357965996463368 0 -0.0019735420002031444 -0.0025357965996463368 0 -0.0027525587276499373 -0.0010854958171596389 0 -0.0024324722035978389 -0.0033073512301350248 0 -0.0027525587276499373 -0.0010854958171596389 0 -0.003821009195054082 0.002001231596788792 0 -0.0043958815907862818 0.0025424680023428833 0 -0.0039237512540233107 0.0024657401416971173 0 -0.0043958815907862818 0.0025424680023428833 0 -0.0039237512540233107 0.0024657401416971173 0 -0.0040160209399058323 0.0029279777928646251 0 -0.0032579729505880489 -0.00095203952214476136 0 -0.0031729041638667035 -0.0013095234479736837 0 -0.0022764241442899064 -0.00042301211649660794 0 -0.0019735420002031444 -0.0025357965996463368 0 -0.0029508850728182474 0.0004719782535325178 0 -0.0027525587276499373 -0.0010854958171596389 0 -0.0029508850728182474 0.0004719782535325178 0 -0.0019735420002031444 -0.0025357965996463368 0 -0.001086952612065476 -0.0037227270743383023 0 -0.0012112819669836291 -0.0034653713838555087 0 -0.0011800897003802866 -0.003402273536024378 0 -0.0012560801837601333 -0.0033662172622024649 0 -0.0012112819669836291 -0.0034653713838555087 0 -0.0011800897003802866 -0.003402273536024378 0 -0.0011620414671920235 -0.0034393792905127872 0 -0.0013626782929368083 -0.0032698344253109428 0 -0.0013076912913636621 -0.0032980720529656171 0 -0.0012560801837601333 -0.0033662172622024649 0 -0.0013076912913636621 -0.0032980720529656171 0 -0.0012674018924802592 -0.0033602498387326767 0 -0.0012560801837601333 -0.0033662172622024649 0 -0.003111089494101358 0.0026235071063594939 0 -0.0034225762425609848 0.0024272541728129551 0 -0.0034883728836650404 0.0028537932100617188 0 -0.003111089494101358 0.0026235071063594939 0 -0.0034883728836650404 0.0028537932100617188 0 -0.0031593739027194652 0.0030432918232289967 0 -0.0028204812698426601 0.0029353924495926775 0 -0.003111089494101358 0.0026235071063594939 0 -0.0031593739027194652 0.0030432918232289967 0 -0.002587552251334212 0.002339535471113964 0 -0.0031142847351918464 0.0021175376612686063 0 -0.003111089494101358 0.0026235071063594939 0 -0.0031142847351918464 0.0021175376612686063 0 -0.003111089494101358 0.0026235071063594939 0 -0.0034225762425609848 0.0024272541728129551 0 -0.0034774896279492558 0.0020745081223190378 0 -0.0034225762425609848 0.0024272541728129551 0 -0.0036830207879422834 0.0023112562951631607 0 -0.0034225762425609848 0.0024272541728129551 0 -0.0036830207879422834 0.0023112562951631607 0 -0.0037218623921019345 0.002629111089010411 0 -0.003821009195054082 0.002001231596788792 0 -0.0036830207879422834 0.0023112562951631607 0 -0.0039237512540233107 0.0024657401416971173 0 -0.0036830207879422834 0.0023112562951631607 0 -0.0039237512540233107 0.0024657401416971173 0 -0.0037218623921019345 0.002629111089010411 0 -0.0039237512540233107 0.0024657401416971173 0 -0.0037218623921019345 0.002629111089010411 0 -0.0040160209399058323 0.0029279777928646251 0 -0.0034883728836650404 0.0028537932100617188 0 -0.0037218623921019345 0.002629111089010411 0 -0.0040160209399058323 0.0029279777928646251 0 -0.0034225762425609848 0.0024272541728129551 0 -0.0034883728836650404 0.0028537932100617188 0 -0.0037218623921019345 0.002629111089010411 0 -0.0029508850728182474 0.0004719782535325178 0 -0.0022637082870128598 0.00010834237472501237 0 -0.0042769167609670242 0.0028601572084581773 0 -0.0033678554755556785 0.0034239999960879969 0 -0.0034961241656443873 0.0037178469871609809 0 -0.0034883728836650404 0.0028537932100617188 0 -0.0040160209399058323 0.0029279777928646251 0 -0.0033678554755556785 0.0034239999960879969 0 -0.0029508850728182474 0.0004719782535325178 0 -0.0035639657824118871 0.0037238948978908972 0 -0.0011620414671920235 -0.0034393792905127872 0 -0.0011259046866833034 -0.0033864078120218258 0 -0.0010481622236099765 -0.0033629340142837237 0 -0.0011800897003802866 -0.003402273536024378 0 -0.0011620414671920235 -0.0034393792905127872 0 -0.0011259046866833034 -0.0033864078120218258 0 -0.0034883728836650404 0.0028537932100617188 0 -0.0033678554755556785 0.0034239999960879969 0 -0.0031593739027194652 0.0030432918232289967 0 -0.0028204812698426601 0.0029353924495926775 0 -0.0031593739027194652 0.0030432918232289967 0 -0.0029713327665647294 0.0033682515762503825 0 -0.0033678554755556785 0.0034239999960879969 0 -0.0029713327665647294 0.0033682515762503825 0 -0.0030989084918523896 0.0037667914878387909 0 -0.0033678554755556785 0.0034239999960879969 0 -0.0031593739027194652 0.0030432918232289967 0 -0.0029713327665647294 0.0033682515762503825 0 -0.0030989084918523896 0.0037667914878387909 0 -0.0034961241656443873 0.0037178469871609809 0 -0.0029498414476153232 0.0045547732041812811 0 -0.0022637082870128598 0.00010834237472501237 0 -0.0020294395902386952 0.00057663955324706024 0 -0.0010481622236099765 -0.0033629340142837237 0 -0.0010356856794536101 -0.0032927858243791915 0 -0.00093475067563402391 -0.0032557016627043378 0 -0.0033678554755556785 0.0034239999960879969 0 -0.0030989084918523896 0.0037667914878387909 0 -0.0034961241656443873 0.0037178469871609809 0 -0.0010481622236099765 -0.0033629340142837237 0 -0.0011001548500320375 -0.0033576621765511881 0 -0.0010826366790676271 -0.0033324912057749075 0 -0.0011259046866833034 -0.0033864078120218258 0 -0.0010481622236099765 -0.0033629340142837237 0 -0.0011001548500320375 -0.0033576621765511881 0 -0.0011001548500320375 -0.0033576621765511881 0 -0.0011432869516205444 -0.0033488735749711358 0 -0.0010826366790676271 -0.0033324912057749075 0 -0.0011800897003802866 -0.003402273536024378 0 -0.0011259046866833034 -0.0033864078120218258 0 -0.0011432869516205444 -0.0033488735749711358 0 -0.0011259046866833034 -0.0033864078120218258 0 -0.0011001548500320375 -0.0033576621765511881 0 -0.0011432869516205444 -0.0033488735749711358 0 -0.0011432869516205444 -0.0033488735749711358 0 -0.0010826366790676271 -0.0033324912057749075 0 -0.0010940252836531866 -0.0033024067879421151 0 -0.0010481622236099765 -0.0033629340142837237 0 -0.0010826366790676271 -0.0033324912057749075 0 -0.0010356856794536101 -0.0032927858243791915 0 -0.0010826366790676271 -0.0033324912057749075 0 -0.0010940252836531866 -0.0033024067879421151 0 -0.0010356856794536101 -0.0032927858243791915 0 -0.0010940252836531866 -0.0033024067879421151 0 -0.0010356856794536101 -0.0032927858243791915 0 -0.0010200056282861855 -0.0032199639198962605 0 -0.0011432869516205444 -0.0033488735749711358 0 -0.0010940252836531866 -0.0033024067879421151 0 -0.0011670152765380119 -0.003327604802959089 0 -0.0010940252836531866 -0.0033024067879421151 0 -0.0011065356694243272 -0.0032791665313200631 0 -0.0011670152765380119 -0.003327604802959089 0 -0.0010940252836531866 -0.0033024067879421151 0 -0.0011065356694243272 -0.0032791665313200631 0 -0.0010200056282861855 -0.0032199639198962605 0 -0.0010200056282861855 -0.0032199639198962605 0 -0.00093576125851013356 -0.0031827241305120986 0 -0.00093475067563402391 -0.0032557016627043378 0 -0.0010356856794536101 -0.0032927858243791915 0 -0.0010200056282861855 -0.0032199639198962605 0 -0.00093475067563402391 -0.0032557016627043378 0 -0.0012431158039711821 -0.0033844778074784217 0 -0.0012560801837601333 -0.0033662172622024649 0 -0.0012115025992350914 -0.0033569101131387716 0 -0.0012431158039711821 -0.0033844778074784217 0 -0.0012674018924802592 -0.0033602498387326767 0 -0.0012560801837601333 -0.0033662172622024649 0 -0.0011800897003802866 -0.003402273536024378 0 -0.0011432869516205444 -0.0033488735749711358 0 -0.0012560801837601333 -0.0033662172622024649 0 -0.0011432869516205444 -0.0033488735749711358 0 -0.0012560801837601333 -0.0033662172622024649 0 -0.0011670152765380119 -0.003327604802959089 0 -0.0012560801837601333 -0.0033662172622024649 0 -0.0011670152765380119 -0.003327604802959089 0 -0.0012115025992350914 -0.0033569101131387716 0 -0.0011065356694243272 -0.0032791665313200631 0 -0.0011670152765380119 -0.003327604802959089 0 -0.0011636598272038363 -0.0033079926915319147 0 -0.0011670152765380119 -0.003327604802959089 0 -0.0012115025992350914 -0.0033569101131387716 0 -0.0011636598272038363 -0.0033079926915319147 0 -0.0012115025992350914 -0.0033569101131387716 0 -0.0012010864040528661 -0.0033584396916684347 0 -0.0012167823881991677 -0.0034301393160002629 0 -0.0012431158039711821 -0.0033844778074784217 0 -0.0012115025992350914 -0.0033569101131387716 0 -0.0012167823881991677 -0.0034301393160002629 0 -0.0012115025992350914 -0.0033569101131387716 0 -0.0012010864040528661 -0.0033584396916684347 0 -0.0011636598272038363 -0.0033079926915319147 0 -0.0012010864040528661 -0.0033584396916684347 0 -0.0011596755597314678 -0.0032811455077731552 0 -0.0011636598272038363 -0.0033079926915319147 0 -0.0011065356694243272 -0.0032791665313200631 0 -0.0011636598272038363 -0.0033079926915319147 0 -0.0011069834090702405 -0.0032546675520397396 0 -0.0011596755597314678 -0.0032811455077731552 0 -0.0011636598272038363 -0.0033079926915319147 0 -0.0011069834090702405 -0.0032546675520397396 0 -0.0011596755597314678 -0.0032811455077731552 0 -0.0011069834090702405 -0.0032546675520397396 0 -0.0011077353524153234 -0.0032025283281553654 0 -0.0011077353524153234 -0.0032025283281553654 0 -0.0012052975855216721 -0.003305369350292818 0 -0.0010327001061917283 -0.0030634860534391709 0 -0.0011596755597314678 -0.0032811455077731552 0 -0.0011077353524153234 -0.0032025283281553654 0 -0.0012052975855216721 -0.003305369350292818 0 -0.0013624910744962613 -0.0031455939128035098 0 -0.0010264540791287851 -0.0030820893400873525 0 -0.0012010864040528661 -0.0033584396916684347 0 -0.0012052975855216721 -0.003305369350292818 0 -0.0012021320138345226 -0.0034098855770452454 0 -0.0012010864040528661 -0.0033584396916684347 0 -0.0011596755597314678 -0.0032811455077731552 0 -0.0012052975855216721 -0.003305369350292818 0 -0.0010200056282861855 -0.0032199639198962605 0 -0.0010546505545549747 -0.0031928414361602825 0 -0.00093948819883761037 -0.0031139632434340259 0 -0.0010200056282861855 -0.0032199639198962605 0 -0.00093948819883761037 -0.0031139632434340259 0 -0.00093576125851013356 -0.0031827241305120986 0 -0.0011069834090702405 -0.0032546675520397396 0 -0.0010200056282861855 -0.0032199639198962605 0 -0.0010546505545549747 -0.0031928414361602825 0 -0.0011065356694243272 -0.0032791665313200631 0 -0.0011069834090702405 -0.0032546675520397396 0 -0.0010200056282861855 -0.0032199639198962605 0 -0.0011069834090702405 -0.0032546675520397396 0 -0.0011077353524153234 -0.0032025283281553654 0 -0.0010546505545549747 -0.0031928414361602825 0 -0.0009917835649248597 -0.0029609349403748719 0 -0.0010327001061917283 -0.0030634860534391709 0 -0.00093948819883761037 -0.0031139632434340259 0 -0.0010546505545549747 -0.0031928414361602825 0 -0.0010327001061917283 -0.0030634860534391709 0 -0.00093948819883761037 -0.0031139632434340259 0 -0.0011077353524153234 -0.0032025283281553654 0 -0.0010546505545549747 -0.0031928414361602825 0 -0.0010327001061917283 -0.0030634860534391709 0 -0.00073365265817476079 5.381485446556823e-05 0 -0.0012156306519975359 7.1978738230486528e-05 0 -0.0014816562251386937 0.003927709257043905 0 -0.0017923768496183859 0.0039012346561735686 0 -0.0015263666713993195 0.0036555396143890121 0 -0.0014816562251386937 0.003927709257043905 0 -0.0015263666713993195 0.0036555396143890121 0 -0.0012664800297967364 0.0038311120429248328 0 -0.0015263666713993195 0.0036555396143890121 0 -0.0012664800297967364 0.0038311120429248328 0 -0.00080370965355039371 0.0036324599002706907 0 -0.0012156306519975359 7.1978738230486528e-05 0 -0.0011488065727562914 0.0016540995416321732 0 -0.00093948819883761037 -0.0031139632434340259 0 -0.00093576125851013356 -0.0031827241305120986 0 -0.00085911339865830212 -0.0031435151296248503 0 -0.0015263666713993195 0.0036555396143890121 0 -0.00064452526480382737 0.0029346923974842452 0 -0.00080370965355039371 0.0036324599002706907 0 -0.0019868200062927517 0.0055121509633990901 0 -0.0023060769067569349 0.0054096739663620731 0 -0.0018970874750190686 0.0063876488896099049 0 -0.0023060769067569349 0.0054096739663620731 0 -0.0024586923187143324 0.0055082337429670442 0 -0.0018970874750190686 0.0063876488896099049 0 -0.00064452526480382737 0.0029346923974842452 0 -0.00080370965355039371 0.0036324599002706907 0 0.00011551282815224803 0.0035717554387256875 0 -0.0019868200062927517 0.0055121509633990901 0 -0.0023060769067569349 0.0054096739663620731 0 -0.002128349928442116 0.0052078743828672079 0 -0.0019653625918266316 0.00254911847895472 0 -0.0011488065727562914 0.0016540995416321732 0 -0.0011488065727562914 0.0016540995416321732 0 -0.00071587135743853122 0.0051320338404199075 0 -0.00080370965355039371 0.0036324599002706907 0 -0.00039889411195405573 0.0042768353077165481 0 0.00011551282815224803 0.0035717554387256875 0 -0.0012664800297967364 0.0038311120429248328 0 -0.00080370965355039371 0.0036324599002706907 0 -0.00039889411195405573 0.0042768353077165481 0 -0.00039889411195405573 0.0042768353077165481 0 0.00021620180247732684 0.0043014591010124108 0 0.00011551282815224803 0.0035717554387256875 0 -0.0015681562890953302 0.0067647183186934252 0 -0.0018970874750190686 0.0063876488896099049 0 -0.0015396890602574639 0.0064096608982352286 0 -0.0015826201433148048 0.0073293802917321262 0 -0.00071587135743853122 0.0051320338404199075 0 0.00098656366617240693 0.0043630665176753094 0 0.00021620180247732684 0.0043014591010124108 0 0.00011551282815224803 0.0035717554387256875 0 -0.0015826201433148048 0.0073293802917321262 0 -0.0017146288355609164 0.0068858493073233685 0 -0.0025304369032792115 0.0092584699211866687 0 -0.0010668266760873563 0.0077970012813213139 0 -0.0015396890602574639 0.0064096608982352286 0 -0.0018193840655138819 0.010415042652356999 0 0.00040530407371981123 0.0084248962470446186 0 -0.0010668266760873563 0.0077970012813213139 0 -0.0018193840655138819 0.010415042652356999 0 -0.0025304369032792115 0.0092584699211866687 0 -0.0010668266760873563 0.0077970012813213139 0 -0.00020015186492453046 0.0054759134214780311 0 -0.0010668266760873563 0.0077970012813213139 0 -0.0015396890602574639 0.0064096608982352286 0 -0.00020015186492453046 0.0054759134214780311 0 -0.0015396890602574639 0.0064096608982352286 0 -0.0012094088723139471 0.0056085638081781655 0 -0.0018970874750190686 0.0063876488896099049 0 -0.0015396890602574639 0.0064096608982352286 0 -0.0016685957680646279 0.0056440282122180909 0 -0.0015396890602574639 0.0064096608982352286 0 -0.0012094088723139471 0.0056085638081781655 0 -0.0016685957680646279 0.0056440282122180909 0 -0.0019868200062927517 0.0055121509633990901 0 -0.0018970874750190686 0.0063876488896099049 0 -0.0016685957680646279 0.0056440282122180909 0 -0.0019868200062927517 0.0055121509633990901 0 -0.0016685957680646279 0.0056440282122180909 0 -0.0018988031358336142 0.0049596581365170317 0 -0.0012094088723139471 0.0056085638081781655 0 -0.0016685957680646279 0.0056440282122180909 0 -0.0012556332472527436 0.004931606677321872 0 -0.0016685957680646279 0.0056440282122180909 0 -0.0018988031358336142 0.0049596581365170317 0 -0.0012556332472527436 0.004931606677321872 0 -0.0018988031358336142 0.0049596581365170317 0 -0.0012556332472527436 0.004931606677321872 0 -0.001582010898981977 0.0044245213092078571 0 -0.0007592379970301459 0.0090670793247835703 0 -0.0012161786934513088 0.0074894612152220409 0 -0.00020015186492453046 0.0054759134214780311 0 -0.0012094088723139471 0.0056085638081781655 0 -0.0012556332472527436 0.004931606677321872 0 -0.00020015186492453046 0.0054759134214780311 0 -0.0012556332472527436 0.004931606677321872 0 -0.00046049935131072298 0.0041743338873600688 0 -0.0012259153386926032 0.0036178463354556122 0 -0.00046049935131072298 0.0041743338873600688 0 -0.0011083309749341682 0.0042957231822483887 0 -0.0012556332472527436 0.004931606677321872 0 -0.00046049935131072298 0.0041743338873600688 0 -0.0011083309749341682 0.0042957231822483887 0 -0.0012259153386926032 0.0036178463354556122 0 -0.0011083309749341682 0.0042957231822483887 0 -0.001582010898981977 0.0044245213092078571 0 -0.0012259153386926032 0.0036178463354556122 0 -0.001582010898981977 0.0044245213092078571 0 -0.002107430630336304 0.0041734607538724397 0 -0.0012556332472527436 0.004931606677321872 0 -0.0011083309749341682 0.0042957231822483887 0 -0.001582010898981977 0.0044245213092078571 0 -0.0018988031358336142 0.0049596581365170317 0 -0.001582010898981977 0.0044245213092078571 0 -0.002107430630336304 0.0041734607538724397 0 -0.0022677308451380189 0.0035115582704398785 0 -0.002107430630336304 0.0041734607538724397 0 -0.0026713947663485542 0.0037831811230101789 0 -0.0030989084918523896 0.0037667914878387909 0 -0.0026713947663485542 0.0037831811230101789 0 -0.0029498414476153232 0.0045547732041812811 0 -0.002107430630336304 0.0041734607538724397 0 -0.0026713947663485542 0.0037831811230101789 0 -0.0029498414476153232 0.0045547732041812811 0 -0.00093576125851013356 -0.0031827241305120986 0 -0.00085911339865830212 -0.0031435151296248503 0 -0.00093475067563402391 -0.0032557016627043378 0 -0.0011488065727562914 0.0016540995416321732 0 -0.0020294395902386952 0.00057663955324706024 0 -0.0024100463362191926 0.0054702623916718547 0 -0.0029498414476153232 0.0045547732041812811 0 -0.0023059251863454464 0.0049558609982468084 0 -0.0023060769067569349 0.0054096739663620731 0 -0.0024100463362191926 0.0054702623916718547 0 -0.0023059251863454464 0.0049558609982468084 0 -0.0018988031358336142 0.0049596581365170317 0 -0.002107430630336304 0.0041734607538724397 0 -0.0023059251863454464 0.0049558609982468084 0 -0.002107430630336304 0.0041734607538724397 0 -0.0029498414476153232 0.0045547732041812811 0 -0.0023059251863454464 0.0049558609982468084 0 -0.0019868200062927517 0.0055121509633990901 0 -0.0018988031358336142 0.0049596581365170317 0 -0.002128349928442116 0.0052078743828672079 0 -0.0023060769067569349 0.0054096739663620731 0 -0.0023059251863454464 0.0049558609982468084 0 -0.002128349928442116 0.0052078743828672079 0 -0.0018988031358336142 0.0049596581365170317 0 -0.0023059251863454464 0.0049558609982468084 0 -0.002128349928442116 0.0052078743828672079 0 1.510832508846257e-05 0.03492496348597323 0 0.00012259495238036027 0.034813506141607754 0 2.457227192837905e-05 0.034803252318245347 0 1.510832508846257e-05 0.03492496348597323 0 2.457227192837905e-05 0.034803252318245347 0 -1.6880145676388837e-06 0.034935719800960899 0 -4.1571024187658101e-08 0.034999862276430434 0 -1.6880145676388837e-06 0.034935719800960899 0 2.0025929699842934e-08 0.034999924921854983 0 1.510832508846257e-05 0.03492496348597323 0 -4.1571024187658101e-08 0.034999862276430434 0 -1.6880145676388837e-06 0.034935719800960899 0 -4.1571024187658101e-08 0.034999862276430434 0 8.1938422600380841e-06 0.034993750177708435 0 2.6036185871184138e-08 0.035000066594635434 0 1.510832508846257e-05 0.03492496348597323 0 -4.1571024187658101e-08 0.034999862276430434 0 8.1938422600380841e-06 0.034993750177708435 0 1.510832508846257e-05 0.03492496348597323 0 9.984107512547982e-05 0.034953613766365972 0 8.1938422600380841e-06 0.034993750177708435 0 7.6787599599128075e-05 0.034982870082963108 0 1.3998528116897689e-05 0.034965009389682236 0 1.8719310870352258e-05 0.034929650873948469 0 1.1603609154023393e-05 0.034922720889630679 0 7.6604962854956563e-06 0.034935402355462053 0 9.984107512547982e-05 0.034953613766365972 0 0.00035101032287638293 0.034836802518298716 0 0.00012259495238036027 0.034813506141607754 0 0.00035101032287638293 0.034836802518298716 0 0.00012259495238036027 0.034813506141607754 0 8.8261474801329696e-05 0.034568866764173298 0 7.6787599599128075e-05 0.034982870082963108 0 -3.5785449729333767e-05 0.034438712713277086 0 -3.5785449729333767e-05 0.034438712713277086 0 -9.2567332578640432e-05 0.034256031694147773 0 1.510832508846257e-05 0.03492496348597323 0 9.984107512547982e-05 0.034953613766365972 0 0.00012259495238036027 0.034813506141607754 0 0.00012259495238036027 0.034813506141607754 0 8.8261474801329696e-05 0.034568866764173298 0 2.457227192837905e-05 0.034803252318245347 0 8.8261474801329696e-05 0.034568866764173298 0 3.4413814238150737e-05 0.034681550560793396 0 4.4574246868175727e-05 0.034726868041368285 0 8.8261474801329696e-05 0.034568866764173298 0 4.4574246868175727e-05 0.034726868041368285 0 2.457227192837905e-05 0.034803252318245347 0 -0.00018666540115498423 0.033918773581842213 0 8.8261474801329696e-05 0.034568866764173298 0 -0.00018292233792879329 0.034376632307043894 0 8.8261474801329696e-05 0.034568866764173298 0 -0.00018292233792879329 0.034376632307043894 0 -2.6384550658607183e-05 0.034595591420525297 0 -3.5785449729333767e-05 0.034438712713277086 0 0.00011471856355598654 0.034522241591141901 0 -0.00018666540115498423 0.033918773581842213 0 -0.00018292233792879329 0.034376632307043894 0 -0.00033001863039404302 0.034111372398216148 0 -0.00018292233792879329 0.034376632307043894 0 -0.00017228447422978847 0.034563270601393241 0 -0.00036666662101143724 0.034363915134171072 0 -0.00018292233792879329 0.034376632307043894 0 -0.00017228447422978847 0.034563270601393241 0 -2.6384550658607183e-05 0.034595591420525297 0 -0.00017228447422978847 0.034563270601393241 0 -2.6384550658607183e-05 0.034595591420525297 0 -4.3154575937494101e-05 0.034703017700469983 0 8.8261474801329696e-05 0.034568866764173298 0 3.4413814238150737e-05 0.034681550560793396 0 -2.6384550658607183e-05 0.034595591420525297 0 3.4413814238150737e-05 0.034681550560793396 0 -2.6384550658607183e-05 0.034595591420525297 0 -4.3154575937494101e-05 0.034703017700469983 0 3.4413814238150737e-05 0.034681550560793396 0 4.1758534123649886e-05 0.034761902142760613 0 2.8320073355786939e-05 0.034748677588767179 0 4.1758534123649886e-05 0.034761902142760613 0 3.3116301712164827e-05 0.034830489781597487 0 3.95090136725013e-05 0.03478305634860681 0 4.1758534123649886e-05 0.034761902142760613 0 3.95090136725013e-05 0.03478305634860681 0 2.8320073355786939e-05 0.034748677588767179 0 4.1758534123649886e-05 0.034761902142760613 0 4.4574246868175727e-05 0.034726868041368285 0 2.2128900786705994e-05 0.034849862591582487 0 3.4413814238150737e-05 0.034681550560793396 0 4.1758534123649886e-05 0.034761902142760613 0 4.4574246868175727e-05 0.034726868041368285 0 2.457227192837905e-05 0.034803252318245347 0 -1.6880145676388837e-06 0.034935719800960899 0 2.2128900786705994e-05 0.034849862591582487 0 4.4574246868175727e-05 0.034726868041368285 0 2.457227192837905e-05 0.034803252318245347 0 2.2128900786705994e-05 0.034849862591582487 0 2.2128900786705994e-05 0.034849862591582487 0 1.1002047514065023e-05 0.034921871150835865 0 2.1330415090881529e-05 0.034893803246810913 0 -1.6880145676388837e-06 0.034935719800960899 0 2.2128900786705994e-05 0.034849862591582487 0 1.1002047514065023e-05 0.034921871150835865 0 2.0025929699842934e-08 0.034999924921854983 0 1.1002047514065023e-05 0.034921871150835865 0 2.1330415090881529e-05 0.034893803246810913 0 -9.5225381721557893e-08 0.034985939503363657 0 2.0025929699842934e-08 0.034999924921854983 0 2.1330415090881529e-05 0.034893803246810913 0 -1.6880145676388837e-06 0.034935719800960899 0 2.0025929699842934e-08 0.034999924921854983 0 1.1002047514065023e-05 0.034921871150835865 0 -9.5225381721557893e-08 0.034985939503363657 0 2.1330415090881529e-05 0.034893803246810913 0 6.4268965479728009e-06 0.034756678229045185 0 -8.402060190394848e-07 0.034974525590596287 0 6.2515269886784169e-06 0.03488564277889717 0 2.1330415090881529e-05 0.034893803246810913 0 3.3116301712164827e-05 0.034830489781597487 0 6.4268965479728009e-06 0.034756678229045185 0 2.2128900786705994e-05 0.034849862591582487 0 2.1330415090881529e-05 0.034893803246810913 0 3.3116301712164827e-05 0.034830489781597487 0 4.1758534123649886e-05 0.034761902142760613 0 2.2128900786705994e-05 0.034849862591582487 0 3.3116301712164827e-05 0.034830489781597487 0 3.3116301712164827e-05 0.034830489781597487 0 3.95090136725013e-05 0.03478305634860681 0 3.0188048559153822e-05 0.034778172272196921 0 6.4268965479728009e-06 0.034756678229045185 0 3.0188048559153822e-05 0.034778172272196921 0 2.4396556034096155e-05 0.034769393276912419 0 3.3116301712164827e-05 0.034830489781597487 0 6.4268965479728009e-06 0.034756678229045185 0 3.0188048559153822e-05 0.034778172272196921 0 2.3708173249721491e-09 0.034986236560765618 0 -4.5674704289667871e-09 0.035000006558714269 0 -6.8010783562292508e-07 0.034997280461468085 0 3.95090136725013e-05 0.03478305634860681 0 3.0188048559153822e-05 0.034778172272196921 0 3.0872484072635897e-05 0.034768802743239534 0 3.0188048559153822e-05 0.034778172272196921 0 2.4396556034096155e-05 0.034769393276912419 0 3.0872484072635897e-05 0.034768802743239534 0 2.4396556034096155e-05 0.034769393276912419 0 3.0872484072635897e-05 0.034768802743239534 0 2.2357121313471414e-05 0.034775079990124934 0 2.4396556034096155e-05 0.034769393276912419 0 2.2357121313471414e-05 0.034775079990124934 0 2.5920223209061209e-05 0.034786363402814754 0 6.4268965479728009e-06 0.034756678229045185 0 2.4396556034096155e-05 0.034769393276912419 0 2.5920223209061209e-05 0.034786363402814754 0 3.95090136725013e-05 0.03478305634860681 0 2.8320073355786939e-05 0.034748677588767179 0 3.0872484072635897e-05 0.034768802743239534 0 2.8320073355786939e-05 0.034748677588767179 0 3.0872484072635897e-05 0.034768802743239534 0 2.2357121313471414e-05 0.034775079990124934 0 2.8320073355786939e-05 0.034748677588767179 0 2.2357121313471414e-05 0.034775079990124934 0 6.3080537613510453e-06 0.034779854967998881 0 2.8320073355786939e-05 0.034748677588767179 0 6.3080537613510453e-06 0.034779854967998881 0 -2.2296241197112272e-05 0.034776082385004084 0 6.3080537613510453e-06 0.034779854967998881 0 -1.1309169473345908e-05 0.034809336380690517 0 -2.2296241197112272e-05 0.034776082385004084 0 6.3080537613510453e-06 0.034779854967998881 0 1.2760201016161705e-05 0.034799603391315451 0 -1.1309169473345908e-05 0.034809336380690517 0 2.2357121313471414e-05 0.034775079990124934 0 6.3080537613510453e-06 0.034779854967998881 0 1.2760201016161705e-05 0.034799603391315451 0 1.2760201016161705e-05 0.034799603391315451 0 2.2252641430494761e-05 0.03482188181873113 0 -3.1845668347055146e-07 0.034836860450346147 0 1.2760201016161705e-05 0.034799603391315451 0 -1.1309169473345908e-05 0.034809336380690517 0 -3.1845668347055146e-07 0.034836860450346147 0 -1.1309169473345908e-05 0.034809336380690517 0 -3.1845668347055146e-07 0.034836860450346147 0 -2.6326146035776474e-05 0.034846243895199386 0 6.2515269886784169e-06 0.03488564277889717 0 2.4434966296207682e-05 0.034916026745532049 0 -4.5674704289667871e-09 0.035000006558714269 0 1.4026852205171736e-08 0.034999974809627549 0 -2.5644294313531883e-07 0.035002525313511439 0 6.4268965479728009e-06 0.034756678229045185 0 2.5920223209061209e-05 0.034786363402814754 0 5.9418025525559415e-05 0.03482822794310024 0 -4.5674704289667871e-09 0.035000006558714269 0 -6.8010783562292508e-07 0.034997280461468085 0 -2.5644294313531883e-07 0.035002525313511439 0 2.2357121313471414e-05 0.034775079990124934 0 1.2760201016161705e-05 0.034799603391315451 0 2.5920223209061209e-05 0.034786363402814754 0 1.2760201016161705e-05 0.034799603391315451 0 2.5920223209061209e-05 0.034786363402814754 0 2.2252641430494761e-05 0.03482188181873113 0 2.5920223209061209e-05 0.034786363402814754 0 2.2252641430494761e-05 0.03482188181873113 0 5.9418025525559415e-05 0.03482822794310024 0 1.4026852205171736e-08 0.034999974809627549 0 -2.5644294313531883e-07 0.035002525313511439 0 9.2430791254190103e-06 0.034984450396963226 0 5.9418025525559415e-05 0.03482822794310024 0 7.3500162042378213e-06 0.03487907154152186 0 9.2430791254190103e-06 0.034984450396963226 0 2.4434966296207682e-05 0.034916026745532049 0 1.3860937280115233e-05 0.034977042249308275 0 2.2252641430494761e-05 0.03482188181873113 0 7.3500162042378213e-06 0.03487907154152186 0 -3.1845668347055146e-07 0.034836860450346147 0 2.2252641430494761e-05 0.03482188181873113 0 5.9418025525559415e-05 0.03482822794310024 0 7.3500162042378213e-06 0.03487907154152186 0 7.3500162042378213e-06 0.03487907154152186 0 -3.1845668347055146e-07 0.034836860450346147 0 -1.6829507749804398e-05 0.034875733429407307 0 -3.1845668347055146e-07 0.034836860450346147 0 -2.6326146035776474e-05 0.034846243895199386 0 -1.6829507749804398e-05 0.034875733429407307 0 -2.6326146035776474e-05 0.034846243895199386 0 -1.6829507749804398e-05 0.034875733429407307 0 -4.0007307370887625e-05 0.034875754112292892 0 -1.6829507749804398e-05 0.034875733429407307 0 -2.9232841076900981e-05 0.034906675495137984 0 -4.0007307370887625e-05 0.034875754112292892 0 7.3500162042378213e-06 0.03487907154152186 0 -1.6829507749804398e-05 0.034875733429407307 0 -1.3154372281825843e-05 0.034932767777441115 0 -1.6829507749804398e-05 0.034875733429407307 0 -1.3154372281825843e-05 0.034932767777441115 0 -2.9232841076900981e-05 0.034906675495137984 0 -3.3241433919934315e-05 0.034935087711157047 0 -5.1805894653376071e-05 0.034916074606399568 0 -4.5631985127297375e-05 0.034910714942714909 0 -3.3241433919934315e-05 0.034935087711157047 0 -2.9232841076900981e-05 0.034906675495137984 0 -4.5631985127297375e-05 0.034910714942714909 0 -7.8169331798313525e-06 0.034970299389970295 0 -3.3241433919934315e-05 0.034935087711157047 0 -1.3154372281825843e-05 0.034932767777441115 0 -3.3241433919934315e-05 0.034935087711157047 0 -1.3154372281825843e-05 0.034932767777441115 0 -2.9232841076900981e-05 0.034906675495137984 0 7.3500162042378213e-06 0.03487907154152186 0 -1.3154372281825843e-05 0.034932767777441115 0 9.2430791254190103e-06 0.034984450396963226 0 7.4086812171407346e-09 0.034999888612525142 0 1.4026852205171736e-08 0.034999974809627549 0 9.2430791254190103e-06 0.034984450396963226 0 -7.8169331798313525e-06 0.034970299389970295 0 -1.3154372281825843e-05 0.034932767777441115 0 9.2430791254190103e-06 0.034984450396963226 0 -9.4617372424139249e-05 0.034898966456407693 0 -7.532485702029948e-05 0.034905474607691493 0 -6.767554996699716e-05 0.034903202449440188 0 -9.4617372424139249e-05 0.034898966456407693 0 -6.767554996699716e-05 0.034903202449440188 0 -9.1376286647868758e-05 0.034882337945859064 0 -9.4617372424139249e-05 0.034898966456407693 0 -9.1376286647868758e-05 0.034882337945859064 0 -0.00012455161748212956 0.034884295135173805 0 -0.00011315189058141627 0.034910896308785716 0 -0.00012455161748212956 0.034884295135173805 0 -0.0001510347073375748 0.034922884435961289 0 -9.4617372424139249e-05 0.034898966456407693 0 -0.00011315189058141627 0.034910896308785716 0 -0.00012455161748212956 0.034884295135173805 0 -9.4617372424139249e-05 0.034898966456407693 0 -0.00011315189058141627 0.034910896308785716 0 -7.532485702029948e-05 0.034905474607691493 0 -0.00011858582215642572 0.034425238655257873 0 5.2817258543721811e-05 0.03423629032995134 0 0.00018111365332446335 0.034875563888508689 0 -4.9508152547929158e-05 0.034893115922972395 0 0.00016039416050515898 0.035010171552054374 0 -4.9508152547929158e-05 0.034893115922972395 0 -0.00011315189058141627 0.034910896308785716 0 -0.00012261055126824109 0.034913790822303122 0 6.5146560004004976e-05 0.034996668188608041 0 5.2817258543721811e-05 0.03423629032995134 0 -4.9508152547929158e-05 0.034893115922972395 0 -0.00011315189058141627 0.034910896308785716 0 -7.532485702029948e-05 0.034905474607691493 0 -6.2194691686532331e-05 0.034905182669621351 0 -5.1805894653376071e-05 0.034916074606399568 0 -6.767554996699716e-05 0.034903202449440188 0 -6.2194691686532331e-05 0.034905182669621351 0 -7.532485702029948e-05 0.034905474607691493 0 -6.767554996699716e-05 0.034903202449440188 0 -5.1805894653376071e-05 0.034916074606399568 0 -4.5631985127297375e-05 0.034910714942714909 0 -6.767554996699716e-05 0.034903202449440188 0 -2.9232841076900981e-05 0.034906675495137984 0 -4.5631985127297375e-05 0.034910714942714909 0 -5.305774066445665e-05 0.034894049202167814 0 -4.5631985127297375e-05 0.034910714942714909 0 -5.305774066445665e-05 0.034894049202167814 0 -6.767554996699716e-05 0.034903202449440188 0 -5.305774066445665e-05 0.034894049202167814 0 -6.767554996699716e-05 0.034903202449440188 0 -6.6630058977193169e-05 0.034877424663441237 0 -6.767554996699716e-05 0.034903202449440188 0 -6.6630058977193169e-05 0.034877424663441237 0 -9.1376286647868758e-05 0.034882337945859064 0 -2.9232841076900981e-05 0.034906675495137984 0 -5.305774066445665e-05 0.034894049202167814 0 -4.0007307370887625e-05 0.034875754112292892 0 -6.6630058977193169e-05 0.034877424663441237 0 -4.0007307370887625e-05 0.034875754112292892 0 -5.5632323914155466e-05 0.034852345606557839 0 -5.305774066445665e-05 0.034894049202167814 0 -6.6630058977193169e-05 0.034877424663441237 0 -4.0007307370887625e-05 0.034875754112292892 0 -2.6326146035776474e-05 0.034846243895199386 0 -5.5632323914155466e-05 0.034852345606557839 0 -4.8881068323445143e-05 0.034819490558650835 0 -2.6326146035776474e-05 0.034846243895199386 0 -4.0007307370887625e-05 0.034875754112292892 0 -5.5632323914155466e-05 0.034852345606557839 0 -6.6630058977193169e-05 0.034877424663441237 0 -5.5632323914155466e-05 0.034852345606557839 0 -0.00011259520574699439 0.034838872439871757 0 -5.5632323914155466e-05 0.034852345606557839 0 -0.00011259520574699439 0.034838872439871757 0 -4.8881068323445143e-05 0.034819490558650835 0 -6.6630058977193169e-05 0.034877424663441237 0 -0.00011259520574699439 0.034838872439871757 0 -9.1376286647868758e-05 0.034882337945859064 0 -0.00011259520574699439 0.034838872439871757 0 -9.1376286647868758e-05 0.034882337945859064 0 -0.00012455161748212956 0.034884295135173805 0 -0.00011259520574699439 0.034838872439871757 0 -0.00012455161748212956 0.034884295135173805 0 -0.0001775633190743768 0.034854081553795893 0 -0.00011259520574699439 0.034838872439871757 0 -8.0376867846781029e-05 0.034783654959444688 0 -0.00019733147381794029 0.034752549709300223 0 -0.00011259520574699439 0.034838872439871757 0 -0.00019733147381794029 0.034752549709300223 0 -0.00021663476545686963 0.034791226961261752 0 -1.1309169473345908e-05 0.034809336380690517 0 -2.6326146035776474e-05 0.034846243895199386 0 -4.8881068323445143e-05 0.034819490558650835 0 -0.00011259520574699439 0.034838872439871757 0 -4.8881068323445143e-05 0.034819490558650835 0 -8.0376867846781029e-05 0.034783654959444688 0 -4.8881068323445143e-05 0.034819490558650835 0 -8.0376867846781029e-05 0.034783654959444688 0 -2.2296241197112272e-05 0.034776082385004084 0 -1.1309169473345908e-05 0.034809336380690517 0 -4.8881068323445143e-05 0.034819490558650835 0 -2.2296241197112272e-05 0.034776082385004084 0 3.4413814238150737e-05 0.034681550560793396 0 2.8320073355786939e-05 0.034748677588767179 0 -4.3154575937494101e-05 0.034703017700469983 0 2.8320073355786939e-05 0.034748677588767179 0 -2.2296241197112272e-05 0.034776082385004084 0 -4.3154575937494101e-05 0.034703017700469983 0 -8.0376867846781029e-05 0.034783654959444688 0 -2.2296241197112272e-05 0.034776082385004084 0 -4.3154575937494101e-05 0.034703017700469983 0 -0.00017228447422978847 0.034563270601393241 0 -4.3154575937494101e-05 0.034703017700469983 0 -0.00019733147381794029 0.034752549709300223 0 -8.0376867846781029e-05 0.034783654959444688 0 -4.3154575937494101e-05 0.034703017700469983 0 -0.00019733147381794029 0.034752549709300223 0 -0.00027048603624573548 0.034739194311224041 0 -0.00029284104213764484 0.034845410932769758 0 -0.00019733147381794029 0.034752549709300223 0 -0.0003883553648373428 0.034551561954596507 0 -0.00058987356985555411 0.034776349657843403 0 -0.00017228447422978847 0.034563270601393241 0 -0.00019733147381794029 0.034752549709300223 0 -0.0003883553648373428 0.034551561954596507 0 -0.00079201423277838875 0.034495355307325996 0 -0.00058987356985555411 0.034776349657843403 0 -0.0010154926504028674 0.034786148321755507 0 -0.00079201423277838875 0.034495355307325996 0 -0.00060282435471408955 0.034550010242736642 0 -0.00058987356985555411 0.034776349657843403 0 -0.0003883553648373428 0.034551561954596507 0 -0.00060282435471408955 0.034550010242736642 0 -0.00058987356985555411 0.034776349657843403 0 -0.00028476039671958151 0.034723807742885825 0 -0.00029125362013610756 0.034841228744259066 0 -0.00043630186242945001 0.034717512435536217 0 -0.00028476039671958151 0.034723807742885825 0 -0.00021663476545686963 0.034791226961261752 0 -0.00029125362013610756 0.034841228744259066 0 -0.00019733147381794029 0.034752549709300223 0 -0.00028476039671958151 0.034723807742885825 0 -0.00021663476545686963 0.034791226961261752 0 -0.00032632706058682642 0.033547422385773421 0 5.2817258543721811e-05 0.03423629032995134 0 -0.00011259520574699439 0.034838872439871757 0 -0.00021663476545686963 0.034791226961261752 0 -0.0001775633190743768 0.034854081553795893 0 -0.0001775633190743768 0.034854081553795893 0 -0.00029125362013610756 0.034841228744259066 0 -0.0001510347073375748 0.034922884435961289 0 -0.00021663476545686963 0.034791226961261752 0 -0.0001775633190743768 0.034854081553795893 0 -0.00029125362013610756 0.034841228744259066 0 -0.00064275145891927422 0.031536631825588531 0 9.4002567943367058e-05 0.034022067981148908 0 -0.0010828461690814211 0.033355490886492631 0 -0.00089167249883145697 0.032799818560096519 0 -0.00042593101825349382 0.033193051035669018 0 -0.00055182196764307437 0.03228612493304641 0 -0.00089167249883145697 0.032799818560096519 0 -0.00042593101825349382 0.033193051035669018 0 0.00050408263082101022 0.034693946027809314 0 0.00052036266872661392 0.034888744618143348 0 0.00031700052356002976 0.034870796863633265 0 9.4002567943367058e-05 0.034022067981148908 0 5.2817258543721811e-05 0.03423629032995134 0 0.00052036266872661392 0.034888744618143348 0 0.00031700052356002976 0.034870796863633265 0 0.00016039416050515898 0.035010171552054374 0 -0.00012455161748212956 0.034884295135173805 0 -0.0001775633190743768 0.034854081553795893 0 -0.0001510347073375748 0.034922884435961289 0 -0.00055182196764307437 0.03228612493304641 0 -0.00042593101825349382 0.033193051035669018 0 0.00023235711540684525 0.033027100776095282 0 0.00018111365332446335 0.034875563888508689 0 0.00031700052356002976 0.034870796863633265 0 0.00016039416050515898 0.035010171552054374 0 -0.0010828461690814211 0.033355490886492631 0 -0.00089167249883145697 0.032799818560096519 0 -0.0015509950699681455 0.032485976049840631 0 -0.00064275145891927422 0.031536631825588531 0 -0.0019519179087184365 0.030946550844689925 0 -0.002426763210901036 0.029059607786842977 0 -0.0019620853873915764 0.029251317292507583 0 -0.0021951736660092802 0.02958135446745927 0 -0.00055182196764307437 0.03228612493304641 0 -0.00089167249883145697 0.032799818560096519 0 -0.0015509950699681455 0.032485976049840631 0 -0.00055182196764307437 0.03228612493304641 0 -0.0015509950699681455 0.032485976049840631 0 -0.0013432731225817324 0.031548482430123648 0 -0.0019620853873915764 0.029251317292507583 0 -0.0021951736660092802 0.02958135446745927 0 -0.0018482089912339951 0.029656654630096618 0 -0.0021951736660092802 0.02958135446745927 0 -0.0019880742173762232 0.030129719877052732 0 -0.0018482089912339951 0.029656654630096618 0 -0.0015509950699681455 0.032485976049840631 0 -0.0020195247254373074 0.031611720706484464 0 -0.0013432731225817324 0.031548482430123648 0 -0.0026171369284425654 0.030918749597304829 0 -0.0015333372992061192 0.033132023860481842 0 -0.0019519179087184365 0.030946550844689925 0 -0.0026171369284425654 0.030918749597304829 0 -0.0030792738301716493 0.031141234800658574 0 -0.0037110105327610799 0.031204277926514742 0 -0.0031408258297606372 0.031513709309572119 0 -0.00032632706058682642 0.033547422385773421 0 -0.0015333372992061192 0.033132023860481842 0 -0.00029284104213764484 0.034845410932769758 0 -0.0015333372992061192 0.033132023860481842 0 -0.00079201423277838875 0.034495355307325996 0 -0.0010154926504028674 0.034786148321755507 0 -0.0010082271941149426 0.034428621464579284 0 -0.0010154926504028674 0.034786148321755507 0 -0.0010082271941149426 0.034428621464579284 0 -0.001196996391763822 0.034316400032018801 0 -0.0015333372992061192 0.033132023860481842 0 -0.0023396732275451433 0.033081413227606452 0 -0.0037110105327610799 0.031204277926514742 0 -0.0031408258297606372 0.031513709309572119 0 -0.003018756439275789 0.031976718039220565 0 -0.0010154926504028674 0.034786148321755507 0 -0.001440362862634626 0.034325905018718877 0 -0.001196996391763822 0.034316400032018801 0 -0.0030792738301716493 0.031141234800658574 0 -0.0031408258297606372 0.031513709309572119 0 -0.0026856000857344575 0.031737205804980691 0 -0.0031408258297606372 0.031513709309572119 0 -0.003018756439275789 0.031976718039220565 0 -0.0026856000857344575 0.031737205804980691 0 -0.0013511838797244733 0.034173548908108461 0 -0.001196996391763822 0.034316400032018801 0 -0.0013021781725420876 0.034055286947056528 0 -0.001440362862634626 0.034325905018718877 0 -0.0013511838797244733 0.034173548908108461 0 -0.0014328235347718559 0.033957632746667778 0 -0.001440362862634626 0.034325905018718877 0 -0.0013511838797244733 0.034173548908108461 0 -0.001196996391763822 0.034316400032018801 0 -0.001196996391763822 0.034316400032018801 0 -0.0011809943000872145 0.034122533696004424 0 -0.0013021781725420876 0.034055286947056528 0 -0.001196996391763822 0.034316400032018801 0 -0.0011809943000872145 0.034122533696004424 0 -0.0010859072638798482 0.034215739651411434 0 -0.0011809943000872145 0.034122533696004424 0 -0.0010963132204729789 0.034088878113870465 0 -0.0010859072638798482 0.034215739651411434 0 -0.0011809943000872145 0.034122533696004424 0 -0.0011984091570908131 0.033995052958306758 0 -0.0013021781725420876 0.034055286947056528 0 -0.0011809943000872145 0.034122533696004424 0 -0.0011984091570908131 0.033995052958306758 0 -0.0010963132204729789 0.034088878113870465 0 -0.0011984091570908131 0.033995052958306758 0 -0.0013021781725420876 0.034055286947056528 0 -0.0013534969392173574 0.033878640192349423 0 -0.0013511838797244733 0.034173548908108461 0 -0.0013021781725420876 0.034055286947056528 0 -0.0014328235347718559 0.033957632746667778 0 -0.0013021781725420876 0.034055286947056528 0 -0.0013534969392173574 0.033878640192349423 0 -0.0014328235347718559 0.033957632746667778 0 -0.0013534969392173574 0.033878640192349423 0 -0.0012685862593698563 0.033846617618980668 0 -0.0014227815538591598 0.033726210929140521 0 -0.0011984091570908131 0.033995052958306758 0 -0.0013534969392173574 0.033878640192349423 0 -0.0012685862593698563 0.033846617618980668 0 -0.0011984091570908131 0.033995052958306758 0 -0.0011683588170471244 0.033928825070528669 0 -0.0012685862593698563 0.033846617618980668 0 -0.0011984091570908131 0.033995052958306758 0 -0.0011683588170471244 0.033928825070528669 0 -0.0010643621966044247 0.034005338352093198 0 -0.0011683588170471244 0.033928825070528669 0 -0.0012685862593698563 0.033846617618980668 0 -0.0011435315390502354 0.03387145404700731 0 -0.0012685862593698563 0.033846617618980668 0 -0.0011435315390502354 0.03387145404700731 0 -0.001237740455321409 0.033786966648741701 0 -0.0011435315390502354 0.03387145404700731 0 -0.001237740455321409 0.033786966648741701 0 -0.0011163129128100805 0.03381966892328242 0 -0.0013437122534376881 0.033743935789399243 0 -0.0014145964293116862 0.03369810577429367 0 -0.0014227815538591598 0.033726210929140521 0 -0.0012685862593698563 0.033846617618980668 0 -0.0013437122534376881 0.033743935789399243 0 -0.0014227815538591598 0.033726210929140521 0 -0.0012685862593698563 0.033846617618980668 0 -0.001237740455321409 0.033786966648741701 0 -0.0013437122534376881 0.033743935789399243 0 -0.00093844013531886735 0.033922233240549077 0 -0.0010403865585626264 0.033916273627215179 0 -0.00094126581408847572 0.034002237200750671 0 -0.00093844013531886735 0.033922233240549077 0 -0.00094126581408847572 0.034002237200750671 0 -0.00083625853576832498 0.03396615432640842 0 -0.00093844013531886735 0.033922233240549077 0 -0.00083625853576832498 0.03396615432640842 0 -0.00091935631270418218 0.033844262408366382 0 -0.00093844013531886735 0.033922233240549077 0 -0.0010180759752446179 0.033855531244302961 0 -0.0010403865585626264 0.033916273627215179 0 -0.00093844013531886735 0.033922233240549077 0 -0.0010180759752446179 0.033855531244302961 0 -0.00091935631270418218 0.033844262408366382 0 -0.0010180759752446179 0.033855531244302961 0 -0.0011163129128100805 0.03381966892328242 0 -0.0010403865585626264 0.033916273627215179 0 -0.0011435315390502354 0.03387145404700731 0 -0.0011163129128100805 0.03381966892328242 0 -0.0010403865585626264 0.033916273627215179 0 -0.0010403865585626264 0.033916273627215179 0 -0.0010643621966044247 0.034005338352093198 0 -0.00094126581408847572 0.034002237200750671 0 -0.0011683588170471244 0.033928825070528669 0 -0.0011435315390502354 0.03387145404700731 0 -0.0010643621966044247 0.034005338352093198 0 -0.0011435315390502354 0.03387145404700731 0 -0.0010403865585626264 0.033916273627215179 0 -0.0010643621966044247 0.034005338352093198 0 -0.0011984091570908131 0.033995052958306758 0 -0.0010643621966044247 0.034005338352093198 0 -0.0010963132204729789 0.034088878113870465 0 -0.0010643621966044247 0.034005338352093198 0 -0.00094731007223794212 0.03408042204059767 0 -0.00095838024249505778 0.034171308492169594 0 -0.00094126581408847572 0.034002237200750671 0 -0.00083682136139076721 0.034133386587217866 0 -0.00076721599504633441 0.03408245722216361 0 -0.0010643621966044247 0.034005338352093198 0 -0.00094731007223794212 0.03408042204059767 0 -0.00094126581408847572 0.034002237200750671 0 -0.00094731007223794212 0.03408042204059767 0 -0.00094126581408847572 0.034002237200750671 0 -0.00083682136139076721 0.034133386587217866 0 -0.00083682136139076721 0.034133386587217866 0 -0.00095838024249505778 0.034171308492169594 0 -0.00081260498188270803 0.034284386024245342 0 -0.00094731007223794212 0.03408042204059767 0 -0.00083682136139076721 0.034133386587217866 0 -0.00095838024249505778 0.034171308492169594 0 -0.00095838024249505778 0.034171308492169594 0 -0.00093002783606689653 0.034318536293593535 0 -0.00081260498188270803 0.034284386024245342 0 -0.0010643621966044247 0.034005338352093198 0 -0.00095838024249505778 0.034171308492169594 0 -0.0010963132204729789 0.034088878113870465 0 -0.00095838024249505778 0.034171308492169594 0 -0.0010963132204729789 0.034088878113870465 0 -0.0010859072638798482 0.034215739651411434 0 -0.0010082271941149426 0.034428621464579284 0 -0.0010859072638798482 0.034215739651411434 0 -0.00093002783606689653 0.034318536293593535 0 -0.0010082271941149426 0.034428621464579284 0 -0.001196996391763822 0.034316400032018801 0 -0.0010859072638798482 0.034215739651411434 0 -0.00095838024249505778 0.034171308492169594 0 -0.0010859072638798482 0.034215739651411434 0 -0.00093002783606689653 0.034318536293593535 0 -0.00079201423277838875 0.034495355307325996 0 -0.00093002783606689653 0.034318536293593535 0 -0.00081260498188270803 0.034284386024245342 0 -0.00079201423277838875 0.034495355307325996 0 -0.0010082271941149426 0.034428621464579284 0 -0.00093002783606689653 0.034318536293593535 0 -0.00079201423277838875 0.034495355307325996 0 -0.00063863018683086106 0.034378091826291868 0 -0.00081260498188270803 0.034284386024245342 0 -0.00079201423277838875 0.034495355307325996 0 -0.00060282435471408955 0.034550010242736642 0 -0.00063863018683086106 0.034378091826291868 0 -0.0003883553648373428 0.034551561954596507 0 -0.00063863018683086106 0.034378091826291868 0 -0.0005406761646113311 0.034312329582386621 0 -0.0003883553648373428 0.034551561954596507 0 -0.00060282435471408955 0.034550010242736642 0 -0.00063863018683086106 0.034378091826291868 0 -0.00063863018683086106 0.034378091826291868 0 -0.0005406761646113311 0.034312329582386621 0 -0.00070939983567300225 0.034215862691392138 0 -0.00083682136139076721 0.034133386587217866 0 -0.00070939983567300225 0.034215862691392138 0 -0.00081260498188270803 0.034284386024245342 0 -0.00063863018683086106 0.034378091826291868 0 -0.00070939983567300225 0.034215862691392138 0 -0.00081260498188270803 0.034284386024245342 0 -0.00017228447422978847 0.034563270601393241 0 -0.0003883553648373428 0.034551561954596507 0 -0.00036666662101143724 0.034363915134171072 0 -0.0003883553648373428 0.034551561954596507 0 -0.0005406761646113311 0.034312329582386621 0 -0.00036666662101143724 0.034363915134171072 0 -0.00018292233792879329 0.034376632307043894 0 -0.00036666662101143724 0.034363915134171072 0 -0.00037539600992588028 0.034234052438071455 0 -0.0005406761646113311 0.034312329582386621 0 -0.00036666662101143724 0.034363915134171072 0 -0.00050833288849352833 0.034196904177194974 0 -0.00036666662101143724 0.034363915134171072 0 -0.00037539600992588028 0.034234052438071455 0 -0.00050833288849352833 0.034196904177194974 0 -0.00037539600992588028 0.034234052438071455 0 -0.00050833288849352833 0.034196904177194974 0 -0.00047673824159972893 0.034095097105857321 0 -0.00047673824159972893 0.034095097105857321 0 -0.0005989487546506836 0.034026274732710922 0 -0.00050631829216551017 0.033878774920315782 0 -0.00050833288849352833 0.034196904177194974 0 -0.00047673824159972893 0.034095097105857321 0 -0.0005989487546506836 0.034026274732710922 0 -0.00018292233792879329 0.034376632307043894 0 -0.00037539600992588028 0.034234052438071455 0 -0.00033001863039404302 0.034111372398216148 0 -0.00037539600992588028 0.034234052438071455 0 -0.00047673824159972893 0.034095097105857321 0 -0.00033001863039404302 0.034111372398216148 0 -0.00047673824159972893 0.034095097105857321 0 -0.00033001863039404302 0.034111372398216148 0 -0.00040755565024971338 0.034012238056286406 0 -0.00083682136139076721 0.034133386587217866 0 -0.00070939983567300225 0.034215862691392138 0 -0.00076721599504633441 0.03408245722216361 0 -0.00070939983567300225 0.034215862691392138 0 -0.00076721599504633441 0.03408245722216361 0 -0.00064306424027222469 0.034136602072350537 0 -0.0005406761646113311 0.034312329582386621 0 -0.00050833288849352833 0.034196904177194974 0 -0.00064306424027222469 0.034136602072350537 0 -0.0005406761646113311 0.034312329582386621 0 -0.00070939983567300225 0.034215862691392138 0 -0.00064306424027222469 0.034136602072350537 0 -0.00064306424027222469 0.034136602072350537 0 -0.0005989487546506836 0.034026274732710922 0 -0.00072221537563380077 0.033989632912638908 0 -0.00050833288849352833 0.034196904177194974 0 -0.00064306424027222469 0.034136602072350537 0 -0.0005989487546506836 0.034026274732710922 0 -0.0005989487546506836 0.034026274732710922 0 -0.00072221537563380077 0.033989632912638908 0 -0.00066998902902056683 0.033891193363873272 0 -0.00094126581408847572 0.034002237200750671 0 -0.00076721599504633441 0.03408245722216361 0 -0.00083625853576832498 0.03396615432640842 0 -0.00072221537563380077 0.033989632912638908 0 -0.00083625853576832498 0.03396615432640842 0 -0.00080706344882548991 0.033842022306277426 0 -0.00076721599504633441 0.03408245722216361 0 -0.00072221537563380077 0.033989632912638908 0 -0.00083625853576832498 0.03396615432640842 0 -0.00076721599504633441 0.03408245722216361 0 -0.00064306424027222469 0.034136602072350537 0 -0.00072221537563380077 0.033989632912638908 0 -0.00080706344882548991 0.033842022306277426 0 -0.00066998902902056683 0.033891193363873272 0 -0.00075078330295918073 0.033707123682199816 0 -0.00075078330295918073 0.033707123682199816 0 -0.00050631829216551017 0.033878774920315782 0 -0.00061998436542570268 0.03347417509857948 0 -0.00083625853576832498 0.03396615432640842 0 -0.00080706344882548991 0.033842022306277426 0 -0.00091935631270418218 0.033844262408366382 0 -0.00072221537563380077 0.033989632912638908 0 -0.00080706344882548991 0.033842022306277426 0 -0.00066998902902056683 0.033891193363873272 0 -0.0005989487546506836 0.034026274732710922 0 -0.00066998902902056683 0.033891193363873272 0 -0.00050631829216551017 0.033878774920315782 0 -0.00066998902902056683 0.033891193363873272 0 -0.00075078330295918073 0.033707123682199816 0 -0.00050631829216551017 0.033878774920315782 0 -0.00080706344882548991 0.033842022306277426 0 -0.00075078330295918073 0.033707123682199816 0 -0.00090199122207108146 0.033740325739636562 0 -0.00075078330295918073 0.033707123682199816 0 -0.00090199122207108146 0.033740325739636562 0 -0.00089068427828268193 0.033658497411390091 0 -0.00018574101924732756 0.033872454626449076 0 -0.00050631829216551017 0.033878774920315782 0 -0.00061998436542570268 0.03347417509857948 0 -0.00018666540115498423 0.033918773581842213 0 -0.00033001863039404302 0.034111372398216148 0 -0.0003072522593920038 0.033957971293882568 0 -0.00018574101924732756 0.033872454626449076 0 -0.0003072522593920038 0.033957971293882568 0 -0.00050631829216551017 0.033878774920315782 0 -0.0003072522593920038 0.033957971293882568 0 -0.00040755565024971338 0.034012238056286406 0 -0.00050631829216551017 0.033878774920315782 0 -0.00033001863039404302 0.034111372398216148 0 -0.0003072522593920038 0.033957971293882568 0 -0.00040755565024971338 0.034012238056286406 0 -0.00047673824159972893 0.034095097105857321 0 -0.00040755565024971338 0.034012238056286406 0 -0.00050631829216551017 0.033878774920315782 0 1.1603609154023393e-05 0.034922720889630679 0 7.6604962854956563e-06 0.034935402355462053 0 -1.6357462677382975e-05 0.034924018420968546 0 -3.5785449729333767e-05 0.034438712713277086 0 -0.00032476392594387062 0.034193200140779569 0 -0.00061998436542570268 0.03347417509857948 0 -0.00090886696798456179 0.033546084001207975 0 -0.00092290590352012765 0.033405500101401961 0 -0.00075078330295918073 0.033707123682199816 0 -0.00061998436542570268 0.03347417509857948 0 -0.00090886696798456179 0.033546084001207975 0 -0.00075078330295918073 0.033707123682199816 0 -0.00090886696798456179 0.033546084001207975 0 -0.00089068427828268193 0.033658497411390091 0 -0.00090886696798456179 0.033546084001207975 0 -0.0010163704367793095 0.033449617893816716 0 -0.00092290590352012765 0.033405500101401961 0 -0.00090886696798456179 0.033546084001207975 0 -0.0010773149885900783 0.033530347246575005 0 -0.0010163704367793095 0.033449617893816716 0 -0.00090886696798456179 0.033546084001207975 0 -0.0010773149885900783 0.033530347246575005 0 -0.00099813840238140313 0.033639687195633781 0 -0.00090886696798456179 0.033546084001207975 0 -0.00089068427828268193 0.033658497411390091 0 -0.00099813840238140313 0.033639687195633781 0 -0.0010773149885900783 0.033530347246575005 0 -0.0011804651940872594 0.033560642499519719 0 -0.0011195761248981011 0.033640794138510635 0 -0.0010773149885900783 0.033530347246575005 0 -0.00099813840238140313 0.033639687195633781 0 -0.0011195761248981011 0.033640794138510635 0 -0.0010773149885900783 0.033530347246575005 0 -0.001100494259304304 0.033424522536440848 0 -0.0011699521796491989 0.033468858803292076 0 -0.0010773149885900783 0.033530347246575005 0 -0.0010163704367793095 0.033449617893816716 0 -0.001100494259304304 0.033424522536440848 0 -0.001100494259304304 0.033424522536440848 0 -0.0011699521796491989 0.033468858803292076 0 -0.0011401459887231235 0.033369766257708766 0 -0.0011699521796491989 0.033468858803292076 0 -0.0012253568814723783 0.033417618411738438 0 -0.0011401459887231235 0.033369766257708766 0 -0.0012253568814723783 0.033417618411738438 0 -0.0012768803471031409 0.03354304728408819 0 -0.001355439746942892 0.033459120903602653 0 -0.0011699521796491989 0.033468858803292076 0 -0.0012253568814723783 0.033417618411738438 0 -0.0012768803471031409 0.03354304728408819 0 -0.0012768803471031409 0.03354304728408819 0 -0.0012423219563715024 0.033631065086597432 0 -0.0013410817567461907 0.033639952466324723 0 -0.0011804651940872594 0.033560642499519719 0 -0.0012423219563715024 0.033631065086597432 0 -0.0011195761248981011 0.033640794138510635 0 -0.0012768803471031409 0.03354304728408819 0 -0.0011804651940872594 0.033560642499519719 0 -0.0012423219563715024 0.033631065086597432 0 -0.0011699521796491989 0.033468858803292076 0 -0.0012768803471031409 0.03354304728408819 0 -0.0011804651940872594 0.033560642499519719 0 -0.0010773149885900783 0.033530347246575005 0 -0.0011699521796491989 0.033468858803292076 0 -0.0011804651940872594 0.033560642499519719 0 -0.0011868813765122004 0.033683402300218629 0 -0.0012423219563715024 0.033631065086597432 0 -0.0011195761248981011 0.033640794138510635 0 -0.0011868813765122004 0.033683402300218629 0 -0.0012423219563715024 0.033631065086597432 0 -0.0013178308858246099 0.033700468622098578 0 -0.0012423219563715024 0.033631065086597432 0 -0.0013410817567461907 0.033639952466324723 0 -0.0013178308858246099 0.033700468622098578 0 -0.001237740455321409 0.033786966648741701 0 -0.0013437122534376881 0.033743935789399243 0 -0.0013178308858246099 0.033700468622098578 0 -0.0013437122534376881 0.033743935789399243 0 -0.0013178308858246099 0.033700468622098578 0 -0.0014145964293116862 0.03369810577429367 0 -0.0011868813765122004 0.033683402300218629 0 -0.0011767687138992738 0.033750407366816962 0 -0.0010601766787610943 0.033748995022265089 0 -0.001237740455321409 0.033786966648741701 0 -0.0013178308858246099 0.033700468622098578 0 -0.0011767687138992738 0.033750407366816962 0 -0.0011868813765122004 0.033683402300218629 0 -0.0013178308858246099 0.033700468622098578 0 -0.0011767687138992738 0.033750407366816962 0 -0.001237740455321409 0.033786966648741701 0 -0.0011163129128100805 0.03381966892328242 0 -0.0011767687138992738 0.033750407366816962 0 -0.0011163129128100805 0.03381966892328242 0 -0.0011767687138992738 0.033750407366816962 0 -0.0010601766787610943 0.033748995022265089 0 -0.0010180759752446179 0.033855531244302961 0 -0.0011163129128100805 0.03381966892328242 0 -0.0010601766787610943 0.033748995022265089 0 -0.0010601766787610943 0.033748995022265089 0 -0.00091935631270418218 0.033844262408366382 0 -0.00090199122207108146 0.033740325739636562 0 -0.0010180759752446179 0.033855531244302961 0 -0.0010601766787610943 0.033748995022265089 0 -0.00091935631270418218 0.033844262408366382 0 -0.00080706344882548991 0.033842022306277426 0 -0.00091935631270418218 0.033844262408366382 0 -0.00090199122207108146 0.033740325739636562 0 -0.0010601766787610943 0.033748995022265089 0 -0.00090199122207108146 0.033740325739636562 0 -0.00099813840238140313 0.033639687195633781 0 -0.00090199122207108146 0.033740325739636562 0 -0.00089068427828268193 0.033658497411390091 0 -0.00099813840238140313 0.033639687195633781 0 -0.0010601766787610943 0.033748995022265089 0 -0.00099813840238140313 0.033639687195633781 0 -0.0011195761248981011 0.033640794138510635 0 -0.0011868813765122004 0.033683402300218629 0 -0.0010601766787610943 0.033748995022265089 0 -0.0011195761248981011 0.033640794138510635 0 -0.0016131079071499252 0.033807969934350708 0 -0.00092218410953344844 0.033674866621462497 0 -0.0013748301744842609 0.033688195669427122 0 -0.0010216676468826037 0.033998079442543856 0 -0.0011817320534433593 0.03341611682917061 0 -0.0013748301744842609 0.033688195669427122 0 -0.0014887196847265778 0.033741621103189748 0 -0.0010216676468826037 0.033998079442543856 0 -0.0013748301744842609 0.033688195669427122 0 -0.0014776542341484223 0.033676008241162556 0 -0.0015275424676611902 0.033548379015075902 0 -0.0014776542341484223 0.033676008241162556 0 -0.0014428930911143435 0.03369801271435701 0 -0.0014887196847265778 0.033741621103189748 0 -0.0014776542341484223 0.033676008241162556 0 -0.0014428930911143435 0.03369801271435701 0 -0.0014905277462174851 0.033649344626329306 0 -0.0013748301744842609 0.033688195669427122 0 -0.0014776542341484223 0.033676008241162556 0 -0.0014887196847265778 0.033741621103189748 0 -0.0014428930911143435 0.03369801271435701 0 -0.0014145964293116862 0.03369810577429367 0 -0.0014905277462174851 0.033649344626329306 0 -0.0013178308858246099 0.033700468622098578 0 -0.0014428930911143435 0.03369801271435701 0 -0.0014145964293116862 0.03369810577429367 0 -0.0013410817567461907 0.033639952466324723 0 -0.0013178308858246099 0.033700468622098578 0 -0.0014428930911143435 0.03369801271435701 0 -0.0013410817567461907 0.033639952466324723 0 -0.0014428930911143435 0.03369801271435701 0 -0.0014038262907594668 0.033612969579421302 0 -0.0014428930911143435 0.03369801271435701 0 -0.0014887196847265778 0.033741621103189748 0 -0.0014038262907594668 0.033612969579421302 0 -0.0014887196847265778 0.033741621103189748 0 -0.0014038262907594668 0.033612969579421302 0 -0.0015008781905534692 0.033505330739567567 0 -0.0012768803471031409 0.03354304728408819 0 -0.0013410817567461907 0.033639952466324723 0 -0.0014038262907594668 0.033612969579421302 0 -0.0012768803471031409 0.03354304728408819 0 -0.0014038262907594668 0.033612969579421302 0 -0.001355439746942892 0.033459120903602653 0 -0.0014038262907594668 0.033612969579421302 0 -0.001355439746942892 0.033459120903602653 0 -0.0015008781905534692 0.033505330739567567 0 -0.001045457618590968 0.033005556370060189 0 -0.00062830224864760345 0.032948644431756623 0 -0.00081696460017234259 0.033224652872132492 0 -0.001280421559729201 0.033204025402434979 0 -0.00092218410953344844 0.033674866621462497 0 -0.0014887196847265778 0.033741621103189748 0 -0.0015008781905534692 0.033505330739567567 0 -0.0017742909444948035 0.033774633094836769 0 -0.001045457618590968 0.033005556370060189 0 -0.00062830224864760345 0.032948644431756623 0 -0.00065517406851318646 0.032626762572055837 0 -0.00062830224864760345 0.032948644431756623 0 -0.00030680008232575264 0.032757937255891954 0 -0.00027727941851346657 0.033127294209877464 0 -0.00062830224864760345 0.032948644431756623 0 -0.00030680008232575264 0.032757937255891954 0 -0.00065517406851318646 0.032626762572055837 0 0.00077799784222313032 0.029917577177022883 0 0.00085873618321844099 0.030085256496996695 0 0.00067052269132555887 0.030145682964382529 0 -0.00030680008232575264 0.032757937255891954 0 2.9457021679289075e-06 0.032533005619000008 0 -0.00027727941851346657 0.033127294209877464 0 0.0010419688542872736 0.029867071423743802 0 0.00040711471117907568 0.031815703344054064 0 0.00045892518955727385 0.03165230123672854 0 0.00040711471117907568 0.031815703344054064 0 0.00062432203115480645 0.033882321517490807 0 9.9341871957122598e-06 0.033502057854406971 0 0.00048007656975995722 0.033433131346714745 0 0.00062432203115480645 0.033882321517490807 0 -0.00060950878102784367 0.034010983909069273 0 9.9341871957122598e-06 0.033502057854406971 0 0.00045892518955727385 0.03165230123672854 0 -0.00092218410953344844 0.033674866621462497 0 -0.0010216676468826037 0.033998079442543856 0 -0.00029143125541555967 0.033646337830412806 0 -0.0011817320534433593 0.03341611682917061 0 -0.00030680008232575264 0.032757937255891954 0 2.9457021679289075e-06 0.032533005619000008 0 -0.00065517406851318646 0.032626762572055837 0 -0.00092218410953344844 0.033674866621462497 0 -0.00013281341564014217 0.033558457901557086 0 -0.00029143125541555967 0.033646337830412806 0 -2.3568893842650668e-05 0.032788915351263055 0 -0.00074784037714626544 0.03280667758571186 0 -0.00029143125541555967 0.033646337830412806 0 -0.00074784037714626544 0.03280667758571186 0 -0.0011817320534433593 0.03341611682917061 0 0.00062432203115480645 0.033882321517490807 0 0.00048007656975995722 0.033433131346714745 0 0.0010192256671158299 0.033148491399360817 0 0.00048007656975995722 0.033433131346714745 0 0.00062191088595146219 0.032973386771290407 0 0.0010192256671158299 0.033148491399360817 0 -0.00013281341564014217 0.033558457901557086 0 0.00054102959720219639 0.03302892685508297 0 9.9341871957122598e-06 0.033502057854406971 0 0.00048007656975995722 0.033433131346714745 0 0.00062191088595146219 0.032973386771290407 0 -0.00029143125541555967 0.033646337830412806 0 0.00062191088595146219 0.032973386771290407 0 -2.3568893842650668e-05 0.032788915351263055 0 0.00062191088595146219 0.032973386771290407 0 0.00057261675078112658 0.032560917287781037 0 -2.3568893842650668e-05 0.032788915351263055 0 0.00062191088595146219 0.032973386771290407 0 0.00057261675078112658 0.032560917287781037 0 0.00093776854279322721 0.032746761246685706 0 0.00057261675078112658 0.032560917287781037 0 0.00020463448839152677 0.032133073895409967 0 0.00067669834107603828 0.032192683494277126 0 0.00057261675078112658 0.032560917287781037 0 0.00067669834107603828 0.032192683494277126 0 0.00098258188977918453 0.032433140425793594 0 -2.3568893842650668e-05 0.032788915351263055 0 0.00020463448839152677 0.032133073895409967 0 -0.00026003801698079197 0.032376013969783644 0 0.00057261675078112658 0.032560917287781037 0 -2.3568893842650668e-05 0.032788915351263055 0 0.00020463448839152677 0.032133073895409967 0 0.00020463448839152677 0.032133073895409967 0 0.00067669834107603828 0.032192683494277126 0 0.00065860414627619084 0.031706505264860588 0 0.00067669834107603828 0.032192683494277126 0 0.00065860414627619084 0.031706505264860588 0 0.00091227245584976028 0.032065164234028845 0 -0.00074784037714626544 0.03280667758571186 0 -0.00026003801698079197 0.032376013969783644 0 -0.00053397253443177712 0.031880823891652775 0 -2.3568893842650668e-05 0.032788915351263055 0 -0.00074784037714626544 0.03280667758571186 0 -0.00026003801698079197 0.032376013969783644 0 0.00020463448839152677 0.032133073895409967 0 -0.00026003801698079197 0.032376013969783644 0 -0.00053397253443177712 0.031880823891652775 0 -0.00074784037714626544 0.03280667758571186 0 -0.00053397253443177712 0.031880823891652775 0 -0.0010361999094221394 0.03192054482477235 0 -0.00074784037714626544 0.03280667758571186 0 -0.0010361999094221394 0.03192054482477235 0 -0.0013531577913163968 0.032455060684712302 0 -0.0010361999094221394 0.03192054482477235 0 -0.0013531577913163968 0.032455060684712302 0 -0.0014721687770960891 0.03142009954186939 0 -0.0013531577913163968 0.032455060684712302 0 -0.0020432819685926992 0.032802353456213476 0 -0.0019208224334848313 0.031889598371527023 0 -0.0013531577913163968 0.032455060684712302 0 -0.0019208224334848313 0.031889598371527023 0 -0.0014721687770960891 0.03142009954186939 0 -0.0013531577913163968 0.032455060684712302 0 -0.0016327113809861541 0.03333069149033499 0 -0.0020432819685926992 0.032802353456213476 0 -0.0013531577913163968 0.032455060684712302 0 -0.0012255224711606272 0.033017286581640465 0 -0.0016327113809861541 0.03333069149033499 0 -0.00074784037714626544 0.03280667758571186 0 -0.0013531577913163968 0.032455060684712302 0 -0.0012255224711606272 0.033017286581640465 0 -0.0012255224711606272 0.033017286581640465 0 -0.0016327113809861541 0.03333069149033499 0 -0.0011817320534433593 0.03341611682917061 0 -0.00074784037714626544 0.03280667758571186 0 -0.0012255224711606272 0.033017286581640465 0 -0.0011817320534433593 0.03341611682917061 0 -0.0016327113809861541 0.03333069149033499 0 -0.0015275424676611902 0.033548379015075902 0 -0.0011817320534433593 0.03341611682917061 0 -0.0013748301744842609 0.033688195669427122 0 -0.0015275424676611902 0.033548379015075902 0 -0.0011817320534433593 0.03341611682917061 0 -0.0014145964293116862 0.03369810577429367 0 -0.0014227815538591598 0.033726210929140521 0 -0.0014905277462174851 0.033649344626329306 0 -0.0014227815538591598 0.033726210929140521 0 -0.0014905277462174851 0.033649344626329306 0 -0.001529417712920715 0.03359461005176409 0 -0.0014776542341484223 0.033676008241162556 0 -0.0015275424676611902 0.033548379015075902 0 -0.0014905277462174851 0.033649344626329306 0 -0.0015275424676611902 0.033548379015075902 0 -0.0014905277462174851 0.033649344626329306 0 -0.001529417712920715 0.03359461005176409 0 -0.0016327113809861541 0.03333069149033499 0 -0.001529417712920715 0.03359461005176409 0 -0.001473135887966897 0.03375682495369068 0 -0.0016327113809861541 0.03333069149033499 0 -0.0015275424676611902 0.033548379015075902 0 -0.001529417712920715 0.03359461005176409 0 -0.0014227815538591598 0.033726210929140521 0 -0.001529417712920715 0.03359461005176409 0 -0.001473135887966897 0.03375682495369068 0 -0.0013534969392173574 0.033878640192349423 0 -0.0014227815538591598 0.033726210929140521 0 -0.001473135887966897 0.03375682495369068 0 -0.0023396732275451433 0.033081413227606452 0 -0.00161136891960834 0.033409033784519808 0 -0.001440362862634626 0.034325905018718877 0 -0.0016327113809861541 0.03333069149033499 0 -0.0014328235347718559 0.033957632746667778 0 -0.0013534969392173574 0.033878640192349423 0 -0.001473135887966897 0.03375682495369068 0 -0.0014328235347718559 0.033957632746667778 0 -0.003018756439275789 0.031976718039220565 0 -0.0016327113809861541 0.03333069149033499 0 -0.0020432819685926992 0.032802353456213476 0 -0.0016327113809861541 0.03333069149033499 0 -0.001473135887966897 0.03375682495369068 0 -0.0014328235347718559 0.033957632746667778 0 -0.0021239051379137253 0.032694016480466763 0 -0.0027324600711573512 0.031625462338050914 0 -0.0020432819685926992 0.032802353456213476 0 -0.0027578246643616311 0.031565613197390895 0 -0.0019208224334848313 0.031889598371527023 0 -0.003018756439275789 0.031976718039220565 0 -0.0020432819685926992 0.032802353456213476 0 -0.0026856000857344575 0.031737205804980691 0 -0.0027578246643616311 0.031565613197390895 0 -0.0019208224334848313 0.031889598371527023 0 -0.0021974359792081384 0.031095684773844019 0 -0.0026171369284425654 0.030918749597304829 0 -0.0027324600711573512 0.031625462338050914 0 -0.0033787928539393583 0.030383232483261323 0 -0.0027578246643616311 0.031565613197390895 0 -0.0021974359792081384 0.031095684773844019 0 -0.0021974359792081384 0.031095684773844019 0 -0.0014721687770960891 0.03142009954186939 0 -0.0015255745732652636 0.030194576756607538 0 -0.0014721687770960891 0.03142009954186939 0 -0.0015255745732652636 0.030194576756607538 0 -0.00074704824358490446 0.030836327090514468 0 -0.0010361999094221394 0.03192054482477235 0 -0.0014721687770960891 0.03142009954186939 0 -0.00074704824358490446 0.030836327090514468 0 -0.0019208224334848313 0.031889598371527023 0 -0.0021974359792081384 0.031095684773844019 0 -0.0014721687770960891 0.03142009954186939 0 -0.0019880742173762232 0.030129719877052732 0 -0.0015255745732652636 0.030194576756607538 0 -0.0018482089912339951 0.029656654630096618 0 -0.0026171369284425654 0.030918749597304829 0 -0.0016012497091224074 0.030062534578617239 0 -0.0033787928539393583 0.030383232483261323 0 -0.0021974359792081384 0.031095684773844019 0 -0.0015255745732652636 0.030194576756607538 0 -0.0015255745732652636 0.030194576756607538 0 -0.0018482089912339951 0.029656654630096618 0 -0.0013982689002167185 0.029197365956152369 0 -0.0015255745732652636 0.030194576756607538 0 -0.0013982689002167185 0.029197365956152369 0 -0.00068608930359401177 0.029229133770379983 0 -0.0017536587451605261 0.028893309973128271 0 -0.0019620853873915764 0.029251317292507583 0 -0.0013982689002167185 0.029197365956152369 0 -0.0019620853873915764 0.029251317292507583 0 -0.0018482089912339951 0.029656654630096618 0 -0.0013982689002167185 0.029197365956152369 0 -0.00089018081380369464 0.028631869074715214 0 -0.00068608930359401177 0.029229133770379983 0 -0.00066117055336594387 0.028982269532831704 0 -0.00089018081380369464 0.028631869074715214 0 -0.0010031005255051572 0.028931512021921121 0 -0.00068608930359401177 0.029229133770379983 0 -0.0013982689002167185 0.029197365956152369 0 -0.0010031005255051572 0.028931512021921121 0 -0.00068608930359401177 0.029229133770379983 0 -0.00068608930359401177 0.029229133770379983 0 -0.00068961223180884082 0.029247934062569352 0 -0.00066117055336594387 0.028982269532831704 0 -0.0006191348719775271 0.029278952777761581 0 -0.00014611019941551169 0.02985976640527558 0 -0.00068608930359401177 0.029229133770379983 0 0.00043395184036582095 0.030475535983385475 0 -0.00074704824358490446 0.030836327090514468 0 -0.0015255745732652636 0.030194576756607538 0 -0.00068608930359401177 0.029229133770379983 0 -0.00074704824358490446 0.030836327090514468 0 -0.00053397253443177712 0.031880823891652775 0 -0.00074704824358490446 0.030836327090514468 0 0.00039228096981235342 0.031339276968874397 0 -0.00053397253443177712 0.031880823891652775 0 -0.0010361999094221394 0.03192054482477235 0 -0.00074704824358490446 0.030836327090514468 0 0.00043395184036582095 0.030475535983385475 0 -0.00074704824358490446 0.030836327090514468 0 0.00039228096981235342 0.031339276968874397 0 0.00043395184036582095 0.030475535983385475 0 0.00039228096981235342 0.031339276968874397 0 0.0012851268794639649 0.031747869171794653 0 0.00020463448839152677 0.032133073895409967 0 -0.00053397253443177712 0.031880823891652775 0 0.00039228096981235342 0.031339276968874397 0 0.00039228096981235342 0.031339276968874397 0 0.00065860414627619084 0.031706505264860588 0 0.0012851268794639649 0.031747869171794653 0 0.00020463448839152677 0.032133073895409967 0 0.00039228096981235342 0.031339276968874397 0 0.00065860414627619084 0.031706505264860588 0 -0.00051312157099837332 0.029561078586791668 0 -0.00036157450105856137 0.02947813536600704 0 -0.00048679275455877868 0.029324750058449593 0 -0.00014611019941551169 0.02985976640527558 0 0.00040087520141791514 0.030710643526106425 0 -0.00068961223180884082 0.029247934062569352 0 -0.00051312157099837332 0.029561078586791668 0 -0.00048679275455877868 0.029324750058449593 0 0.00065860414627619084 0.031706505264860588 0 0.0012851268794639649 0.031747869171794653 0 0.0010654868725529791 0.031866039687741848 0 0.00034231973815404001 0.030339485248612543 0 0.00066415392317016055 0.030166831031339072 0 0.00048489943753898937 0.030558911444598158 0 0.00040087520141791514 0.030710643526106425 0 0.00042055396569742865 0.029707846614711566 0 0.00079008060500509179 0.02961997294741215 0 0.00094638230148977114 0.029535300091654518 0 0.0010828490915520104 0.030071848230479429 0 0.00042055396569742865 0.029707846614711566 0 7.9029048827429545e-05 0.029641166332264952 0 -0.00036157450105856137 0.02947813536600704 0 -0.00029690656296129796 0.029328887057671227 0 -0.00048679275455877868 0.029324750058449593 0 0.00041709740410334736 0.02941604471864789 0 0.00039200469317153368 0.029429132232512041 0 0.00039846704896614348 0.029456704298637504 0 0.00082758867256133148 0.029070313960804881 0 7.9029048827429545e-05 0.029641166332264952 0 0.00042055396569742865 0.029707846614711566 0 0.00082758867256133148 0.029070313960804881 0 7.9029048827429545e-05 0.029641166332264952 0 6.8769220399093714e-06 0.029211500092364333 0 -0.00039622247580378971 0.030271557589903953 0 3.6762987076476733e-05 0.029277521954438893 0 0.0001365664325424466 0.029968029961870313 0 -0.00022137232555413886 0.029594870137893615 0 -0.00034649103296157096 0.029117329094500294 0 4.7331935595301663e-05 0.029056360844681713 0 -0.00029996196182015397 0.030643223323420826 0 -0.00039622247580378971 0.030271557589903953 0 0.0001365664325424466 0.029968029961870313 0 -0.00029690656296129796 0.029328887057671227 0 -0.00041737356242748687 0.029234501111802019 0 -0.00034649103296157096 0.029117329094500294 0 7.9029048827429545e-05 0.029641166332264952 0 -0.00033103613311676115 0.029084713008135137 0 -0.00068961223180884082 0.029247934062569352 0 -0.0005435587554766376 0.029159487899938389 0 -0.00066117055336594387 0.028982269532831704 0 -0.00068961223180884082 0.029247934062569352 0 -0.00048679275455877868 0.029324750058449593 0 -0.0005435587554766376 0.029159487899938389 0 -0.00041737356242748687 0.029234501111802019 0 -0.00048679275455877868 0.029324750058449593 0 -0.0005435587554766376 0.029159487899938389 0 -0.00029690656296129796 0.029328887057671227 0 -0.00041737356242748687 0.029234501111802019 0 -0.00048679275455877868 0.029324750058449593 0 -0.00041737356242748687 0.029234501111802019 0 -0.0005435587554766376 0.029159487899938389 0 -0.00034649103296157096 0.029117329094500294 0 -0.0005435587554766376 0.029159487899938389 0 -0.00066117055336594387 0.028982269532831704 0 -0.00034649103296157096 0.029117329094500294 0 -0.00066117055336594387 0.028982269532831704 0 -0.00034649103296157096 0.029117329094500294 0 -0.00029298122548289629 0.028671079023184769 0 4.7331935595301663e-05 0.029056360844681713 0 -0.00029298122548289629 0.028671079023184769 0 0.00043006033049876189 0.028255142752558502 0 -0.00034649103296157096 0.029117329094500294 0 4.7331935595301663e-05 0.029056360844681713 0 -0.00029298122548289629 0.028671079023184769 0 -0.00029298122548289629 0.028671079023184769 0 -9.5992534776822975e-05 0.028124223939354737 0 0.00043006033049876189 0.028255142752558502 0 -0.00029298122548289629 0.028671079023184769 0 -9.5992534776822975e-05 0.028124223939354737 0 -0.00060221431027181465 0.028319948516998088 0 -0.00089018081380369464 0.028631869074715214 0 -0.00066117055336594387 0.028982269532831704 0 -0.00060221431027181465 0.028319948516998088 0 -0.00066117055336594387 0.028982269532831704 0 -0.00029298122548289629 0.028671079023184769 0 -0.00060221431027181465 0.028319948516998088 0 0.0014787848015181586 0.027119549586971874 0 0.0018341680816723618 0.026631249650887139 0 0.0019722824558151592 0.026476674459663358 0 0.0015656594920363896 0.027060343422491976 0 0.0018575664263053868 0.027536666968401895 0 0.0014787848015181586 0.027119549586971874 0 0.00043006033049876189 0.028255142752558502 0 0.001789406772643757 0.028481267480097366 0 0.00059633678768811552 0.027290766270547509 0 -9.5992534776822975e-05 0.028124223939354737 0 0.00043006033049876189 0.028255142752558502 0 0.00059633678768811552 0.027290766270547509 0 0.0014787848015181586 0.027119549586971874 0 0.00043006033049876189 0.028255142752558502 0 3.6762987076476733e-05 0.029277521954438893 0 0.00097515876902462138 0.029166111862527974 0 0.00048689649744020015 0.029627615606271106 0 3.6762987076476733e-05 0.029277521954438893 0 0.00043006033049876189 0.028255142752558502 0 0.00097515876902462138 0.029166111862527974 0 6.8769220399093714e-06 0.029211500092364333 0 0.00041337140362655861 0.028314351666264798 0 0.0020293153223995279 0.029492701960404894 0 0.00097515876902462138 0.029166111862527974 0 0.001789406772643757 0.028481267480097366 0 0.0020458442892218711 0.027472514207750914 0 0.0018575664263053868 0.027536666968401895 0 0.00043006033049876189 0.028255142752558502 0 0.00097515876902462138 0.029166111862527974 0 0.001789406772643757 0.028481267480097366 0 0.0018250600797784079 0.027789231573226082 0 0.0018330550231303775 0.027827332773965024 0 0.0018557260950353498 0.027822332064610853 0 0.0020458442892218711 0.027472514207750914 0 0.0012427497494398581 0.029101692762245449 0 0.0020293153223995279 0.029492701960404894 0 0.00097515876902462138 0.029166111862527974 0 0.00080628600900644622 0.030091801901449809 0 0.00097515876902462138 0.029166111862527974 0 0.00048689649744020015 0.029627615606271106 0 0.00080628600900644622 0.030091801901449809 0 -0.00029996196182015397 0.030643223323420826 0 0.00080628600900644622 0.030091801901449809 0 0.0001365664325424466 0.029968029961870313 0 0.00048689649744020015 0.029627615606271106 0 0.00080628600900644622 0.030091801901449809 0 0.0001365664325424466 0.029968029961870313 0 3.6762987076476733e-05 0.029277521954438893 0 0.00048689649744020015 0.029627615606271106 0 0.0001365664325424466 0.029968029961870313 0 0.001879030779190601 0.027817409574263333 0 0.0018557260950353498 0.027822332064610853 0 0.001859893736786037 0.027792400838200046 0 0.00082758867256133148 0.029070313960804881 0 0.0012427497494398581 0.029101692762245449 0 0.0018250600797784079 0.027789231573226082 0 0.0018557260950353498 0.027822332064610853 0 0.001859893736786037 0.027792400838200046 0 0.0018250600797784079 0.027789231573226082 0 0.0018445160752129115 0.027765579293096601 0 0.001859893736786037 0.027792400838200046 0 0.0018445160752129115 0.027765579293096601 0 0.0018698692649975319 0.027761279263500381 0 0.001859893736786037 0.027792400838200046 0 0.0018445160752129115 0.027765579293096601 0 0.0018511157139944842 0.027739171937182908 0 0.0018698692649975319 0.027761279263500381 0 0.0015404006507220625 0.028864473907801322 0 0.0013604992502245295 0.029181127403278915 0 0.0018698692649975319 0.027761279263500381 0 0.0018817445047791862 0.027780337860901422 0 0.0018826270224035072 0.027740699140487518 0 0.0018511157139944842 0.027739171937182908 0 0.0018698692649975319 0.027761279263500381 0 0.0018784023498736029 0.027739128320753096 0 0.0018698692649975319 0.027761279263500381 0 0.0018826270224035072 0.027740699140487518 0 0.0018784023498736029 0.027739128320753096 0 0.0018698692649975319 0.027761279263500381 0 0.001859893736786037 0.027792400838200046 0 0.0018817445047791862 0.027780337860901422 0 0.001879030779190601 0.027817409574263333 0 0.001859893736786037 0.027792400838200046 0 0.0018817445047791862 0.027780337860901422 0 0.00082758867256133148 0.029070313960804881 0 0.0015404006507220625 0.028864473907801322 0 0.00072265163502593585 0.030690906578522484 0 0.0008290510387243779 0.030094014662901708 0 0.00079008060500509179 0.02961997294741215 0 0.0010828490915520104 0.030071848230479429 0 0.0006528453517504083 0.029922662293659041 0 0.0010828490915520104 0.030071848230479429 0 0.0006528453517504083 0.029922662293659041 0 0.00094022635110118096 0.030354327061532946 0 0.00072265163502593585 0.030690906578522484 0 0.00074869049972510081 0.031858513151932083 0 0.0015259831849204499 0.032191368016397395 0 0.00093776854279322721 0.032746761246685706 0 0.0010192256671158299 0.033148491399360817 0 0.0011639118494399078 0.032106410237312227 0 0.0015259831849204499 0.032191368016397395 0 0.00098258188977918453 0.032433140425793594 0 0.00067669834107603828 0.032192683494277126 0 0.00091227245584976028 0.032065164234028845 0 0.00098258188977918453 0.032433140425793594 0 0.00091227245584976028 0.032065164234028845 0 0.0011639118494399078 0.032106410237312227 0 0.00098258188977918453 0.032433140425793594 0 0.00065860414627619084 0.031706505264860588 0 0.00091227245584976028 0.032065164234028845 0 0.0010654868725529791 0.031866039687741848 0 0.00091227245584976028 0.032065164234028845 0 0.0010654868725529791 0.031866039687741848 0 0.0011639118494399078 0.032106410237312227 0 0.0012601181217141448 0.031759982432141662 0 0.0010654868725529791 0.031866039687741848 0 0.0011639118494399078 0.032106410237312227 0 0.00040087520141791514 0.030710643526106425 0 0.00053293776049915154 0.030844721856200047 0 0.00042055396569742865 0.029707846614711566 0 0.00072265163502593585 0.030690906578522484 0 0.0012601181217141448 0.031759982432141662 0 0.0011639118494399078 0.032106410237312227 0 0.0015259831849204499 0.032191368016397395 0 0.00040087520141791514 0.030710643526106425 0 0.00072265163502593585 0.030690906578522484 0 0.0015259831849204499 0.032191368016397395 0 0.00098258188977918453 0.032433140425793594 0 0.00093776854279322721 0.032746761246685706 0 0.00057261675078112658 0.032560917287781037 0 0.00098258188977918453 0.032433140425793594 0 0.00093776854279322721 0.032746761246685706 0 0.00055166205665323968 0.030335326006543647 0 0.00094022635110118096 0.030354327061532946 0 0.00078587634580544973 0.030616475988748591 0 0.00045892518955727385 0.03165230123672854 0 0.00074869049972510081 0.031858513151932083 0 0.00070361225204044727 0.030018771360619333 0 0.00055166205665323968 0.030335326006543647 0 0.00094022635110118096 0.030354327061532946 0 0.00062191088595146219 0.032973386771290407 0 0.00093776854279322721 0.032746761246685706 0 0.0010192256671158299 0.033148491399360817 0 0.0010828490915520104 0.030071848230479429 0 0.00094022635110118096 0.030354327061532946 0 0.0012000035894074433 0.030571153009538832 0 0.0008560257868509859 0.030241829230273461 0 0.0013604992502245295 0.029181127403278915 0 0.00094022635110118096 0.030354327061532946 0 0.00078587634580544973 0.030616475988748591 0 0.0012000035894074433 0.030571153009538832 0 0.00094448574705318896 0.029890652363678671 0 0.00099441800624705881 0.030022887143892951 0 0.0011010689720202917 0.029864781237484237 0 0.00077799784222313032 0.029917577177022883 0 0.00094448574705318896 0.029890652363678671 0 0.00085873618321844099 0.030085256496996695 0 0.00045892518955727385 0.03165230123672854 0 0.0008560257868509859 0.030241829230273461 0 0.00039609276825362366 0.030671816587756851 0 0.00055166205665323968 0.030335326006543647 0 0.00078587634580544973 0.030616475988748591 0 0.00094448574705318896 0.029890652363678671 0 0.00085873618321844099 0.030085256496996695 0 0.00099441800624705881 0.030022887143892951 0 0.001884958741800005 0.027694556810380886 0 0.0018640265163951859 0.027707075311890563 0 0.0018673884442664017 0.027645949346249372 0 0.00099441800624705881 0.030022887143892951 0 0.001134701915199602 0.029999794259789356 0 0.0010708510583996387 0.030084520563296423 0 0.001134701915199602 0.029999794259789356 0 0.0010708510583996387 0.030084520563296423 0 0.0011710580765135433 0.030124312173362738 0 0.00099441800624705881 0.030022887143892951 0 0.001134701915199602 0.029999794259789356 0 0.0011010689720202917 0.029864781237484237 0 0.0015311326981528324 0.028939804277048072 0 0.0016672292508963552 0.027932537539070598 0 0.0022246558626285323 0.026456301221024384 0 0.0024224663837408844 0.026339022058968427 0 0.0026034656577688248 0.024973235515041194 0 0.0026813051003448398 0.025153780712032558 0 0.0028020928206907653 0.024941806106867425 0 0.0018372820503445469 0.027704752199650334 0 0.0018640265163951859 0.027707075311890563 0 0.0018673884442664017 0.027645949346249372 0 0.0018372820503445469 0.027704752199650334 0 0.0018511157139944842 0.027739171937182908 0 0.0018640265163951859 0.027707075311890563 0 0.0018511157139944842 0.027739171937182908 0 0.0018640265163951859 0.027707075311890563 0 0.0018784023498736029 0.027739128320753096 0 0.001884958741800005 0.027694556810380886 0 0.0018859419940635918 0.027740191722653046 0 0.0018784023498736029 0.027739128320753096 0 0.0015311326981528324 0.028939804277048072 0 0.0013604992502245295 0.029181127403278915 0 0.001884958741800005 0.027694556810380886 0 0.0018640265163951859 0.027707075311890563 0 0.0018784023498736029 0.027739128320753096 0 0.0013604992502245295 0.029181127403278915 0 0.001577914566461889 0.029011660441907981 0 0.0016039709479652904 0.027812142973658544 0 0.0016762467566305316 0.02796877118945193 0 0.001818084959658858 0.027727720385385783 0 0.0021291307176985559 0.026604166185287416 0 0.0021732105983032902 0.026608736461192137 0 0.0021580219120709235 0.026554623461276461 0 0.001899084695868172 0.027203577226753459 0 0.0019969590739053709 0.026578509824325379 0 0.001899084695868172 0.027203577226753459 0 0.0024751386201148345 0.025992396872012234 0 0.0021215781066433472 0.027150791820632583 0 0.0024011884373097022 0.02719253010269793 0 0.0021866946122965731 0.027442669438743295 0 0.0026949868701135293 0.024619759332839674 0 0.0028635755023532516 0.024657952588447149 0 0.0027611501676649691 0.024792473426874573 0 0.0027613897515065423 0.024739095357403273 0 0.0024751386201148345 0.025992396872012234 0 0.0028635755023532516 0.024657952588447149 0 0.0027611501676649691 0.024792473426874573 0 0.002909099448705911 0.024833648325291707 0 0.0024751386201148345 0.025992396872012234 0 0.0019969590739053709 0.026578509824325379 0 0.0028578363952086855 0.024635565821873241 0 0.0024224663837408844 0.026339022058968427 0 0.0026034656577688248 0.024973235515041194 0 0.0027611501676649691 0.024792473426874573 0 0.0028753356378287765 0.024892835605077018 0 0.0027611501676649691 0.024792473426874573 0 0.0028753356378287765 0.024892835605077018 0 0.002909099448705911 0.024833648325291707 0 0.0024224663837408844 0.026339022058968427 0 0.0019969590739053709 0.026578509824325379 0 0.0010708510583996387 0.030084520563296423 0 0.0011710580765135433 0.030124312173362738 0 0.0009823503986516758 0.030192130139962435 0 0.0016672292508963552 0.027932537539070598 0 0.0010584537662020812 0.029126165793233887 0 0.001884958741800005 0.027694556810380886 0 0.0018673884442664017 0.027645949346249372 0 0.0018775775599918173 0.02764389558423019 0 0.0016039709479652904 0.027812142973658544 0 0.0017985721529687954 0.027654195317601819 0 0.0013629101763894492 0.027784467487042244 0 0.0024224663837408844 0.026339022058968427 0 0.0016672292508963552 0.027932537539070598 0 0.0016672292508963552 0.027932537539070598 0 0.0019969590739053709 0.026578509824325379 0 0.0019131210592358925 0.027000408254162719 0 0.0017749935498948936 0.027039311495071827 0 0.001809084069415074 0.027172899790585785 0 0.0016039709479652904 0.027812142973658544 0 0.0017985721529687954 0.027654195317601819 0 0.001818084959658858 0.027727720385385783 0 0.00099441800624705881 0.030022887143892951 0 0.0010708510583996387 0.030084520563296423 0 0.0009823503986516758 0.030192130139962435 0 0.00085873618321844099 0.030085256496996695 0 0.00099441800624705881 0.030022887143892951 0 0.0009823503986516758 0.030192130139962435 0 0.00085873618321844099 0.030085256496996695 0 0.0009823503986516758 0.030192130139962435 0 0.00085349218685215611 0.030231182696894898 0 0.00085873618321844099 0.030085256496996695 0 0.00085349218685215611 0.030231182696894898 0 0.00080549164368666601 0.030246144122031658 0 0.0013837612406534152 0.027112441880632002 0 0.0017550473409635515 0.027179398654440308 0 0.0016655648954811645 0.027290893745040984 0 0.0010891021259368846 0.0283890091317161 0 0.0015613456937676727 0.027547688850970045 0 0.0013629101763894492 0.027784467487042244 0 0.0010563255641060341 0.02787666829557477 0 0.0013649002272158972 0.027924650665353625 0 0.0010584537662020812 0.029126165793233887 0 0.0010891021259368846 0.0283890091317161 0 0.0013837612406534152 0.027112441880632002 0 0.0013189663870039931 0.027322346954720654 0 0.0012305306832152679 0.027153772328817743 0 0.0010891021259368846 0.0283890091317161 0 0.0010666338235467406 0.028380081839288265 0 0.0013837612406534152 0.027112441880632002 0 0.0016655648954811645 0.027290893745040984 0 0.0015272382137188299 0.027385380205414842 0 0.0013837612406534152 0.027112441880632002 0 0.0013189663870039931 0.027322346954720654 0 0.0015272382137188299 0.027385380205414842 0 0.0016039709479652904 0.027812142973658544 0 0.0016762467566305316 0.02796877118945193 0 0.0013649002272158972 0.027924650665353625 0 0.002087066711375938 0.027239692042243895 0 0.0017550473409635515 0.027179398654440308 0 0.0018310554136806798 0.02728931238791827 0 0.001899084695868172 0.027203577226753459 0 0.0015613456937676727 0.027547688850970045 0 0.0016039709479652904 0.027812142973658544 0 0.0013629101763894492 0.027784467487042244 0 0.0013649002272158972 0.027924650665353625 0 0.0016655648954811645 0.027290893745040984 0 0.0018310554136806798 0.02728931238791827 0 0.0017567531285984806 0.027398611958906555 0 0.0016655648954811645 0.027290893745040984 0 0.0017567531285984806 0.027398611958906555 0 0.0015272382137188299 0.027385380205414842 0 0.0017550473409635515 0.027179398654440308 0 0.0016655648954811645 0.027290893745040984 0 0.0018310554136806798 0.02728931238791827 0 0.002087066711375938 0.027239692042243895 0 0.0018310554136806798 0.02728931238791827 0 0.0019004790934813798 0.0273552726216689 0 0.0018310554136806798 0.02728931238791827 0 0.0019004790934813798 0.0273552726216689 0 0.0017567531285984806 0.027398611958906555 0 0.0017567531285984806 0.027398611958906555 0 0.0019332201123960703 0.027501141672303716 0 0.0016216301215825838 0.027632725623278755 0 0.0019332201123960703 0.027501141672303716 0 0.0019219453732879598 0.027641145339477539 0 0.0016216301215825838 0.027632725623278755 0 0.0019004790934813798 0.0273552726216689 0 0.0017567531285984806 0.027398611958906555 0 0.0019332201123960703 0.027501141672303716 0 0.0020025132585026651 0.0275415076290636 0 0.001658868929279226 0.027617733997720731 0 0.0013189663870039931 0.027322346954720654 0 0.0015272382137188299 0.027385380205414842 0 0.0013386005175705245 0.027564400717657214 0 0.0015272382137188299 0.027385380205414842 0 0.0016216301215825838 0.027632725623278755 0 0.0013386005175705245 0.027564400717657214 0 0.0017567531285984806 0.027398611958906555 0 0.0015272382137188299 0.027385380205414842 0 0.0016216301215825838 0.027632725623278755 0 0.0016216301215825838 0.027632725623278755 0 0.0013527777312265065 0.028001742797616278 0 0.0018088909809495124 0.02813702193023709 0 0.0016216301215825838 0.027632725623278755 0 0.0013386005175705245 0.027564400717657214 0 0.0013527777312265065 0.028001742797616278 0 0.001985841835163529 0.027642457822780034 0 0.0016216301215825838 0.027632725623278755 0 0.0018088909809495124 0.02813702193023709 0 0.0016300137580459305 0.021990820883184565 0 0.0015821401308633543 0.021497779625102832 0 0.0019363960363676736 0.021585013893213441 0 0.0022414282306365834 0.025340796962928097 0 0.0018097983250924341 0.024813256616303118 0 0.001985841835163529 0.027642457822780034 0 0.0023441638579420206 0.027657765255674305 0 0.0018088909809495124 0.02813702193023709 0 0.0019332201123960703 0.027501141672303716 0 0.0019219453732879598 0.027641145339477539 0 0.0021866946122965731 0.027442669438743295 0 0.0019219453732879598 0.027641145339477539 0 0.0022722559871230902 0.027662393882273466 0 0.0021866946122965731 0.027442669438743295 0 0.0020025132585026651 0.0275415076290636 0 0.0022414282306365834 0.025340796962928097 0 0.0022722559871230902 0.027662393882273466 0 0.0021866946122965731 0.027442669438743295 0 0.0024758477804171087 0.027487514658956561 0 0.001899084695868172 0.027203577226753459 0 0.0019647471523792908 0.027426767648291099 0 0.002087066711375938 0.027239692042243895 0 0.0019004790934813798 0.0273552726216689 0 0.0019332201123960703 0.027501141672303716 0 0.0021215781066433472 0.027150791820632583 0 0.0019332201123960703 0.027501141672303716 0 0.0021866946122965731 0.027442669438743295 0 0.0026685261645796646 0.024159133294314572 0 0.0028912002001034551 0.024217153146846956 0 0.0028003736423371319 0.024247319620863277 0 0.0026857494135642183 0.025405421532213951 0 0.0025138887764009107 0.025381067705078683 0 0.0025506625728131602 0.025523143389681844 0 0.0027613897515065423 0.024739095357403273 0 0.0025353013319188932 0.025624432457254483 0 0.0026926416415373505 0.024390222609187176 0 0.0028104107919941826 0.02428063489663038 0 0.0027156871369604842 0.024268516141877694 0 0.0024751386201148345 0.025992396872012234 0 0.0025353013319188932 0.025624432457254483 0 0.0024011884373097022 0.02719253010269793 0 0.0021866946122965731 0.027442669438743295 0 0.0024758477804171087 0.027487514658956561 0 0.0022414282306365834 0.025340796962928097 0 0.0025353013319188932 0.025624432457254483 0 0.0028912002001034551 0.024217153146846956 0 0.0028077332353892105 0.024280171439866247 0 0.0028003736423371319 0.024247319620863277 0 0.0025353013319188932 0.025624432457254483 0 0.002487463523280217 0.02518496543269351 0 0.0026685261645796646 0.024159133294314572 0 0.0028003736423371319 0.024247319620863277 0 0.0027156871369604842 0.024268516141877694 0 0.0028104107919941826 0.02428063489663038 0 0.0028003736423371319 0.024247319620863277 0 0.0027156871369604842 0.024268516141877694 0 0.0011368598983209975 0.022003873741036115 0 0.00099398880510253988 0.021583172003967713 0 0.0015821401308633543 0.021497779625102832 0 0.0018918527171583243 0.022952630831739713 0 0.0022414282306365834 0.025340796962928097 0 0.0011368598983209975 0.022003873741036115 0 0.0016300137580459305 0.021990820883184565 0 0.0015821401308633543 0.021497779625102832 0 0.0012638439213084043 0.021119594198923071 0 0.00099398880510253988 0.021583172003967713 0 0.0015821401308633543 0.021497779625102832 0 0.0015821401308633543 0.021497779625102832 0 0.0016895070054968248 0.02117960623868901 0 0.0019151589012080328 0.021337483133330136 0 0.0012638439213084043 0.021119594198923071 0 0.0015481843870021584 0.020449557689243329 0 0.0021875444473368456 0.020622877246009735 0 0.0013208907419718333 0.021107747697509154 0 0.0018617909422515789 0.020955767732120149 0 0.0012638439213084043 0.021119594198923071 0 0.0015821401308633543 0.021497779625102832 0 0.0016895070054968248 0.02117960623868901 0 0.0015481843870021584 0.020449557689243329 0 0.0021383583630638489 0.020167801228842014 0 0.0021875444473368456 0.020622877246009735 0 0.0012974594872780859 0.019698615568450047 0 0.0015481843870021584 0.020449557689243329 0 0.0021383583630638489 0.020167801228842014 0 0.0021383583630638489 0.020167801228842014 0 0.0021875444473368456 0.020622877246009735 0 0.0030529683677007736 0.020185962608278107 0 0.0021383583630638489 0.020167801228842014 0 0.0026081407114312812 0.019695932884157909 0 0.0019414930743753053 0.019389846447948608 0 0.0012123114296538986 0.019713447054845328 0 0.0021383583630638489 0.020167801228842014 0 0.0019414930743753053 0.019389846447948608 0 0.0012371026175229971 0.019640487373852947 0 0.0021006942062376907 0.020158977050789055 0 0.0030529683677007736 0.020185962608278107 0 0.0039062284314844865 0.019777077530673315 0 0.00316491315879304 0.019192324128998316 0 0.0026969216160106653 0.020424727683042598 0 0.0023798493455463423 0.022375470042368003 0 0.0026081407114312812 0.019695932884157909 0 0.0030529683677007736 0.020185962608278107 0 0.00316491315879304 0.019192324128998316 0 0.0021383583630638489 0.020167801228842014 0 0.0026081407114312812 0.019695932884157909 0 0.0030529683677007736 0.020185962608278107 0 0.0018617909422515789 0.020955767732120149 0 0.0026969216160106653 0.020424727683042598 0 0.0016895070054968248 0.02117960623868901 0 0.0019531057184100267 0.021225661580706566 0 0.0019151589012080328 0.021337483133330136 0 0.0019531057184100267 0.021225661580706566 0 0.0020302356126570159 0.021297629318992924 0 0.0020684263281879919 0.021254784601325637 0 0.0019531057184100267 0.021225661580706566 0 0.0020302356126570159 0.021297629318992924 0 0.0019151589012080328 0.021337483133330136 0 0.0019151589012080328 0.021337483133330136 0 0.0019363960363676736 0.021585013893213441 0 0.0020620874611837819 0.021379482614261713 0 0.0020302356126570159 0.021297629318992924 0 0.0019151589012080328 0.021337483133330136 0 0.0020620874611837819 0.021379482614261713 0 0.0015821401308633543 0.021497779625102832 0 0.0019151589012080328 0.021337483133330136 0 0.0019363960363676736 0.021585013893213441 0 0.0018097983250924341 0.024813256616303118 0 0.0018069331118931169 0.02487422531417376 0 0.0013527777312265065 0.028001742797616278 0 0.0018088909809495124 0.02813702193023709 0 0.0012911636145483639 0.028608148226311005 0 0.0013527777312265065 0.028001742797616278 0 0.0012911636145483639 0.028608148226311005 0 0.00096202373647321477 0.028054416718448959 0 0.00078460781440011429 0.028375641688337429 0 0.0012911636145483639 0.028608148226311005 0 0.00096202373647321477 0.028054416718448959 0 0.00078460781440011429 0.028375641688337429 0 0.00038671179944009456 0.0279234314856199 0 0.00096202373647321477 0.028054416718448959 0 0.00078460781440011429 0.028375641688337429 0 0.00076300237266971826 0.028724984654854003 0 0.0012911636145483639 0.028608148226311005 0 0.00076300237266971826 0.028724984654854003 0 0.0012911636145483639 0.028608148226311005 0 0.00075866662501301743 0.02909330372960443 0 0.00076300237266971826 0.028724984654854003 0 0.00052288378476178228 0.028952908988180703 0 0.0004572767299547942 0.028551578973655487 0 0.00078460781440011429 0.028375641688337429 0 0.00076300237266971826 0.028724984654854003 0 0.0004572767299547942 0.028551578973655487 0 0.0020302356126570159 0.021297629318992924 0 0.0020620874611837819 0.021379482614261713 0 0.0020787197723206429 0.021305648812099422 0 0.0020620874611837819 0.021379482614261713 0 0.0020787197723206429 0.021305648812099422 0 0.0020984979375173588 0.021330729018901075 0 0.0020302356126570159 0.021297629318992924 0 0.0020787197723206429 0.021305648812099422 0 0.0020684263281879919 0.021254784601325637 0 0.0018069331118931169 0.02487422531417376 0 0.00089857419216518607 0.025844615463942813 0 0.00076300237266971826 0.028724984654854003 0 0.00075866662501301743 0.02909330372960443 0 0.00052288378476178228 0.028952908988180703 0 0.00089857419216518607 0.025844615463942813 0 0.0012727801008030994 0.028649386214646525 0 0.00051788904529297738 0.026118336238157635 0 0.001210509373228515 0.026137428212130592 0 0.00014610403628243667 0.026676256733615674 0 0.00051788904529297738 0.026118336238157635 0 -0.00037726061561607285 0.026145844554399812 0 0.00014610403628243667 0.026676256733615674 0 0.001562827291222283 0.023713508682600949 0 -0.00017038048122611083 0.027013701984614575 0 0.00089857419216518607 0.025844615463942813 0 0.0018611517130858891 0.022678162604731277 0 0.00039149050764458162 0.025471840161215405 0 0.00051788904529297738 0.026118336238157635 0 0.0011779514962145042 0.026027833378439225 0 0.00039149050764458162 0.025471840161215405 0 0.00051788904529297738 0.026118336238157635 0 -0.00037726061561607285 0.026145844554399812 0 0.0020787197723206429 0.021305648812099422 0 0.0020984979375173588 0.021330729018901075 0 0.0020728350202464381 0.021302631715151923 0 0.00051788904529297738 0.026118336238157635 0 0.001210509373228515 0.026137428212130592 0 0.0011779514962145042 0.026027833378439225 0 0.001562827291222283 0.023713508682600949 0 0.0018611517130858891 0.022678162604731277 0 0.0011006528444891426 0.021928949745453116 0 0.0022625047881826678 0.02136028179884689 0 0.0027874859308626727 0.023156781389873624 0 0.0023798493455463423 0.022375470042368003 0 0.0018611517130858891 0.022678162604731277 0 0.0023798493455463423 0.022375470042368003 0 0.001562827291222283 0.023713508682600949 0 0.0020787197723206429 0.021305648812099422 0 0.0020684263281879919 0.021254784601325637 0 0.0020757601403882946 0.021262749904699854 0 0.0018021738585121763 0.021317879097080328 0 0.0018611517130858891 0.022678162604731277 0 0.00038125873180912457 0.029539332341520227 0 0.00014045092587826585 0.029204602951533005 0 -5.0364220563099937e-05 0.029932187889819727 0 0.00014045092587826585 0.029204602951533005 0 -0.00030775268102324046 0.029244945856652566 0 -5.0364220563099937e-05 0.029932187889819727 0 0.00089857419216518607 0.025844615463942813 0 -0.0001491207319489433 0.028033827764998773 0 0.00038125873180912457 0.029539332341520227 0 0.00052288378476178228 0.028952908988180703 0 0.00014045092587826585 0.029204602951533005 0 0.00080897244459689796 0.029145463139834422 0 0.00038125873180912457 0.029539332341520227 0 0.00052288378476178228 0.028952908988180703 0 0.00052288378476178228 0.028952908988180703 0 0.00018136905291524019 0.028894915529587759 0 0.00014045092587826585 0.029204602951533005 0 0.00018136905291524019 0.028894915529587759 0 0.00014045092587826585 0.029204602951533005 0 -0.00030775268102324046 0.029244945856652566 0 -0.00010462736922104026 0.03160098539397671 0 -0.00019628392615888703 0.031413904218510563 0 0.00018136905291524019 0.028894915529587759 0 6.3715980368906196e-05 0.028543258134313559 0 -0.00030775268102324046 0.029244945856652566 0 -0.00026642144958284434 0.034557556442270217 0 -0.00013044031748266722 0.034526189591174351 0 -0.00014984184564736808 0.034045434233510828 0 0.00052288378476178228 0.028952908988180703 0 0.00018136905291524019 0.028894915529587759 0 0.0004572767299547942 0.028551578973655487 0 0.00018136905291524019 0.028894915529587759 0 6.3715980368906196e-05 0.028543258134313559 0 0.0004572767299547942 0.028551578973655487 0 0.00078460781440011429 0.028375641688337429 0 0.0004572767299547942 0.028551578973655487 0 0.00038671179944009456 0.0279234314856199 0 6.3715980368906196e-05 0.028543258134313559 0 0.0004572767299547942 0.028551578973655487 0 0.00038671179944009456 0.0279234314856199 0 -0.00010462736922104026 0.03160098539397671 0 0.00013217292629264085 0.03122738665262955 0 -0.00026642144958284434 0.034557556442270217 0 -0.00019220094532121024 0.034631983106616721 0 -0.00016361667988289694 0.034623250874484035 0 -0.00026642144958284434 0.034557556442270217 0 -0.00019220094532121024 0.034631983106616721 0 -8.5037908310613429e-05 0.034649728277252295 0 -0.00026642144958284434 0.034557556442270217 0 -0.00016361667988289694 0.034623250874484035 0 -0.00013044031748266722 0.034526189591174351 0 -0.00018528678920365395 0.034640080772299318 0 -0.00019220094532121024 0.034631983106616721 0 -0.00016361667988289694 0.034623250874484035 0 -0.00018528678920365395 0.034640080772299318 0 -0.00022908839754190026 0.034580427794211666 0 -0.00016455519548696647 0.034684810728842316 0 -0.00018528678920365395 0.034640080772299318 0 -0.00019220094532121024 0.034631983106616721 0 -0.00022908839754190026 0.034580427794211666 0 -0.00019220094532121024 0.034631983106616721 0 -0.00022908839754190026 0.034580427794211666 0 -8.5037908310613429e-05 0.034649728277252295 0 -0.00022908839754190026 0.034580427794211666 0 -0.0003367290782859009 0.034169418941018832 0 -0.00085393130348456305 0.034036798919399591 0 -0.00022908839754190026 0.034580427794211666 0 -0.00015820269058863592 0.034805855151868251 0 -0.00016455519548696647 0.034684810728842316 0 -0.00026315114951934698 0.03456693043041701 0 -0.00045932248102488048 0.034458651475723953 0 -0.00022908839754190026 0.034580427794211666 0 -0.0003367290782859009 0.034169418941018832 0 -0.00015546533074779106 0.034361319478322501 0 -0.0003367290782859009 0.034169418941018832 0 -0.00010625037300533739 0.034131939428997844 0 -0.00023846038729806256 0.033998503925204912 0 -0.0003367290782859009 0.034169418941018832 0 -0.00010625037300533739 0.034131939428997844 0 -0.00015546533074779106 0.034361319478322501 0 0.00013217292629264085 0.03122738665262955 0 0.00074080558122400554 0.030829455533258221 0 5.9493915497847624e-05 0.034208123601375172 0 -0.00015546533074779106 0.034361319478322501 0 -8.5037908310613429e-05 0.034649728277252295 0 5.9493915497847624e-05 0.034208123601375172 0 -8.5037908310613429e-05 0.034649728277252295 0 0.00039223984740835742 0.033966712029765624 0 5.9493915497847624e-05 0.034208123601375172 0 0.00013281123610653592 0.034076423750120058 0 0.00039223984740835742 0.033966712029765624 0 5.9493915497847624e-05 0.034208123601375172 0 0.00013281123610653592 0.034076423750120058 0 2.798022300402756e-05 0.034069350587261654 0 5.9493915497847624e-05 0.034208123601375172 0 2.798022300402756e-05 0.034069350587261654 0 -0.00010625037300533739 0.034131939428997844 0 5.9493915497847624e-05 0.034208123601375172 0 -0.00010625037300533739 0.034131939428997844 0 -0.00015546533074779106 0.034361319478322501 0 -0.00022908839754190026 0.034580427794211666 0 -0.00015546533074779106 0.034361319478322501 0 -8.5037908310613429e-05 0.034649728277252295 0 0.00038671179944009456 0.0279234314856199 0 0.00096202373647321477 0.028054416718448959 0 0.0010527124814620587 0.027674394335402346 0 0.0013386005175705245 0.027564400717657214 0 0.0013527777312265065 0.028001742797616278 0 0.0010527124814620587 0.027674394335402346 0 0.0013527777312265065 0.028001742797616278 0 0.00096202373647321477 0.028054416718448959 0 0.0010527124814620587 0.027674394335402346 0 0.0010527124814620587 0.027674394335402346 0 0.0011247407816155734 0.027407748731421312 0 0.00067978137912536323 0.027322398593038581 0 0.0013189663870039931 0.027322346954720654 0 0.0013386005175705245 0.027564400717657214 0 0.0011247407816155734 0.027407748731421312 0 0.0013386005175705245 0.027564400717657214 0 0.0010527124814620587 0.027674394335402346 0 0.0011247407816155734 0.027407748731421312 0 0.00038671179944009456 0.0279234314856199 0 0.0010527124814620587 0.027674394335402346 0 0.00067978137912536323 0.027322398593038581 0 0.00039223984740835742 0.033966712029765624 0 0.00077040592221299374 0.03314731673140469 0 0.00019870775140818601 0.033652310190866848 0 0.00039223984740835742 0.033966712029765624 0 0.00022268478069153739 0.033892302420644178 0 0.00019870775140818601 0.033652310190866848 0 0.00039223984740835742 0.033966712029765624 0 0.00019078972449652001 0.033997458621392175 0 0.00022268478069153739 0.033892302420644178 0 0.00063978555368237949 0.030300956721803034 0 0.00080549164368666601 0.030246144122031658 0 0.00072001556380694889 0.030124274373752091 0 0.00074080558122400554 0.030829455533258221 0 0.0010666338235467406 0.028380081839288265 0 0.0011247407816155734 0.027407748731421312 0 0.00067978137912536323 0.027322398593038581 0 0.0012305306832152679 0.027153772328817743 0 0.0013189663870039931 0.027322346954720654 0 0.0011247407816155734 0.027407748731421312 0 0.0012305306832152679 0.027153772328817743 0 0.00085873618321844099 0.030085256496996695 0 0.00080549164368666601 0.030246144122031658 0 0.00072001556380694889 0.030124274373752091 0 -0.00062830224864760345 0.032948644431756623 0 -0.00027727941851346657 0.033127294209877464 0 -0.00081696460017234259 0.033224652872132492 0 0.00077040592221299374 0.03314731673140469 0 6.0084398168402582e-05 0.033323310153731987 0 0.00019870775140818601 0.033652310190866848 0 0.00040711471117907568 0.031815703344054064 0 -0.00042849661872354896 0.033402681384389149 0 0.00074080558122400554 0.030829455533258221 0 0.00040711471117907568 0.031815703344054064 0 6.0084398168402582e-05 0.033323310153731987 0 0.00019870775140818601 0.033652310190866848 0 -4.1323544311964754e-05 0.033694343882160221 0 6.0084398168402582e-05 0.033323310153731987 0 -0.00023141869688034878 0.033601203575649621 0 -4.1323544311964754e-05 0.033694343882160221 0 -0.001045457618590968 0.033005556370060189 0 -0.00081696460017234259 0.033224652872132492 0 -0.0012075996547034713 0.033267878147971962 0 -0.001280421559729201 0.033204025402434979 0 -0.0012159259673657742 0.033273564079797681 0 -0.001045457618590968 0.033005556370060189 0 -0.0012075996547034713 0.033267878147971962 0 -0.0012082525502495854 0.033271879554971642 0 -0.001355439746942892 0.033459120903602653 0 -0.0015008781905534692 0.033505330739567567 0 -0.0012082525502495854 0.033271879554971642 0 6.0084398168402582e-05 0.033323310153731987 0 -0.00060718036998812642 0.03348842461823185 0 -0.00023141869688034878 0.033601203575649621 0 -0.00042849661872354896 0.033402681384389149 0 -0.00094023156405964364 0.033316641761745772 0 -0.00060718036998812642 0.03348842461823185 0 -0.00023141869688034878 0.033601203575649621 0 -0.00043506186134175529 0.033709343816490725 0 -0.00023141869688034878 0.033601203575649621 0 -0.00023981855086668431 0.033793486202538484 0 -0.00043506186134175529 0.033709343816490725 0 -0.0003367290782859009 0.034169418941018832 0 -0.00046118912140046843 0.033907526701995934 0 -0.00085393130348456305 0.034036798919399591 0 -0.00023981855086668431 0.033793486202538484 0 -0.00043506186134175529 0.033709343816490725 0 -0.00046118912140046843 0.033907526701995934 0 -0.00060718036998812642 0.03348842461823185 0 -0.00043506186134175529 0.033709343816490725 0 -0.00064918902408108629 0.033764185872306278 0 -0.00043506186134175529 0.033709343816490725 0 -0.00064918902408108629 0.033764185872306278 0 -0.00046118912140046843 0.033907526701995934 0 -0.0003367290782859009 0.034169418941018832 0 -0.00046118912140046843 0.033907526701995934 0 -0.00023846038729806256 0.033998503925204912 0 -0.00023981855086668431 0.033793486202538484 0 -0.00046118912140046843 0.033907526701995934 0 -0.00023846038729806256 0.033998503925204912 0 -0.00010625037300533739 0.034131939428997844 0 -0.00023846038729806256 0.033998503925204912 0 -7.7028956437483027e-05 0.033940632987037284 0 -0.00023981855086668431 0.033793486202538484 0 -0.00023846038729806256 0.033998503925204912 0 -7.7028956437483027e-05 0.033940632987037284 0 -7.7028956437483027e-05 0.033940632987037284 0 4.7654809162302058e-05 0.033967904839537953 0 8.0879059808975056e-05 0.033847384166803246 0 2.798022300402756e-05 0.034069350587261654 0 -7.7028956437483027e-05 0.033940632987037284 0 4.7654809162302058e-05 0.033967904839537953 0 2.798022300402756e-05 0.034069350587261654 0 -0.00010625037300533739 0.034131939428997844 0 -7.7028956437483027e-05 0.033940632987037284 0 0.00013281123610653592 0.034076423750120058 0 0.00039223984740835742 0.033966712029765624 0 0.00019078972449652001 0.033997458621392175 0 2.798022300402756e-05 0.034069350587261654 0 0.00010640016218519009 0.034011398368006575 0 4.7654809162302058e-05 0.033967904839537953 0 0.00013281123610653592 0.034076423750120058 0 2.798022300402756e-05 0.034069350587261654 0 0.00010640016218519009 0.034011398368006575 0 0.00010640016218519009 0.034011398368006575 0 4.7654809162302058e-05 0.033967904839537953 0 0.00013419354059459031 0.033944642157478014 0 0.00013281123610653592 0.034076423750120058 0 0.00010640016218519009 0.034011398368006575 0 0.00019078972449652001 0.033997458621392175 0 0.00010640016218519009 0.034011398368006575 0 0.00019078972449652001 0.033997458621392175 0 0.00013419354059459031 0.033944642157478014 0 0.00022268478069153739 0.033892302420644178 0 8.0879059808975056e-05 0.033847384166803246 0 0.00013419354059459031 0.033944642157478014 0 0.00019078972449652001 0.033997458621392175 0 0.00022268478069153739 0.033892302420644178 0 0.00013419354059459031 0.033944642157478014 0 4.7654809162302058e-05 0.033967904839537953 0 8.0879059808975056e-05 0.033847384166803246 0 0.00013419354059459031 0.033944642157478014 0 8.0879059808975056e-05 0.033847384166803246 0 0.00019870775140818601 0.033652310190866848 0 -4.1323544311964754e-05 0.033694343882160221 0 0.00022268478069153739 0.033892302420644178 0 8.0879059808975056e-05 0.033847384166803246 0 0.00019870775140818601 0.033652310190866848 0 -7.7028956437483027e-05 0.033940632987037284 0 8.0879059808975056e-05 0.033847384166803246 0 -4.1323544311964754e-05 0.033694343882160221 0 -0.00023981855086668431 0.033793486202538484 0 -7.7028956437483027e-05 0.033940632987037284 0 -4.1323544311964754e-05 0.033694343882160221 0 -0.00023141869688034878 0.033601203575649621 0 -0.00023981855086668431 0.033793486202538484 0 -4.1323544311964754e-05 0.033694343882160221 0 -7.7625738429703387e-05 0.034826311175027089 0 -6.884357095375234e-05 0.034889198770899472 0 -2.8849590322851631e-05 0.034870825112357964 0 -8.9901027401229362e-05 0.034873191961117656 0 -7.7625738429703387e-05 0.034826311175027089 0 -0.00015820269058863592 0.034805855151868251 0 -8.9901027401229362e-05 0.034873191961117656 0 -7.7625738429703387e-05 0.034826311175027089 0 -6.884357095375234e-05 0.034889198770899472 0 -0.00060718036998812642 0.03348842461823185 0 -0.0012767848187578614 0.033645328859971485 0 -0.00084451953021896786 0.033730452884832826 0 -0.0008278814840669774 0.033983045594572228 0 -0.00045932248102488048 0.034458651475723953 0 -0.00064918902408108629 0.033764185872306278 0 -0.00046118912140046843 0.033907526701995934 0 -0.00085393130348456305 0.034036798919399591 0 -0.00064918902408108629 0.033764185872306278 0 -0.00085393130348456305 0.034036798919399591 0 -0.00084451953021896786 0.033730452884832826 0 -0.00060718036998812642 0.03348842461823185 0 -0.00064918902408108629 0.033764185872306278 0 -0.00084451953021896786 0.033730452884832826 0 -0.0012767848187578614 0.033645328859971485 0 -0.00085393130348456305 0.034036798919399591 0 -0.00084451953021896786 0.033730452884832826 0 -0.0011308671611333062 0.033294591000040043 0 -0.0012082525502495854 0.033271879554971642 0 -0.0011874406917332027 0.033337663607908567 0 -0.00094023156405964364 0.033316641761745772 0 -0.0008278814840669774 0.033983045594572228 0 -0.0012075996547034713 0.033267878147971962 0 -0.0010894419760382188 0.03321714562354159 0 -0.0012082525502495854 0.033271879554971642 0 -0.0010894419760382188 0.03321714562354159 0 -0.0011308671611333062 0.033294591000040043 0 -0.0012082525502495854 0.033271879554971642 0 -0.001355439746942892 0.033459120903602653 0 -0.0012082525502495854 0.033271879554971642 0 -0.0012424702836424022 0.033371080621879115 0 -0.0012253568814723783 0.033417618411738438 0 -0.001355439746942892 0.033459120903602653 0 -0.0012424702836424022 0.033371080621879115 0 -0.0012082525502495854 0.033271879554971642 0 -0.0012424702836424022 0.033371080621879115 0 -0.0011874406917332027 0.033337663607908567 0 -0.0012253568814723783 0.033417618411738438 0 -0.0012424702836424022 0.033371080621879115 0 -0.0011874406917332027 0.033337663607908567 0 -0.0011308671611333062 0.033294591000040043 0 -0.0011874406917332027 0.033337663607908567 0 -0.0011401459887231235 0.033369766257708766 0 -0.0012253568814723783 0.033417618411738438 0 -0.0011874406917332027 0.033337663607908567 0 -0.0011401459887231235 0.033369766257708766 0 -0.001100494259304304 0.033424522536440848 0 -0.0011401459887231235 0.033369766257708766 0 -0.0010629079687387404 0.033348213468589814 0 -0.0010163704367793095 0.033449617893816716 0 -0.001100494259304304 0.033424522536440848 0 -0.0010629079687387404 0.033348213468589814 0 -0.0011308671611333062 0.033294591000040043 0 -0.0011401459887231235 0.033369766257708766 0 -0.0010629079687387404 0.033348213468589814 0 -0.0011308671611333062 0.033294591000040043 0 -0.0010629079687387404 0.033348213468589814 0 -0.001073643247088759 0.033274775287753897 0 -0.0010894419760382188 0.03321714562354159 0 -0.0011308671611333062 0.033294591000040043 0 -0.001073643247088759 0.033274775287753897 0 -0.0010629079687387404 0.033348213468589814 0 -0.001073643247088759 0.033274775287753897 0 -0.00099271456082722451 0.033243464377562447 0 -0.0010894419760382188 0.03321714562354159 0 -0.001073643247088759 0.033274775287753897 0 -0.00099271456082722451 0.033243464377562447 0 -0.0008278814840669774 0.033983045594572228 0 -0.00056143763479092569 0.034093491915418578 0 -0.0010163704367793095 0.033449617893816716 0 -0.0010629079687387404 0.033348213468589814 0 -0.00092290590352012765 0.033405500101401961 0 -0.0010629079687387404 0.033348213468589814 0 -0.00099271456082722451 0.033243464377562447 0 -0.00092290590352012765 0.033405500101401961 0 -0.00061998436542570268 0.03347417509857948 0 -0.00099271456082722451 0.033243464377562447 0 -0.00092290590352012765 0.033405500101401961 0 -0.00032476392594387062 0.034193200140779569 0 -0.00056143763479092569 0.034093491915418578 0 -1.6357462677382975e-05 0.034924018420968546 0 -6.884357095375234e-05 0.034889198770899472 0 -2.8849590322851631e-05 0.034870825112357964 0 -1.6357462677382975e-05 0.034924018420968546 0 5.986277771317809e-06 0.034895094295654627 0 -2.8849590322851631e-05 0.034870825112357964 0 1.1603609154023393e-05 0.034922720889630679 0 -1.6357462677382975e-05 0.034924018420968546 0 5.986277771317809e-06 0.034895094295654627 0 5.986277771317809e-06 0.034895094295654627 0 1.7654719092760852e-06 0.034844497078117848 0 2.1978733517330913e-05 0.034878718853190618 0 5.986277771317809e-06 0.034895094295654627 0 -2.8849590322851631e-05 0.034870825112357964 0 1.7654719092760852e-06 0.034844497078117848 0 -7.7625738429703387e-05 0.034826311175027089 0 -2.8849590322851631e-05 0.034870825112357964 0 -4.5449697227368964e-05 0.034805954877966838 0 -4.5449697227368964e-05 0.034805954877966838 0 1.7654719092760852e-06 0.034844497078117848 0 -1.3091525913736085e-05 0.034792489649491248 0 -2.8849590322851631e-05 0.034870825112357964 0 -4.5449697227368964e-05 0.034805954877966838 0 1.7654719092760852e-06 0.034844497078117848 0 -4.5449697227368964e-05 0.034805954877966838 0 -1.3091525913736085e-05 0.034792489649491248 0 -6.5324932823749329e-05 0.034747243750035454 0 1.7654719092760852e-06 0.034844497078117848 0 3.9763750139420902e-05 0.03482409369180451 0 2.1978733517330913e-05 0.034878718853190618 0 1.7654719092760852e-06 0.034844497078117848 0 3.9763750139420902e-05 0.03482409369180451 0 -1.3091525913736085e-05 0.034792489649491248 0 3.9763750139420902e-05 0.03482409369180451 0 -1.3091525913736085e-05 0.034792489649491248 0 -4.7687018254583398e-05 0.034703958446967512 0 -1.3091525913736085e-05 0.034792489649491248 0 -6.5324932823749329e-05 0.034747243750035454 0 -4.7687018254583398e-05 0.034703958446967512 0 -6.5324932823749329e-05 0.034747243750035454 0 -0.00012556429069385925 0.034674509202909848 0 -4.7687018254583398e-05 0.034703958446967512 0 -6.5324932823749329e-05 0.034747243750035454 0 -0.00010249027303941485 0.034752655376395949 0 -0.00012556429069385925 0.034674509202909848 0 -7.7625738429703387e-05 0.034826311175027089 0 -0.00015820269058863592 0.034805855151868251 0 -0.00010249027303941485 0.034752655376395949 0 -4.5449697227368964e-05 0.034805954877966838 0 -6.5324932823749329e-05 0.034747243750035454 0 -0.00010249027303941485 0.034752655376395949 0 -7.7625738429703387e-05 0.034826311175027089 0 -4.5449697227368964e-05 0.034805954877966838 0 -0.00010249027303941485 0.034752655376395949 0 -0.00015820269058863592 0.034805855151868251 0 -0.00010249027303941485 0.034752655376395949 0 -0.00016455519548696647 0.034684810728842316 0 -0.00018528678920365395 0.034640080772299318 0 -0.00016455519548696647 0.034684810728842316 0 -0.00012556429069385925 0.034674509202909848 0 -0.00010249027303941485 0.034752655376395949 0 -0.00016455519548696647 0.034684810728842316 0 -0.00012556429069385925 0.034674509202909848 0 -0.00018528678920365395 0.034640080772299318 0 -0.00012556429069385925 0.034674509202909848 0 -0.00016361667988289694 0.034623250874484035 0 -0.00012556429069385925 0.034674509202909848 0 -0.00016361667988289694 0.034623250874484035 0 -0.00010395016932137317 0.034630513565033105 0 -0.00016361667988289694 0.034623250874484035 0 -0.00010395016932137317 0.034630513565033105 0 -0.00013044031748266722 0.034526189591174351 0 -0.00012556429069385925 0.034674509202909848 0 -0.00010395016932137317 0.034630513565033105 0 -4.7687018254583398e-05 0.034703958446967512 0 -0.00010395016932137317 0.034630513565033105 0 -8.3283243913758747e-05 0.034591150969362397 0 -4.7687018254583398e-05 0.034703958446967512 0 0.00026329368941622555 0.034525881126723196 0 0.00038650221378987946 0.034024541752448109 0 0.00065932817664807848 0.034525997117105203 0 0.00012975758902356794 0.03454819536653024 0 -0.00013265850053393316 0.034536032396638473 0 -0.00010395016932137317 0.034630513565033105 0 -8.3283243913758747e-05 0.034591150969362397 0 -0.00013044031748266722 0.034526189591174351 0 0.00026329368941622555 0.034525881126723196 0 -0.00013044031748266722 0.034526189591174351 0 7.0460433997962608e-05 0.034284003285956578 0 -0.00014984184564736808 0.034045434233510828 0 7.0460433997962608e-05 0.034284003285956578 0 0.00038650221378987946 0.034024541752448109 0 -0.00013044031748266722 0.034526189591174351 0 -0.00014984184564736808 0.034045434233510828 0 7.0460433997962608e-05 0.034284003285956578 0 0.00026329368941622555 0.034525881126723196 0 7.0460433997962608e-05 0.034284003285956578 0 0.00038650221378987946 0.034024541752448109 0 -0.00024330529723041162 0.034960533310644082 0 -0.00022041120889150468 0.034868931055990725 0 -0.00032432058997621422 0.034829079819221183 0 0.00015981898826559836 0.034779327545920814 0 -0.00023668322938173896 0.032837382622941336 0 -0.00030775268102324046 0.029244945856652566 0 -0.00067334636037286232 0.030018015752209241 0 -5.0364220563099937e-05 0.029932187889819727 0 -0.00014984184564736808 0.034045434233510828 0 0.00038650221378987946 0.034024541752448109 0 9.1612366073273979e-05 0.033483916523317087 0 -0.00019628392615888703 0.031413904218510563 0 -0.00023668322938173896 0.032837382622941336 0 -0.00013712438595312652 0.034904575564365069 0 -0.00015514249632347943 0.034987265084805867 0 -8.3167010847232684e-05 0.034959200542585028 0 -0.00013712438595312652 0.034904575564365069 0 -0.00015514249632347943 0.034987265084805867 0 -0.00022041120889150468 0.034868931055990725 0 -0.00024330529723041162 0.034960533310644082 0 -0.00015514249632347943 0.034987265084805867 0 -0.00022041120889150468 0.034868931055990725 0 -0.00024330529723041162 0.034960533310644082 0 -0.00015514249632347943 0.034987265084805867 0 -0.0001712489479549042 0.035056980614761118 0 0.00015981898826559836 0.034779327545920814 0 0.00010842265614763373 0.034703446420857716 0 -0.00015514249632347943 0.034987265084805867 0 -7.1515585856505976e-05 0.035044313437055566 0 -8.3167010847232684e-05 0.034959200542585028 0 -0.00015514249632347943 0.034987265084805867 0 -0.0001712489479549042 0.035056980614761118 0 -7.1515585856505976e-05 0.035044313437055566 0 0.00010842265614763373 0.034703446420857716 0 -6.1046580619965448e-05 0.035019850345009283 0 0.00012975758902356794 0.03454819536653024 0 0.00010842265614763373 0.034703446420857716 0 3.9763750139420902e-05 0.03482409369180451 0 3.3395163931819677e-06 0.034614310697713736 0 -4.7687018254583398e-05 0.034703958446967512 0 -8.3283243913758747e-05 0.034591150969362397 0 3.3395163931819677e-06 0.034614310697713736 0 -4.7687018254583398e-05 0.034703958446967512 0 3.9763750139420902e-05 0.03482409369180451 0 9.9249503127179253e-05 0.034913415873477543 0 1.710290505770339e-05 0.034922477574220741 0 2.9308838575868373e-05 0.034834941928096268 0 0.00010842265614763373 0.034703446420857716 0 3.9763750139420902e-05 0.03482409369180451 0 1.710290505770339e-05 0.034922477574220741 0 1.3861199080319946e-05 0.034898862624058849 0 1.6361060826826867e-06 0.034956034160764225 0 6.6807007953780036e-06 0.034948477888152349 0 1.3861199080319946e-05 0.034898862624058849 0 1.710290505770339e-05 0.034922477574220741 0 1.6361060826826867e-06 0.034956034160764225 0 1.3861199080319946e-05 0.034898862624058849 0 -6.1046580619965448e-05 0.035019850345009283 0 -1.28584162736115e-06 0.03498478188363454 0 -7.1515585856505976e-05 0.035044313437055566 0 -2.1521310507451832e-05 0.034982109972264072 0 -9.9491780798245876e-06 0.035021718872409596 0 -7.1515585856505976e-05 0.035044313437055566 0 -2.1521310507451832e-05 0.034982109972264072 0 -8.3167010847232684e-05 0.034959200542585028 0 -2.1521310507451832e-05 0.034982109972264072 0 -4.2187659476248039e-05 0.034942573355047434 0 1.631724806806453e-06 0.034942530683838652 0 -2.1521310507451832e-05 0.034982109972264072 0 -4.2187659476248039e-05 0.034942573355047434 0 -8.3167010847232684e-05 0.034959200542585028 0 -4.2187659476248039e-05 0.034942573355047434 0 -8.3167010847232684e-05 0.034959200542585028 0 -7.9273957063144635e-05 0.034880675361137634 0 -0.00013712438595312652 0.034904575564365069 0 -8.3167010847232684e-05 0.034959200542585028 0 -7.9273957063144635e-05 0.034880675361137634 0 9.7865306428951703e-10 0.03499997371027317 0 -8.4280246614875873e-07 0.034977768744806237 0 -6.6047506740150552e-07 0.034996972479122722 0 9.7865306428951703e-10 0.03499997371027317 0 -8.4280246614875873e-07 0.034977768744806237 0 -4.3231512331039928e-06 0.034979480494443327 0 -2.1521310507451832e-05 0.034982109972264072 0 -8.4280246614875873e-07 0.034977768744806237 0 1.631724806806453e-06 0.034942530683838652 0 -2.1521310507451832e-05 0.034982109972264072 0 -6.6047506740150552e-07 0.034996972479122722 0 -9.9491780798245876e-06 0.035021718872409596 0 -2.1521310507451832e-05 0.034982109972264072 0 -8.4280246614875873e-07 0.034977768744806237 0 -6.6047506740150552e-07 0.034996972479122722 0 9.7865306428951703e-10 0.03499997371027317 0 -6.6047506740150552e-07 0.034996972479122722 0 1.1549391182850324e-08 0.035000026763520417 0 2.5289413582761825e-10 0.03499996558885738 0 1.6361060826826867e-06 0.034956034160764225 0 1.2182168734620424e-06 0.034975518220470327 0 -2.1826214957604349e-08 0.034999998265987792 0 -1.28584162736115e-06 0.03498478188363454 0 -6.6047506740150552e-07 0.034996972479122722 0 1.1549391182850324e-08 0.035000026763520417 0 -9.9491780798245876e-06 0.035021718872409596 0 1.6361060826826867e-06 0.034956034160764225 0 1.2182168734620424e-06 0.034975518220470327 0 6.6807007953780036e-06 0.034948477888152349 0 1.2182168734620424e-06 0.034975518220470327 0 -3.4503987659224786e-10 0.034999948749877469 0 6.6807007953780036e-06 0.034948477888152349 0 2.5289413582761825e-10 0.03499996558885738 0 1.2182168734620424e-06 0.034975518220470327 0 -3.4503987659224786e-10 0.034999948749877469 0 -3.4503987659224786e-10 0.034999948749877469 0 6.7618876482184884e-06 0.034965554496458252 0 6.6807007953780036e-06 0.034948477888152349 0 -3.4503987659224786e-10 0.034999948749877469 0 8.7914772475928216e-09 0.034999970401898714 0 6.7618876482184884e-06 0.034965554496458252 0 8.7914772475928216e-09 0.034999970401898714 0 6.7618876482184884e-06 0.034965554496458252 0 1.0778066637186267e-05 0.034961458606082615 0 6.7618876482184884e-06 0.034965554496458252 0 1.4818717212816858e-05 0.034927136144565746 0 1.0778066637186267e-05 0.034961458606082615 0 6.7618876482184884e-06 0.034965554496458252 0 6.6807007953780036e-06 0.034948477888152349 0 1.4818717212816858e-05 0.034927136144565746 0 6.6807007953780036e-06 0.034948477888152349 0 1.3861199080319946e-05 0.034898862624058849 0 1.4818717212816858e-05 0.034927136144565746 0 3.9763750139420902e-05 0.03482409369180451 0 1.3861199080319946e-05 0.034898862624058849 0 2.1978733517330913e-05 0.034878718853190618 0 1.3861199080319946e-05 0.034898862624058849 0 2.1978733517330913e-05 0.034878718853190618 0 1.4818717212816858e-05 0.034927136144565746 0 2.1978733517330913e-05 0.034878718853190618 0 1.4818717212816858e-05 0.034927136144565746 0 2.0643089029086321e-05 0.034925714648740648 0 1.4818717212816858e-05 0.034927136144565746 0 2.0643089029086321e-05 0.034925714648740648 0 1.0778066637186267e-05 0.034961458606082615 0 5.986277771317809e-06 0.034895094295654627 0 2.1978733517330913e-05 0.034878718853190618 0 2.0643089029086321e-05 0.034925714648740648 0 1.1603609154023393e-05 0.034922720889630679 0 5.986277771317809e-06 0.034895094295654627 0 2.0643089029086321e-05 0.034925714648740648 0 1.8719310870352258e-05 0.034929650873948469 0 2.0643089029086321e-05 0.034925714648740648 0 1.3105209608319558e-05 0.034943317802854555 0 1.8719310870352258e-05 0.034929650873948469 0 1.1603609154023393e-05 0.034922720889630679 0 2.0643089029086321e-05 0.034925714648740648 0 2.0643089029086321e-05 0.034925714648740648 0 1.3105209608319558e-05 0.034943317802854555 0 1.0778066637186267e-05 0.034961458606082615 0 1.3105209608319558e-05 0.034943317802854555 0 -2.0792858922722307e-09 0.034999888766511542 0 1.0778066637186267e-05 0.034961458606082615 0 1.3998528116897689e-05 0.034965009389682236 0 3.4518891584408048e-09 0.034999987639047284 0 8.7914772475928216e-09 0.034999970401898714 0 -2.0792858922722307e-09 0.034999888766511542 0 1.0778066637186267e-05 0.034961458606082615 0 -1.0299617534596252e-07 0.035000260306661597 0 5.8719405026080651e-07 0.034998270441367975 0 3.4309134070162856e-05 0.034805177999075794 0 -5.5030140773563189e-05 0.034903042336638733 0 -1.0299617534596252e-07 0.035000260306661597 0 3.4309134070162856e-05 0.034805177999075794 0 -0.00010631542504346325 0.034771032070876319 0 -5.5030140773563189e-05 0.034903042336638733 0 3.4309134070162856e-05 0.034805177999075794 0 -0.00010631542504346325 0.034771032070876319 0 -0.00022383880452466737 0.034889397924391545 0 -0.00031712331204551881 0.034748753476343944 0 -0.00010631542504346325 0.034771032070876319 0 -0.00022383880452466737 0.034889397924391545 0 -5.5030140773563189e-05 0.034903042336638733 0 -0.00022383880452466737 0.034889397924391545 0 -5.5030140773563189e-05 0.034903042336638733 0 -0.00018577078940647731 0.034987289419912984 0 -0.00022383880452466737 0.034889397924391545 0 -0.00018577078940647731 0.034987289419912984 0 -0.00027704461971409791 0.034966005707003769 0 -6.4836799025767697e-05 0.0349084821119863 0 -0.00011918244161607201 0.034951316958814982 0 -5.5030140773563189e-05 0.034903042336638733 0 -4.2293122262554169e-05 0.034963816048775749 0 -7.5554784203430466e-05 0.034949647316490487 0 -4.2293122262554169e-05 0.034963816048775749 0 -7.5554784203430466e-05 0.034949647316490487 0 -5.5122290697889268e-05 0.034979797696890108 0 -0.00018577078940647731 0.034987289419912984 0 -0.00027290843973050915 0.035041195876422987 0 -0.00027704461971409791 0.034966005707003769 0 -0.00011918244161607201 0.034951316958814982 0 -0.00019365695993562072 0.035084373125729942 0 -5.5122290697889268e-05 0.034979797696890108 0 -6.873370188408279e-05 0.034994807219364828 0 -8.9425098304886223e-05 0.03497328812593696 0 -7.5554784203430466e-05 0.034949647316490487 0 -5.5122290697889268e-05 0.034979797696890108 0 -8.9425098304886223e-05 0.03497328812593696 0 -5.5122290697889268e-05 0.034979797696890108 0 -2.6213935987610139e-05 0.034989988497343145 0 -3.9931641051542959e-05 0.034997529596081135 0 -4.2293122262554169e-05 0.034963816048775749 0 -5.5122290697889268e-05 0.034979797696890108 0 -2.6213935987610139e-05 0.034989988497343145 0 -4.2293122262554169e-05 0.034963816048775749 0 -1.0299617534596252e-07 0.035000260306661597 0 -2.6213935987610139e-05 0.034989988497343145 0 -1.0299617534596252e-07 0.035000260306661597 0 -2.6213935987610139e-05 0.034989988497343145 0 -9.169503865947253e-06 0.035001808319049969 0 -5.5030140773563189e-05 0.034903042336638733 0 -4.2293122262554169e-05 0.034963816048775749 0 -1.0299617534596252e-07 0.035000260306661597 0 -1.0299617534596252e-07 0.035000260306661597 0 -9.169503865947253e-06 0.035001808319049969 0 2.2068344512529388e-09 0.034999914817243398 0 -2.6213935987610139e-05 0.034989988497343145 0 -9.169503865947253e-06 0.035001808319049969 0 -3.9931641051542959e-05 0.034997529596081135 0 -9.169503865947253e-06 0.035001808319049969 0 3.6463561646173724e-06 0.034982751639633908 0 1.8080664566896938e-05 0.035000395135955993 0 -1.3755842349036731e-05 0.034998191314031715 0 -9.6160065313544392e-06 0.035029756511833245 0 9.7865306428951703e-10 0.03499997371027317 0 2.2068344512529388e-09 0.034999914817243398 0 -4.3231512331039928e-06 0.034979480494443327 0 -9.169503865947253e-06 0.035001808319049969 0 2.2068344512529388e-09 0.034999914817243398 0 -4.3231512331039928e-06 0.034979480494443327 0 -4.3231512331039928e-06 0.034979480494443327 0 1.631724806806453e-06 0.034942530683838652 0 3.6463561646173724e-06 0.034982751639633908 0 -9.169503865947253e-06 0.035001808319049969 0 -4.3231512331039928e-06 0.034979480494443327 0 3.6463561646173724e-06 0.034982751639633908 0 -8.4280246614875873e-07 0.034977768744806237 0 -4.3231512331039928e-06 0.034979480494443327 0 1.631724806806453e-06 0.034942530683838652 0 -7.9273957063144635e-05 0.034880675361137634 0 1.631724806806453e-06 0.034942530683838652 0 -4.4490188881641667e-05 0.034798541710293 0 -4.2187659476248039e-05 0.034942573355047434 0 -7.9273957063144635e-05 0.034880675361137634 0 1.631724806806453e-06 0.034942530683838652 0 1.631724806806453e-06 0.034942530683838652 0 3.6463561646173724e-06 0.034982751639633908 0 2.9925535303868525e-05 0.034980369704630428 0 3.6463561646173724e-06 0.034982751639633908 0 2.9925535303868525e-05 0.034980369704630428 0 1.8080664566896938e-05 0.035000395135955993 0 -2.7207315381242686e-07 0.034930374016330687 0 -6.7497580732493945e-06 0.034897172613624114 0 -7.9273957063144635e-05 0.034880675361137634 0 -4.4490188881641667e-05 0.034798541710293 0 -0.0001115406495578855 0.034786362447764729 0 -4.4490188881641667e-05 0.034798541710293 0 -0.00011812408695704093 0.03468320596296761 0 -0.0001115406495578855 0.034786362447764729 0 -9.6160065313544392e-06 0.035029756511833245 0 -4.3741804623573566e-05 0.034797268758817536 0 -4.9321187064302746e-05 0.035015336473171184 0 -6.873370188408279e-05 0.034994807219364828 0 -9.1603432417758634e-05 0.035012292195132126 0 -6.7497580732493945e-06 0.034897172613624114 0 -4.3741804623573566e-05 0.034797268758817536 0 2.9925535303868525e-05 0.034980369704630428 0 1.8080664566896938e-05 0.035000395135955993 0 4.6178082210322613e-05 0.034998950513616303 0 -9.169503865947253e-06 0.035001808319049969 0 -4.9321187064302746e-05 0.035015336473171184 0 -3.9931641051542959e-05 0.034997529596081135 0 -5.5122290697889268e-05 0.034979797696890108 0 -3.9931641051542959e-05 0.034997529596081135 0 -6.873370188408279e-05 0.034994807219364828 0 -4.9321187064302746e-05 0.035015336473171184 0 -3.9931641051542959e-05 0.034997529596081135 0 -6.873370188408279e-05 0.034994807219364828 0 -6.873370188408279e-05 0.034994807219364828 0 -8.9824013820174144e-05 0.034992816563370034 0 -9.1603432417758634e-05 0.035012292195132126 0 -6.873370188408279e-05 0.034994807219364828 0 -8.9824013820174144e-05 0.034992816563370034 0 -8.9425098304886223e-05 0.03497328812593696 0 -8.9824013820174144e-05 0.034992816563370034 0 -0.00010923369181095625 0.034992510626664697 0 -8.9425098304886223e-05 0.03497328812593696 0 -8.9824013820174144e-05 0.034992816563370034 0 -0.00010923369181095625 0.034992510626664697 0 -9.1603432417758634e-05 0.035012292195132126 0 -0.00035971453184129411 0.034172287833320797 0 -0.00044193810034309154 0.034273685052931921 0 -0.00013923736531692339 0.034407638445174006 0 -0.00047149580781312764 0.034401608790915257 0 -4.3741804623573566e-05 0.034797268758817536 0 -0.0010785957906943912 0.033579540255296615 0 -0.0013009773994749482 0.032625893603936952 0 -0.0010447799793285939 0.033451248375326086 0 -0.00096468354660129421 0.033237205649137243 0 -0.00093037748643966451 0.033378513413031941 0 -0.0010447799793285939 0.033451248375326086 0 -0.001038937749157573 0.033341450839330738 0 -0.00096605657707657866 0.033277684655532241 0 -0.0010447799793285939 0.033451248375326086 0 -0.0010710236994167319 0.033374900769811033 0 -0.001038937749157573 0.033341450839330738 0 -0.0010447799793285939 0.033451248375326086 0 -0.00093037748643966451 0.033378513413031941 0 -0.00097287506206267282 0.033459081188821654 0 -0.0010447799793285939 0.033451248375326086 0 -0.0011280698216785592 0.033381168770417982 0 -0.0010129439517593591 0.033504969167559122 0 -0.00047149580781312764 0.034401608790915257 0 -0.00070845321005497065 0.034251547048410352 0 -0.0010447799793285939 0.033451248375326086 0 -0.0011280698216785592 0.033381168770417982 0 -0.0010710236994167319 0.033374900769811033 0 -0.0011280698216785592 0.033381168770417982 0 -0.0010863483811308669 0.033328729847045546 0 -0.0010710236994167319 0.033374900769811033 0 -0.00047149580781312764 0.034401608790915257 0 -0.0006318144957374504 0.033878506565502994 0 -0.0006318144957374504 0.033878506565502994 0 -0.00053451546163691831 0.03389388971795701 0 -0.0006318144957374504 0.033878506565502994 0 -0.00078744544385894722 0.033492017550699402 0 -0.0010863483811308669 0.033328729847045546 0 -0.0010710236994167319 0.033374900769811033 0 -0.001038937749157573 0.033341450839330738 0 -0.0010863483811308669 0.033328729847045546 0 -0.001038937749157573 0.033341450839330738 0 -0.0010262518489775154 0.033274863654190988 0 -0.001038937749157573 0.033341450839330738 0 -0.0010262518489775154 0.033274863654190988 0 -0.00096605657707657866 0.033277684655532241 0 -0.00044193810034309154 0.034273685052931921 0 -0.00052608104412697114 0.034376972340537437 0 -0.00013923736531692339 0.034407638445174006 0 -0.00021706302544887129 0.034661617016158622 0 -0.00019506652426996507 0.034696349927545576 0 -0.00011812408695704093 0.03468320596296761 0 -0.0010398293101971546 0.032716489423343584 0 -0.001041951867238048 0.032711942493706125 0 -0.0010301603109493763 0.032711222447076346 0 -0.0007889403589391279 0.032920168655560973 0 -0.00078744544385894722 0.033492017550699402 0 -0.00025829575607028669 0.034674097050390373 0 -0.00022438728202694896 0.034644682198649634 0 -0.00022838010870664216 0.034672964115198754 0 -0.0007889403589391279 0.032920168655560973 0 -0.00044208233226034765 0.033262914840916799 0 -0.00025829575607028669 0.034674097050390373 0 -0.00022838010870664216 0.034672964115198754 0 -0.00023143534502844174 0.034686143297367251 0 -0.001041951867238048 0.032711942493706125 0 -0.0010301603109493763 0.032711222447076346 0 -0.0010445592502219176 0.032707472489285905 0 -0.00078744544385894722 0.033492017550699402 0 -0.0013009773994749482 0.032625893603936952 0 -0.00053451546163691831 0.03389388971795701 0 -0.00056636011035196988 0.034082646993207233 0 -0.0007734971310100748 0.033775672817436556 0 -0.00059310825251447966 0.033618825712078054 0 -0.00064648295246867347 0.033615469151659763 0 -0.00022438728202694896 0.034644682198649634 0 -0.00020886809946155235 0.034645206238116635 0 -0.00022838010870664216 0.034672964115198754 0 -0.00078744544385894722 0.033492017550699402 0 -0.00053451546163691831 0.03389388971795701 0 -0.00021706302544887129 0.034661617016158622 0 -0.00022838010870664216 0.034672964115198754 0 -0.00019506652426996507 0.034696349927545576 0 -0.00022838010870664216 0.034672964115198754 0 -0.00023143534502844174 0.034686143297367251 0 -0.00019506652426996507 0.034696349927545576 0 -0.00019506652426996507 0.034696349927545576 0 -0.00021470311565879326 0.034725152286922543 0 -0.00016113155166758064 0.034749374638514123 0 -0.00023143534502844174 0.034686143297367251 0 -0.00021470311565879326 0.034725152286922543 0 -0.00027339864650109322 0.034698396933131481 0 -0.00023143534502844174 0.034686143297367251 0 -0.00019506652426996507 0.034696349927545576 0 -0.00021470311565879326 0.034725152286922543 0 -0.00053451546163691831 0.03389388971795701 0 -4.3741804623573566e-05 0.034797268758817536 0 -0.00011812408695704093 0.03468320596296761 0 -0.0001115406495578855 0.034786362447764729 0 -0.00016113155166758064 0.034749374638514123 0 -0.00019506652426996507 0.034696349927545576 0 -0.00011812408695704093 0.03468320596296761 0 -0.00016113155166758064 0.034749374638514123 0 -7.9273957063144635e-05 0.034880675361137634 0 -0.0001115406495578855 0.034786362447764729 0 -0.00015424603459823069 0.034816263544986153 0 -0.0001115406495578855 0.034786362447764729 0 -0.00015424603459823069 0.034816263544986153 0 -0.00016113155166758064 0.034749374638514123 0 -0.00021470311565879326 0.034725152286922543 0 -0.00016113155166758064 0.034749374638514123 0 -0.00022145768490333814 0.034780895330101619 0 -0.00021470311565879326 0.034725152286922543 0 -0.00022145768490333814 0.034780895330101619 0 -0.00027339864650109322 0.034698396933131481 0 -0.00015424603459823069 0.034816263544986153 0 -0.00016113155166758064 0.034749374638514123 0 -0.00022145768490333814 0.034780895330101619 0 -0.00013712438595312652 0.034904575564365069 0 -0.00015424603459823069 0.034816263544986153 0 -0.00022041120889150468 0.034868931055990725 0 -0.00015424603459823069 0.034816263544986153 0 -0.00022145768490333814 0.034780895330101619 0 -0.00022041120889150468 0.034868931055990725 0 -0.00013712438595312652 0.034904575564365069 0 -7.9273957063144635e-05 0.034880675361137634 0 -0.00015424603459823069 0.034816263544986153 0 -0.00067334636037286232 0.030018015752209241 0 -0.00049687520565641294 0.030325093670434893 0 -5.0364220563099937e-05 0.029932187889819727 0 -0.00023668322938173896 0.032837382622941336 0 -0.0010048317645648854 0.029479351705996807 0 -0.00022145768490333814 0.034780895330101619 0 -0.00022041120889150468 0.034868931055990725 0 -0.00032432058997621422 0.034829079819221183 0 -0.00022145768490333814 0.034780895330101619 0 -0.00032432058997621422 0.034829079819221183 0 -0.00027339864650109322 0.034698396933131481 0 -0.00072182336235632129 0.031390600883645016 0 -0.0006746122711145452 0.031472434686651091 0 -0.00083141623364844962 0.0316044550215294 0 -0.0010048317645648854 0.029479351705996807 0 -0.0010679793826318007 0.031935967904910906 0 -0.00023668322938173896 0.032837382622941336 0 -0.0010679793826318007 0.031935967904910906 0 -0.0017632249648170957 0.027412327469986751 0 -0.0017934583481458699 0.027921416748403989 0 -0.0025478514300619971 0.028131544438140327 0 -0.0017632249648170957 0.027412327469986751 0 -0.0015531953637379389 0.027497398751074729 0 -0.0012909312467212462 0.027418792817201568 0 -0.0017632249648170957 0.027412327469986751 0 -0.0015531953637379389 0.027497398751074729 0 -0.0016522689336474952 0.027633338109626083 0 -0.0015531953637379389 0.027497398751074729 0 -0.0015049054589403039 0.027692461969211327 0 -0.0012909312467212462 0.027418792817201568 0 -0.0015531953637379389 0.027497398751074729 0 -0.0015049054589403039 0.027692461969211327 0 -0.0016522689336474952 0.027633338109626083 0 -0.0015049054589403039 0.027692461969211327 0 -0.0017934583481458699 0.027921416748403989 0 -0.0011732448523977862 0.027937077836898413 0 -0.0017632249648170957 0.027412327469986751 0 -0.0016522689336474952 0.027633338109626083 0 -0.0017934583481458699 0.027921416748403989 0 -0.0015049054589403039 0.027692461969211327 0 -0.0016522689336474952 0.027633338109626083 0 -0.0017934583481458699 0.027921416748403989 0 -0.0017934583481458699 0.027921416748403989 0 -0.0024475894433605618 0.028542212068196033 0 -0.0014371611668452064 0.028571755801834332 0 -0.0017934583481458699 0.027921416748403989 0 -0.0014371611668452064 0.028571755801834332 0 -0.0011732448523977862 0.027937077836898413 0 -0.0018219367930890442 0.031832914189483655 0 -0.001708851537644033 0.030325802231674602 0 -0.0017934583481458699 0.027921416748403989 0 -0.0025478514300619971 0.028131544438140327 0 -0.0024475894433605618 0.028542212068196033 0 -0.00024616082935327111 0.034675268853622807 0 -0.00023143534502844174 0.034686143297367251 0 -0.00027339864650109322 0.034698396933131481 0 -0.0007889403589391279 0.032920168655560973 0 -0.0010679793826318007 0.031935967904910906 0 -0.0025478514300619971 0.028131544438140327 0 -0.0024475894433605618 0.028542212068196033 0 -0.0026782483994125541 0.028426778899146639 0 -0.0018219367930890442 0.031832914189483655 0 -0.0013009773994749482 0.032625893603936952 0 -0.0018219367930890442 0.031832914189483655 0 -0.0014081647405809431 0.031833943901607376 0 -0.0018085481267848601 0.0320963102114784 0 -0.0011255854290839443 0.032144130947156284 0 -0.0012420799531429572 0.032395138210679859 0 -0.0013009773994749482 0.032625893603936952 0 -0.0014081647405809431 0.031833943901607376 0 -0.001041951867238048 0.032711942493706125 0 -0.0010445592502219176 0.032707472489285905 0 -0.0010470316966648607 0.032711903746030627 0 -0.0007889403589391279 0.032920168655560973 0 -0.0014081647405809431 0.031833943901607376 0 -0.0010398293101971546 0.032716489423343584 0 -0.001041951867238048 0.032711942493706125 0 -0.0010470316966648607 0.032711903746030627 0 -0.0010679793826318007 0.031935967904910906 0 -0.0014081647405809431 0.031833943901607376 0 -0.001346249134753102 0.03253324276394913 0 -0.00084943048967509515 0.032106403588227667 0 -0.0011052722353365458 0.032659745637676693 0 -0.00093037748643966451 0.033378513413031941 0 -0.00066060522497012758 0.033361911555566892 0 -0.00089253122539036925 0.033488517010812395 0 -0.00088580825765658246 0.03324232378404348 0 -0.00093037748643966451 0.033378513413031941 0 -0.00066060522497012758 0.033361911555566892 0 -0.00088580825765658246 0.03324232378404348 0 -0.00096468354660129421 0.033237205649137243 0 -0.00093037748643966451 0.033378513413031941 0 -0.00093037748643966451 0.033378513413031941 0 -0.00089253122539036925 0.033488517010812395 0 -0.00097287506206267282 0.033459081188821654 0 -0.0020727863503509129 0.03234932546154054 0 -0.001867428255574579 0.032476560951884656 0 -0.0018108158798603815 0.032377092275441138 0 -0.0018219367930890442 0.031832914189483655 0 -0.00088682614197884953 0.033107107135038505 0 -0.00088682614197884953 0.033107107135038505 0 -0.00031635719469471041 0.033821149466921621 0 -0.00027749385620657853 0.033634352079829434 0 -0.00026634561148309341 0.03324972917436466 0 4.456404630887598e-05 0.033213224527603086 0 -0.00027749385620657853 0.033634352079829434 0 -0.00026634561148309341 0.03324972917436466 0 -0.00050358034620544951 0.033240457022981375 0 -0.00026634561148309341 0.03324972917436466 0 -0.00013699109054632675 0.033025045067394662 0 -0.0003491122762320457 0.03307428502245989 0 -0.00026634561148309341 0.03324972917436466 0 -0.00013699109054632675 0.033025045067394662 0 4.456404630887598e-05 0.033213224527603086 0 -0.00013699109054632675 0.033025045067394662 0 -0.0003491122762320457 0.03307428502245989 0 -0.00032201467657766637 0.032880628741580341 0 -6.5010340973850679e-05 0.033065128947169432 0 -3.617448997826591e-05 0.033066771082451631 0 -5.3545719782896436e-05 0.03301190462806753 0 -0.00013699109054632675 0.033025045067394662 0 -6.5010340973850679e-05 0.033065128947169432 0 -5.3545719782896436e-05 0.03301190462806753 0 -0.00020516251388403366 0.032992768258527996 0 -0.00031635719469471041 0.033821149466921621 0 -0.00087582413713052838 0.033651283631846662 0 -0.00089253122539036925 0.033488517010812395 0 -0.0010129439517593591 0.033504969167559122 0 -0.00031635719469471041 0.033821149466921621 0 -0.00070845321005497065 0.034251547048410352 0 -0.00066060522497012758 0.033361911555566892 0 -0.00087582413713052838 0.033651283631846662 0 -0.00089253122539036925 0.033488517010812395 0 -0.00089253122539036925 0.033488517010812395 0 -0.00097287506206267282 0.033459081188821654 0 -0.0010129439517593591 0.033504969167559122 0 -0.00038211595964510739 0.035046906906490261 0 -0.00033531064542362076 0.035028499145571178 0 -0.00035910224201620632 0.03497908078500718 0 -0.0010447799793285939 0.033451248375326086 0 -0.00097287506206267282 0.033459081188821654 0 -0.0010129439517593591 0.033504969167559122 0 -0.00033404225174211766 0.035095993620634966 0 -0.00038211595964510739 0.035046906906490261 0 -0.00033531064542362076 0.035028499145571178 0 -0.00042968726593372089 0.034991605658684685 0 -0.00038211595964510739 0.035046906906490261 0 -0.00035910224201620632 0.03497908078500718 0 -0.00033404225174211766 0.035095993620634966 0 -0.00033531064542362076 0.035028499145571178 0 -0.00027290843973050915 0.035041195876422987 0 -0.00047149580781312764 0.034401608790915257 0 -0.00019365695993562072 0.035084373125729942 0 -0.00033531064542362076 0.035028499145571178 0 -0.00027290843973050915 0.035041195876422987 0 -0.00031414834797721105 0.034993425909220208 0 -0.00027290843973050915 0.035041195876422987 0 -0.00031414834797721105 0.034993425909220208 0 -0.00027704461971409791 0.034966005707003769 0 -0.00031414834797721105 0.034993425909220208 0 -0.00032780982765207657 0.034946983411077097 0 -0.00027704461971409791 0.034966005707003769 0 -0.00032780982765207657 0.034946983411077097 0 -0.00027704461971409791 0.034966005707003769 0 -0.00030230447828344847 0.034917463337179398 0 -0.00032780982765207657 0.034946983411077097 0 -0.00035910224201620632 0.03497908078500718 0 -0.00036302921938621927 0.034900485196428049 0 -0.00042968726593372089 0.034991605658684685 0 -0.00035910224201620632 0.03497908078500718 0 -0.00036302921938621927 0.034900485196428049 0 -0.00031635719469471041 0.033821149466921621 0 -0.00020143714131286893 0.034027109411237849 0 -0.00033531064542362076 0.035028499145571178 0 -0.00031414834797721105 0.034993425909220208 0 -0.00035910224201620632 0.03497908078500718 0 -0.00031414834797721105 0.034993425909220208 0 -0.00032780982765207657 0.034946983411077097 0 -0.00035910224201620632 0.03497908078500718 0 -3.617448997826591e-05 0.033066771082451631 0 -5.3545719782896436e-05 0.03301190462806753 0 -1.9387901973269521e-05 0.033049093225931594 0 -3.617448997826591e-05 0.033066771082451631 0 -3.4147109379535123e-05 0.033249535053125612 0 -1.9387901973269521e-05 0.033049093225931594 0 -0.00022383880452466737 0.034889397924391545 0 -0.00027704461971409791 0.034966005707003769 0 -0.00030230447828344847 0.034917463337179398 0 -0.00032780982765207657 0.034946983411077097 0 -0.00036302921938621927 0.034900485196428049 0 -0.00030230447828344847 0.034917463337179398 0 -0.00036302921938621927 0.034900485196428049 0 -0.00030230447828344847 0.034917463337179398 0 -0.00030296737892312938 0.03485796836595266 0 -0.00022383880452466737 0.034889397924391545 0 -0.00030230447828344847 0.034917463337179398 0 -0.00030296737892312938 0.03485796836595266 0 -0.00036302921938621927 0.034900485196428049 0 -0.00030296737892312938 0.03485796836595266 0 -0.00031712331204551881 0.034748753476343944 0 -0.00020143714131286893 0.034027109411237849 0 -0.0003167140179283558 0.034242895983540328 0 -0.00022383880452466737 0.034889397924391545 0 -0.00030296737892312938 0.03485796836595266 0 -0.00031712331204551881 0.034748753476343944 0 -0.00039007152143689038 0.033778458090038689 0 -6.1952875084770548e-05 0.033413163718138308 0 -0.00025279510886896484 0.03386135679924672 0 -3.617448997826591e-05 0.033066771082451631 0 -3.4147109379535123e-05 0.033249535053125612 0 -0.00039007152143689038 0.033778458090038689 0 -3.4147109379535123e-05 0.033249535053125612 0 -6.1952875084770548e-05 0.033413163718138308 0 -0.00013816669262262042 0.033458674397562803 0 -4.7697798144667065e-05 0.03320642341319812 0 -0.00010769655064131452 0.033076588397202775 0 -3.4147109379535123e-05 0.033249535053125612 0 -0.00039007152143689038 0.033778458090038689 0 -6.1952875084770548e-05 0.033413163718138308 0 -3.4147109379535123e-05 0.033249535053125612 0 -1.9387901973269521e-05 0.033049093225931594 0 -1.6737623179198284e-05 0.032710369366422937 0 -0.00014284280768776775 0.032728795761913364 0 -6.5975313186074437e-05 0.032925187025232651 0 -1.6737623179198284e-05 0.032710369366422937 0 -1.9387901973269521e-05 0.033049093225931594 0 -6.5975313186074437e-05 0.032925187025232651 0 -1.6737623179198284e-05 0.032710369366422937 0 -0.00014284280768776775 0.032728795761913364 0 -0.00016345845229105973 0.032610759799423433 0 -1.6737623179198284e-05 0.032710369366422937 0 -0.00014284280768776775 0.032728795761913364 0 -0.00012922993079025403 0.032910658161820663 0 -6.5975313186074437e-05 0.032925187025232651 0 -0.00014284280768776775 0.032728795761913364 0 -0.00032201467657766637 0.032880628741580341 0 -0.00049705529753397732 0.032604270880508657 0 -0.00014284280768776775 0.032728795761913364 0 -0.00012922993079025403 0.032910658161820663 0 -0.00032201467657766637 0.032880628741580341 0 -0.00013699109054632675 0.033025045067394662 0 -0.00012922993079025403 0.032910658161820663 0 -0.00032201467657766637 0.032880628741580341 0 -0.00013699109054632675 0.033025045067394662 0 -0.00012922993079025403 0.032910658161820663 0 -5.3545719782896436e-05 0.03301190462806753 0 -5.3545719782896436e-05 0.03301190462806753 0 -1.9387901973269521e-05 0.033049093225931594 0 -6.5975313186074437e-05 0.032925187025232651 0 -0.00012922993079025403 0.032910658161820663 0 -5.3545719782896436e-05 0.03301190462806753 0 -6.5975313186074437e-05 0.032925187025232651 0 -0.00086658267856203096 0.032713457968950178 0 -0.00062266375485501093 0.032770717866108662 0 -0.00078903558699977582 0.032428792259659299 0 -0.00086658267856203096 0.032713457968950178 0 -0.00096080433157250968 0.03286560771642387 0 -0.00075179162192539164 0.032923885429596643 0 -0.00086658267856203096 0.032713457968950178 0 -0.00096080433157250968 0.03286560771642387 0 -0.001142208557179863 0.032802062536283545 0 -0.00086658267856203096 0.032713457968950178 0 -0.00062266375485501093 0.032770717866108662 0 -0.00075179162192539164 0.032923885429596643 0 -0.00062266375485501093 0.032770717866108662 0 -0.00075179162192539164 0.032923885429596643 0 -0.0005357048738524957 0.032997351231673619 0 -0.00032201467657766637 0.032880628741580341 0 -0.00062266375485501093 0.032770717866108662 0 -0.0005357048738524957 0.032997351231673619 0 -0.00032201467657766637 0.032880628741580341 0 -0.00062266375485501093 0.032770717866108662 0 -0.00049705529753397732 0.032604270880508657 0 -0.00062266375485501093 0.032770717866108662 0 -0.00049705529753397732 0.032604270880508657 0 -0.00078903558699977582 0.032428792259659299 0 -0.00049705529753397732 0.032604270880508657 0 -0.00078903558699977582 0.032428792259659299 0 -0.00055558681481106275 0.032091166774025466 0 -0.00014284280768776775 0.032728795761913364 0 -0.00049705529753397732 0.032604270880508657 0 -0.00055558681481106275 0.032091166774025466 0 -0.00078903558699977582 0.032428792259659299 0 -0.0008212037412140211 0.032119109025348376 0 -0.00055558681481106275 0.032091166774025466 0 -0.00078903558699977582 0.032428792259659299 0 -0.0010626690980316629 0.032197077253820892 0 -0.0011053101520864083 0.032523444981038756 0 -0.00086658267856203096 0.032713457968950178 0 -0.00078903558699977582 0.032428792259659299 0 -0.0011053101520864083 0.032523444981038756 0 -0.00078903558699977582 0.032428792259659299 0 -0.0010626690980316629 0.032197077253820892 0 -0.0008212037412140211 0.032119109025348376 0 -0.0010626690980316629 0.032197077253820892 0 -0.0011053101520864083 0.032523444981038756 0 -0.0015413574891377823 0.032417549429511791 0 -0.0010626690980316629 0.032197077253820892 0 -0.0015413574891377823 0.032417549429511791 0 -0.0012955811526009083 0.031902905557499139 0 -0.00017352909577471743 0.025170630392362538 0 -0.00035329841915661306 0.025209013293425668 0 -0.00034656418744078755 0.024698326601527779 0 -0.00017352909577471743 0.025170630392362538 0 -0.00017047685158801153 0.025502048035360936 0 -0.00035329841915661306 0.025209013293425668 0 -0.0015413574891377823 0.032417549429511791 0 -0.001142208557179863 0.032802062536283545 0 -0.0013017373150492105 0.032968421130045562 0 -0.00017047685158801153 0.025502048035360936 0 -0.00035528515304525388 0.025526670475687106 0 -0.00035329841915661306 0.025209013293425668 0 -0.00086480666872982323 0.028545363224548821 0 -0.00076091338082383199 0.029218711863278301 0 -0.0011053101520864083 0.032523444981038756 0 -0.0015413574891377823 0.032417549429511791 0 -0.001142208557179863 0.032802062536283545 0 -0.00086658267856203096 0.032713457968950178 0 -0.0011053101520864083 0.032523444981038756 0 -0.001142208557179863 0.032802062536283545 0 -0.00096080433157250968 0.03286560771642387 0 -0.0011468649747901167 0.032916217070912954 0 -0.00094947635152421782 0.033027921975318925 0 -0.00096080433157250968 0.03286560771642387 0 -0.001142208557179863 0.032802062536283545 0 -0.0011468649747901167 0.032916217070912954 0 -0.0011468649747901167 0.032916217070912954 0 -0.0012839100673788289 0.032929911748703591 0 -0.00094947635152421782 0.033027921975318925 0 -0.0012839100673788289 0.032929911748703591 0 -0.00077734035660231534 0.033384621389037486 0 -0.00094947635152421782 0.033027921975318925 0 -0.001142208557179863 0.032802062536283545 0 -0.0011468649747901167 0.032916217070912954 0 -0.0013017373150492105 0.032968421130045562 0 -0.0011468649747901167 0.032916217070912954 0 -0.0012839100673788289 0.032929911748703591 0 -0.0013017373150492105 0.032968421130045562 0 -0.00017047685158801153 0.025502048035360936 0 -0.00029485584693233851 0.02566601274188594 0 -0.00035528515304525388 0.025526670475687106 0 -0.00017047685158801153 0.025502048035360936 0 -0.00016584088665640959 0.025739859277105103 0 -0.00029485584693233851 0.02566601274188594 0 -0.00076091338082383199 0.029218711863278301 0 -0.0004844437573800476 0.029385208487087568 0 -0.0012839100673788289 0.032929911748703591 0 -0.0013017373150492105 0.032968421130045562 0 -0.0011868404644377484 0.032632150255470178 0 -0.0012508016907654309 0.032953520725257715 0 -0.0012122889864634484 0.03300975213906325 0 -0.0012839100673788289 0.032929911748703591 0 -0.0013353281743748203 0.032657325665497575 0 -0.0015724340952878212 0.032673668308188082 0 -0.0012839100673788289 0.032929911748703591 0 -0.0013353281743748203 0.032657325665497575 0 -0.0011868404644377484 0.032632150255470178 0 -0.0018086552998168241 0.031637523592425706 0 -0.0004844437573800476 0.029385208487087568 0 -0.0013353281743748203 0.032657325665497575 0 -0.0015724340952878212 0.032673668308188082 0 -0.0014477200633828025 0.032558764914765184 0 -0.00077734035660231534 0.033384621389037486 0 -0.00094947635152421782 0.033027921975318925 0 -0.00070004875458518697 0.033110646780373044 0 -0.00094947635152421782 0.033027921975318925 0 -0.00070004875458518697 0.033110646780373044 0 -0.00075179162192539164 0.032923885429596643 0 -0.00096080433157250968 0.03286560771642387 0 -0.00094947635152421782 0.033027921975318925 0 -0.00075179162192539164 0.032923885429596643 0 -0.0003491122762320457 0.03307428502245989 0 -0.00032201467657766637 0.032880628741580341 0 -0.0005357048738524957 0.032997351231673619 0 -0.00070004875458518697 0.033110646780373044 0 -0.00075179162192539164 0.032923885429596643 0 -0.0005357048738524957 0.032997351231673619 0 -0.00070004875458518697 0.033110646780373044 0 -0.0005357048738524957 0.032997351231673619 0 -0.00050358034620544951 0.033240457022981375 0 -0.0003491122762320457 0.03307428502245989 0 -0.0005357048738524957 0.032997351231673619 0 -0.00050358034620544951 0.033240457022981375 0 -0.00026634561148309341 0.03324972917436466 0 -0.0003491122762320457 0.03307428502245989 0 -0.00050358034620544951 0.033240457022981375 0 -0.00027749385620657853 0.033634352079829434 0 -0.00077734035660231534 0.033384621389037486 0 -0.00050358034620544951 0.033240457022981375 0 -0.00077734035660231534 0.033384621389037486 0 -0.00070004875458518697 0.033110646780373044 0 -0.00050358034620544951 0.033240457022981375 0 -0.0015724340952878212 0.032673668308188082 0 -0.0018108158798603815 0.032377092275441138 0 -0.0015325613929396218 0.03239981044114626 0 -0.001708851537644033 0.030325802231674602 0 -0.0010740244631960109 0.030647300774990133 0 -0.001867428255574579 0.032476560951884656 0 -0.0015724340952878212 0.032673668308188082 0 -0.0018108158798603815 0.032377092275441138 0 -0.00088682614197884953 0.033107107135038505 0 -0.0012122889864634484 0.03300975213906325 0 -0.0015724340952878212 0.032673668308188082 0 -0.0014477200633828025 0.032558764914765184 0 -0.0015325613929396218 0.03239981044114626 0 -0.0014477200633828025 0.032558764914765184 0 -0.0015325613929396218 0.03239981044114626 0 -0.0013378887578146018 0.032506737391450491 0 -0.00043029450744934655 0.028601778597904155 0 -0.00053373311819809779 0.027816107425050373 0 1.2528931470595565e-05 0.028083438178987424 0 -0.00043029450744934655 0.028601778597904155 0 -0.0011732448523977862 0.027937077836898413 0 -0.00053373311819809779 0.027816107425050373 0 -0.0014371611668452064 0.028571755801834332 0 -0.00043029450744934655 0.028601778597904155 0 -0.0011732448523977862 0.027937077836898413 0 -0.0015049054589403039 0.027692461969211327 0 -0.0011732448523977862 0.027937077836898413 0 -0.0012909312467212462 0.027418792817201568 0 -0.0011732448523977862 0.027937077836898413 0 -0.0012909312467212462 0.027418792817201568 0 -0.00087087418410346945 0.02752232898173047 0 -0.0017632249648170957 0.027412327469986751 0 -0.0012909312467212462 0.027418792817201568 0 -0.0011060688634431327 0.026804477795156229 0 -0.0012909312467212462 0.027418792817201568 0 -0.00087087418410346945 0.02752232898173047 0 -0.00088652644359539414 0.02716595775852805 0 -0.0011732448523977862 0.027937077836898413 0 -0.00087087418410346945 0.02752232898173047 0 -0.00053373311819809779 0.027816107425050373 0 -0.00087087418410346945 0.02752232898173047 0 -0.00053373311819809779 0.027816107425050373 0 -0.00047914639295215216 0.027274630722304682 0 -0.00053373311819809779 0.027816107425050373 0 -8.9361462167514044e-05 0.027516818159812304 0 1.2528931470595565e-05 0.028083438178987424 0 -0.00053373311819809779 0.027816107425050373 0 -0.00047914639295215216 0.027274630722304682 0 -8.9361462167514044e-05 0.027516818159812304 0 -0.00047914639295215216 0.027274630722304682 0 -5.3882933429526927e-05 0.027167958643551891 0 -8.9361462167514044e-05 0.027516818159812304 0 -0.00087087418410346945 0.02752232898173047 0 -0.00047914639295215216 0.027274630722304682 0 -0.00088652644359539414 0.02716595775852805 0 -0.00070767077042710707 0.027040848119233768 0 -0.00017038048122611083 0.027013701984614575 0 -0.00047914639295215216 0.027274630722304682 0 -0.00088652644359539414 0.02716595775852805 0 -3.4289153670092939e-06 0.026708459307754277 0 -0.00055877826740423104 0.026698932386280932 0 -0.00088652644359539414 0.02716595775852805 0 0.00014610403628243667 0.026676256733615674 0 -0.00047914639295215216 0.027274630722304682 0 -3.4289153670092939e-06 0.026708459307754277 0 -5.3882933429526927e-05 0.027167958643551891 0 -0.00037726061561607285 0.026145844554399812 0 -0.00055877826740423104 0.026698932386280932 0 0.00014610403628243667 0.026676256733615674 0 -0.00037726061561607285 0.026145844554399812 0 -0.00055877826740423104 0.026698932386280932 0 -0.0011060688634431327 0.026804477795156229 0 -0.0001491207319489433 0.028033827764998773 0 -0.00051788633311291188 0.028278433022667873 0 -0.0010048317645648854 0.029479351705996807 0 -0.00051788633311291188 0.028278433022667873 0 -0.00055877826740423104 0.026698932386280932 0 -0.0011060688634431327 0.026804477795156229 0 -0.00088652644359539414 0.02716595775852805 0 -0.0012909312467212462 0.027418792817201568 0 -0.0011060688634431327 0.026804477795156229 0 -0.00088652644359539414 0.02716595775852805 0 0.001562827291222283 0.023713508682600949 0 0.0014705639813108625 0.025137110420907785 0 0.0010760768549144721 0.027074398453223101 0 0.0005762544819239826 0.026806680167667532 0 0.00035548152636404832 0.027170127238356649 0 0.0019047727719766216 0.023242833005691153 0 0.0019277754329687083 0.023232234265794745 0 0.0018318343508573706 0.022919639368852742 0 0.0008678368078964266 0.026265168835748622 0 0.0010760768549144721 0.027074398453223101 0 0.0005762544819239826 0.026806680167667532 0 0.0008678368078964266 0.026265168835748622 0 0.0005762544819239826 0.026806680167667532 0 -3.4289153670092939e-06 0.026708459307754277 0 -3.4289153670092939e-06 0.026708459307754277 0 -5.3882933429526927e-05 0.027167958643551891 0 0.00035548152636404832 0.027170127238356649 0 0.0005762544819239826 0.026806680167667532 0 -3.4289153670092939e-06 0.026708459307754277 0 0.00035548152636404832 0.027170127238356649 0 0.00035548152636404832 0.027170127238356649 0 -8.9361462167514044e-05 0.027516818159812304 0 0.00053798905583613433 0.02785880155996651 0 -5.3882933429526927e-05 0.027167958643551891 0 0.00035548152636404832 0.027170127238356649 0 -8.9361462167514044e-05 0.027516818159812304 0 0.0010760768549144721 0.027074398453223101 0 0.00053798905583613433 0.02785880155996651 0 0.0012443728382069586 0.027811531069992464 0 0.0010760768549144721 0.027074398453223101 0 0.00035548152636404832 0.027170127238356649 0 0.00053798905583613433 0.02785880155996651 0 0.0005994348060627809 0.028424046892154671 0 0.0014171597439213248 0.028437535185499286 0 0.0012443728382069586 0.027811531069992464 0 0.00053582535294021826 0.02775975789457481 0 0.00031327844076213773 0.029076332693461878 0 0.00053798905583613433 0.02785880155996651 0 0.0005994348060627809 0.028424046892154671 0 0.0012443728382069586 0.027811531069992464 0 1.2528931470595565e-05 0.028083438178987424 0 0.00053798905583613433 0.02785880155996651 0 0.00060409150986438201 0.028657757286756104 0 -0.00043029450744934655 0.028601778597904155 0 1.2528931470595565e-05 0.028083438178987424 0 0.00060409150986438201 0.028657757286756104 0 -8.9361462167514044e-05 0.027516818159812304 0 1.2528931470595565e-05 0.028083438178987424 0 0.00053798905583613433 0.02785880155996651 0 -0.0010740244631960109 0.030647300774990133 0 0.00031327844076213773 0.029076332693461878 0 -0.0015325613929396218 0.03239981044114626 0 -0.0013378887578146018 0.032506737391450491 0 -0.0011829500396185269 0.032384943853507903 0 -0.0013353281743748203 0.032657325665497575 0 -0.0013378887578146018 0.032506737391450491 0 -0.0011625586996049607 0.032580719461309963 0 -0.0013378887578146018 0.032506737391450491 0 -0.0011829500396185269 0.032384943853507903 0 -0.0011625586996049607 0.032580719461309963 0 -0.0013353281743748203 0.032657325665497575 0 -0.0014477200633828025 0.032558764914765184 0 -0.0013378887578146018 0.032506737391450491 0 -0.00016584088665640959 0.025739859277105103 0 -0.0003682532526933481 0.025758689739800621 0 -0.00029485584693233851 0.02566601274188594 0 -0.00017373779701867551 0.026599155939238252 0 -0.00013202932436055041 0.027149805041618805 0 0.0009271165638323459 0.026634550339605732 0 0.00031327844076213773 0.029076332693461878 0 0.00094876417248975886 0.024383367746468328 0 -0.0004844437573800476 0.029385208487087568 0 0.00034339431593525101 0.022631463161823302 0 0.00031327844076213773 0.029076332693461878 0 -0.0004844437573800476 0.029385208487087568 0 -0.00013202932436055041 0.027149805041618805 0 0.00097484302377703587 0.026797446678909778 0 0.0009271165638323459 0.026634550339605732 0 0.00034339431593525101 0.022631463161823302 0 0.00070537391131292088 0.02235535543597017 0 0.00014848734679564864 0.023280035327509673 0 0.00012167380016963238 0.023477703236433878 0 0.00027514056435774147 0.0234888134093026 0 0.00034339431593525101 0.022631463161823302 0 0.00094876417248975886 0.024383367746468328 0 0.00070537391131292088 0.02235535543597017 0 0.00093062902732890019 0.023186568154037551 0 0.00016870208146427712 0.023130676499790604 0 0.00014848734679564864 0.023280035327509673 0 0.00027514056435774147 0.0234888134093026 0 0.00093062902732890019 0.023186568154037551 0 0.00094876417248975886 0.024383367746468328 0 0.00070537391131292088 0.02235535543597017 0 0.00077935935556383638 0.021438048778172455 0 0.00093062902732890019 0.023186568154037551 0 0.00077935935556383638 0.021438048778172455 0 -5.2572145636675473e-05 0.018915863609034241 0 -5.2359414716306568e-05 0.018920670712544579 0 -6.3459115560985196e-05 0.018920962220766443 0 0.00024358721279884752 0.022187832548410107 0 0.00028798219624597026 0.021879984240099154 0 0.0010038564922573176 0.021926903775144477 0 0.0016148648667820894 0.022297361249332528 0 0.0015400643632441952 0.022290323652563997 0 0.0015992606043584105 0.022413661653238392 0 0.00093062902732890019 0.023186568154037551 0 0.0012505605052866939 0.022446069369449071 0 0.00161151793122804 0.022311879089054888 0 0.0016342961105742472 0.022313006058424525 0 0.0015992606043584105 0.022413661653238392 0 0.00077935935556383638 0.021438048778172455 0 7.640327135276321e-05 0.019177763127959317 0 0.00069989282670437772 0.019831907128503377 0 0.00050615978483364269 0.019871280194385131 0 0.00048939804581087836 0.019786152244630886 0 -6.3459115560985196e-05 0.018920962220766443 0 -8.1392054203945215e-05 0.018886288214018436 0 -0.00012105332260186741 0.018879859698405239 0 0.00077935935556383638 0.021438048778172455 0 0.00079849965486827629 0.021217334077130189 0 -5.2572145636675473e-05 0.018915863609034241 0 -6.3459115560985196e-05 0.018920962220766443 0 -8.1392054203945215e-05 0.018886288214018436 0 0.0015400643632441952 0.022290323652563997 0 0.00142349054595624 0.022464874498870861 0 0.0012224141730514777 0.022375027248657219 0 0.00142349054595624 0.022464874498870861 0 0.0015992606043584105 0.022413661653238392 0 0.001580940695679498 0.022579085611218293 0 0.0015400643632441952 0.022290323652563997 0 0.00142349054595624 0.022464874498870861 0 0.0015992606043584105 0.022413661653238392 0 0.00142349054595624 0.022464874498870861 0 0.001580940695679498 0.022579085611218293 0 0.0014853046115270497 0.02269742310931026 0 0.0016342961105742472 0.022313006058424525 0 0.0015992606043584105 0.022413661653238392 0 0.0017332109896671809 0.022609837884167362 0 0.00094876417248975886 0.024383367746468328 0 0.0015543091045556216 0.025377162852280487 0 0.0015992606043584105 0.022413661653238392 0 0.001580940695679498 0.022579085611218293 0 0.0017332109896671809 0.022609837884167362 0 0.0014705639813108625 0.025137110420907785 0 0.0015543091045556216 0.025377162852280487 0 0.0016375383366713549 0.022761921081750167 0 0.0014853046115270497 0.02269742310931026 0 0.0015652405652335662 0.02298689805564855 0 0.0018318343508573706 0.022919639368852742 0 0.0017332109896671809 0.022609837884167362 0 0.0016375383366713549 0.022761921081750167 0 0.001580940695679498 0.022579085611218293 0 0.0017332109896671809 0.022609837884167362 0 0.0016375383366713549 0.022761921081750167 0 0.001580940695679498 0.022579085611218293 0 0.0016375383366713549 0.022761921081750167 0 0.0014853046115270497 0.02269742310931026 0 0.0014853046115270497 0.02269742310931026 0 0.0015652405652335662 0.02298689805564855 0 0.0012307736381399095 0.022725294248888125 0 0.00142349054595624 0.022464874498870861 0 0.0014853046115270497 0.02269742310931026 0 0.0012307736381399095 0.022725294248888125 0 0.0024007132389093277 0.020970086869204183 0 0.0018642658081953738 0.020744004599763995 0 0.0026081407114312812 0.019695932884157909 0 0.00316491315879304 0.019192324128998316 0 0.0023908666267831091 0.01856870353160649 0 0.0018318343508573706 0.022919639368852742 0 0.0016375383366713549 0.022761921081750167 0 0.0015652405652335662 0.02298689805564855 0 0.0019047727719766216 0.023242833005691153 0 0.0018318343508573706 0.022919639368852742 0 0.0015652405652335662 0.02298689805564855 0 0.0023798493455463423 0.022375470042368003 0 0.0024007132389093277 0.020970086869204183 0 0.0019414930743753053 0.019389846447948608 0 0.0023908666267831091 0.01856870353160649 0 0.0013283719434845262 0.018795822198809174 0 0.0012123114296538986 0.019713447054845328 0 0.0019414930743753053 0.019389846447948608 0 0.0013283719434845262 0.018795822198809174 0 0.0026081407114312812 0.019695932884157909 0 0.0019414930743753053 0.019389846447948608 0 0.0023908666267831091 0.01856870353160649 0 0.0018642658081953738 0.020744004599763995 0 0.0010537909866386998 0.019684419301593342 0 0.0023908666267831091 0.01856870353160649 0 0.0013283719434845262 0.018795822198809174 0 0.0015735234810626069 0.017930422750576807 0 0.0010537909866386998 0.019684419301593342 0 0.00053248054835160717 0.018616874317838619 0 0.0012307736381399095 0.022725294248888125 0 0.00090003800886071016 0.022458294557523992 0 0.0012224141730514777 0.022375027248657219 0 0.00029756395176242715 0.019933544755545575 0 0.00050615978483364269 0.019871280194385131 0 0.00038468322728105192 0.019839400249280395 0 0.00142349054595624 0.022464874498870861 0 0.0012307736381399095 0.022725294248888125 0 0.0012224141730514777 0.022375027248657219 0 0.0010537909866386998 0.019684419301593342 0 0.00079849965486827629 0.021217334077130189 0 0.00050615978483364269 0.019871280194385131 0 0.00048939804581087836 0.019786152244630886 0 0.00038468322728105192 0.019839400249280395 0 0.00029756395176242715 0.019933544755545575 0 0.00025933933106333037 0.01974540931209719 0 0.00015305844331278313 0.019826404050282936 0 0.00029756395176242715 0.019933544755545575 0 0.00025933933106333037 0.01974540931209719 0 0.00038468322728105192 0.019839400249280395 0 -0.00012105332260186741 0.018879859698405239 0 -0.00018203049226625192 0.018830000411748204 0 -0.00017020276306266635 0.018782584121531633 0 0.00048939804581087836 0.019786152244630886 0 0.00025933933106333037 0.01974540931209719 0 0.00038468322728105192 0.019839400249280395 0 7.640327135276321e-05 0.019177763127959317 0 4.2391158024709239e-05 0.019327145075565339 0 -0.00017020276306266635 0.018782584121531633 0 -0.00017403116713301663 0.018716882927544174 0 -0.00021756373630030273 0.018716110230659746 0 -0.00017020276306266635 0.018782584121531633 0 -0.0001353146879790028 0.01877201889084976 0 -0.00017403116713301663 0.018716882927544174 0 -0.0001353146879790028 0.01877201889084976 0 -0.00017403116713301663 0.018716882927544174 0 -0.00012688193189452148 0.018738834716680298 0 -0.0001353146879790028 0.01877201889084976 0 -9.0851664276638119e-05 0.018792336971954648 0 -0.00012688193189452148 0.018738834716680298 0 -0.0001353146879790028 0.01877201889084976 0 -0.00011196885554092712 0.018832216559813084 0 -9.0851664276638119e-05 0.018792336971954648 0 -0.00012105332260186741 0.018879859698405239 0 -0.00017020276306266635 0.018782584121531633 0 -0.00011196885554092712 0.018832216559813084 0 -0.00017020276306266635 0.018782584121531633 0 -0.0001353146879790028 0.01877201889084976 0 -0.00011196885554092712 0.018832216559813084 0 -0.00011196885554092712 0.018832216559813084 0 -6.8017847101817846e-05 0.018881378265843442 0 -9.0851664276638119e-05 0.018792336971954648 0 -8.1392054203945215e-05 0.018886288214018436 0 -0.00011196885554092712 0.018832216559813084 0 -6.8017847101817846e-05 0.018881378265843442 0 -5.2572145636675473e-05 0.018915863609034241 0 -8.1392054203945215e-05 0.018886288214018436 0 -6.8017847101817846e-05 0.018881378265843442 0 -8.1392054203945215e-05 0.018886288214018436 0 -0.00012105332260186741 0.018879859698405239 0 -0.00011196885554092712 0.018832216559813084 0 -0.0003682532526933481 0.025758689739800621 0 -0.00029485584693233851 0.02566601274188594 0 -0.00035528515304525388 0.025526670475687106 0 0.00034339431593525101 0.022631463161823302 0 -0.0004027244962840962 0.01776425287566721 0 0.00034339431593525101 0.022631463161823302 0 -0.00025986940746124511 0.022118938688913677 0 -8.1846494856302978e-06 0.019034052387769985 0 -6.8017847101817846e-05 0.018881378265843442 0 -3.3208096639328577e-05 0.018817981928731284 0 -3.3208096639328577e-05 0.018817981928731284 0 -9.0851664276638119e-05 0.018792336971954648 0 -6.8792856704850169e-05 0.018780394331375887 0 -6.8017847101817846e-05 0.018881378265843442 0 -3.3208096639328577e-05 0.018817981928731284 0 -9.0851664276638119e-05 0.018792336971954648 0 -9.0851664276638119e-05 0.018792336971954648 0 -8.5557363667515407e-05 0.018747760751587492 0 -6.8792856704850169e-05 0.018780394331375887 0 -9.0851664276638119e-05 0.018792336971954648 0 -8.5557363667515407e-05 0.018747760751587492 0 -0.00012688193189452148 0.018738834716680298 0 -8.5557363667515407e-05 0.018747760751587492 0 -6.8792856704850169e-05 0.018780394331375887 0 -7.2218200790603984e-05 0.018776747961180104 0 -0.00025986940746124511 0.022118938688913677 0 -0.0002208982495708985 0.022047426679855205 0 -3.3208096639328577e-05 0.018817981928731284 0 -6.8792856704850169e-05 0.018780394331375887 0 -7.2218200790603984e-05 0.018776747961180104 0 -0.0002208982495708985 0.022047426679855205 0 -0.00011028926941747241 0.021524209597107213 0 -8.5557363667515407e-05 0.018747760751587492 0 -7.2218200790603984e-05 0.018776747961180104 0 -8.4947594200471865e-05 0.018761754869827847 0 -8.5557363667515407e-05 0.018747760751587492 0 -8.6127645064048791e-05 0.018744723200203133 0 -8.4947594200471865e-05 0.018761754869827847 0 -0.00015836956858611518 0.018635587689388701 0 5.3018818656973495e-07 0.01903822175953556 0 -8.5557363667515407e-05 0.018747760751587492 0 -8.9095537553576982e-05 0.018734081969469976 0 -8.6127645064048791e-05 0.018744723200203133 0 -0.0001611049178669996 0.018653855952425823 0 -0.00017403116713301663 0.018716882927544174 0 -0.00021893159604908724 0.018665223188188949 0 -0.0001611049178669996 0.018653855952425823 0 -0.00017403116713301663 0.018716882927544174 0 -0.00012688193189452148 0.018738834716680298 0 -8.5557363667515407e-05 0.018747760751587492 0 -0.0001611049178669996 0.018653855952425823 0 -0.00012688193189452148 0.018738834716680298 0 -8.9095537553576982e-05 0.018734081969469976 0 -8.6127645064048791e-05 0.018744723200203133 0 -9.2477974355696226e-05 0.018714482530717187 0 -8.6127645064048791e-05 0.018744723200203133 0 -8.8493662006721937e-05 0.018738123845217239 0 -9.2477974355696226e-05 0.018714482530717187 0 -8.6127645064048791e-05 0.018744723200203133 0 -8.4947594200471865e-05 0.018761754869827847 0 -8.848255381033701e-05 0.018768760755805355 0 -8.4947594200471865e-05 0.018761754869827847 0 -8.848255381033701e-05 0.018768760755805355 0 -8.9785244018525826e-05 0.018778872379266575 0 -7.2218200790603984e-05 0.018776747961180104 0 -8.4947594200471865e-05 0.018761754869827847 0 -8.9785244018525826e-05 0.018778872379266575 0 -8.848255381033701e-05 0.018768760755805355 0 -9.757945479437273e-05 0.018793408896759001 0 -8.9785244018525826e-05 0.018778872379266575 0 -8.6127645064048791e-05 0.018744723200203133 0 -8.848255381033701e-05 0.018768760755805355 0 -8.8493662006721937e-05 0.018738123845217239 0 -8.848255381033701e-05 0.018768760755805355 0 -8.8291606506959021e-05 0.018749495968266638 0 -8.8493662006721937e-05 0.018738123845217239 0 -0.00012725890770424547 0.017351406998609299 0 -0.00092453645911214825 0.022198470566801319 0 -0.00046421485934341122 0.016633029192362665 0 -0.00036320771663365709 0.016688836221130952 0 -0.00036120755951244831 0.01673725348890413 0 -8.848255381033701e-05 0.018768760755805355 0 -8.8291606506959021e-05 0.018749495968266638 0 -9.757945479437273e-05 0.018793408896759001 0 -0.00046421485934341122 0.016633029192362665 0 -0.00042327175648431689 0.016595275561922234 0 -0.00046565118474242977 0.016520425193297574 0 -0.00046421485934341122 0.016633029192362665 0 -0.00042327175648431689 0.016595275561922234 0 -0.00036320771663365709 0.016688836221130952 0 -0.00042327175648431689 0.016595275561922234 0 -0.00045719583073230649 0.016532393466076784 0 -0.00033607167108374387 0.016611146660515327 0 -0.00046421485934341122 0.016633029192362665 0 -0.0004710768969833156 0.016453831048004706 0 -0.00046565118474242977 0.016520425193297574 0 -0.00027704117761610645 0.016003012762001063 0 -0.00018863731544406783 0.01624276500547665 0 -0.0004710768969833156 0.016453831048004706 0 -0.00046421485934341122 0.016633029192362665 0 -0.00058237976225357575 0.016590211528871097 0 -0.0004710768969833156 0.016453831048004706 0 -0.00053114455058405024 0.016264266803194212 0 -0.00044761718338984875 0.016436417460045559 0 -8.8291606506959021e-05 0.018749495968266638 0 -9.2402999653348639e-05 0.018716012104802535 0 -8.8493662006721937e-05 0.018738123845217239 0 -0.00012725890770424547 0.017351406998609299 0 -0.00053114455058405024 0.016264266803194212 0 -0.0007563549322143851 0.014160360380314709 0 -0.00081160974270014241 0.014220795166628841 0 -0.00082009335031804566 0.014130927562087727 0 -0.00053114455058405024 0.016264266803194212 0 -0.00045183065523444083 0.016514157425539171 0 -9.2402999653348639e-05 0.018716012104802535 0 -8.8493662006721937e-05 0.018738123845217239 0 -9.2477974355696226e-05 0.018714482530717187 0 -0.00027704117761610645 0.016003012762001063 0 -0.00018863731544406783 0.01624276500547665 0 2.8282020752134821e-05 0.01602297914370588 0 -0.00053114455058405024 0.016264266803194212 0 -0.00031068864234444092 0.015100487508537604 0 -0.00018863731544406783 0.01624276500547665 0 2.8282020752134821e-05 0.01602297914370588 0 -5.3906133265750743e-06 0.016224314256115601 0 -0.00018863731544406783 0.01624276500547665 0 -0.00012667492214574717 0.016352128216491093 0 -5.3906133265750743e-06 0.016224314256115601 0 -0.00018863731544406783 0.01624276500547665 0 -0.00012667492214574717 0.016352128216491093 0 -0.00028143779814942746 0.016433117120896141 0 -0.00012667492214574717 0.016352128216491093 0 -0.00028143779814942746 0.016433117120896141 0 -0.00022061121483185172 0.016517910962464761 0 -0.00012667492214574717 0.016352128216491093 0 -5.3029931737645388e-05 0.016455747602003135 0 -1.5728960412544705e-05 0.016347500476007283 0 -0.00012667492214574717 0.016352128216491093 0 -1.5728960412544705e-05 0.016347500476007283 0 -5.3906133265750743e-06 0.016224314256115601 0 -0.00018863731544406783 0.01624276500547665 0 -0.0004710768969833156 0.016453831048004706 0 -0.00028143779814942746 0.016433117120896141 0 -0.0004710768969833156 0.016453831048004706 0 -0.00028143779814942746 0.016433117120896141 0 -0.00037483409189744798 0.016571327060873574 0 -0.0004710768969833156 0.016453831048004706 0 -0.00037483409189744798 0.016571327060873574 0 -0.00049240681560983979 0.016624669262739023 0 -0.00037483409189744798 0.016571327060873574 0 -0.00022934953004195746 0.016679729374315406 0 -0.00045395797006887251 0.016719379204438035 0 -0.00028143779814942746 0.016433117120896141 0 -0.00037483409189744798 0.016571327060873574 0 -0.00022061121483185172 0.016517910962464761 0 -0.00037483409189744798 0.016571327060873574 0 -0.00022061121483185172 0.016517910962464761 0 -0.00022934953004195746 0.016679729374315406 0 -6.8613165739530947e-05 0.016837545607264321 0 0.00015097194373623688 0.016608152585760073 0 -0.0001052939170240808 0.016553758297188369 0 -0.00022934953004195746 0.016679729374315406 0 0.00013459073382810857 0.01655219123780291 0 -0.00012667492214574717 0.016352128216491093 0 -5.3029931737645388e-05 0.016455747602003135 0 -0.00022061121483185172 0.016517910962464761 0 -5.3029931737645388e-05 0.016455747602003135 0 -0.00022061121483185172 0.016517910962464761 0 -0.0001052939170240808 0.016553758297188369 0 -5.3029931737645388e-05 0.016455747602003135 0 -0.0001052939170240808 0.016553758297188369 0 2.1966478857737153e-06 0.016495393164863134 0 -0.00022061121483185172 0.016517910962464761 0 -0.0001052939170240808 0.016553758297188369 0 -0.00022934953004195746 0.016679729374315406 0 8.7798695499581509e-06 0.017060689322775827 0 0.00035290172025016124 0.016353755229368945 0 0.00034805836055397952 0.016660395272089613 0 -7.3976906629970803e-06 0.017227997700073227 0 0.00054255651529251854 0.01597984032266413 0 5.4584419611644616e-05 0.01701846141361266 0 -7.3976906629970803e-06 0.017227997700073227 0 0.00012187756091323517 0.016646519514601669 0 0.00034805836055397952 0.016660395272089613 0 0.00016139222311358124 0.017307504839051288 0 -7.3976906629970803e-06 0.017227997700073227 0 0.00034258310673970029 0.016870895362950857 0 0.00016139222311358124 0.017307504839051288 0 0.00021250732251986844 0.017348765584168958 0 0.00034805836055397952 0.016660395272089613 0 0.00034258310673970029 0.016870895362950857 0 0.00016139222311358124 0.017307504839051288 0 0.00034805836055397952 0.016660395272089613 0 0.00034258310673970029 0.016870895362950857 0 0.00051247720011110163 0.016388558979220643 0 -6.8613165739530947e-05 0.016837545607264321 0 -0.00041688559772399907 0.016864330621327646 0 5.4584419611644616e-05 0.01701846141361266 0 -7.3976906629970803e-06 0.017227997700073227 0 -0.00032409571242609023 0.017364610394406791 0 -7.3976906629970803e-06 0.017227997700073227 0 5.4613519931993428e-05 0.018094144114943946 0 -0.00032409571242609023 0.017364610394406791 0 0.00016139222311358124 0.017307504839051288 0 -7.3976906629970803e-06 0.017227997700073227 0 5.4613519931993428e-05 0.018094144114943946 0 0.00016139222311358124 0.017307504839051288 0 5.4613519931993428e-05 0.018094144114943946 0 0.00012276716059870469 0.017903604074476779 0 5.4613519931993428e-05 0.018094144114943946 0 -2.6117492351815407e-06 0.019970565914895183 0 -0.00032409571242609023 0.017364610394406791 0 5.4613519931993428e-05 0.018094144114943946 0 5.9317020779785476e-07 0.018895831242064686 0 0.00012276716059870469 0.017903604074476779 0 5.4613519931993428e-05 0.018094144114943946 0 5.9317020779785476e-07 0.018895831242064686 0 -2.6117492351815407e-06 0.019970565914895183 0 5.9317020779785476e-07 0.018895831242064686 0 1.1668616588041439e-06 0.01781683931735898 0 0.00012276716059870469 0.017903604074476779 0 1.1668616588041439e-06 0.01781683931735898 0 0.00030216156824025 0.017058373107445932 0 0.00021250732251986844 0.017348765584168958 0 0.00034258310673970029 0.016870895362950857 0 0.00030216156824025 0.017058373107445932 0 0.00021250732251986844 0.017348765584168958 0 0.00016139222311358124 0.017307504839051288 0 0.00012276716059870469 0.017903604074476779 0 0.00021250732251986844 0.017348765584168958 0 1.1668616588041439e-06 0.01781683931735898 0 0.00012276716059870469 0.017903604074476779 0 0.00021250732251986844 0.017348765584168958 0 6.9772107811674382e-07 0.02153940216583286 0 -7.1247969324842056e-07 0.019975764056637337 0 -4.9733885441670748e-05 0.021719724501558995 0 -3.9345473179531717e-07 0.01997376485281423 0 -0.0009168263089124923 0.019815876977672328 0 -2.6117492351815407e-06 0.019970565914895183 0 -0.00032409571242609023 0.017364610394406791 0 -0.002255081595572743 0.017925696802406171 0 -0.00041688559772399907 0.016864330621327646 0 -0.0009168263089124923 0.019815876977672328 0 -0.00045395797006887251 0.016719379204438035 0 -0.00049145018017272173 0.016690627033920786 0 -0.00049617493254598612 0.016702454592219224 0 -0.0019317517584482846 0.022931034062085357 0 -0.0019583505297004374 0.022933453088577888 0 -0.0019996014645223353 0.022779395307931806 0 -0.00049617493254598612 0.016702454592219224 0 -0.00048126300909996032 0.016712643121227732 0 -0.00041961723000247963 0.016737186993290191 0 -0.0009168263089124923 0.019815876977672328 0 -0.002223696074924451 0.021511219301048511 0 -0.00049145018017272173 0.016690627033920786 0 -0.00049617493254598612 0.016702454592219224 0 -0.00048126300909996032 0.016712643121227732 0 -0.00048126300909996032 0.016712643121227732 0 -0.00049240681560983979 0.016624669262739023 0 -0.00049458786658772692 0.016833523857488326 0 -0.00048126300909996032 0.016712643121227732 0 -0.00049458786658772692 0.016833523857488326 0 -0.00044134643121331182 0.016782426075865088 0 -0.00048126300909996032 0.016712643121227732 0 -0.00044134643121331182 0.016782426075865088 0 -0.00041961723000247963 0.016737186993290191 0 -0.00037483409189744798 0.016571327060873574 0 -0.00045395797006887251 0.016719379204438035 0 -0.00049240681560983979 0.016624669262739023 0 -0.00041718761834084968 0.016731534508489725 0 -0.00056816923815351209 0.016385843326037278 0 -0.00045395797006887251 0.016719379204438035 0 -0.00049145018017272173 0.016690627033920786 0 -0.00049240681560983979 0.016624669262739023 0 -0.00049145018017272173 0.016690627033920786 0 -0.00048126300909996032 0.016712643121227732 0 -0.00049240681560983979 0.016624669262739023 0 -0.0004710768969833156 0.016453831048004706 0 -0.00049240681560983979 0.016624669262739023 0 -0.00046565118474242977 0.016520425193297574 0 -0.00049240681560983979 0.016624669262739023 0 -0.00046565118474242977 0.016520425193297574 0 -0.00045719583073230649 0.016532393466076784 0 -0.00056816923815351209 0.016385843326037278 0 -0.00098559842144696247 0.019490958364738978 0 -0.00042327175648431689 0.016595275561922234 0 -0.00046565118474242977 0.016520425193297574 0 -0.00045719583073230649 0.016532393466076784 0 -0.0021005758043770393 0.022147994119084791 0 -0.00098559842144696247 0.019490958364738978 0 -0.0023887705939935671 0.021212906217798699 0 -0.00056100211022701134 0.024707938178584698 0 -0.0028452587073841606 0.024378994924589444 0 -0.00049458786658772692 0.016833523857488326 0 -0.00044134643121331182 0.016782426075865088 0 -0.00038441986029362171 0.016998854200691804 0 -0.00044134643121331182 0.016782426075865088 0 -0.00036627568148356462 0.016808096770426221 0 -0.00038441986029362171 0.016998854200691804 0 -0.0024490013148519381 0.027584377872047428 0 -0.0036166018708307639 0.026655795812528887 0 -0.0024659387014086911 0.028865206593416504 0 -0.0021005758043770393 0.022147994119084791 0 -0.0015780716525956263 0.027034319886513617 0 -0.0030500284851890185 0.030952500319953061 0 -0.003458677627757496 0.030848803973459221 0 -0.0026565889657348828 0.031650827539289515 0 -0.0030500284851890185 0.030952500319953061 0 -0.003458677627757496 0.030848803973459221 0 -0.0031751296088369458 0.030590598233204244 0 -0.0024490013148519381 0.027584377872047428 0 -0.0036166018708307639 0.026655795812528887 0 -0.003570251990544805 0.026339139182565301 0 -0.003458677627757496 0.030848803973459221 0 -0.0034919340767318508 0.030278433344956324 0 -0.0042443657735589417 0.030018305637819435 0 -0.0029476045568302607 0.029317323989980264 0 -0.0026520382303614276 0.025813526340797227 0 -0.0031751296088369458 0.030590598233204244 0 -0.0034919340767318508 0.030278433344956324 0 -0.0029702975855504213 0.030192736866459756 0 -0.003458677627757496 0.030848803973459221 0 -0.0031751296088369458 0.030590598233204244 0 -0.0034919340767318508 0.030278433344956324 0 -0.0034919340767318508 0.030278433344956324 0 -0.0036104725011960165 0.029743944740690399 0 -0.0029702975855504213 0.030192736866459756 0 -0.0034919340767318508 0.030278433344956324 0 -0.0036104725011960165 0.029743944740690399 0 -0.0042443657735589417 0.030018305637819435 0 -0.0036104725011960165 0.029743944740690399 0 -0.0030753048257205619 0.029484428140718152 0 -0.0029702975855504213 0.030192736866459756 0 -0.00044134643121331182 0.016782426075865088 0 -0.00036627568148356462 0.016808096770426221 0 -0.00041961723000247963 0.016737186993290191 0 -0.0021005758043770393 0.022147994119084791 0 -0.002223696074924451 0.021511219301048511 0 -0.0016170478635301076 0.023938007780619251 0 -0.0015252738435074227 0.023280925866787254 0 -0.0025481244090678652 0.022187429878907754 0 -0.0021005758043770393 0.022147994119084791 0 -0.0026520382303614276 0.025813526340797227 0 -0.0026520382303614276 0.025813526340797227 0 -0.002223696074924451 0.021511219301048511 0 -0.0026520382303614276 0.025813526340797227 0 -0.0018083044669806481 0.02485704221894993 0 -0.0019948784188891224 0.022930306478998977 0 -0.0019874172969662623 0.022930513581936665 0 -0.0020136870965000477 0.022967774962199896 0 -0.0019317517584482846 0.022931034062085357 0 -0.0019583505297004374 0.022933453088577888 0 -0.0020136870965000477 0.022967774962199896 0 -0.0017608398807228362 0.023333174111391505 0 -0.002223696074924451 0.021511219301048511 0 -0.0009168263089124923 0.019815876977672328 0 -0.0018083044669806481 0.02485704221894993 0 -0.0019583505297004374 0.022933453088577888 0 -0.0019874172969662623 0.022930513581936665 0 -0.0020136870965000477 0.022967774962199896 0 -0.004054470975691787 0.028360948576142596 0 -0.0026747845529193001 0.028939406417976841 0 -0.0030753048257205619 0.029484428140718152 0 -0.0036104725011960165 0.029743944740690399 0 -0.004054470975691787 0.028360948576142596 0 -0.0030753048257205619 0.029484428140718152 0 -0.0036104725011960165 0.029743944740690399 0 -0.0042443657735589417 0.030018305637819435 0 -0.004054470975691787 0.028360948576142596 0 -0.0018083044669806481 0.02485704221894993 0 -0.0011910930001264647 0.026418894070026507 0 -3.6122766761533637e-07 0.023107524247685057 0 -7.1863423198707279e-05 0.023447583017800804 0 2.4693322608346489e-05 0.024709198825268983 0 -2.1191715911299769e-07 0.023103665073685956 0 -0.0018083044669806481 0.02485704221894993 0 6.9772107811674382e-07 0.02153940216583286 0 -7.3267224914151487e-07 0.023102861661274302 0 5.5319439829804993e-05 0.022294411836380052 0 6.9772107811674382e-07 0.02153940216583286 0 -4.9733885441670748e-05 0.021719724501558995 0 5.5319439829804993e-05 0.022294411836380052 0 -0.0025144901487958765 0.027845483665755056 0 -0.0014660976441636209 0.029069177345444102 0 -4.8408576553565805e-06 0.026849045954038104 0 -0.0011910930001264647 0.026418894070026507 0 2.7240745033618553e-07 0.02684200824939157 0 3.1019052325340938e-07 0.024972622226495877 0 2.4693322608346489e-05 0.024709198825268983 0 -3.139508101740244e-07 0.02684234373854167 0 -0.004054470975691787 0.028360948576142596 0 -0.0025144901487958765 0.027845483665755056 0 -0.0026747845529193001 0.028939406417976841 0 -3.6122766761533637e-07 0.023107524247685057 0 3.1019052325340938e-07 0.024972622226495877 0 2.4693322608346489e-05 0.024709198825268983 0 -0.0026747845529193001 0.028939406417976841 0 -0.0021063805095566592 0.029924596677880094 0 -0.0030753048257205619 0.029484428140718152 0 -0.0026747845529193001 0.028939406417976841 0 -0.0014660976441636209 0.029069177345444102 0 -0.0021063805095566592 0.029924596677880094 0 -0.0025144901487958765 0.027845483665755056 0 -0.0026747845529193001 0.028939406417976841 0 -0.0014660976441636209 0.029069177345444102 0 -0.0014660976441636209 0.029069177345444102 0 -0.0021063805095566592 0.029924596677880094 0 -0.0011413253431398309 0.030104098048930075 0 -0.0021063805095566592 0.029924596677880094 0 -0.0016549655429182644 0.030752092816085499 0 -0.0011413253431398309 0.030104098048930075 0 -0.0021063805095566592 0.029924596677880094 0 -0.0030753048257205619 0.029484428140718152 0 -0.0029702975855504213 0.030192736866459756 0 -0.0021063805095566592 0.029924596677880094 0 -0.0029702975855504213 0.030192736866459756 0 -0.0023579064894966636 0.030612463403383375 0 -0.0031751296088369458 0.030590598233204244 0 -0.0029702975855504213 0.030192736866459756 0 -0.0028278302532708656 0.030670073418611454 0 -0.0028278302532708656 0.030670073418611454 0 -0.0023579064894966636 0.030612463403383375 0 -0.0025951768744493578 0.030997930610997919 0 -0.0029702975855504213 0.030192736866459756 0 -0.0028278302532708656 0.030670073418611454 0 -0.0023579064894966636 0.030612463403383375 0 -0.0030500284851890185 0.030952500319953061 0 -0.0031751296088369458 0.030590598233204244 0 -0.0028278302532708656 0.030670073418611454 0 -0.0023579064894966636 0.030612463403383375 0 -0.0021797175949543166 0.031144673092740729 0 -0.0025951768744493578 0.030997930610997919 0 -0.0030500284851890185 0.030952500319953061 0 -0.0025951768744493578 0.030997930610997919 0 -0.002635107297440758 0.031589990233976774 0 -0.0030500284851890185 0.030952500319953061 0 -0.0028278302532708656 0.030670073418611454 0 -0.0025951768744493578 0.030997930610997919 0 -0.0021063805095566592 0.029924596677880094 0 -0.0023579064894966636 0.030612463403383375 0 -0.0016549655429182644 0.030752092816085499 0 -0.0023579064894966636 0.030612463403383375 0 -0.0021797175949543166 0.031144673092740729 0 -0.0016549655429182644 0.030752092816085499 0 -0.0021797175949543166 0.031144673092740729 0 -0.0016549655429182644 0.030752092816085499 0 -0.001687475762434114 0.031477175791645821 0 -0.0016549655429182644 0.030752092816085499 0 -0.001687475762434114 0.031477175791645821 0 -0.00095757027138525025 0.031307795574071047 0 -0.001687475762434114 0.031477175791645821 0 -0.0013002869752520311 0.032002308956135254 0 -0.00095757027138525025 0.031307795574071047 0 -0.001687475762434114 0.031477175791645821 0 -0.0018185605286841365 0.031879157118708132 0 -0.002635107297440758 0.031589990233976774 0 -0.0018185605286841365 0.031879157118708132 0 -0.0016735733180087301 0.032442400927423343 0 -0.002635107297440758 0.031589990233976774 0 -0.001687475762434114 0.031477175791645821 0 -0.0018185605286841365 0.031879157118708132 0 -0.0013002869752520311 0.032002308956135254 0 -0.0018185605286841365 0.031879157118708132 0 -0.0013002869752520311 0.032002308956135254 0 -0.0016735733180087301 0.032442400927423343 0 -0.0013002869752520311 0.032002308956135254 0 -0.0016735733180087301 0.032442400927423343 0 -0.00112376454177732 0.032482682363540537 0 -0.00056676963735979109 0.031852876600412021 0 -0.00074540624116116157 0.031992860218867811 0 -0.00045355187524439661 0.032197529115746283 0 -0.0010876410126694697 0.030461015375612636 0 -0.0024659387014086911 0.028865206593416504 0 -0.0014136840562522924 0.03079877125908655 0 -0.00065028719474404439 0.031140283286179602 0 -0.0019979483881873445 0.030722517808698651 0 -0.0006424627203443097 0.030546954158570054 0 -0.0010876410126694697 0.030461015375612636 0 -0.0014253760129415954 0.028807149694995853 0 -0.00056676963735979109 0.031852876600412021 0 -0.00074540624116116157 0.031992860218867811 0 -0.0012016354461279776 0.031171369709811207 0 -0.001080996526942856 0.032248388989340522 0 -0.0019979483881873445 0.030722517808698651 0 2.4406474782173798e-05 0.02750156432315122 0 -0.00022862535102489279 0.029909917222395044 0 -0.0006424627203443097 0.030546954158570054 0 -0.0010876410126694697 0.030461015375612636 0 -0.00095699831237856727 0.030779705816562662 0 -0.0010876410126694697 0.030461015375612636 0 -0.0014253760129415954 0.028807149694995853 0 -0.0024659387014086911 0.028865206593416504 0 -0.0021797175949543166 0.031144673092740729 0 -0.001687475762434114 0.031477175791645821 0 -0.002635107297440758 0.031589990233976774 0 -0.0021797175949543166 0.031144673092740729 0 -0.0025951768744493578 0.030997930610997919 0 -0.002635107297440758 0.031589990233976774 0 -0.002760054809140643 0.031083154471584645 0 -0.0019979483881873445 0.030722517808698651 0 -0.0029476045568302607 0.029317323989980264 0 -0.0019979483881873445 0.030722517808698651 0 -0.00098559842144696247 0.019490958364738978 0 2.4406474782173798e-05 0.02750156432315122 0 -0.0024490013148519381 0.027584377872047428 0 -0.0014253760129415954 0.028807149694995853 0 -0.0024659387014086911 0.028865206593416504 0 -0.00056100211022701134 0.024707938178584698 0 -0.0028452587073841606 0.024378994924589444 0 -7.0706873185969883e-05 0.027002308017666156 0 -0.00042327175648431689 0.016595275561922234 0 -0.00033607167108374387 0.016611146660515327 0 -0.00036320771663365709 0.016688836221130952 0 -0.00033607167108374387 0.016611146660515327 0 -0.00036320771663365709 0.016688836221130952 0 -0.00034172382515733633 0.016815790568576402 0 -0.00098559842144696247 0.019490958364738978 0 -0.00092453645911214825 0.022198470566801319 0 -0.0015716599775920388 0.021505845429472426 0 -0.0018986002182322804 0.023748469212128011 0 0.0012983814805885624 0.024198439603084883 0 -0.00086174202479522011 0.01670578929699839 0 -0.00092453645911214825 0.022198470566801319 0 -0.0018528292228974961 0.030667205122396117 0 -0.0014874973494359996 0.030974933728760191 0 -0.0010815414514288673 0.030833624800307408 0 -0.00056100211022701134 0.024707938178584698 0 -7.0706873185969883e-05 0.027002308017666156 0 0.0012637488841136062 0.028260639906018809 0 -0.0015780716525956263 0.027034319886513617 0 -0.00022862535102489279 0.029909917222395044 0 -0.00092453645911214825 0.022198470566801319 0 2.4406474782173798e-05 0.02750156432315122 0 -0.0014874973494359996 0.030974933728760191 0 -0.0010815414514288673 0.030833624800307408 0 -0.0012003129950625975 0.031385718706553663 0 -0.0014874973494359996 0.030974933728760191 0 -0.0012003129950625975 0.031385718706553663 0 -0.0017386209490872781 0.031642132562450111 0 -0.0010815414514288673 0.030833624800307408 0 -0.0012003129950625975 0.031385718706553663 0 -0.00078491854803698342 0.031182682241282917 0 -0.0018528292228974961 0.030667205122396117 0 -0.0014874973494359996 0.030974933728760191 0 -0.0017386209490872781 0.031642132562450111 0 -0.00092453645911214825 0.022198470566801319 0 -0.0009489068383877079 0.029267770543265591 0 -0.00032166195263131779 0.023877148623255354 0 -0.00020325749394367034 0.024660748737867003 0 -0.00034656418744078755 0.024698326601527779 0 -0.00092453645911214825 0.022198470566801319 0 -0.00011028926941747241 0.021524209597107213 0 -0.00086480666872982323 0.028545363224548821 0 -0.0009489068383877079 0.029267770543265591 0 -0.00017352909577471743 0.025170630392362538 0 -0.00020325749394367034 0.024660748737867003 0 -0.00034656418744078755 0.024698326601527779 0 -0.0015413574891377823 0.032417549429511791 0 -0.0017386209490872781 0.031642132562450111 0 -0.0012955811526009083 0.031902905557499139 0 -0.0012003129950625975 0.031385718706553663 0 -0.0017386209490872781 0.031642132562450111 0 -0.0012955811526009083 0.031902905557499139 0 -0.0012003129950625975 0.031385718706553663 0 -0.0012955811526009083 0.031902905557499139 0 -0.0009085425927354815 0.031784316760376796 0 -0.0010626690980316629 0.032197077253820892 0 -0.0012955811526009083 0.031902905557499139 0 -0.0009085425927354815 0.031784316760376796 0 -0.0010626690980316629 0.032197077253820892 0 -0.0009085425927354815 0.031784316760376796 0 -0.0008212037412140211 0.032119109025348376 0 -0.0009085425927354815 0.031784316760376796 0 -0.00055558681481106275 0.032091166774025466 0 -0.00078491854803698342 0.031182682241282917 0 -0.0009085425927354815 0.031784316760376796 0 -0.0008212037412140211 0.032119109025348376 0 -0.00055558681481106275 0.032091166774025466 0 -0.00055558681481106275 0.032091166774025466 0 -0.000210144531050496 0.03183297788551101 0 -0.00073547837268139748 0.031248102188943562 0 -0.00014284280768776775 0.032728795761913364 0 -0.00055558681481106275 0.032091166774025466 0 -0.000210144531050496 0.03183297788551101 0 -0.001080996526942856 0.032248388989340522 0 -0.00049961093350928392 0.032713855126588497 0 -0.00074540624116116157 0.031992860218867811 0 -0.00036672378673720653 0.032547000719378563 0 -0.00045355187524439661 0.032197529115746283 0 -0.0006424627203443097 0.030546954158570054 0 -0.000210144531050496 0.03183297788551101 0 -0.00073547837268139748 0.031248102188943562 0 -0.00065028719474404439 0.031140283286179602 0 -0.00030824549680210647 0.032191894242569935 0 -0.00056676963735979109 0.031852876600412021 0 -0.00045355187524439661 0.032197529115746283 0 -0.00016706888008878631 0.032379168328005553 0 -0.0006424627203443097 0.030546954158570054 0 -0.00073547837268139748 0.031248102188943562 0 -0.00095699831237856727 0.030779705816562662 0 -0.0012003129950625975 0.031385718706553663 0 -0.0009085425927354815 0.031784316760376796 0 -0.00078491854803698342 0.031182682241282917 0 -0.00073547837268139748 0.031248102188943562 0 -0.00095699831237856727 0.030779705816562662 0 -0.0014136840562522924 0.03079877125908655 0 -0.00055558681481106275 0.032091166774025466 0 -0.00073547837268139748 0.031248102188943562 0 -0.0014136840562522924 0.03079877125908655 0 -0.00077496350527122421 0.032388070350056156 0 -0.00022862535102489279 0.029909917222395044 0 -0.0010876410126694697 0.030461015375612636 0 -0.00095699831237856727 0.030779705816562662 0 -0.0014136840562522924 0.03079877125908655 0 -0.00077465051664174956 0.033126945649607012 0 1.7913186870542253e-05 0.033131663568650202 0 -0.00040288404894635879 0.032646778068274741 0 -0.0016735733180087301 0.032442400927423343 0 -0.00077465051664174956 0.033126945649607012 0 -0.00112376454177732 0.032482682363540537 0 -0.00077465051664174956 0.033126945649607012 0 -0.00040288404894635879 0.032646778068274741 0 -0.00075569167347006667 0.0323151185046354 0 -0.00036672378673720653 0.032547000719378563 0 -0.00045355187524439661 0.032197529115746283 0 -0.00016706888008878631 0.032379168328005553 0 -0.00016706888008878631 0.032379168328005553 0 -0.00016345845229105973 0.032610759799423433 0 -1.6737623179198284e-05 0.032710369366422937 0 -0.00014284280768776775 0.032728795761913364 0 -0.00036672378673720653 0.032547000719378563 0 -0.00016345845229105973 0.032610759799423433 0 -0.00014704725922464485 0.032662307800264155 0 -0.00030824549680210647 0.032191894242569935 0 -0.00036672378673720653 0.032547000719378563 0 -0.00016706888008878631 0.032379168328005553 0 -0.00016345845229105973 0.032610759799423433 0 -0.00049961093350928392 0.032713855126588497 0 -0.00010769655064131452 0.033076588397202775 0 -0.00077465051664174956 0.033126945649607012 0 -0.00013816669262262042 0.033458674397562803 0 1.7913186870542253e-05 0.033131663568650202 0 -0.00025279510886896484 0.03386135679924672 0 -0.00024187747504093369 0.034061646376294927 0 -0.00033590511510945127 0.034067056541940741 0 -8.4720622821201909e-05 0.033412549944582925 0 -0.00016116357060288114 0.033550572866631025 0 -6.1952875084770548e-05 0.033413163718138308 0 -0.00013816669262262042 0.033458674397562803 0 1.7913186870542253e-05 0.033131663568650202 0 -6.1952875084770548e-05 0.033413163718138308 0 -0.00025279510886896484 0.03386135679924672 0 -0.00033590511510945127 0.034067056541940741 0 -0.00039007152143689038 0.033778458090038689 0 -0.00025279510886896484 0.03386135679924672 0 -0.00024187747504093369 0.034061646376294927 0 -0.00024187747504093369 0.034061646376294927 0 -0.00033590511510945127 0.034067056541940741 0 -0.00014829887825413836 0.033875578426326547 0 -0.00024187747504093369 0.034061646376294927 0 -0.00014829887825413836 0.033875578426326547 0 -0.00012263144533004774 0.034349427492933932 0 -0.00014829887825413836 0.033875578426326547 0 -0.00026811233213246306 0.032892508865566224 0 0.00015507162585433337 0.033242257247453388 0 -0.00033590511510945127 0.034067056541940741 0 -0.00014829887825413836 0.033875578426326547 0 -0.00075739353546114404 0.033568818792912264 0 -0.00014829887825413836 0.033875578426326547 0 -0.00075739353546114404 0.033568818792912264 0 -0.00026811233213246306 0.032892508865566224 0 -6.2723358046853317e-05 0.031939742296676815 0 -0.00095757027138525025 0.031307795574071047 0 -0.00029398703040449463 0.030478273168643443 0 1.7913186870542253e-05 0.033131663568650202 0 -6.2723358046853317e-05 0.031939742296676815 0 -0.00040288404894635879 0.032646778068274741 0 -0.00016116357060288114 0.033550572866631025 0 -0.00041525877872215355 0.032737631149609224 0 -6.2723358046853317e-05 0.031939742296676815 0 -0.00040288404894635879 0.032646778068274741 0 -0.00075569167347006667 0.0323151185046354 0 -0.00077465051664174956 0.033126945649607012 0 -0.00112376454177732 0.032482682363540537 0 -0.00075569167347006667 0.0323151185046354 0 -0.0013002869752520311 0.032002308956135254 0 -0.00112376454177732 0.032482682363540537 0 -0.00075569167347006667 0.0323151185046354 0 -0.0013002869752520311 0.032002308956135254 0 -0.00075569167347006667 0.0323151185046354 0 -0.00095757027138525025 0.031307795574071047 0 -6.2723358046853317e-05 0.031939742296676815 0 -0.00075569167347006667 0.0323151185046354 0 -0.00095757027138525025 0.031307795574071047 0 -4.8408576553565805e-06 0.026849045954038104 0 -1.4996767587072103e-05 0.031044551732736445 0 2.0319915908837823e-06 0.031491150989471112 0 -0.00095757027138525025 0.031307795574071047 0 -0.00029398703040449463 0.030478273168643443 0 -0.0011413253431398309 0.030104098048930075 0 -0.0016549655429182644 0.030752092816085499 0 -0.00095757027138525025 0.031307795574071047 0 -0.0011413253431398309 0.030104098048930075 0 -0.00075739353546114404 0.033568818792912264 0 -0.0010876634656886714 0.032088550040701637 0 -0.00026811233213246306 0.032892508865566224 0 -0.00041525877872215355 0.032737631149609224 0 -0.00063625764233229542 0.031259561410667526 0 -0.0010876634656886714 0.032088550040701637 0 -0.00052270540509686322 0.029133121126406484 0 -1.4996767587072103e-05 0.031044551732736445 0 -0.00063625764233229542 0.031259561410667526 0 -0.00059433699188584635 0.029312308455671413 0 -0.00029398703040449463 0.030478273168643443 0 -0.0011413253431398309 0.030104098048930075 0 -0.00052270540509686322 0.029133121126406484 0 -0.0014660976441636209 0.029069177345444102 0 -0.0011413253431398309 0.030104098048930075 0 -0.00052270540509686322 0.029133121126406484 0 -0.00052270540509686322 0.029133121126406484 0 -4.8408576553565805e-06 0.026849045954038104 0 -1.4996767587072103e-05 0.031044551732736445 0 -0.0014660976441636209 0.029069177345444102 0 -0.00052270540509686322 0.029133121126406484 0 -4.8408576553565805e-06 0.026849045954038104 0 -1.4996767587072103e-05 0.031044551732736445 0 0.00015507162585433337 0.033242257247453388 0 2.0319915908837823e-06 0.031491150989471112 0 -1.4996767587072103e-05 0.031044551732736445 0 -0.00026811233213246306 0.032892508865566224 0 0.00015507162585433337 0.033242257247453388 0 -0.0010876634656886714 0.032088550040701637 0 -1.4996767587072103e-05 0.031044551732736445 0 -0.00026811233213246306 0.032892508865566224 0 0.00015507162585433337 0.033242257247453388 0 2.0319915908837823e-06 0.031491150989471112 0 0.00027815801634040313 0.033985130066968905 0 0.00015507162585433337 0.033242257247453388 0 0.00027815801634040313 0.033985130066968905 0 0.00011192664232618177 0.034203394962705511 0 -7.8396544274746569e-09 0.034996663251905751 0 0.00027815801634040313 0.033985130066968905 0 5.8719405026080651e-07 0.034998270441367975 0 2.0319915908837823e-06 0.031491150989471112 0 -7.8396544274746569e-09 0.034996663251905751 0 0.00027815801634040313 0.033985130066968905 0 0.00027815801634040313 0.033985130066968905 0 0.00011192664232618177 0.034203394962705511 0 5.8719405026080651e-07 0.034998270441367975 0 -0.00014829887825413836 0.033875578426326547 0 0.00015507162585433337 0.033242257247453388 0 0.00011192664232618177 0.034203394962705511 0 -0.00014829887825413836 0.033875578426326547 0 0.00011192664232618177 0.034203394962705511 0 -0.00012263144533004774 0.034349427492933932 0 0.00011192664232618177 0.034203394962705511 0 -0.00012263144533004774 0.034349427492933932 0 3.4309134070162856e-05 0.034805177999075794 0 -0.0003167140179283558 0.034242895983540328 0 -0.000141931228060439 0.034307903979698351 0 -0.00010631542504346325 0.034771032070876319 0 -0.00031712331204551881 0.034748753476343944 0 -0.00012263144533004774 0.034349427492933932 0 -0.00039007152143689038 0.033778458090038689 0 -0.00024187747504093369 0.034061646376294927 0 -0.00012263144533004774 0.034349427492933932 0 -0.00010631542504346325 0.034771032070876319 0 -0.00012263144533004774 0.034349427492933932 0 3.4309134070162856e-05 0.034805177999075794 0 0.00011192664232618177 0.034203394962705511 0 5.8719405026080651e-07 0.034998270441367975 0 3.4309134070162856e-05 0.034805177999075794 0 -0.0017019306955824254 -0.00088882212317589076 0 -0.0012543621681395847 -0.00081848088148053788 0 -0.0015700567055974065 -0.0012789766786800918 0 -0.0017019306955824254 -0.00088882212317589076 0 -0.0019302301396435318 -0.000807034525576104 0 -0.002025271059025975 -0.00099279350811386723 0 -0.0017019306955824254 -0.00088882212317589076 0 -0.0018502640269235753 -0.0012073656667000701 0 -0.002025271059025975 -0.00099279350811386723 0 -0.0017019306955824254 -0.00088882212317589076 0 -0.0019302301396435318 -0.000807034525576104 0 -0.0018113094219241442 -0.00061295131557046053 0 -0.0019302301396435318 -0.000807034525576104 0 -0.0018113094219241442 -0.00061295131557046053 0 -0.0022447986847986302 -0.00075305797488578376 0 -0.0017019306955824254 -0.00088882212317589076 0 -0.0018113094219241442 -0.00061295131557046053 0 -0.0014251820490034193 -0.00058226973408848624 0 -0.0017019306955824254 -0.00088882212317589076 0 -0.0014251820490034193 -0.00058226973408848624 0 -0.0012543621681395847 -0.00081848088148053788 0 -0.0014251820490034193 -0.00058226973408848624 0 -0.0010503973748848849 -0.00053750303590783405 0 -0.0012543621681395847 -0.00081848088148053788 0 -0.0010503973748848849 -0.00053750303590783405 0 -0.00075094326778100398 -0.00062676377757019466 0 -0.0012543621681395847 -0.00081848088148053788 0 -0.0010503973748848849 -0.00053750303590783405 0 -0.00075094326778100398 -0.00062676377757019466 0 -0.00086689538808608856 -0.00039266667582093986 0 -0.00080624092105894185 -0.00058193707950283035 0 -0.00052835557796599645 -0.00023770325041287495 0 -0.00075094326778100398 -0.00062676377757019466 0 -0.00065355565837374875 7.7095781077252145e-05 0 -0.0003560048190535614 -0.00062605956374038358 0 -0.00075094326778100398 -0.00062676377757019466 0 -0.00062846093216241525 -0.0010491544299834597 0 -0.0003560048190535614 -0.00062605956374038358 0 -0.00075094326778100398 -0.00062676377757019466 0 -0.0012543621681395847 -0.00081848088148053788 0 -0.0010978365750913496 -0.00107034045862827 0 -0.00060258429998444405 -0.0010817299318778137 0 -0.00054558131410097934 -0.0011781247149398174 0 -0.0010978365750913496 -0.00107034045862827 0 -0.00062846093216241525 -0.0010491544299834597 0 -0.001266299501271711 -0.0015103765208742662 0 -0.00075094326778100398 -0.00062676377757019466 0 -0.0010978365750913496 -0.00107034045862827 0 -0.00062846093216241525 -0.0010491544299834597 0 -0.00062846093216241525 -0.0010491544299834597 0 -0.00039237234904600742 -0.0008245283645175052 0 -0.00049996031152288684 -0.00087715332702485455 0 -0.00062846093216241525 -0.0010491544299834597 0 -0.00047544077788491803 -0.0007666485782751401 0 -0.00049996031152288684 -0.00087715332702485455 0 -0.00047544077788491803 -0.0007666485782751401 0 -0.00049996031152288684 -0.00087715332702485455 0 -0.00052412102615452484 -0.00078285988553362235 0 -0.00047544077788491803 -0.0007666485782751401 0 0.00015653584172803752 -0.00091147556947760366 0 -0.00030940231038046901 -0.00026796355499040403 0 -0.00062846093216241525 -0.0010491544299834597 0 -0.00047544077788491803 -0.0007666485782751401 0 0.00015653584172803752 -0.00091147556947760366 0 -0.00054558131410097934 -0.0011781247149398174 0 -0.00030346576180076076 -0.0010290517745435539 0 -0.001266299501271711 -0.0015103765208742662 0 -0.0015700567055974065 -0.0012789766786800918 0 -0.0017124625495010897 -0.00174592079771968 0 -0.0010978365750913496 -0.00107034045862827 0 -0.001266299501271711 -0.0015103765208742662 0 -0.0015700567055974065 -0.0012789766786800918 0 -0.0012543621681395847 -0.00081848088148053788 0 -0.0010978365750913496 -0.00107034045862827 0 -0.0015700567055974065 -0.0012789766786800918 0 -0.0017019306955824254 -0.00088882212317589076 0 -0.0015700567055974065 -0.0012789766786800918 0 -0.0018502640269235753 -0.0012073656667000701 0 -0.0015700567055974065 -0.0012789766786800918 0 -0.0018502640269235753 -0.0012073656667000701 0 -0.0019154943745224066 -0.001487240088475038 0 -0.0015700567055974065 -0.0012789766786800918 0 -0.0019154943745224066 -0.001487240088475038 0 -0.0017124625495010897 -0.00174592079771968 0 -0.0019154943745224066 -0.001487240088475038 0 -0.0017124625495010897 -0.00174592079771968 0 -0.0020590973662538395 -0.0017228275977207391 0 -0.0019154943745224066 -0.001487240088475038 0 -0.0021538845867010428 -0.001537533053628556 0 -0.0020590973662538395 -0.0017228275977207391 0 -0.0021538845867010428 -0.001537533053628556 0 -0.002212318440139202 -0.0017074924222434359 0 -0.0020590973662538395 -0.0017228275977207391 0 -0.0021538845867010428 -0.001537533053628556 0 -0.002212318440139202 -0.0017074924222434359 0 -0.0025217263058501206 -0.0013753558648377665 0 -0.0020888355296420167 -0.0021250544481144105 0 -0.0021963970869921332 -0.0018964544033053274 0 -0.002212318440139202 -0.0017074924222434359 0 -0.0025217263058501206 -0.0013753558648377665 0 -0.0021967284965698206 -0.0018935694477761628 0 -0.0021252625405572159 -0.001265426985404252 0 -0.0025217263058501206 -0.0013753558648377665 0 -0.0023222153655712333 -0.00099372940433935329 0 -0.0021538845867010428 -0.001537533053628556 0 -0.0021252625405572159 -0.001265426985404252 0 -0.0025217263058501206 -0.0013753558648377665 0 -0.0018502640269235753 -0.0012073656667000701 0 -0.0021252625405572159 -0.001265426985404252 0 -0.002025271059025975 -0.00099279350811386723 0 -0.0018502640269235753 -0.0012073656667000701 0 -0.0019154943745224066 -0.001487240088475038 0 -0.0021252625405572159 -0.001265426985404252 0 -0.0019154943745224066 -0.001487240088475038 0 -0.0021538845867010428 -0.001537533053628556 0 -0.0021252625405572159 -0.001265426985404252 0 -0.00090380963273613963 -0.0050961289818241846 0 -0.0019101338722490079 -0.004979303501140825 0 -0.0015765078166138338 -0.0042781161152846943 0 -0.00090380963273613963 -0.0050961289818241846 0 -0.0012829727231400895 -0.0057141677601801038 0 -0.0019101338722490079 -0.004979303501140825 0 -0.0011140037706397208 -0.0025989671212511027 0 -0.0014778704430535102 -0.002614368176880582 0 -0.0013695581959846006 -0.0030272765096356568 0 -0.0017483080556169297 -0.0022631879834335254 0 -0.001681909738947783 -0.0029539074129998205 0 -0.0021967284965698206 -0.0018935694477761628 0 -0.0014778704430535102 -0.002614368176880582 0 -0.0017483080556169297 -0.0022631879834335254 0 -0.001681909738947783 -0.0029539074129998205 0 -0.0014778704430535102 -0.002614368176880582 0 -0.0017483080556169297 -0.0022631879834335254 0 -0.0015108822535973316 -0.0021009701070005792 0 -0.0011140037706397208 -0.0025989671212511027 0 -0.0014778704430535102 -0.002614368176880582 0 -0.0015108822535973316 -0.0021009701070005792 0 -0.001681909738947783 -0.0029539074129998205 0 -0.0013695581959846006 -0.0030272765096356568 0 -0.0011803769661837759 -0.0031126077775416867 0 -0.0020888355296420167 -0.0021250544481144105 0 -0.0019140434087891952 -0.0019827131581852653 0 -0.0014778704430535102 -0.002614368176880582 0 -0.001681909738947783 -0.0029539074129998205 0 -0.0013695581959846006 -0.0030272765096356568 0 -0.00090380963273613963 -0.0050961289818241846 0 -0.0012941410268877979 -0.0033253058313104031 0 -0.0015765078166138338 -0.0042781161152846943 0 -0.0011140037706397208 -0.0025989671212511027 0 -0.0013695581959846006 -0.0030272765096356568 0 -0.0012941410268877979 -0.0033253058313104031 0 -0.0010193101934594672 -0.00372856668789741 0 -0.001244645762264544 -0.003390389772709352 0 -0.0012941410268877979 -0.0033253058313104031 0 -0.0011803769661837759 -0.0031126077775416867 0 -0.0015400785088536106 -0.0027723079598261711 0 -0.0013695581959846006 -0.0030272765096356568 0 -0.0012941410268877979 -0.0033253058313104031 0 -0.0011803769661837759 -0.0031126077775416867 0 -0.0012941410268877979 -0.0033253058313104031 0 -0.0015400785088536106 -0.0027723079598261711 0 -0.001804019834981093 -0.0030510375955054652 0 -0.0025217263058501206 -0.0013753558648377665 0 -0.0026150163563638403 -0.00090839413654266214 0 -0.0023222153655712333 -0.00099372940433935329 0 -0.0026150163563638403 -0.00090839413654266214 0 -0.0024498669973990494 -0.0007666699639411091 0 -0.0025226154500439567 -0.00059746875916504092 0 -0.0019140434087891952 -0.0019827131581852653 0 -0.001939507595967042 -0.0013769533587703788 0 -0.0018048693642411613 -0.0022613723954197059 0 -0.0015400785088536106 -0.0027723079598261711 0 -0.0013277254842442622 -0.0020693868645922423 0 -0.0011803769661837759 -0.0031126077775416867 0 -0.0015400785088536106 -0.0027723079598261711 0 -0.0013277254842442622 -0.0020693868645922423 0 -0.0018048693642411613 -0.0022613723954197059 0 -0.0015400785088536106 -0.0027723079598261711 0 -0.0018970972259005998 -0.0026677587584034092 0 -0.0021252625405572159 -0.001265426985404252 0 -0.002025271059025975 -0.00099279350811386723 0 -0.0023222153655712333 -0.00099372940433935329 0 -0.002025271059025975 -0.00099279350811386723 0 -0.0023222153655712333 -0.00099372940433935329 0 -0.0022447986847986302 -0.00075305797488578376 0 -0.0026150163563638403 -0.00090839413654266214 0 -0.0023222153655712333 -0.00099372940433935329 0 -0.0024498669973990494 -0.0007666699639411091 0 -0.0023222153655712333 -0.00099372940433935329 0 -0.0024498669973990494 -0.0007666699639411091 0 -0.0022447986847986302 -0.00075305797488578376 0 -0.0024498669973990494 -0.0007666699639411091 0 -0.0022447986847986302 -0.00075305797488578376 0 -0.0025046668088333631 -0.00061915984015108931 0 -0.0024498669973990494 -0.0007666699639411091 0 -0.0025046668088333631 -0.00061915984015108931 0 -0.0025226154500439567 -0.00059746875916504092 0 -0.0019302301396435318 -0.000807034525576104 0 -0.002025271059025975 -0.00099279350811386723 0 -0.0022447986847986302 -0.00075305797488578376 0 -0.0022447986847986302 -0.00075305797488578376 0 -0.0025046668088333631 -0.00061915984015108931 0 -0.0021336730965748527 -0.00051138981755449958 0 -0.0025046668088333631 -0.00061915984015108931 0 -0.0024113019161604151 -0.0004492952631594015 0 -0.0021336730965748527 -0.00051138981755449958 0 -0.0025046668088333631 -0.00061915984015108931 0 -0.0026628707708006142 -0.00054305764518176142 0 -0.0026344661129206726 -0.0006851142926671633 0 -0.0026628707708006142 -0.00054305764518176142 0 -0.0026344661129206726 -0.0006851142926671633 0 -0.0029881657267707704 -0.00062923400544050471 0 -0.0025046668088333631 -0.00061915984015108931 0 -0.0026628707708006142 -0.00054305764518176142 0 -0.0024113019161604151 -0.0004492952631594015 0 -0.0026628707708006142 -0.00054305764518176142 0 -0.0024113019161604151 -0.0004492952631594015 0 -0.0025471816682749769 -0.00021523753174141404 0 -0.0026628707708006142 -0.00054305764518176142 0 -0.0025471816682749769 -0.00021523753174141404 0 -0.0029881657267707704 -0.00062923400544050471 0 -0.0024113019161604151 -0.0004492952631594015 0 -0.0025471816682749769 -0.00021523753174141404 0 -0.0020575103511050429 -0.00021410466812962995 0 -0.001939507595967042 -0.0013769533587703788 0 -0.002026787998482397 -0.0011967693343981648 0 -0.0013277254842442622 -0.0020693868645922423 0 -0.0020618593560674798 -0.0011519754043882208 0 -0.0020514729574739174 -0.0017696365250360869 0 -0.0018048693642411613 -0.0022613723954197059 0 -0.0013277254842442622 -0.0020693868645922423 0 -0.0020514729574739174 -0.0017696365250360869 0 -0.0025046668088333631 -0.00061915984015108931 0 -0.0025226154500439567 -0.00059746875916504092 0 -0.0026344661129206726 -0.0006851142926671633 0 -0.0026344661129206726 -0.0006851142926671633 0 -0.0020618593560674798 -0.0011519754043882208 0 -0.0024168699165069188 -0.0012871979764289949 0 -0.0025226154500439567 -0.00059746875916504092 0 -0.0026344661129206726 -0.0006851142926671633 0 -0.0020618593560674798 -0.0011519754043882208 0 -0.0020618593560674798 -0.0011519754043882208 0 -0.0021085059795057956 -0.001631463221752068 0 -0.0020503134194680434 -0.0015355845635492533 0 -0.0020618593560674798 -0.0011519754043882208 0 -0.0024168699165069188 -0.0012871979764289949 0 -0.0021085059795057956 -0.001631463221752068 0 -0.0024168699165069188 -0.0012871979764289949 0 -0.0029881657267707704 -0.00062923400544050471 0 -0.0029245501041162566 -0.001769338125529098 0 -0.0026344661129206726 -0.0006851142926671633 0 -0.0024168699165069188 -0.0012871979764289949 0 -0.0029881657267707704 -0.00062923400544050471 0 -0.0024168699165069188 -0.0012871979764289949 0 -0.0023800973442680037 -0.0018271995659457148 0 -0.0029245501041162566 -0.001769338125529098 0 -0.0024168699165069188 -0.0012871979764289949 0 -0.0023800973442680037 -0.0018271995659457148 0 -0.0021085059795057956 -0.001631463221752068 0 -0.002123254770137081 -0.0019578282726920885 0 -0.0023800973442680037 -0.0018271995659457148 0 -0.0021085059795057956 -0.001631463221752068 0 -0.0025471816682749769 -0.00021523753174141404 0 -0.003013657351876706 0.00013681518487223342 0 -0.0026286071712809441 0.00028388517781747884 0 -0.0025471816682749769 -0.00021523753174141404 0 -0.0029881657267707704 -0.00062923400544050471 0 -0.003013657351876706 0.00013681518487223342 0 -0.0033423918600351764 0.0010073825955521859 0 -0.0037550186030549933 0.00056664807314967609 0 -0.003013657351876706 0.00013681518487223342 0 -0.0030784459204179757 -0.0006105253947503497 0 -0.0032965454022227838 -0.00061888813266177886 0 -0.0029881657267707704 -0.00062923400544050471 0 -0.0037550186030549933 0.00056664807314967609 0 -0.003013657351876706 0.00013681518487223342 0 -0.0028160224929264671 0.00093019365385472433 0 -0.0033423918600351764 0.0010073825955521859 0 -0.003013657351876706 0.00013681518487223342 0 -0.0028160224929264671 0.00093019365385472433 0 -0.003013657351876706 0.00013681518487223342 0 -0.0026286071712809441 0.00028388517781747884 0 -0.0028160224929264671 0.00093019365385472433 0 -0.0026286071712809441 0.00028388517781747884 0 -0.0024426025547024145 0.00064853428357337331 0 -0.002215373461309178 0.0010605973875783305 0 -0.0024426025547024145 0.00064853428357337331 0 -0.002153267998298096 0.0003254717739413809 0 -0.0026286071712809441 0.00028388517781747884 0 -0.0024426025547024145 0.00064853428357337331 0 -0.002153267998298096 0.0003254717739413809 0 -0.0015292115730186687 0.0010738291912794919 0 -0.002215373461309178 0.0010605973875783305 0 -0.002153267998298096 0.0003254717739413809 0 -0.0014549137528410581 0.0020446400360344557 0 -0.002072852732049389 0.001049097357948918 0 -0.0013900236799634449 0.001054108778314816 0 -0.0014705073942782869 0.0015991366254510932 0 -0.0020968243860694804 0.00066961696455180469 0 -0.0017511794371283722 0.0006941869164365451 0 -0.0021443993781451445 0.00055288464116374603 0 -0.0016112381888172473 0.00034780534621836726 0 -0.002072852732049389 0.001049097357948918 0 -0.0013900236799634449 0.001054108778314816 0 -0.0017511794371283722 0.0006941869164365451 0 -0.0013900236799634449 0.001054108778314816 0 -0.0017511794371283722 0.0006941869164365451 0 -0.0016112381888172473 0.00034780534621836726 0 -0.0020972961444023002 0.00053609585599143431 0 -0.0015926950076652748 0.00019255245019782417 0 -0.0025471816682749769 -0.00021523753174141404 0 -0.0021443993781451445 0.00055288464116374603 0 -0.0020575103511050429 -0.00021410466812962995 0 -0.0021443993781451445 0.00055288464116374603 0 -0.0020575103511050429 -0.00021410466812962995 0 -0.0015275795953538962 1.4805838536248604e-05 0 -0.0025471816682749769 -0.00021523753174141404 0 -0.0026286071712809441 0.00028388517781747884 0 -0.002153267998298096 0.0003254717739413809 0 -0.0025471816682749769 -0.00021523753174141404 0 -0.002072852732049389 0.001049097357948918 0 -0.0021443993781451445 0.00055288464116374603 0 -0.0025348931278204108 -9.9984608206283294e-05 0 -0.0020968243860694804 0.00066961696455180469 0 -0.002072852732049389 0.001049097357948918 0 -0.0017511794371283722 0.0006941869164365451 0 -0.0021443993781451445 0.00055288464116374603 0 -0.0020575103511050429 -0.00021410466812962995 0 -0.0016093675560490707 -0.00035199378032022574 0 -0.0021336730965748527 -0.00051138981755449958 0 -0.0024113019161604151 -0.0004492952631594015 0 -0.0020575103511050429 -0.00021410466812962995 0 -0.0021336730965748527 -0.00051138981755449958 0 -0.0015275795953538962 1.4805838536248604e-05 0 -0.0016093675560490707 -0.00035199378032022574 0 -0.0011589437635800401 -0.0002247680398243051 0 -0.0020575103511050429 -0.00021410466812962995 0 -0.0015275795953538962 1.4805838536248604e-05 0 -0.0016093675560490707 -0.00035199378032022574 0 -0.0014251820490034193 -0.00058226973408848624 0 -0.0016093675560490707 -0.00035199378032022574 0 -0.0011589437635800401 -0.0002247680398243051 0 -0.0018113094219241442 -0.00061295131557046053 0 -0.0014251820490034193 -0.00058226973408848624 0 -0.0016093675560490707 -0.00035199378032022574 0 -0.0018113094219241442 -0.00061295131557046053 0 -0.0022447986847986302 -0.00075305797488578376 0 -0.0021336730965748527 -0.00051138981755449958 0 -0.0018113094219241442 -0.00061295131557046053 0 -0.0016093675560490707 -0.00035199378032022574 0 -0.0021336730965748527 -0.00051138981755449958 0 -0.0010503973748848849 -0.00053750303590783405 0 -0.00086689538808608856 -0.00039266667582093986 0 -0.0011589437635800401 -0.0002247680398243051 0 -0.00052835557796599645 -0.00023770325041287495 0 -0.0002220180135658141 0.00035288738422595229 0 -0.00052835557796599645 -0.00023770325041287495 0 -0.0010289714366231635 -0.00022918653099327985 0 -0.00024519737657268564 -0.0007018359709672564 0 -0.0009439954293248542 -0.00016691520667654549 0 -0.0001198589566929097 0.00016688446274854907 0 -0.0014251820490034193 -0.00058226973408848624 0 -0.0010503973748848849 -0.00053750303590783405 0 -0.0011589437635800401 -0.0002247680398243051 0 -0.0016112381888172473 0.00034780534621836726 0 -0.0009439954293248542 -0.00016691520667654549 0 -0.00079441044305587308 0.00059417036955708349 0 -0.0015926950076652748 0.00019255245019782417 0 -0.0010289714366231635 -0.00022918653099327985 0 -0.0009439954293248542 -0.00016691520667654549 0 -0.0001198589566929097 0.00016688446274854907 0 -0.00079441044305587308 0.00059417036955708349 0 -0.00079441044305587308 0.00059417036955708349 0 -0.00066914994945603621 0.0016971875808417687 0 2.2470267697103921e-05 0.0011125319144882522 0 -0.0001198589566929097 0.00016688446274854907 0 -0.00079441044305587308 0.00059417036955708349 0 2.2470267697103921e-05 0.0011125319144882522 0 -0.0002220180135658141 0.00035288738422595229 0 -8.7794308777287166e-05 0.0013035244669183498 0 -0.0013900236799634449 0.001054108778314816 0 -0.0016112381888172473 0.00034780534621836726 0 -0.00079441044305587308 0.00059417036955708349 0 -0.0013900236799634449 0.001054108778314816 0 -0.00079441044305587308 0.00059417036955708349 0 -0.00066914994945603621 0.0016971875808417687 0 -0.0014549137528410581 0.0020446400360344557 0 -0.0013900236799634449 0.001054108778314816 0 -0.00066914994945603621 0.0016971875808417687 0 7.5905303842108062e-05 0.0022484119408379189 0 -0.00066914994945603621 0.0016971875808417687 0 2.2470267697103921e-05 0.0011125319144882522 0 7.5905303842108062e-05 0.0022484119408379189 0 -0.00020360711541484849 0.0014723331555522173 0 0.0008135059858366473 0.0022497764357258358 0 5.2007675175898228e-05 0.0021447505334371421 0 -8.7794308777287166e-05 0.0013035244669183498 0 0.00034576235301169908 0.00091799395824855264 0 -0.00020360711541484849 0.0014723331555522173 0 0.00097755126040377158 0.0015463842737504293 0 -0.00035882756748817422 0.00056676090036234287 0 0.00034576235301169908 0.00091799395824855264 0 -0.00020360711541484849 0.0014723331555522173 0 0.00034576235301169908 0.00091799395824855264 0 0.00097755126040377158 0.0015463842737504293 0 0.001679942291751689 0.00053796004222863604 0 0.00097755126040377158 0.0015463842737504293 0 0.0008135059858366473 0.0022497764357258358 0 0.0017932737705482998 0.001773634639462786 0 -0.00020360711541484849 0.0014723331555522173 0 0.00097755126040377158 0.0015463842737504293 0 0.0008135059858366473 0.0022497764357258358 0 0.0018669190793294986 0.0025187682688170908 0 0.0008135059858366473 0.0022497764357258358 0 0.0017932737705482998 0.001773634639462786 0 0.0033166723945156503 0.0041540539260953102 0 0.0020014317438661233 0.00389821728109172 0 0.0034456644685964461 0.002790809521061107 0 0.0020014317438661233 0.00389821728109172 0 0.0034456644685964461 0.002790809521061107 0 0.0034847690363338062 0.0018932926384657707 0 0.0018669190793294986 0.0025187682688170908 0 0.0017932737705482998 0.001773634639462786 0 0.0034847690363338062 0.0018932926384657707 0 0.0019908489743043706 0.0031484416190710545 0 0.0034348784493146 0.0019266001140773993 0 0.0024029360661002976 0.0012492963877085124 0 0.001679942291751689 0.00053796004222863604 0 0.0035846933580287225 0.0012322707725333122 0 0.0017932737705482998 0.001773634639462786 0 0.0024029360661002976 0.0012492963877085124 0 0.0034847690363338062 0.0018932926384657707 0 0.0011589763126788244 -0.00017146982474872612 0 0.0011285226488441172 0.0060163260966533032 0 0.00048072698162760505 0.00050050165352263378 0 0.0011428941165601207 0.00097534909995400658 0 0.0011201475911136603 0.00084485750312513223 0 0.0024029360661002976 0.0012492963877085124 0 0.0034847690363338062 0.0018932926384657707 0 0.0035846933580287225 0.0012322707725333122 0 0.0017932737705482998 0.001773634639462786 0 0.0024029360661002976 0.0012492963877085124 0 0.001679942291751689 0.00053796004222863604 0 0.00097755126040377158 0.0015463842737504293 0 0.0017932737705482998 0.001773634639462786 0 0.001679942291751689 0.00053796004222863604 0 0.00048072698162760505 0.00050050165352263378 0 0.00091002826664148364 0.00034250439172813115 0 0.00046887751576899628 0.00018739449551152774 0 0.00048072698162760505 0.00050050165352263378 0 0.00046887751576899628 0.00018739449551152774 0 0.00018361819879162119 0.0001572387506240139 0 0.00048072698162760505 0.00050050165352263378 0 0.00091002826664148364 0.00034250439172813115 0 0.0011201475911136603 0.00084485750312513223 0 0.00045942028442973328 0.0023516015030050057 0 0.00060353471498207764 0.00585200534837323 0 0.00024164727401055212 0.0050301946900326482 0 0.00046036826110310903 0.005047678632715936 0 0.00072533124441027767 0.0061261740633943825 0 0.00045942028442973328 0.0023516015030050057 0 0.00018812425663934765 0.0019272914940460669 0 0.00091002826664148364 0.00034250439172813115 0 0.00071979539300043793 -4.8344914091273631e-05 0 0.00046887751576899628 0.00018739449551152774 0 0.00024164727401055212 0.0050301946900326482 0 0.00046036826110310903 0.005047678632715936 0 0.00020889039767670134 0.0039328209352390417 0 7.1194542161424624e-05 0.0084463656105420049 0 -0.00034535531365754269 0.0056891608083221379 0 0.00024164727401055212 0.0050301946900326482 0 -0.0002326866998316081 0.0038964019221921008 0 0.00020889039767670134 0.0039328209352390417 0 0.00018812425663934765 0.0019272914940460669 0 -0.00034535531365754269 0.0056891608083221379 0 0.00071979539300043793 -4.8344914091273631e-05 0 0.0003342312862609984 -5.7523678829063454e-05 0 0.00046887751576899628 0.00018739449551152774 0 0.00018812425663934765 0.0019272914940460669 0 0.00045078099896343223 6.5264849021623992e-05 0 0.0003342312862609984 -5.7523678829063454e-05 0 0.00046887751576899628 0.00018739449551152774 0 0.00018361819879162119 0.0001572387506240139 0 0.0003342312862609984 -5.7523678829063454e-05 0 0.00018361819879162119 0.0001572387506240139 0 -3.3057394535700543e-05 -0.00031826131305288268 0 -0.00037864197583780963 -4.0009597012170978e-05 0 0.00018361819879162119 0.0001572387506240139 0 -3.3057394535700543e-05 -0.00031826131305288268 0 -0.00037864197583780963 -4.0009597012170978e-05 0 -0.00035882756748817422 0.00056676090036234287 0 0.00018361819879162119 0.0001572387506240139 0 -0.00035882756748817422 0.00056676090036234287 0 0.00034576235301169908 0.00091799395824855264 0 0.00018361819879162119 0.0001572387506240139 0 0.00034576235301169908 0.00091799395824855264 0 0.001679942291751689 0.00053796004222863604 0 0.00018361819879162119 0.0001572387506240139 0 0.0011589763126788244 -0.00017146982474872612 0 0.00027617537467191885 0.00037652088258472664 0 0.0013283719434845262 0.018795822198809174 0 0.0002655937808436372 0.019222855668359209 0 0.00058147602587303726 0.018203268241774075 0 0.0013283719434845262 0.018795822198809174 0 0.0015735234810626069 0.017930422750576807 0 0.00058147602587303726 0.018203268241774075 0 0.0012123114296538986 0.019713447054845328 0 0.0013283719434845262 0.018795822198809174 0 0.0002655937808436372 0.019222855668359209 0 0.0002655937808436372 0.019222855668359209 0 0.00058147602587303726 0.018203268241774075 0 -0.00011290447280676813 0.01833642713485481 0 -0.00011290447280676813 0.01833642713485481 0 -0.00071488879620144506 0.018696375609892447 0 -0.00063259449966468365 0.017816648576409272 0 0.0002655937808436372 0.019222855668359209 0 -0.00011290447280676813 0.01833642713485481 0 -0.00071488879620144506 0.018696375609892447 0 0.00038588230823459187 0.019686230858400003 0 0.00013092550627449178 0.014926846020501596 0 0.00016851327647314572 0.01975154636038208 0 0.00046802955558293341 0.019196060857684206 0 -0.0004083798440229023 0.018679755420476566 0 0.0042342815130776579 0.0052433510431556972 0 0.0034456644685964461 0.002790809521061107 0 0.0044057931203203872 0.0032877230631842285 0 0.0026371105324319438 0.0062181848243082656 0 0.0011285226488441172 0.0060163260966533032 0 0.0018452833338038696 0.01363588829842563 0 0.0017198228264012892 0.010429860334741669 0 0.0023186794793807544 0.0088969218308326044 0 0.0018452833338038696 0.01363588829842563 0 0.0017198228264012892 0.010429860334741669 0 0.0012002047935631779 0.010824773989835147 0 0.0017198228264012892 0.010429860334741669 0 0.0012002047935631779 0.010824773989835147 0 0.00050979853244954973 0.00779343701306016 0 0.0018139740598879575 0.014121760355011333 0 0.00013092550627449178 0.014926846020501596 0 0.0044057931203203872 0.0032877230631842285 0 0.0034847690363338062 0.0018932926384657707 0 0.0035846933580287225 0.0012322707725333122 0 0.0018114505695671721 0.010545564402287214 0 0.0011285226488441172 0.0060163260966533032 0 0.0034456644685964461 0.002790809521061107 0 0.0044057931203203872 0.0032877230631842285 0 0.0034847690363338062 0.0018932926384657707 0 0.00013092550627449178 0.014926846020501596 0 -0.0003813444769879057 0.014238925293620931 0 -0.00047636505104827609 0.011216972701816491 0 -0.00015188208007832981 0.011401410332812518 0 -9.707076088808838e-05 0.010788925415729976 0 0.0011285226488441172 0.0060163260966533032 0 0.00013092550627449178 0.014926846020501596 0 0.0017198228264012892 0.010429860334741669 0 0.0005967743556258544 0.0080154727431652421 0 0.0023186794793807544 0.0088969218308326044 0 -0.00047636505104827609 0.011216972701816491 0 -0.00050441313959382933 0.011094138458603338 0 -9.707076088808838e-05 0.010788925415729976 0 0.0011285226488441172 0.0060163260966533032 0 0.00060353471498207764 0.00585200534837323 0 -0.0006138803635377648 0.010600891225970044 0 -0.00050441313959382933 0.011094138458603338 0 -9.707076088808838e-05 0.010788925415729976 0 7.1194542161424624e-05 0.0084463656105420049 0 0.00060353471498207764 0.00585200534837323 0 -0.0006138803635377648 0.010600891225970044 0 -3.4740930650730866e-05 0.010185561548511848 0 -9.707076088808838e-05 0.010788925415729976 0 -0.0006138803635377648 0.010600891225970044 0 -0.0007237469885964722 0.01009602111614696 0 -3.4740930650730866e-05 0.010185561548511848 0 -0.00034535531365754269 0.0056891608083221379 0 -0.0004653280328583155 0.014044713320791897 0 -0.0004653280328583155 0.014044713320791897 0 3.2942757794274127e-07 0.01885617548035531 0 -0.0004653280328583155 0.014044713320791897 0 -0.0003813444769879057 0.014238925293620931 0 -0.00025096259366796215 0.018650440629884441 0 -0.00031330164182930795 0.018664750349606633 0 -0.00027722946833827776 0.018696685289570088 0 -0.00011290447280676813 0.01833642713485481 0 -0.00063259449966468365 0.017816648576409272 0 7.9670196930786973e-05 0.017620021502232911 0 -0.0005472396667081502 0.016927182079466575 0 -0.00063259449966468365 0.017816648576409272 0 7.9670196930786973e-05 0.017620021502232911 0 0.00058147602587303726 0.018203268241774075 0 -0.00011290447280676813 0.01833642713485481 0 7.9670196930786973e-05 0.017620021502232911 0 0.00058147602587303726 0.018203268241774075 0 0.00058123686623806636 0.01757384776423605 0 7.9670196930786973e-05 0.017620021502232911 0 -0.0005472396667081502 0.016927182079466575 0 7.9670196930786973e-05 0.017620021502232911 0 0.00056137747086998325 0.017035574493226815 0 3.2942757794274127e-07 0.01885617548035531 0 -0.00035152995533263641 0.018649161617971047 0 0.00058123686623806636 0.01757384776423605 0 7.9670196930786973e-05 0.017620021502232911 0 0.00056137747086998325 0.017035574493226815 0 -0.00018203049226625192 0.018830000411748204 0 -0.00024377405899562849 0.018779993562682205 0 -0.00022950248670233645 0.018746260718022878 0 3.2942757794274127e-07 0.01885617548035531 0 0.00053248054835160717 0.018616874317838619 0 0.00058123686623806636 0.01757384776423605 0 0.00056137747086998325 0.017035574493226815 0 0.0011051200823293508 0.017441598194675088 0 0.00025933933106333037 0.01974540931209719 0 5.8395280028314267e-06 0.019708666228432887 0 0.00015305844331278313 0.019826404050282936 0 4.2391158024709239e-05 0.019327145075565339 0 3.2942757794274127e-07 0.01885617548035531 0 0.00058147602587303726 0.018203268241774075 0 0.00058123686623806636 0.01757384776423605 0 0.0011051200823293508 0.017441598194675088 0 0.0010537909866386998 0.019684419301593342 0 0.00096345302263367517 0.017715323457579837 0 0.0016488667410624418 0.01785016740633746 0 0.00058147602587303726 0.018203268241774075 0 0.0011051200823293508 0.017441598194675088 0 -0.00017020276306266635 0.018782584121531633 0 -0.00021756373630030273 0.018716110230659746 0 -0.00022950248670233645 0.018746260718022878 0 -0.00018203049226625192 0.018830000411748204 0 -0.00017020276306266635 0.018782584121531633 0 -0.00022950248670233645 0.018746260718022878 0 -0.00022950248670233645 0.018746260718022878 0 -0.00026669269803644637 0.018684933381631012 0 -0.00027722946833827776 0.018696685289570088 0 -0.00024377405899562849 0.018779993562682205 0 -0.00022950248670233645 0.018746260718022878 0 -0.00027722946833827776 0.018696685289570088 0 -0.00021756373630030273 0.018716110230659746 0 -0.00022950248670233645 0.018746260718022878 0 -0.00026669269803644637 0.018684933381631012 0 -0.00026669269803644637 0.018684933381631012 0 -0.00028228354921307859 0.018646922652191682 0 -0.00024991886338084806 0.018673030911824557 0 -0.00021756373630030273 0.018716110230659746 0 -0.00026669269803644637 0.018684933381631012 0 -0.00024991886338084806 0.018673030911824557 0 -0.0011401180061073064 0.012905156280563712 0 -0.00078254498910631598 0.014124548077171404 0 -0.0012653798220686008 0.0091946854457198284 0 -0.001247265527179748 0.0092721428385681946 0 -0.0012869486476064585 0.0092147987375072269 0 -0.00026669269803644637 0.018684933381631012 0 -0.00028228354921307859 0.018646922652191682 0 -0.00027454815109464114 0.018671874861035973 0 -0.0011401180061073064 0.012905156280563712 0 -0.00042348097676940896 0.0092745998149442906 0 -0.00025096259366796215 0.018650440629884441 0 -0.00027722946833827776 0.018696685289570088 0 -0.00027454815109464114 0.018671874861035973 0 -0.0004653280328583155 0.014044713320791897 0 -0.00078254498910631598 0.014124548077171404 0 -0.00124866272230459 0.0094394210365343709 0 -0.001247265527179748 0.0092721428385681946 0 -0.0013138928951524085 0.009272735723106754 0 -0.00026669269803644637 0.018684933381631012 0 -0.00027722946833827776 0.018696685289570088 0 -0.00027454815109464114 0.018671874861035973 0 -0.001247265527179748 0.0092721428385681946 0 -0.0013138928951524085 0.009272735723106754 0 -0.0012869486476064585 0.0092147987375072269 0 -0.0014839655950316017 0.0093768323879619333 0 -0.00124866272230459 0.0094394210365343709 0 -0.0013981737137094381 0.0092809597202700381 0 -0.00124866272230459 0.0094394210365343709 0 -0.0013138928951524085 0.009272735723106754 0 -0.0013981737137094381 0.0092809597202700381 0 -0.0013138928951524085 0.009272735723106754 0 -0.0013981737137094381 0.0092809597202700381 0 -0.0013923016955687856 0.0091736030062477755 0 -0.0013138928951524085 0.009272735723106754 0 -0.0013923016955687856 0.0091736030062477755 0 -0.0012869486476064585 0.0092147987375072269 0 -0.0013923016955687856 0.0091736030062477755 0 -0.0012869486476064585 0.0092147987375072269 0 -0.0013490369728327823 0.0090765529494513299 0 -0.001230558654934011 0.0091057833700251504 0 -0.0012869486476064585 0.0092147987375072269 0 -0.0013490369728327823 0.0090765529494513299 0 -0.0013923016955687856 0.0091736030062477755 0 -0.0013490369728327823 0.0090765529494513299 0 -0.0014486939269898846 0.0090572296869396232 0 -0.0013490369728327823 0.0090765529494513299 0 -0.0013984525169443793 0.0089581285942324142 0 -0.0014486939269898846 0.0090572296869396232 0 -0.0013490369728327823 0.0090765529494513299 0 -0.0013132220049982626 0.0089833439808171579 0 -0.0013984525169443793 0.0089581285942324142 0 -0.001230558654934011 0.0091057833700251504 0 -0.0013490369728327823 0.0090765529494513299 0 -0.0013132220049982626 0.0089833439808171579 0 -0.0013132220049982626 0.0089833439808171579 0 -0.0013984525169443793 0.0089581285942324142 0 -0.0013270698310968597 0.0089077037558277939 0 -0.0012840054485703379 0.0089096995690313464 0 -0.0010092444162650698 0.0088900645288606406 0 -0.0011692597245147819 0.0090019745613965953 0 -0.0013984525169443793 0.0089581285942324142 0 -0.0013270698310968597 0.0089077037558277939 0 -0.0014266168200269115 0.0087907112968985349 0 -0.0013006163800815397 0.0088775633702642305 0 -0.0011728860159331131 0.0089649497740258832 0 -0.0013270698310968597 0.0089077037558277939 0 -0.0012840054485703379 0.0089096995690313464 0 -0.0014266168200269115 0.0087907112968985349 0 -0.0011140199662985821 0.010906823955370799 0 -0.0012573710657124207 0.011515128137183252 0 -0.0010062890423748645 0.013578636084420545 0 -0.0010460404622103989 0.013625674774085156 0 -0.0010215476446382502 0.013660913357750699 0 -0.0012840054485703379 0.0089096995690313464 0 -0.0012766857893588173 0.0088915146685557452 0 -0.0013708377533488496 0.0090528219922452677 0 -0.0013270698310968597 0.0089077037558277939 0 -0.0012840054485703379 0.0089096995690313464 0 -0.0012766857893588173 0.0088915146685557452 0 -0.0010062890423748645 0.013578636084420545 0 -0.0010551026498485446 0.013572285292110945 0 -0.0010460404622103989 0.013625674774085156 0 -0.0011401180061073064 0.012905156280563712 0 -0.0011140199662985821 0.010906823955370799 0 -0.00098885388466489347 0.013468315609500297 0 -0.0010062890423748645 0.013578636084420545 0 -0.0010551026498485446 0.013572285292110945 0 -0.0011401180061073064 0.012905156280563712 0 -0.00079856422699646371 0.01652640986254203 0 -0.001230558654934011 0.0091057833700251504 0 -0.0013132220049982626 0.0089833439808171579 0 -0.0012766857893588173 0.0088915146685557452 0 -0.0013132220049982626 0.0089833439808171579 0 -0.0013270698310968597 0.0089077037558277939 0 -0.0012766857893588173 0.0088915146685557452 0 -0.00028228354921307859 0.018646922652191682 0 -0.00024991886338084806 0.018673030911824557 0 -0.00026627242559683318 0.018635186045526272 0 -0.00024991886338084806 0.018673030911824557 0 -0.00026627242559683318 0.018635186045526272 0 -0.00021893159604908724 0.018665223188188949 0 -0.0010551026498485446 0.013572285292110945 0 -0.0010460404622103989 0.013625674774085156 0 -0.0010998410824017021 0.01366049573160228 0 -0.00079856422699646371 0.01652640986254203 0 -0.00043819971809547627 0.016418255186112014 0 -0.00026627242559683318 0.018635186045526272 0 -0.00021893159604908724 0.018665223188188949 0 -0.00023909573773358897 0.018591894892290864 0 5.3018818656973495e-07 0.01903822175953556 0 -0.00043819971809547627 0.016418255186112014 0 -0.0001611049178669996 0.018653855952425823 0 -0.00021893159604908724 0.018665223188188949 0 -0.00023909573773358897 0.018591894892290864 0 -0.00021756373630030273 0.018716110230659746 0 -0.00024991886338084806 0.018673030911824557 0 -0.00021893159604908724 0.018665223188188949 0 -0.00017403116713301663 0.018716882927544174 0 -0.00021756373630030273 0.018716110230659746 0 -0.00021893159604908724 0.018665223188188949 0 -5.6490007205037913e-05 -0.00060592089857228312 0 -3.3057394535700543e-05 -0.00031826131305288268 0 0.00018494251479774513 -0.00032990109972222046 0 -5.6490007205037913e-05 -0.00060592089857228312 0 0.00018494251479774513 -0.00032990109972222046 0 0.0002306287080565182 -0.00042492863613944893 0 -5.6490007205037913e-05 -0.00060592089857228312 0 -0.0003560048190535614 -0.00062605956374038358 0 -0.00039237234904600742 -0.0008245283645175052 0 -5.6490007205037913e-05 -0.00060592089857228312 0 -0.0003560048190535614 -0.00062605956374038358 0 -3.3057394535700543e-05 -0.00031826131305288268 0 -0.00052835557796599645 -0.00023770325041287495 0 -7.1325321656745793e-05 -0.00022738740954892685 0 -0.00065355565837374875 7.7095781077252145e-05 0 -0.0003560048190535614 -0.00062605956374038358 0 -3.3057394535700543e-05 -0.00031826131305288268 0 0.0003342312862609984 -5.7523678829063454e-05 0 -3.3057394535700543e-05 -0.00031826131305288268 0 0.00018494251479774513 -0.00032990109972222046 0 0.00050092206308823158 -5.1441646633535912e-05 0 0.0003342312862609984 -5.7523678829063454e-05 0 0.00040690635350474079 -0.00025003012825500925 0 0.0003342312862609984 -5.7523678829063454e-05 0 0.00040690635350474079 -0.00025003012825500925 0 0.00018494251479774513 -0.00032990109972222046 0 -0.0014839655950316017 0.0093768323879619333 0 -0.0013981737137094381 0.0092809597202700381 0 -0.001533508711438209 0.0091511663150782782 0 0.00092834538379210781 0.00094523951840506644 0 0.00033548797739244376 0.00018326343854516955 0 0.0006643666743930477 -0.00011671833285611843 0 -0.00034535531365754269 0.0056891608083221379 0 -0.00043984327801751091 0.0044787492074546366 0 0.00060312135340564858 0.00091740050261480803 0 0.00092834538379210781 0.00094523951840506644 0 0.00033548797739244376 0.00018326343854516955 0 0.00018812425663934765 0.0019272914940460669 0 0.00026575475924830235 -0.00018390198696607019 0 -0.001533508711438209 0.0091511663150782782 0 -0.0014486939269898846 0.0090572296869396232 0 -0.0015700565335006105 0.0089342827031574819 0 -0.00043984327801751091 0.0044787492074546366 0 -0.00059054077430126944 0.0038960583140171126 0 -0.0013923016955687856 0.0091736030062477755 0 -0.001533508711438209 0.0091511663150782782 0 -0.0014486939269898846 0.0090572296869396232 0 -0.0013981737137094381 0.0092809597202700381 0 -0.0013923016955687856 0.0091736030062477755 0 -0.001533508711438209 0.0091511663150782782 0 0.0006643666743930477 -0.00011671833285611843 0 0.0002306287080565182 -0.00042492863613944893 0 0.00039693463236173041 -0.00069588667679730228 0 0.00040690635350474079 -0.00025003012825500925 0 0.00018494251479774513 -0.00032990109972222046 0 0.0002306287080565182 -0.00042492863613944893 0 0.00026575475924830235 -0.00018390198696607019 0 0.00027160872392501044 -0.0002960666039328447 0 0.00033548797739244376 0.00018326343854516955 0 0.0006643666743930477 -0.00011671833285611843 0 0.0002306287080565182 -0.00042492863613944893 0 -5.6490007205037913e-05 -0.00060592089857228312 0 0.0002306287080565182 -0.00042492863613944893 0 0.0001388792672818241 -0.00067070650703213294 0 0.0002306287080565182 -0.00042492863613944893 0 0.0001388792672818241 -0.00067070650703213294 0 0.00039693463236173041 -0.00069588667679730228 0 0.0001388792672818241 -0.00067070650703213294 0 7.3756147104068676e-05 -0.00088150921825476956 0 -3.2857228622597227e-05 -0.00078370321778251063 0 0.0001388792672818241 -0.00067070650703213294 0 0.00039693463236173041 -0.00069588667679730228 0 7.3756147104068676e-05 -0.00088150921825476956 0 -0.0013984525169443793 0.0089581285942324142 0 -0.0014486939269898846 0.0090572296869396232 0 -0.0015700565335006105 0.0089342827031574819 0 -0.0013984525169443793 0.0089581285942324142 0 -0.0015700565335006105 0.0089342827031574819 0 -0.0014266168200269115 0.0087907112968985349 0 -0.0011728860159331131 0.0089649497740258832 0 -0.0010101528176369302 0.005188431440521459 0 -0.0015700565335006105 0.0089342827031574819 0 -0.0014266168200269115 0.0087907112968985349 0 -0.0016102917802975399 0.0087241512659228127 0 -0.0010101528176369302 0.005188431440521459 0 -0.0011420648918911147 0.0002986556656393242 0 7.3756147104068676e-05 -0.00088150921825476956 0 0.00024926295590372975 -0.0010310110706242804 0 -0.00016384173295144026 -0.0010926626392922876 0 -0.00059054077430126944 0.0038960583140171126 0 -0.0010101528176369302 0.005188431440521459 0 0.00039693463236173041 -0.00069588667679730228 0 7.3756147104068676e-05 -0.00088150921825476956 0 0.00024926295590372975 -0.0010310110706242804 0 7.3756147104068676e-05 -0.00088150921825476956 0 -0.00015496766196894108 -0.00090144794190475297 0 -0.00016384173295144026 -0.0010926626392922876 0 -0.00015496766196894108 -0.00090144794190475297 0 -0.00038767708129012812 -0.00091154380255175943 0 -0.00016384173295144026 -0.0010926626392922876 0 -8.442004381293594e-05 -0.00086516994857946253 0 -0.0011420648918911147 0.0002986556656393242 0 -0.00015496766196894108 -0.00090144794190475297 0 -0.00027741821629664989 -0.00083286645306296966 0 -0.00038767708129012812 -0.00091154380255175943 0 -0.00015496766196894108 -0.00090144794190475297 0 -3.2857228622597227e-05 -0.00078370321778251063 0 -0.00027741821629664989 -0.00083286645306296966 0 7.3756147104068676e-05 -0.00088150921825476956 0 -0.00015496766196894108 -0.00090144794190475297 0 -3.2857228622597227e-05 -0.00078370321778251063 0 -5.6490007205037913e-05 -0.00060592089857228312 0 -3.2857228622597227e-05 -0.00078370321778251063 0 -0.00027741821629664989 -0.00083286645306296966 0 -5.6490007205037913e-05 -0.00060592089857228312 0 0.0001388792672818241 -0.00067070650703213294 0 -3.2857228622597227e-05 -0.00078370321778251063 0 -0.00062846093216241525 -0.0010491544299834597 0 -0.0003560048190535614 -0.00062605956374038358 0 -0.00039237234904600742 -0.0008245283645175052 0 -5.6490007205037913e-05 -0.00060592089857228312 0 -0.00027741821629664989 -0.00083286645306296966 0 -0.00039237234904600742 -0.0008245283645175052 0 -0.00027741821629664989 -0.00083286645306296966 0 -0.00039237234904600742 -0.0008245283645175052 0 -0.00049996031152288684 -0.00087715332702485455 0 -0.00038767708129012812 -0.00091154380255175943 0 -0.00052412102615452484 -0.00078285988553362235 0 -0.00034647389425703613 -0.00095532373059774355 0 -0.00049996031152288684 -0.00087715332702485455 0 -0.00038767708129012812 -0.00091154380255175943 0 -0.00052412102615452484 -0.00078285988553362235 0 -0.00027741821629664989 -0.00083286645306296966 0 -0.00049996031152288684 -0.00087715332702485455 0 -0.00038767708129012812 -0.00091154380255175943 0 -0.0016511949439106041 -0.00040256792903999077 0 -0.0023415443236983005 4.7768654053872688e-05 0 -0.0015050309277923385 0.0005756675614719389 0 -0.0016511949439106041 -0.00040256792903999077 0 -0.0023415443236983005 4.7768654053872688e-05 0 -0.0029771412460065367 -0.00053188990436410716 0 -0.0011701633313703792 -0.00064364562043608335 0 -0.0011420648918911147 0.0002986556656393242 0 -0.0023614912395643487 0.0014039112973148529 0 -0.0015383815556159149 0.0018065967839981086 0 -0.0015050309277923385 0.0005756675614719389 0 -0.0023415443236983005 4.7768654053872688e-05 0 -0.0024683120494951999 0.00066664927386138632 0 -0.0015050309277923385 0.0005756675614719389 0 -0.0024683120494951999 0.00066664927386138632 0 -0.0023614912395643487 0.0014039112973148529 0 -0.0015050309277923385 0.0005756675614719389 0 -0.003115071741722803 0.0010921696352263275 0 -0.0030237201961465766 0.00029884811868674462 0 -0.0040758608411176067 0.00023350534680989762 0 -0.0024683120494951999 0.00066664927386138632 0 -0.003115071741722803 0.0010921696352263275 0 -0.0023614912395643487 0.0014039112973148529 0 -0.0024683120494951999 0.00066664927386138632 0 -0.003115071741722803 0.0010921696352263275 0 -0.0030237201961465766 0.00029884811868674462 0 -0.0030237201961465766 0.00029884811868674462 0 -0.0029771412460065367 -0.00053188990436410716 0 -0.0040758608411176067 0.00023350534680989762 0 -0.0023415443236983005 4.7768654053872688e-05 0 -0.0030237201961465766 0.00029884811868674462 0 -0.0029771412460065367 -0.00053188990436410716 0 -0.0023415443236983005 4.7768654053872688e-05 0 -0.0024683120494951999 0.00066664927386138632 0 -0.0030237201961465766 0.00029884811868674462 0 -0.0011420648918911147 0.0002986556656393242 0 -0.0016244080162917242 0.0053781506286307281 0 -0.0015823960076991744 0.0033055384030167591 0 -0.00074947568575072529 0.0033871751371949074 0 -0.0014565383285344631 0.0038832561267348837 0 -0.00067200725937082817 0.0088924876053460764 0 -0.00060867313240837171 0.0091477438931879956 0 -0.00090795599309873422 0.0090804071421968086 0 -0.0010101528176369302 0.005188431440521459 0 -0.0016244080162917242 0.0053781506286307281 0 -0.0010092444162650698 0.0088900645288606406 0 -0.00067200725937082817 0.0088924876053460764 0 -0.00090795599309873422 0.0090804071421968086 0 -0.00060867313240837171 0.0091477438931879956 0 -0.00090795599309873422 0.0090804071421968086 0 -0.00090809340907644959 0.009398200179882835 0 -0.00090795599309873422 0.0090804071421968086 0 -0.00090809340907644959 0.009398200179882835 0 -0.0011625928069880025 0.0091752971138975674 0 -0.0016244080162917242 0.0053781506286307281 0 -0.001108776367570444 0.0091712321418746159 0 -0.00069472391603431043 0.0080215847118340466 0 -0.0011608387898039731 0.0083770825791499234 0 -0.00054725877157461628 0.0087248549125042638 0 -0.003115071741722803 0.0010921696352263275 0 -0.0040758608411176067 0.00023350534680989762 0 -0.0037570342883962368 0.001814721345403805 0 -0.0016244080162917242 0.0053781506286307281 0 -0.0023517441872990407 0.0046220445739335323 0 -0.0011608387898039731 0.0083770825791499234 0 -0.00054725877157461628 0.0087248549125042638 0 -0.0011665587458842947 0.0088817798045825111 0 -0.00054725877157461628 0.0087248549125042638 0 -0.0011665587458842947 0.0088817798045825111 0 -0.0010320745936426422 0.009346351149482986 0 -0.00026358055905383021 0.013097899426398175 0 -0.0015061382482936523 0.008223762128763407 0 -0.00054725877157461628 0.0087248549125042638 0 -0.0010320745936426422 0.009346351149482986 0 -0.0004086379451889126 0.0093994101935248667 0 -0.0023517441872990407 0.0046220445739335323 0 -0.0015061382482936523 0.008223762128763407 0 -0.0037570342883962368 0.001814721345403805 0 -0.0029131497388139864 0.0027763882174104003 0 -0.0034322394111740537 0.0034523260987939113 0 -0.0029131497388139864 0.0027763882174104003 0 -0.0026604637265971736 0.0035536446480945354 0 -0.0034322394111740537 0.0034523260987939113 0 -0.0020371135079448976 0.002885143155531328 0 -0.0018984220177653255 0.0036718142637404854 0 -0.001029620699912421 0.0032346208999979018 0 -0.0029131497388139864 0.0027763882174104003 0 -0.0020371135079448976 0.002885143155531328 0 -0.0026604637265971736 0.0035536446480945354 0 -0.0020371135079448976 0.002885143155531328 0 -0.0018984220177653255 0.0036718142637404854 0 -0.0026604637265971736 0.0035536446480945354 0 -0.0029131497388139864 0.0027763882174104003 0 -0.0020371135079448976 0.002885143155531328 0 -0.0026640496740362868 0.0021839171720152849 0 -0.0020371135079448976 0.002885143155531328 0 -0.0026640496740362868 0.0021839171720152849 0 -0.0015383815556159149 0.0018065967839981086 0 -0.0023614912395643487 0.0014039112973148529 0 -0.0026640496740362868 0.0021839171720152849 0 -0.0015383815556159149 0.0018065967839981086 0 -0.0037570342883962368 0.001814721345403805 0 -0.0029131497388139864 0.0027763882174104003 0 -0.0026640496740362868 0.0021839171720152849 0 -0.003115071741722803 0.0010921696352263275 0 -0.0023614912395643487 0.0014039112973148529 0 -0.0026640496740362868 0.0021839171720152849 0 -0.003115071741722803 0.0010921696352263275 0 -0.0037570342883962368 0.001814721345403805 0 -0.0026640496740362868 0.0021839171720152849 0 -8.9095537553576982e-05 0.018734081969469976 0 -9.2477974355696226e-05 0.018714482530717187 0 -9.7865828223951212e-05 0.01870529882899943 0 -0.00081160974270014241 0.014220795166628841 0 -0.00088385452248542493 0.014224404422508519 0 -0.0008663066330089589 0.014177588710744645 0 -0.00045183065523444083 0.016514157425539171 0 -0.00043819971809547627 0.016418255186112014 0 -0.00081160974270014241 0.014220795166628841 0 -0.00086756001084244616 0.014295745657847346 0 -0.00088385452248542493 0.014224404422508519 0 -0.00043819971809547627 0.016418255186112014 0 -0.0012573710657124207 0.011515128137183252 0 -0.0010460404622103989 0.013625674774085156 0 -0.0010998410824017021 0.01366049573160228 0 -0.0010215476446382502 0.013660913357750699 0 -0.00086756001084244616 0.014295745657847346 0 -0.00088385452248542493 0.014224404422508519 0 -0.00094318613892728617 0.014249868038398452 0 -0.00088385452248542493 0.014224404422508519 0 -0.00093317598947038471 0.014179989497347674 0 -0.00094318613892728617 0.014249868038398452 0 -0.00088385452248542493 0.014224404422508519 0 -0.00093317598947038471 0.014179989497347674 0 -0.0008663066330089589 0.014177588710744645 0 -0.0015760055178151843 0.0095085504936810658 0 -0.0013785764760388263 0.009360625802825916 0 -0.0015244880523427368 0.0090868083624559212 0 -0.0012514302788639066 0.012047527704433847 0 -0.0012573710657124207 0.011515128137183252 0 -0.0015760055178151843 0.0095085504936810658 0 -0.0013785764760388263 0.009360625802825916 0 -0.0012466616914747516 0.0096782934983626751 0 -0.0012840054485703379 0.0089096995690313464 0 -0.0013708377533488496 0.0090528219922452677 0 -0.0011692597245147819 0.0090019745613965953 0 -0.0012573710657124207 0.011515128137183252 0 -0.0014727685025851885 0.0090224382261667128 0 -0.0013785764760388263 0.009360625802825916 0 -0.0015244880523427368 0.0090868083624559212 0 -0.0011625928069880025 0.0091752971138975674 0 -0.0013708377533488496 0.0090528219922452677 0 -0.0011625928069880025 0.0091752971138975674 0 -0.0011692597245147819 0.0090019745613965953 0 -0.0010092444162650698 0.0088900645288606406 0 -0.00090795599309873422 0.0090804071421968086 0 -0.0011692597245147819 0.0090019745613965953 0 -0.00090795599309873422 0.0090804071421968086 0 -0.0011625928069880025 0.0091752971138975674 0 -0.0011692597245147819 0.0090019745613965953 0 -0.001108776367570444 0.0091712321418746159 0 -0.0013361311156311027 0.0090301877636679712 0 -0.00090809340907644959 0.009398200179882835 0 -0.0011625928069880025 0.0091752971138975674 0 -0.0012466616914747516 0.0096782934983626751 0 -0.0013785764760388263 0.009360625802825916 0 -0.0011625928069880025 0.0091752971138975674 0 -0.0012466616914747516 0.0096782934983626751 0 -0.0011608387898039731 0.0083770825791499234 0 -0.0011665587458842947 0.0088817798045825111 0 -0.0016082948064269425 0.0087326089659474689 0 -0.0011665587458842947 0.0088817798045825111 0 -0.0016082948064269425 0.0087326089659474689 0 -0.001655063300819518 0.0092989814222154306 0 -0.0011665587458842947 0.0088817798045825111 0 -0.0010320745936426422 0.009346351149482986 0 -0.001655063300819518 0.0092989814222154306 0 -0.00026358055905383021 0.013097899426398175 0 -0.0008117562941202381 0.012519352969688018 0 -0.001655063300819518 0.0092989814222154306 0 -0.0020475372026663363 0.0091512470289789854 0 -0.0022603961125959781 0.0092634691843865476 0 0.00028163814189828134 0.016033620414524795 0 0.00023101123922156263 0.016052841565846559 0 0.00029417640350906389 0.016055615938635932 0 -0.0008117562941202381 0.012519352969688018 0 -0.00074246042937101044 0.013556715756009139 0 -0.001655063300819518 0.0092989814222154306 0 -0.0020475372026663363 0.0091512470289789854 0 -0.0020431642297972759 0.0090877564624967811 0 -0.0016187933288886655 0.010719509990578888 0 -0.00162317657841927 0.011071675052185212 0 -0.0016082948064269425 0.0087326089659474689 0 -0.001655063300819518 0.0092989814222154306 0 -0.0020431642297972759 0.0090877564624967811 0 -0.0012514302788639066 0.012047527704433847 0 -0.00162317657841927 0.011071675052185212 0 -0.0013361311156311027 0.0090301877636679712 0 -0.00162317657841927 0.011071675052185212 0 -0.0015760055178151843 0.0095085504936810658 0 -0.0012466616914747516 0.0096782934983626751 0 -0.0016277312612826436 0.0099576784582701867 0 -0.00093317598947038471 0.014179989497347674 0 -0.0008663066330089589 0.014177588710744645 0 -0.00088636807808379345 0.014138537508872161 0 -0.00093317598947038471 0.014179989497347674 0 -0.00092392791610704694 0.014108957126770518 0 -0.00088636807808379345 0.014138537508872161 0 -0.00162317657841927 0.011071675052185212 0 -0.00074246042937101044 0.013556715756009139 0 -0.0020475372026663363 0.0091512470289789854 0 -0.0020415066200269475 0.009093799639649805 0 -0.0022603961125959781 0.0092634691843865476 0 -0.00092392791610704694 0.014108957126770518 0 -0.00088636807808379345 0.014138537508872161 0 -0.00089101276875913941 0.014097764382524304 0 -0.00088636807808379345 0.014138537508872161 0 -0.00089101276875913941 0.014097764382524304 0 -0.00082009335031804566 0.014130927562087727 0 0.00023101123922156263 0.016052841565846559 0 0.00014378617375529463 0.016123656350906661 0 0.00024595358432656422 0.01613608161211149 0 -0.00074246042937101044 0.013556715756009139 0 -0.00027640525983770313 0.015662361102136875 0 0.00025690478867100634 0.016028137553734115 0 0.00014378617375529463 0.016123656350906661 0 2.8282020752134821e-05 0.01602297914370588 0 -0.00074246042937101044 0.013556715756009139 0 -0.00031068864234444092 0.015100487508537604 0 0.00014378617375529463 0.016123656350906661 0 2.8282020752134821e-05 0.01602297914370588 0 -5.3906133265750743e-06 0.016224314256115601 0 -0.0008663066330089589 0.014177588710744645 0 -0.00088636807808379345 0.014138537508872161 0 -0.00082009335031804566 0.014130927562087727 0 -0.00081160974270014241 0.014220795166628841 0 -0.0008663066330089589 0.014177588710744645 0 -0.00082009335031804566 0.014130927562087727 0 0.00012187756091323517 0.016646519514601669 0 0.00013459073382810857 0.01655219123780291 0 0.00028743080267859935 0.01624524447048533 0 5.4584419611644616e-05 0.01701846141361266 0 0.00012187756091323517 0.016646519514601669 0 0.00013459073382810857 0.01655219123780291 0 -0.0001052939170240808 0.016553758297188369 0 0.00013459073382810857 0.01655219123780291 0 2.1966478857737153e-06 0.016495393164863134 0 0.00013459073382810857 0.01655219123780291 0 6.438615836819218e-05 0.016406255700682298 0 0.00018698771448525758 0.016308360169841947 0 0.00013459073382810857 0.01655219123780291 0 6.438615836819218e-05 0.016406255700682298 0 2.1966478857737153e-06 0.016495393164863134 0 -5.3029931737645388e-05 0.016455747602003135 0 6.438615836819218e-05 0.016406255700682298 0 2.1966478857737153e-06 0.016495393164863134 0 -5.3029931737645388e-05 0.016455747602003135 0 6.438615836819218e-05 0.016406255700682298 0 -1.5728960412544705e-05 0.016347500476007283 0 -1.5728960412544705e-05 0.016347500476007283 0 -5.3906133265750743e-06 0.016224314256115601 0 8.8357902593990753e-05 0.016294742169877731 0 6.438615836819218e-05 0.016406255700682298 0 -1.5728960412544705e-05 0.016347500476007283 0 8.8357902593990753e-05 0.016294742169877731 0 0.00014378617375529463 0.016123656350906661 0 8.8357902593990753e-05 0.016294742169877731 0 0.00017111748720763815 0.016204271216541364 0 0.00014378617375529463 0.016123656350906661 0 -5.3906133265750743e-06 0.016224314256115601 0 8.8357902593990753e-05 0.016294742169877731 0 6.438615836819218e-05 0.016406255700682298 0 8.8357902593990753e-05 0.016294742169877731 0 0.00018698771448525758 0.016308360169841947 0 8.8357902593990753e-05 0.016294742169877731 0 0.00017111748720763815 0.016204271216541364 0 0.00018698771448525758 0.016308360169841947 0 0.00024595358432656422 0.01613608161211149 0 0.00028743080267859935 0.01624524447048533 0 0.00018698771448525758 0.016308360169841947 0 0.00023101123922156263 0.016052841565846559 0 0.00024595358432656422 0.01613608161211149 0 0.00029417640350906389 0.016055615938635932 0 0.00017111748720763815 0.016204271216541364 0 0.00024595358432656422 0.01613608161211149 0 0.00018698771448525758 0.016308360169841947 0 0.00014378617375529463 0.016123656350906661 0 0.00017111748720763815 0.016204271216541364 0 0.00024595358432656422 0.01613608161211149 0 0.00035290172025016124 0.016353755229368945 0 0.0005845538438437577 0.015764822917606031 0 0.00013459073382810857 0.01655219123780291 0 0.00028743080267859935 0.01624524447048533 0 0.00018698771448525758 0.016308360169841947 0 0.00054255651529251854 0.01597984032266413 0 0.00087354939147853291 0.015261205751918441 0 0.00067062169643719626 0.015930256787030639 0 0.00087354939147853291 0.015261205751918441 0 0.0007513836020960038 0.014982267727718211 0 0.00066085719685574594 0.015108801335446087 0 0.0005845538438437577 0.015764822917606031 0 0.00042784188639804257 0.015527248546278617 0 0.00087354939147853291 0.015261205751918441 0 0.0007513836020960038 0.014982267727718211 0 0.00083511659424901849 0.015351434753912714 0 0.00028743080267859935 0.01624524447048533 0 0.00029417640350906389 0.016055615938635932 0 0.00027579998236252961 0.015903673370709515 0 0.00024595358432656422 0.01613608161211149 0 0.00028743080267859935 0.01624524447048533 0 0.00029417640350906389 0.016055615938635932 0 0.00028163814189828134 0.016033620414524795 0 0.00029417640350906389 0.016055615938635932 0 0.00027579998236252961 0.015903673370709515 0 2.9413826188177416e-05 0.015904253773847764 0 0.00028163814189828134 0.016033620414524795 0 0.00027579998236252961 0.015903673370709515 0 0.0007513836020960038 0.014982267727718211 0 0.00066085719685574594 0.015108801335446087 0 0.00048541818492331076 0.014705080786991483 0 0.00066085719685574594 0.015108801335446087 0 0.00048541818492331076 0.014705080786991483 0 0.00016665151390834456 0.014881455357843085 0 0.00048541818492331076 0.014705080786991483 0 0.00046032823490640935 0.014315636780392866 0 0.00017834301084102661 0.014193681356135319 0 0.0007513836020960038 0.014982267727718211 0 0.00048541818492331076 0.014705080786991483 0 0.00046032823490640935 0.014315636780392866 0 8.6850362726501488e-05 0.013756931450037467 0 6.3829058487050892e-07 0.014422421256150361 0 1.3223950955397073e-06 0.012724440403358732 0 0.00046032823490640935 0.014315636780392866 0 0.00023532908667992663 0.013776688786242873 0 0.00015232293262119862 0.013449913080354597 0 0.00023532908667992663 0.013776688786242873 0 8.6850362726501488e-05 0.013756931450037467 0 1.3223950955397073e-06 0.012724440403358732 0 0.00046032823490640935 0.014315636780392866 0 0.00023532908667992663 0.013776688786242873 0 0.00052748819872872478 0.014599499114888267 0 0.00023532908667992663 0.013776688786242873 0 8.6850362726501488e-05 0.013756931450037467 0 0.00052748819872872478 0.014599499114888267 0 0.00011925900210445202 0.014069489964207444 0 0.00046962520678096566 0.015727721546727289 0 8.6850362726501488e-05 0.013756931450037467 0 0.00052748819872872478 0.014599499114888267 0 0.00070129712462257195 0.015063067865077703 0 8.6850362726501488e-05 0.013756931450037467 0 0.00070129712462257195 0.015063067865077703 0 0.00099501205228797645 0.015788343583678529 0 8.6850362726501488e-05 0.013756931450037467 0 6.3829058487050892e-07 0.014422421256150361 0 -6.4790651440703276e-06 0.015753067329197054 0 0.00070129712462257195 0.015063067865077703 0 0.00079360352028508524 0.015295023674249664 0 0.00090076917542515969 0.015687133095803638 0 0.00052748819872872478 0.014599499114888267 0 0.00070129712462257195 0.015063067865077703 0 0.00079360352028508524 0.015295023674249664 0 0.00052748819872872478 0.014599499114888267 0 0.00079360352028508524 0.015295023674249664 0 0.0007444727646217865 0.015046385736320451 0 0.0007444727646217865 0.015046385736320451 0 0.00083511659424901849 0.015351434753912714 0 0.00085304360391030246 0.015647291512008096 0 0.00046032823490640935 0.014315636780392866 0 0.00052748819872872478 0.014599499114888267 0 0.0007444727646217865 0.015046385736320451 0 0.0007513836020960038 0.014982267727718211 0 0.00046032823490640935 0.014315636780392866 0 0.0007444727646217865 0.015046385736320451 0 0.00079360352028508524 0.015295023674249664 0 0.0007444727646217865 0.015046385736320451 0 0.00085304360391030246 0.015647291512008096 0 0.0007513836020960038 0.014982267727718211 0 0.0007444727646217865 0.015046385736320451 0 0.00083511659424901849 0.015351434753912714 0 0.00087354939147853291 0.015261205751918441 0 0.00076753619488528465 0.015798687295922653 0 0.00067062169643719626 0.015930256787030639 0 0.00087354939147853291 0.015261205751918441 0 0.00083511659424901849 0.015351434753912714 0 0.00076753619488528465 0.015798687295922653 0 0.00076753619488528465 0.015798687295922653 0 0.00085304360391030246 0.015647291512008096 0 0.00072821118340430887 0.016077932244078424 0 0.00083511659424901849 0.015351434753912714 0 0.00076753619488528465 0.015798687295922653 0 0.00085304360391030246 0.015647291512008096 0 0.00079360352028508524 0.015295023674249664 0 0.00085304360391030246 0.015647291512008096 0 0.00090076917542515969 0.015687133095803638 0 6.3829058487050892e-07 0.014422421256150361 0 -3.7978527075804338e-07 0.016119581725920446 0 -6.4790651440703276e-06 0.015753067329197054 0 0.00070129712462257195 0.015063067865077703 0 0.00090076917542515969 0.015687133095803638 0 0.00099501205228797645 0.015788343583678529 0 0.00090076917542515969 0.015687133095803638 0 0.00073434081708855751 0.016202143189134498 0 0.0007034151324312824 0.016333889729574551 0 0.00090076917542515969 0.015687133095803638 0 0.00099501205228797645 0.015788343583678529 0 0.0007034151324312824 0.016333889729574551 0 0.00085304360391030246 0.015647291512008096 0 0.00073434081708855751 0.016202143189134498 0 0.00072821118340430887 0.016077932244078424 0 0.00085304360391030246 0.015647291512008096 0 0.00090076917542515969 0.015687133095803638 0 0.00073434081708855751 0.016202143189134498 0 1.1668616588041439e-06 0.01781683931735898 0 0.00073434081708855751 0.016202143189134498 0 0.0007034151324312824 0.016333889729574551 0 1.1668616588041439e-06 0.01781683931735898 0 0.00073434081708855751 0.016202143189134498 0 0.00051647210083469132 0.016611789796706491 0 1.1668616588041439e-06 0.01781683931735898 0 0.00099501205228797645 0.015788343583678529 0 0.0007034151324312824 0.016333889729574551 0 1.3239049675883936e-07 0.017816849543701083 0 0.00046962520678096566 0.015727721546727289 0 2.1647213363811215e-07 0.017817542272261375 0 -3.7978527075804338e-07 0.016119581725920446 0 -6.4790651440703276e-06 0.015753067329197054 0 0.00073434081708855751 0.016202143189134498 0 0.00051647210083469132 0.016611789796706491 0 0.00072821118340430887 0.016077932244078424 0 0.00030216156824025 0.017058373107445932 0 0.00051647210083469132 0.016611789796706491 0 0.00046710882787733227 0.016628097974513253 0 1.1668616588041439e-06 0.01781683931735898 0 0.00030216156824025 0.017058373107445932 0 0.00051647210083469132 0.016611789796706491 0 0.00051647210083469132 0.016611789796706491 0 0.00046710882787733227 0.016628097974513253 0 0.00062520015658907213 0.016235041572768585 0 0.00034258310673970029 0.016870895362950857 0 0.00030216156824025 0.017058373107445932 0 0.00046710882787733227 0.016628097974513253 0 0.00034258310673970029 0.016870895362950857 0 0.00046710882787733227 0.016628097974513253 0 0.00051247720011110163 0.016388558979220643 0 0.00046710882787733227 0.016628097974513253 0 0.00051247720011110163 0.016388558979220643 0 0.00062520015658907213 0.016235041572768585 0 0.00076753619488528465 0.015798687295922653 0 0.00072821118340430887 0.016077932244078424 0 0.00062520015658907213 0.016235041572768585 0 0.00051647210083469132 0.016611789796706491 0 0.00072821118340430887 0.016077932244078424 0 0.00062520015658907213 0.016235041572768585 0 0.00051247720011110163 0.016388558979220643 0 0.00062520015658907213 0.016235041572768585 0 0.00067062169643719626 0.015930256787030639 0 0.00076753619488528465 0.015798687295922653 0 0.00062520015658907213 0.016235041572768585 0 0.00067062169643719626 0.015930256787030639 0 0.00034805836055397952 0.016660395272089613 0 0.00054255651529251854 0.01597984032266413 0 0.00052190651332292403 0.016236749207998821 0 0.00034805836055397952 0.016660395272089613 0 0.00051247720011110163 0.016388558979220643 0 0.00052190651332292403 0.016236749207998821 0 0.00054255651529251854 0.01597984032266413 0 0.00067062169643719626 0.015930256787030639 0 0.00052190651332292403 0.016236749207998821 0 0.00051247720011110163 0.016388558979220643 0 0.00067062169643719626 0.015930256787030639 0 0.00052190651332292403 0.016236749207998821 0 -0.0014463973457612834 0.014377446748921696 0 -0.0009961158632563554 0.015846340268550706 0 -0.00051053381653133069 0.014753536085355 0 -0.0030914063054906845 0.0053792837584065722 0 -0.0024730038902694854 0.0044595410665367232 0 -0.0014728403656915229 0.0059559499774452023 0 -0.0024730038902694854 0.0044595410665367232 0 -0.0014728403656915229 0.0059559499774452023 0 -0.0014641021934827816 0.0043929996108383164 0 -0.0024730038902694854 0.0044595410665367232 0 -0.0018984220177653255 0.0036718142637404854 0 -0.0014641021934827816 0.0043929996108383164 0 -0.0024730038902694854 0.0044595410665367232 0 -0.0018984220177653255 0.0036718142637404854 0 -0.0026604637265971736 0.0035536446480945354 0 -0.0030914063054906845 0.0053792837584065722 0 -0.0024730038902694854 0.0044595410665367232 0 -0.0034823487175929205 0.0034766864010893576 0 -0.0024744082709007437 0.010305089879777038 0 -0.0015061382482936523 0.008223762128763407 0 -0.0034755209478552446 0.0045310028291189325 0 -0.0015061382482936523 0.008223762128763407 0 -0.0024730038902694854 0.0044595410665367232 0 -0.0026604637265971736 0.0035536446480945354 0 -0.0034823487175929205 0.0034766864010893576 0 -0.0009961158632563554 0.015846340268550706 0 -0.00017757508007578982 0.015559570284714925 0 -0.00051053381653133069 0.014753536085355 0 2.9413826188177416e-05 0.015904253773847764 0 -0.0009961158632563554 0.015846340268550706 0 -0.00017757508007578982 0.015559570284714925 0 0.00066085719685574594 0.015108801335446087 0 -0.00017757508007578982 0.015559570284714925 0 0.00016665151390834456 0.014881455357843085 0 0.00042784188639804257 0.015527248546278617 0 -0.00016227609169150656 0.015580510041330311 0 2.9413826188177416e-05 0.015904253773847764 0 0.00027579998236252961 0.015903673370709515 0 -0.00017757508007578982 0.015559570284714925 0 0.00016665151390834456 0.014881455357843085 0 -0.00051053381653133069 0.014753536085355 0 0.00017834301084102661 0.014193681356135319 0 0.00048541818492331076 0.014705080786991483 0 0.00016665151390834456 0.014881455357843085 0 0.00017834301084102661 0.014193681356135319 0 -0.00017757508007578982 0.015559570284714925 0 0.00016665151390834456 0.014881455357843085 0 -0.00051053381653133069 0.014753536085355 0 -0.00051053381653133069 0.014753536085355 0 -0.00012820283727794392 0.013432435972499509 0 -0.00088934851604217707 0.012945384560371693 0 -0.00051053381653133069 0.014753536085355 0 -0.00012820283727794392 0.013432435972499509 0 0.00017834301084102661 0.014193681356135319 0 -0.00012820283727794392 0.013432435972499509 0 0.00017834301084102661 0.014193681356135319 0 0.00015232293262119862 0.013449913080354597 0 0.00046032823490640935 0.014315636780392866 0 0.00017834301084102661 0.014193681356135319 0 0.00015232293262119862 0.013449913080354597 0 0.00023532908667992663 0.013776688786242873 0 0.00015232293262119862 0.013449913080354597 0 1.3223950955397073e-06 0.012724440403358732 0 -0.00012820283727794392 0.013432435972499509 0 0.00015232293262119862 0.013449913080354597 0 1.216465346784556e-05 0.012501754739478543 0 0.00015232293262119862 0.013449913080354597 0 1.3223950955397073e-06 0.012724440403358732 0 1.216465346784556e-05 0.012501754739478543 0 1.3223950955397073e-06 0.012724440403358732 0 1.216465346784556e-05 0.012501754739478543 0 -3.2232483885523211e-06 0.011030047075879301 0 1.216465346784556e-05 0.012501754739478543 0 -3.2232483885523211e-06 0.011030047075879301 0 -0.00088934851604217707 0.012945384560371693 0 -0.00012820283727794392 0.013432435972499509 0 1.216465346784556e-05 0.012501754739478543 0 -0.00088934851604217707 0.012945384560371693 0 3.7387100431469706e-09 0.011025947519883944 0 -9.7404259707367868e-09 0.010269224060928573 0 -1.5017103296247588e-06 0.010009031665269249 0 -3.2232483885523211e-06 0.011030047075879301 0 -0.0019101264192313448 0.011722621245380073 0 -0.00088934851604217707 0.012945384560371693 0 -4.1772743494489911e-07 0.011026425305634186 0 -0.0008714420306656876 0.009545209743917326 0 -0.0014141547881591301 0.0088366047012430303 0 -2.484205317961977e-06 0.009814721918944962 0 -3.1451650423258661e-09 0.010267507965534797 0 1.2863435269128387e-05 0.0099852179829191794 0 -3.7693371338466826e-09 0.0098160211153944434 0 1.2863435269128387e-05 0.0099852179829191794 0 -3.2972567349259467e-05 0.0099938629639215754 0 -3.7693371338466826e-09 0.0098160211153944434 0 -1.3541307975538025e-06 0.010267074456397083 0 -0.0008714420306656876 0.009545209743917326 0 -0.0008714420306656876 0.009545209743917326 0 -0.0014141547881591301 0.0088366047012430303 0 -0.0019101264192313448 0.011722621245380073 0 -0.0020797991907123056 0.011797338472889893 0 -0.00088934851604217707 0.012945384560371693 0 -0.0024744082709007437 0.010305089879777038 0 -0.0014141547881591301 0.0088366047012430303 0 -0.0014463973457612834 0.014377446748921696 0 -0.0020797991907123056 0.011797338472889893 0 -0.00088934851604217707 0.012945384560371693 0 -0.0014463973457612834 0.014377446748921696 0 -0.00051053381653133069 0.014753536085355 0 -0.00088934851604217707 0.012945384560371693 0 -0.0030914063054906845 0.0053792837584065722 0 -0.0026483915751099366 0.0074000203747111122 0 -0.0014728403656915229 0.0059559499774452023 0 -0.0014141547881591301 0.0088366047012430303 0 -0.0006477971057480597 0.0066848573115872167 0 -0.0027346346689786252 0.0057991242656071492 0 -0.0015735720484450779 0.0054322045724190041 0 -0.0017913660611810491 0.0046282201174933316 0 -7.1488542819627871e-07 0.0098139416480853281 0 6.5267787027982781e-07 0.0081835216966076336 0 7.6292579833567327e-06 0.0081498628535258688 0 -0.0014141547881591301 0.0088366047012430303 0 -0.0017277185724164301 0.0049483762118672546 0 -7.1894725461526558e-05 0.0095909684489158716 0 -7.1488542819627871e-07 0.0098139416480853281 0 7.6292579833567327e-06 0.0081498628535258688 0 6.5267787027982781e-07 0.0081835216966076336 0 7.6292579833567327e-06 0.0081498628535258688 0 0.00011691867075764873 0.007294395555569053 0 6.5267787027982781e-07 0.0081835216966076336 0 0.00011691867075764873 0.007294395555569053 0 -5.9256436612485474e-07 0.0065556715857496024 0 -0.0006477971057480597 0.0066848573115872167 0 -0.00017915304575683713 0.0064364675290731928 0 -0.0015735720484450779 0.0054322045724190041 0 -0.00043384894875694185 0.0050709716054930668 0 -0.00093922528199422888 0.0044429745385966028 0 -0.00043384894875694185 0.0050709716054930668 0 -0.00093922528199422888 0.0044429745385966028 0 0.00014056257432718154 0.0038117897572353195 0 -0.0015735720484450779 0.0054322045724190041 0 -0.00093922528199422888 0.0044429745385966028 0 -0.0017913660611810491 0.0046282201174933316 0 -0.00039075081486371029 0.0037061842763639568 0 -0.00039512970903291314 0.0023206368083317046 0 -0.00022701328008579199 0.0040616216915190656 0 -0.00054303925882129506 0.0015514290071049932 0 -0.00076090382531694982 0.00052520354571351173 0 8.5921567050563468e-07 0.0049528812861478122 0 -0.00022701328008579199 0.0040616216915190656 0 0.00011377845051630018 0.0039793655682231668 0 0.00011691867075764873 0.007294395555569053 0 -5.9256436612485474e-07 0.0065556715857496024 0 -0.00075984639385615678 0.0074915689418987696 0 -0.00022701328008579199 0.0040616216915190656 0 -2.6822244208165262e-06 0.0065503239476972187 0 -0.00062251722047078502 0.0022042034970935821 0 -8.5980319533890789e-07 0.0065539307525784643 0 -0.00040123287759184876 0.0035627289159468321 0 8.5921567050563468e-07 0.0049528812861478122 0 -0.00022701328008579199 0.0040616216915190656 0 -2.6822244208165262e-06 0.0065503239476972187 0 -0.00017915304575683713 0.0064364675290731928 0 -0.00040123287759184876 0.0035627289159468321 0 -0.00043384894875694185 0.0050709716054930668 0 0.00069262823496370651 0.004720482457504541 0 0.00014056257432718154 0.0038117897572353195 0 -0.00022701328008579199 0.0040616216915190656 0 -0.00062251722047078502 0.0022042034970935821 0 -0.00054303925882129506 0.0015514290071049932 0 -0.0012276556156463388 -0.00015150757728808794 0 -0.0010248423482465813 -0.00047163968435351043 0 -0.00084995013489981965 -0.00032048289750963489 0 -0.00062251722047078502 0.0022042034970935821 0 -0.00054303925882129506 0.0015514290071049932 0 -0.00078223276681201861 0.00063347249031544151 0 -0.00040123287759184876 0.0035627289159468321 0 -0.00077321574216132009 -0.00012570695158679854 0 -0.00040123287759184876 0.0035627289159468321 0 0.000254993596383048 0.0014820684902981417 0 0.0013165919371406511 0.0038347381907430718 0 0.00014056257432718154 0.0038117897572353195 0 0.0010772010638141513 0.0026005276880834058 0 0.00069262823496370651 0.004720482457504541 0 0.0013165919371406511 0.0038347381907430718 0 0.00014056257432718154 0.0038117897572353195 0 0.00014056257432718154 0.0038117897572353195 0 0.0010772010638141513 0.0026005276880834058 0 0.00010445232973008412 0.0025198339978849062 0 0.0013165919371406511 0.0038347381907430718 0 0.0010772010638141513 0.0026005276880834058 0 0.0019291087339508291 0.0029627622802976218 0 -0.00093922528199422888 0.0044429745385966028 0 -0.0017913660611810491 0.0046282201174933316 0 -0.00083880365375078327 0.0035601944061896275 0 -0.0014728403656915229 0.0059559499774452023 0 -0.00032747976966399848 0.0045951728706078139 0 -0.0014641021934827816 0.0043929996108383164 0 -0.0017277185724164301 0.0049483762118672546 0 -0.00059015572146238699 0.0041337591381891414 0 -0.00093922528199422888 0.0044429745385966028 0 0.00014056257432718154 0.0038117897572353195 0 -0.00083880365375078327 0.0035601944061896275 0 -0.00032747976966399848 0.0045951728706078139 0 -0.001029620699912421 0.0032346208999979018 0 0.00078736206376474349 0.0032654997108806151 0 0.00014056257432718154 0.0038117897572353195 0 -0.00083880365375078327 0.0035601944061896275 0 0.00010445232973008412 0.0025198339978849062 0 -0.00059015572146238699 0.0041337591381891414 0 0.00046714546005685961 0.0029052809718802669 0 -0.00032747976966399848 0.0045951728706078139 0 -0.0014641021934827816 0.0043929996108383164 0 -0.001029620699912421 0.0032346208999979018 0 -0.0018984220177653255 0.0036718142637404854 0 -0.0014641021934827816 0.0043929996108383164 0 -0.001029620699912421 0.0032346208999979018 0 -0.0020371135079448976 0.002885143155531328 0 -0.001029620699912421 0.0032346208999979018 0 -0.0015383815556159149 0.0018065967839981086 0 -0.001029620699912421 0.0032346208999979018 0 -0.0015383815556159149 0.0018065967839981086 0 -0.00054456534751155989 0.0020492125330486958 0 -0.0015383815556159149 0.0018065967839981086 0 -0.00054456534751155989 0.0020492125330486958 0 -0.00042583317636763282 0.00082190134517680174 0 -0.00054456534751155989 0.0020492125330486958 0 0.00078736206376474349 0.0032654997108806151 0 0.00037447666103851911 0.0012587409405255697 0 -0.00054456534751155989 0.0020492125330486958 0 0.00037447666103851911 0.0012587409405255697 0 -0.00042583317636763282 0.00082190134517680174 0 -0.001029620699912421 0.0032346208999979018 0 -0.00054456534751155989 0.0020492125330486958 0 0.00078736206376474349 0.0032654997108806151 0 0.00046714546005685961 0.0029052809718802669 0 0.0013558649948421703 0.0015474894178920603 0 0.0010772010638141513 0.0026005276880834058 0 0.0010346222700177577 0.0015048367470498888 0 0.0017887358791604559 0.0018117632341979573 0 0.0010772010638141513 0.0026005276880834058 0 0.00010445232973008412 0.0025198339978849062 0 0.0010346222700177577 0.0015048367470498888 0 0.0012921549452911782 0.0014350045357474728 0 0.0010394597195205941 0.0007833121685799808 0 0.0016963503879878672 0.00088873134008370254 0 0.0013558649948421703 0.0015474894178920603 0 0.002035533821001404 0.0016185065597425217 0 0.0013558649948421703 0.0015474894178920603 0 0.0017058270218482186 0.00091249103090847985 0 0.00078736206376474349 0.0032654997108806151 0 0.0019913659380466379 0.0019035407957850587 0 0.00037447666103851911 0.0012587409405255697 0 0.0012921549452911782 0.0014350045357474728 0 0.00037447666103851911 0.0012587409405255697 0 0.0010394597195205941 0.0007833121685799808 0 0.0013558649948421703 0.0015474894178920603 0 0.00056118825685644302 0.0013146419407429461 0 0.00037447666103851911 0.0012587409405255697 0 0.0010394597195205941 0.0007833121685799808 0 0.00055005970552506197 0.00021399725774772288 0 0.0013511599613214953 0.00041589174562258016 0 0.0010394597195205941 0.0007833121685799808 0 0.00055005970552506197 0.00021399725774772288 0 0.0013511599613214953 0.00041589174562258016 0 0.0010394597195205941 0.0007833121685799808 0 0.0016963503879878672 0.00088873134008370254 0 -0.00030346576180076076 -0.0010290517745435539 0 1.6140703581132284e-05 -0.00078369406250054015 0 0.0013511599613214953 0.00041589174562258016 0 0.0011613983791429181 -0.00029866957562462717 0 0.00055005970552506197 0.00021399725774772288 0 0.0013511599613214953 0.00041589174562258016 0 0.0011613983791429181 -0.00029866957562462717 0 0.0019041689001007848 0.00032183600011685394 0 0.00015653584172803752 -0.00091147556947760366 0 0.0011613983791429181 -0.00029866957562462717 0 0.00055005970552506197 0.00021399725774772288 0 0.00055005970552506197 0.00021399725774772288 0 -0.00030940231038046901 -0.00026796355499040403 0 -0.00042583317636763282 0.00082190134517680174 0 0.00015653584172803752 -0.00091147556947760366 0 0.00055005970552506197 0.00021399725774772288 0 -0.00030940231038046901 -0.00026796355499040403 0 -0.00047544077788491803 -0.0007666485782751401 0 -0.00052412102615452484 -0.00078285988553362235 0 -0.00030940231038046901 -0.00026796355499040403 0 -0.0016511949439106041 -0.00040256792903999077 0 -0.00030940231038046901 -0.00026796355499040403 0 -0.0015050309277923385 0.0005756675614719389 0 -0.0011701633313703792 -0.00064364562043608335 0 -0.00028905721167764753 -0.0003165406086061437 0 -0.0015383815556159149 0.0018065967839981086 0 -0.0015050309277923385 0.0005756675614719389 0 -0.00042583317636763282 0.00082190134517680174 0 -0.00030940231038046901 -0.00026796355499040403 0 -0.0015050309277923385 0.0005756675614719389 0 -0.00042583317636763282 0.00082190134517680174 0 0.00037447666103851911 0.0012587409405255697 0 0.00055005970552506197 0.00021399725774772288 0 -0.00042583317636763282 0.00082190134517680174 0 -0.0017917146884413649 -0.0013731302193609985 0 -0.0020280816834039078 -0.0011666989056167206 0 -0.001858529919817377 -0.00077105263125323744 0 -0.0012627313529267787 -0.0044490457311928133 0 -0.00045249197190879662 -0.0011353502945194596 0 -0.0010275293318402756 -0.003878245232176683 0 -0.0010372618363674283 -0.0038203265411422783 0 -0.0010634540165652478 -0.0038133852051932954 0 -0.0017917146884413649 -0.0013731302193609985 0 -0.0012505151471365963 -0.0015538746467308757 0 -0.001858529919817377 -0.00077105263125323744 0 -0.0017917146884413649 -0.0013731302193609985 0 -0.0020182862557046122 -0.0015622696804296666 0 -0.0020280816834039078 -0.0011666989056167206 0 -0.00050720760377286425 -0.000583725717264664 0 -0.00045249197190879662 -0.0011353502945194596 0 -0.0012627313529267787 -0.0044490457311928133 0 -0.0013858769435081823 -0.0058476366723496272 0 -0.0017208654630013927 -0.006754293383201557 0 -0.0017553397549863383 -0.0071682851754815199 0 -0.0019310525945313516 -0.0070651857545425455 0 -0.0017208654630013927 -0.006754293383201557 0 -0.0014558734048923253 -0.0066655500917093347 0 -0.0017553397549863383 -0.0071682851754815199 0 -0.0010193101934594672 -0.00372856668789741 0 -0.0012627313529267787 -0.0044490457311928133 0 -0.0012627313529267787 -0.0044490457311928133 0 -0.0012522188282871533 -0.0060586476352429853 0 -0.0017208654630013927 -0.006754293383201557 0 -0.0014558734048923253 -0.0066655500917093347 0 -0.0015011609647639333 -0.0060300947314845419 0 -0.00090380963273613963 -0.0050961289818241846 0 -0.0007592352694762572 -0.0064345927596910334 0 -0.0012829727231400895 -0.0057141677601801038 0 -0.0011140037706397208 -0.0025989671212511027 0 -0.0012505151471365963 -0.0015538746467308757 0 -0.0015108822535973316 -0.0021009701070005792 0 -0.0012505151471365963 -0.0015538746467308757 0 -0.0015108822535973316 -0.0021009701070005792 0 -0.0017967303411839707 -0.0017921120321509414 0 -0.0017917146884413649 -0.0013731302193609985 0 -0.0012505151471365963 -0.0015538746467308757 0 -0.0017967303411839707 -0.0017921120321509414 0 -0.0017917146884413649 -0.0013731302193609985 0 -0.0017967303411839707 -0.0017921120321509414 0 -0.0020182862557046122 -0.0015622696804296666 0 -0.0017967303411839707 -0.0017921120321509414 0 -0.0020182862557046122 -0.0015622696804296666 0 -0.0020867859278133399 -0.0017716844719642562 0 -0.0017483080556169297 -0.0022631879834335254 0 -0.0015108822535973316 -0.0021009701070005792 0 -0.0017967303411839707 -0.0017921120321509414 0 -0.0017483080556169297 -0.0022631879834335254 0 -0.0017967303411839707 -0.0017921120321509414 0 -0.0021967284965698206 -0.0018935694477761628 0 -0.002212318440139202 -0.0017074924222434359 0 -0.0021967284965698206 -0.0018935694477761628 0 -0.0022281162488794718 -0.0018468243408250227 0 -0.0017967303411839707 -0.0017921120321509414 0 -0.0021967284965698206 -0.0018935694477761628 0 -0.0020867859278133399 -0.0017716844719642562 0 -0.0021967284965698206 -0.0018935694477761628 0 -0.0022281162488794718 -0.0018468243408250227 0 -0.0020867859278133399 -0.0017716844719642562 0 -0.002212318440139202 -0.0017074924222434359 0 -0.0022281162488794718 -0.0018468243408250227 0 -0.0020590973662538395 -0.0017228275977207391 0 -0.0022281162488794718 -0.0018468243408250227 0 -0.0020182862557046122 -0.0015622696804296666 0 -0.0020867859278133399 -0.0017716844719642562 0 -0.0017124625495010897 -0.00174592079771968 0 -0.0020590973662538395 -0.0017228275977207391 0 -0.002056610346908027 -0.0019176685428050179 0 -0.0022281162488794718 -0.0018468243408250227 0 -0.0020590973662538395 -0.0017228275977207391 0 -0.002056610346908027 -0.0019176685428050179 0 0.0019041689001007848 0.00032183600011685394 0 0.0020248184797413559 0.00073759544536580138 0 0.0016963503879878672 0.00088873134008370254 0 0.0013511599613214953 0.00041589174562258016 0 0.0019041689001007848 0.00032183600011685394 0 0.0016963503879878672 0.00088873134008370254 0 0.0020248184797413559 0.00073759544536580138 0 0.0016963503879878672 0.00088873134008370254 0 0.0020878024433963653 0.0010004718657910955 0 -0.0022281162488794718 -0.0018468243408250227 0 -0.0020182862557046122 -0.0015622696804296666 0 -0.0020280816834039078 -0.0011666989056167206 0 -0.0025283461209462733 -0.0023108591922359053 0 -0.00050720760377286425 -0.000583725717264664 0 0.0019041689001007848 0.00032183600011685394 0 0.0020248184797413559 0.00073759544536580138 0 0.0023837802610116219 0.00072567994294275471 0 -0.0022281162488794718 -0.0018468243408250227 0 -0.002056610346908027 -0.0019176685428050179 0 -0.0022781185830159402 -0.0020214170547832701 0 1.6140703581132284e-05 -0.00078369406250054015 0 -0.00050720760377286425 -0.000583725717264664 0 0.0020248184797413559 0.00073759544536580138 0 0.0023837802610116219 0.00072567994294275471 0 0.0020878024433963653 0.0010004718657910955 0 0.0020878024433963653 0.0010004718657910955 0 0.0021535894569984122 0.0014181058235384796 0 0.0024748693251155922 0.0009783704772122182 0 0.0023837802610116219 0.00072567994294275471 0 0.0020878024433963653 0.0010004718657910955 0 0.0024748693251155922 0.0009783704772122182 0 0.00099498598541576601 0.00019316627939909228 0 -0.00045249197190879662 -0.0011353502945194596 0 0.0016963503879878672 0.00088873134008370254 0 0.0020878024433963653 0.0010004718657910955 0 0.0017970845312349788 0.0012840622316009933 0 0.0020878024433963653 0.0010004718657910955 0 0.0017970845312349788 0.0012840622316009933 0 0.0021535894569984122 0.0014181058235384796 0 0.001461714360820716 0.0011536747828153483 0 0.0016963503879878672 0.00088873134008370254 0 0.0017970845312349788 0.0012840622316009933 0 0.0017887358791604559 0.0018117632341979573 0 0.0025327054403330176 0.0021099640775063639 0 0.0019291087339508291 0.0029627622802976218 0 0.00099498598541576601 0.00019316627939909228 0 0.00049254598627313136 0.0012088815277999914 0 0.0010772010638141513 0.0026005276880834058 0 0.0017887358791604559 0.0018117632341979573 0 0.0019291087339508291 0.0029627622802976218 0 0.002035533821001404 0.0016185065597425217 0 0.00099498598541576601 0.00019316627939909228 0 -0.0006541514772056017 -0.00095938495319216829 0 -0.00038433236658507759 -0.00085441728263375288 0 -0.00057955119074503563 -0.00075432883391371994 0 -0.0011350010629586421 -0.0042080118967117068 0 -0.0013858769435081823 -0.0058476366723496272 0 -0.0011350010629586421 -0.0042080118967117068 0 -0.00045249197190879662 -0.0011353502945194596 0 0.00049062398410196694 -0.0019010088823935643 0 -0.00088590667441896924 -0.0021936610837473849 0 -0.00031812383378761037 -0.00081080147395087095 0 0.00049062398410196694 -0.0019010088823935643 0 -0.00088590667441896924 -0.0021936610837473849 0 -0.00084843487718231042 -0.002459376211750409 0 0.00099498598541576601 0.00019316627939909228 0 -0.00093915625054444025 -0.002717295795519447 0 -0.0020323419426106822 -0.0071218891415138581 0 -0.0020359784276526931 -0.0071003100708444036 0 -0.0020544858285662325 -0.0070778980872778811 0 -0.00091564453436000456 -0.0037305773547480128 0 -0.00082363611316267854 -0.0034985917315618533 0 -0.00094270857732622448 -0.003547348650199096 0 -0.0011350010629586421 -0.0042080118967117068 0 -0.0013367011228098396 -0.0041366703410874181 0 -0.0011350010629586421 -0.0042080118967117068 0 -0.00093915625054444025 -0.002717295795519447 0 -0.0010485902139585671 -0.003778926301860453 0 -0.0010372618363674283 -0.0038203265411422783 0 -0.0010634540165652478 -0.0038133852051932954 0 -0.0017553397549863383 -0.0071682851754815199 0 -0.0019351473458403161 -0.0072096211570813066 0 -0.0019310525945313516 -0.0070651857545425455 0 -0.0017553397549863383 -0.0071682851754815199 0 -0.0019351473458403161 -0.0072096211570813066 0 -0.0019811619737733067 -0.0071787885255796512 0 -0.0019351473458403161 -0.0072096211570813066 0 -0.0019811619737733067 -0.0071787885255796512 0 -0.0020579894074399699 -0.0072513595016484413 0 -0.0020323419426106822 -0.0071218891415138581 0 -0.0017553397549863383 -0.0071682851754815199 0 -0.0019811619737733067 -0.0071787885255796512 0 -0.0020323419426106822 -0.0071218891415138581 0 -0.0019811619737733067 -0.0071787885255796512 0 -0.0020359784276526931 -0.0071003100708444036 0 -0.0019811619737733067 -0.0071787885255796512 0 -0.002041271691083642 -0.0070874432356903324 0 -0.0020479888711007477 -0.0071475585075735362 0 -0.0019811619737733067 -0.0071787885255796512 0 -0.0020359784276526931 -0.0071003100708444036 0 -0.002041271691083642 -0.0070874432356903324 0 -0.0020618869027377766 -0.0069717815601900634 0 -0.002068258352224571 -0.0070358531699574334 0 -0.002097279004664626 -0.0069094639028794199 0 -0.002068258352224571 -0.0070358531699574334 0 -0.0020947455542109951 -0.0070447679843554864 0 -0.002097279004664626 -0.0069094639028794199 0 -0.002041271691083642 -0.0070874432356903324 0 -0.0020618869027377766 -0.0069717815601900634 0 -0.002068258352224571 -0.0070358531699574334 0 -0.0013367011228098396 -0.0041366703410874181 0 -0.0014977895146154427 -0.0032436308464178802 0 -0.0020359784276526931 -0.0071003100708444036 0 -0.002041271691083642 -0.0070874432356903324 0 -0.002068258352224571 -0.0070358531699574334 0 -0.0020359784276526931 -0.0071003100708444036 0 -0.002068258352224571 -0.0070358531699574334 0 -0.0020544858285662325 -0.0070778980872778811 0 -0.0023192097004052399 -0.0053660534515692585 0 -0.0013367011228098396 -0.0041366703410874181 0 -0.00032159104148959359 -0.001007038170667555 0 -0.00038291906292881012 -0.001033502206944378 0 -0.00041236290878419844 -0.00063471115285403687 0 -0.00093915625054444025 -0.002717295795519447 0 -0.00046672216587254447 -8.5905676504238491e-05 0 -0.00032159104148959359 -0.001007038170667555 0 -0.00041236290878419844 -0.00063471115285403687 0 -0.00018254733011875801 -0.0005988917020415622 0 -0.00038433236658507759 -0.00085441728263375288 0 -0.00041236290878419844 -0.00063471115285403687 0 -0.00057955119074503563 -0.00075432883391371994 0 -0.0013367011228098396 -0.0041366703410874181 0 -0.00093915625054444025 -0.002717295795519447 0 -0.00041236290878419844 -0.00063471115285403687 0 -0.00057955119074503563 -0.00075432883391371994 0 -0.00056122263201094163 -0.000611145387100146 0 -0.00041236290878419844 -0.00063471115285403687 0 -0.00018254733011875801 -0.0005988917020415622 0 -0.00054265853894338624 -0.00047075774203426545 0 -0.0014977895146154427 -0.0032436308464178802 0 -0.00063446363189019689 -0.00060333034750386218 0 -0.0012767099587119761 -0.0025771390322080878 0 -0.0011338529015613476 -0.0010341725884255345 0 -0.0010467572480850767 -0.0013229649345483303 0 -0.00041236290878419844 -0.00063471115285403687 0 -0.00056122263201094163 -0.000611145387100146 0 -0.00054265853894338624 -0.00047075774203426545 0 -0.0013489753296867409 -0.0027181302106086178 0 -0.0012767099587119761 -0.0025771390322080878 0 -0.0010467572480850767 -0.0013229649345483303 0 -0.0013489753296867409 -0.0027181302106086178 0 -0.0013895322401362485 -0.0028785102452028666 0 -0.0014802169191208987 -0.0037600533512017666 0 -0.001367667328234164 -0.0028872087541883082 0 -0.0014977895146154427 -0.0032436308464178802 0 -0.0006541514772056017 -0.00095938495319216829 0 -0.00083299488797580659 -0.00073418712433273624 0 -0.00057955119074503563 -0.00075432883391371994 0 -0.00083299488797580659 -0.00073418712433273624 0 -0.00057955119074503563 -0.00075432883391371994 0 -0.00072330404741536604 -0.0005637380117937662 0 -0.00057955119074503563 -0.00075432883391371994 0 -0.00056122263201094163 -0.000611145387100146 0 -0.00072330404741536604 -0.0005637380117937662 0 -0.00063446363189019689 -0.00060333034750386218 0 -0.00077321574216132009 -0.00012570695158679854 0 -0.00054265853894338624 -0.00047075774203426545 0 -0.00072330404741536604 -0.0005637380117937662 0 -0.00084995013489981965 -0.00032048289750963489 0 -0.00056122263201094163 -0.000611145387100146 0 -0.00054265853894338624 -0.00047075774203426545 0 -0.00072330404741536604 -0.0005637380117937662 0 -0.0010248423482465813 -0.00047163968435351043 0 -0.00083299488797580659 -0.00073418712433273624 0 -0.00072330404741536604 -0.0005637380117937662 0 0.000254993596383048 0.0014820684902981417 0 0.00049254598627313136 0.0012088815277999914 0 -0.0010248423482465813 -0.00047163968435351043 0 -0.00072330404741536604 -0.0005637380117937662 0 -0.00084995013489981965 -0.00032048289750963489 0 -0.00054303925882129506 0.0015514290071049932 0 -0.00078223276681201861 0.00063347249031544151 0 -0.00082490315401521225 0.00069323182616708981 0 -0.00082490315401521225 0.00069323182616708981 0 -0.0010255178162894905 4.2238363579229601e-05 0 -0.00094215698112813542 0.00031894359050544616 0 -0.00078223276681201861 0.00063347249031544151 0 -0.00082490315401521225 0.00069323182616708981 0 -0.0010255178162894905 4.2238363579229601e-05 0 -0.00078223276681201861 0.00063347249031544151 0 -0.0010255178162894905 4.2238363579229601e-05 0 -0.0011023932720071186 -0.00052174872324100262 0 -0.0011338529015613476 -0.0010341725884255345 0 -0.00078223276681201861 0.00063347249031544151 0 -0.0011023932720071186 -0.00052174872324100262 0 -0.0010255178162894905 4.2238363579229601e-05 0 -0.0011023932720071186 -0.00052174872324100262 0 -0.0011346573577467837 -0.00039543216514424971 0 -0.0010723188512099643 -1.8970816530959606e-05 0 -0.00094215698112813542 0.00031894359050544616 0 -0.00076090382531694982 0.00052520354571351173 0 -0.00039512970903291314 0.0023206368083317046 0 -0.00046915182727586392 0.00095634423734432641 0 2.4607137438355297e-07 0.003354311096039743 0 0.00011377845051630018 0.0039793655682231668 0 -1.2668913574443324e-05 0.002075097535415208 0 -0.0010723188512099643 -1.8970816530959606e-05 0 -0.00076090382531694982 0.00052520354571351173 0 -0.001208867289371379 -0.0002653031390325635 0 2.4607137438355297e-07 0.003354311096039743 0 -1.8916039937287669e-07 0.0017544296150515057 0 -1.2668913574443324e-05 0.002075097535415208 0 -0.0010723188512099643 -1.8970816530959606e-05 0 -0.0011346573577467837 -0.00039543216514424971 0 -0.001208867289371379 -0.0002653031390325635 0 -0.0010255178162894905 4.2238363579229601e-05 0 -0.0010723188512099643 -1.8970816530959606e-05 0 -0.0011346573577467837 -0.00039543216514424971 0 -0.0010255178162894905 4.2238363579229601e-05 0 -0.0010723188512099643 -1.8970816530959606e-05 0 -0.00094215698112813542 0.00031894359050544616 0 8.5921567050563468e-07 0.0049528812861478122 0 2.4607137438355297e-07 0.003354311096039743 0 0.00011377845051630018 0.0039793655682231668 0 -0.00082490315401521225 0.00069323182616708981 0 -0.00094215698112813542 0.00031894359050544616 0 -0.00076090382531694982 0.00052520354571351173 0 -0.00054303925882129506 0.0015514290071049932 0 -0.00082490315401521225 0.00069323182616708981 0 -0.00076090382531694982 0.00052520354571351173 0 -0.0010467572480850767 -0.0013229649345483303 0 -0.00061651919698440031 -0.0004494825924107522 0 0.00011365281518814048 -0.0010013832173983066 0 -0.0011114294271036219 -0.0015180810767111139 0 -0.00074948625742281294 -0.0021516032744851588 0 -0.0013489753296867409 -0.0027181302106086178 0 -0.0010467572480850767 -0.0013229649345483303 0 -0.0014409733660285982 -0.0033578164149401695 0 -0.0011338529015613476 -0.0010341725884255345 0 -0.0011023932720071186 -0.00052174872324100262 0 -0.0010467572480850767 -0.0013229649345483303 0 -0.0011023932720071186 -0.00052174872324100262 0 -0.0010467572480850767 -0.0013229649345483303 0 -0.0011346573577467837 -0.00039543216514424971 0 -0.0010467572480850767 -0.0013229649345483303 0 -0.0011346573577467837 -0.00039543216514424971 0 -0.001025447158883755 -0.00051006170673273648 0 -1.8916039937287669e-07 0.0017544296150515057 0 -1.2668913574443324e-05 0.002075097535415208 0 5.311039710155812e-08 0.00015484480758595811 0 -0.0010467572480850767 -0.0013229649345483303 0 -0.001025447158883755 -0.00051006170673273648 0 -0.00061651919698440031 -0.0004494825924107522 0 -0.001025447158883755 -0.00051006170673273648 0 -0.001208867289371379 -0.0002653031390325635 0 -0.00061651919698440031 -0.0004494825924107522 0 -0.0011346573577467837 -0.00039543216514424971 0 -0.001025447158883755 -0.00051006170673273648 0 -0.001208867289371379 -0.0002653031390325635 0 -0.00046915182727586392 0.00095634423734432641 0 1.6482552030101722e-07 0.00015491556413872929 0 -0.001208867289371379 -0.0002653031390325635 0 -5.2865426035547835e-07 0.00015169745556549696 0 -0.00061651919698440031 -0.0004494825924107522 0 -5.2865426035547835e-07 0.00015169745556549696 0 -0.00061651919698440031 -0.0004494825924107522 0 0.00011365281518814048 -0.0010013832173983066 0 0.00010636869426894603 -0.001123465834486842 0 0.00011365281518814048 -0.0010013832173983066 0 6.2364252466034841e-05 -0.0017398067007846514 0 -5.2865426035547835e-07 0.00015169745556549696 0 0.00010636869426894603 -0.001123465834486842 0 4.5087905577080187e-07 -0.0018864065532113647 0 -5.2865426035547835e-07 0.00015169745556549696 0 0.00010636869426894603 -0.001123465834486842 0 0.00011365281518814048 -0.0010013832173983066 0 -0.0013489753296867409 -0.0027181302106086178 0 -0.0014409733660285982 -0.0033578164149401695 0 -0.0014802169191208987 -0.0037600533512017666 0 -0.00074948625742281294 -0.0021516032744851588 0 -0.00058533548763578622 -0.0030070082030142567 0 -0.0014409733660285982 -0.0033578164149401695 0 -0.0014070623928124112 -0.0041536103814470071 0 -0.0014802169191208987 -0.0037600533512017666 0 -0.0014070623928124112 -0.0041536103814470071 0 -0.0014802169191208987 -0.0037600533512017666 0 -0.0013491602851065914 -0.0044241239734975537 0 0.00010636869426894603 -0.001123465834486842 0 6.2364252466034841e-05 -0.0017398067007846514 0 4.5087905577080187e-07 -0.0018864065532113647 0 4.5087905577080187e-07 -0.0018864065532113647 0 -9.8431953912631401e-05 -0.0029753482163288867 0 -9.2970759611599099e-07 -0.0039292379448837688 0 6.2364252466034841e-05 -0.0017398067007846514 0 4.5087905577080187e-07 -0.0018864065532113647 0 -9.8431953912631401e-05 -0.0029753482163288867 0 -0.0014070623928124112 -0.0041536103814470071 0 -0.00027292046436793951 -0.0041074867247913576 0 -0.00097586816392133686 -0.0046415059008875995 0 6.2364252466034841e-05 -0.0017398067007846514 0 -9.8431953912631401e-05 -0.0029753482163288867 0 -0.00027292046436793951 -0.0041074867247913576 0 -0.00058533548763578622 -0.0030070082030142567 0 -0.00021062348641903128 -0.003847764342199877 0 -0.00027292046436793951 -0.0041074867247913576 0 -0.00044430488058280038 -0.0048997568058081952 0 1.6051779517417984e-05 -0.0052461641090594136 0 -9.2970759611599099e-07 -0.0039292379448837688 0 -0.00027292046436793951 -0.0041074867247913576 0 1.6051779517417984e-05 -0.0052461641090594136 0 -9.8431953912631401e-05 -0.0029753482163288867 0 -9.2970759611599099e-07 -0.0039292379448837688 0 -0.00027292046436793951 -0.0041074867247913576 0 -0.00029330738152856078 -0.0055611684684048913 0 -0.00044430488058280038 -0.0048997568058081952 0 1.6051779517417984e-05 -0.0052461641090594136 0 -0.00029330738152856078 -0.0055611684684048913 0 -0.00044430488058280038 -0.0048997568058081952 0 -0.00095532977859440465 -0.0052168755753062039 0 -0.00027292046436793951 -0.0041074867247913576 0 -0.00044430488058280038 -0.0048997568058081952 0 -0.00097586816392133686 -0.0046415059008875995 0 -0.0014070623928124112 -0.0041536103814470071 0 -0.00097586816392133686 -0.0046415059008875995 0 -0.0013491602851065914 -0.0044241239734975537 0 -0.00097586816392133686 -0.0046415059008875995 0 -0.00095532977859440465 -0.0052168755753062039 0 -0.0013491602851065914 -0.0044241239734975537 0 -0.00044430488058280038 -0.0048997568058081952 0 -0.00097586816392133686 -0.0046415059008875995 0 -0.00095532977859440465 -0.0052168755753062039 0 -0.00095532977859440465 -0.0052168755753062039 0 -0.0010923863920430331 -0.0065469276316663643 0 -0.0015502232382944194 -0.0047161439575908416 0 -0.00029330738152856078 -0.0055611684684048913 0 -0.00095532977859440465 -0.0052168755753062039 0 -0.00042609670170204537 -0.0062045828896197678 0 -0.00095532977859440465 -0.0052168755753062039 0 -0.00042609670170204537 -0.0062045828896197678 0 -0.0010923863920430331 -0.0065469276316663643 0 -0.00042609670170204537 -0.0062045828896197678 0 -0.0010923863920430331 -0.0065469276316663643 0 -0.00020561199741020073 -0.0071513291037189472 0 -0.0010378352776696945 -0.0064035018998389896 0 -0.0016419926972224741 -0.0060196543513934718 0 -0.0010923863920430331 -0.0065469276316663643 0 -0.0019558739301948863 -0.0067774722496440586 0 -0.0020297328019048661 -0.0071466160584709344 0 -0.0020618869027377766 -0.0069717815601900634 0 -0.002097279004664626 -0.0069094639028794199 0 -0.0019558739301948863 -0.0067774722496440586 0 -0.0020618869027377766 -0.0069717815601900634 0 -0.0019558739301948863 -0.0067774722496440586 0 -0.0020444509983436566 -0.0070378115634695858 0 -0.0019558739301948863 -0.0067774722496440586 0 -0.0020444509983436566 -0.0070378115634695858 0 -0.0020297328019048661 -0.0071466160584709344 0 -0.002041271691083642 -0.0070874432356903324 0 -0.0020618869027377766 -0.0069717815601900634 0 -0.0020444509983436566 -0.0070378115634695858 0 -0.0014977895146154427 -0.0032436308464178802 0 -0.0016419926972224741 -0.0060196543513934718 0 -0.0013895322401362485 -0.0028785102452028666 0 -0.0015502232382944194 -0.0047161439575908416 0 -0.0014802169191208987 -0.0037600533512017666 0 -0.0015502232382944194 -0.0047161439575908416 0 -0.0014802169191208987 -0.0037600533512017666 0 -0.0013491602851065914 -0.0044241239734975537 0 -0.00095532977859440465 -0.0052168755753062039 0 -0.0015502232382944194 -0.0047161439575908416 0 -0.0013491602851065914 -0.0044241239734975537 0 6.8245145910388406e-07 -0.0080116381108286568 0 0.00024221514079365985 -0.0066506857273767152 0 0.00043660672442827537 -0.0074950754191106138 0 6.8245145910388406e-07 -0.0080116381108286568 0 0.00043660672442827537 -0.0074950754191106138 0 0.00039913587458234676 -0.0086483132999538286 0 6.8245145910388406e-07 -0.0080116381108286568 0 0.00024221514079365985 -0.0066506857273767152 0 5.2902148688272676e-07 -0.005970320137904681 0 0.00024221514079365985 -0.0066506857273767152 0 1.6051779517417984e-05 -0.0052461641090594136 0 6.1106168121218777e-05 -0.0064062376228482881 0 0.00024221514079365985 -0.0066506857273767152 0 5.2902148688272676e-07 -0.005970320137904681 0 1.6051779517417984e-05 -0.0052461641090594136 0 -9.2970759611599099e-07 -0.0039292379448837688 0 5.2902148688272676e-07 -0.005970320137904681 0 1.6051779517417984e-05 -0.0052461641090594136 0 -0.00029330738152856078 -0.0055611684684048913 0 1.6051779517417984e-05 -0.0052461641090594136 0 6.1106168121218777e-05 -0.0064062376228482881 0 -0.00029330738152856078 -0.0055611684684048913 0 -0.00042609670170204537 -0.0062045828896197678 0 6.1106168121218777e-05 -0.0064062376228482881 0 -0.00042609670170204537 -0.0062045828896197678 0 -0.00020561199741020073 -0.0071513291037189472 0 6.1106168121218777e-05 -0.0064062376228482881 0 -0.00020561199741020073 -0.0071513291037189472 0 6.1106168121218777e-05 -0.0064062376228482881 0 0.0003083559144450414 -0.0071981196375300776 0 -0.00020561199741020073 -0.0071513291037189472 0 0.0003083559144450414 -0.0071981196375300776 0 0.00021125578134358671 -0.0077623534927382621 0 0.00024221514079365985 -0.0066506857273767152 0 6.1106168121218777e-05 -0.0064062376228482881 0 0.0003083559144450414 -0.0071981196375300776 0 0.0003083559144450414 -0.0071981196375300776 0 0.00052555311465456395 -0.0076949190150537271 0 0.00043660672442827537 -0.0074950754191106138 0 0.00024221514079365985 -0.0066506857273767152 0 0.0003083559144450414 -0.0071981196375300776 0 0.00043660672442827537 -0.0074950754191106138 0 0.0003083559144450414 -0.0071981196375300776 0 0.00052555311465456395 -0.0076949190150537271 0 0.00021125578134358671 -0.0077623534927382621 0 0.00052555311465456395 -0.0076949190150537271 0 0.00066572536483570888 -0.0084443456553192492 0 0.00087477273846813073 -0.0078812727899940059 0 0.00052555311465456395 -0.0076949190150537271 0 0.00061902588371593088 -0.0079042797129348138 0 0.00087477273846813073 -0.0078812727899940059 0 0.00061902588371593088 -0.0079042797129348138 0 0.00043660672442827537 -0.0074950754191106138 0 0.00039913587458234676 -0.0086483132999538286 0 0.00052555311465456395 -0.0076949190150537271 0 0.00061902588371593088 -0.0079042797129348138 0 0.00043660672442827537 -0.0074950754191106138 0 0.00018155709525314345 -0.0092310668631499851 0 0.00095377614655303407 -0.010860154132614784 0 0.0013405779060637079 -0.0095781493596541218 0 0.00066572536483570888 -0.0084443456553192492 0 0.00018155709525314345 -0.0092310668631499851 0 0.0013405779060637079 -0.0095781493596541218 0 0.00066572536483570888 -0.0084443456553192492 0 0.00021125578134358671 -0.0077623534927382621 0 0.00018155709525314345 -0.0092310668631499851 0 0.00024370656134010583 -0.0079174521853398842 0 0.00065577667315488877 -0.0088061826102251578 0 0.00052555311465456395 -0.0076949190150537271 0 0.00066572536483570888 -0.0084443456553192492 0 0.00021125578134358671 -0.0077623534927382621 0 0.0010431428606852593 -0.0083199203514259055 0 8.976060630470312e-05 -0.0081499037610174834 0 0.00020627691841529857 -0.0090862721848901044 0 0.00021125578134358671 -0.0077623534927382621 0 0.0010431428606852593 -0.0083199203514259055 0 8.976060630470312e-05 -0.0081499037610174834 0 -0.00020561199741020073 -0.0071513291037189472 0 0.00021125578134358671 -0.0077623534927382621 0 8.976060630470312e-05 -0.0081499037610174834 0 -0.00020561199741020073 -0.0071513291037189472 0 8.976060630470312e-05 -0.0081499037610174834 0 -0.00051113399669926814 -0.0080276321537635104 0 -0.00020561199741020073 -0.0071513291037189472 0 -0.00051113399669926814 -0.0080276321537635104 0 -0.00068947803636390656 -0.0073965087573739765 0 8.976060630470312e-05 -0.0081499037610174834 0 -0.00051113399669926814 -0.0080276321537635104 0 -0.00046928819317701372 -0.0088691320619038814 0 -0.00051113399669926814 -0.0080276321537635104 0 -0.00046928819317701372 -0.0088691320619038814 0 -0.0011669453572988361 -0.0085696795880806573 0 -0.00046928819317701372 -0.0088691320619038814 0 -0.00094544686219477365 -0.0094445574331769623 0 -0.00013749777379391991 -0.010389986529242192 0 -0.00041214704909105855 -0.010229185397849234 0 0.00022725199467730985 -0.010794537676400342 0 -0.00046928819317701372 -0.0088691320619038814 0 0.00020627691841529857 -0.0090862721848901044 0 -0.00013749777379391991 -0.010389986529242192 0 0.00020627691841529857 -0.0090862721848901044 0 0.00090398130271448292 -0.010058338552412829 0 -0.00013749777379391991 -0.010389986529242192 0 8.976060630470312e-05 -0.0081499037610174834 0 -0.00046928819317701372 -0.0088691320619038814 0 0.00020627691841529857 -0.0090862721848901044 0 0.0010431428606852593 -0.0083199203514259055 0 0.00020627691841529857 -0.0090862721848901044 0 0.00090398130271448292 -0.010058338552412829 0 0.00090398130271448292 -0.010058338552412829 0 0.0018810466756811696 -0.0094339038293589257 0 0.0016801307168451123 -0.010923681746144689 0 0.0010431428606852593 -0.0083199203514259055 0 0.00090398130271448292 -0.010058338552412829 0 0.0018810466756811696 -0.0094339038293589257 0 0.00065577667315488877 -0.0088061826102251578 0 0.0014267520376046027 -0.0101333295571597 0 -0.002093616144987159 -0.0074004508447921445 0 -0.0017019078640735251 -0.0073730796386726393 0 -0.0019278302175348881 -0.0076145088291278322 0 -0.002093616144987159 -0.0074004508447921445 0 -0.0019278302175348881 -0.0076145088291278322 0 -0.0023668323051873339 -0.0075576218474802219 0 -0.002093616144987159 -0.0074004508447921445 0 -0.0021172818474013387 -0.0073538967588347767 0 -0.0023668323051873339 -0.0075576218474802219 0 -0.0019351473458403161 -0.0072096211570813066 0 -0.0021172818474013387 -0.0073538967588347767 0 -0.0019310525945313516 -0.0070651857545425455 0 -0.0019351473458403161 -0.0072096211570813066 0 -0.0021172818474013387 -0.0073538967588347767 0 -0.0020579894074399699 -0.0072513595016484413 0 -0.002093616144987159 -0.0074004508447921445 0 -0.0021172818474013387 -0.0073538967588347767 0 -0.0020579894074399699 -0.0072513595016484413 0 -0.0020579894074399699 -0.0072513595016484413 0 -0.0020479888711007477 -0.0071475585075735362 0 -0.0020297328019048661 -0.0071466160584709344 0 -0.0019811619737733067 -0.0071787885255796512 0 -0.0020579894074399699 -0.0072513595016484413 0 -0.0020479888711007477 -0.0071475585075735362 0 -0.002041271691083642 -0.0070874432356903324 0 -0.0020444509983436566 -0.0070378115634695858 0 -0.0020479888711007477 -0.0071475585075735362 0 -0.0020444509983436566 -0.0070378115634695858 0 -0.0020479888711007477 -0.0071475585075735362 0 -0.0020297328019048661 -0.0071466160584709344 0 -0.002093616144987159 -0.0074004508447921445 0 -0.0020297328019048661 -0.0071466160584709344 0 -0.0017019078640735251 -0.0073730796386726393 0 -0.002093616144987159 -0.0074004508447921445 0 -0.0020579894074399699 -0.0072513595016484413 0 -0.0020297328019048661 -0.0071466160584709344 0 -0.0010923863920430331 -0.0065469276316663643 0 -0.0017019078640735251 -0.0073730796386726393 0 -0.0011244739516600144 -0.0076323666436954951 0 -0.0010923863920430331 -0.0065469276316663643 0 -0.0020297328019048661 -0.0071466160584709344 0 -0.0017019078640735251 -0.0073730796386726393 0 -0.0010923863920430331 -0.0065469276316663643 0 -0.00068947803636390656 -0.0073965087573739765 0 -0.0011244739516600144 -0.0076323666436954951 0 -0.0010923863920430331 -0.0065469276316663643 0 -0.00020561199741020073 -0.0071513291037189472 0 -0.00068947803636390656 -0.0073965087573739765 0 -0.0011244739516600144 -0.0076323666436954951 0 -0.0015407793415951701 -0.0078032363295918936 0 -0.0011669453572988361 -0.0085696795880806573 0 -0.00051113399669926814 -0.0080276321537635104 0 -0.0011244739516600144 -0.0076323666436954951 0 -0.0011669453572988361 -0.0085696795880806573 0 -0.00051113399669926814 -0.0080276321537635104 0 -0.00068947803636390656 -0.0073965087573739765 0 -0.0011244739516600144 -0.0076323666436954951 0 -0.0017019078640735251 -0.0073730796386726393 0 -0.0011244739516600144 -0.0076323666436954951 0 -0.0015407793415951701 -0.0078032363295918936 0 -0.0017019078640735251 -0.0073730796386726393 0 -0.0015407793415951701 -0.0078032363295918936 0 -0.0019278302175348881 -0.0076145088291278322 0 -0.0015407793415951701 -0.0078032363295918936 0 -0.0019278302175348881 -0.0076145088291278322 0 -0.0017095898388328893 -0.0081435753001424891 0 -0.0019278302175348881 -0.0076145088291278322 0 -0.0017095898388328893 -0.0081435753001424891 0 -0.0023668323051873339 -0.0075576218474802219 0 -0.0017095898388328893 -0.0081435753001424891 0 -0.0017563422357002459 -0.008425255559792082 0 -0.0023668323051873339 -0.0075576218474802219 0 -0.0019628870543856626 -0.0084503671983394858 0 -0.0026658019706521392 -0.0075335791670071992 0 -0.0018723497336291424 -0.0082875286985173383 0 -0.0019628870543856626 -0.0084503671983394858 0 -0.0017095898388328893 -0.0081435753001424891 0 -0.0017946337762838346 -0.0085426840760279635 0 -0.0011669453572988361 -0.0085696795880806573 0 -0.0015407793415951701 -0.0078032363295918936 0 -0.0017095898388328893 -0.0081435753001424891 0 -0.0011669453572988361 -0.0085696795880806573 0 -0.00046928819317701372 -0.0088691320619038814 0 -0.0011669453572988361 -0.0085696795880806573 0 -0.00094544686219477365 -0.0094445574331769623 0 -0.0019628870543856626 -0.0084503671983394858 0 -0.00041214704909105855 -0.010229185397849234 0 -0.0017946337762838346 -0.0085426840760279635 0 -0.0011669453572988361 -0.0085696795880806573 0 -0.00094544686219477365 -0.0094445574331769623 0 -0.0010367301106573722 -0.01022170141989788 0 -0.00021175281941445846 -0.010678609413935424 0 -0.00073782995207388128 -0.010945923804729453 0 -0.00021175281941445846 -0.010678609413935424 0 -0.00073782995207388128 -0.010945923804729453 0 -0.00045150376035107633 -0.011138469090400357 0 -0.0019628870543856626 -0.0084503671983394858 0 -0.0023211740090978939 -0.0082711713965768468 0 -0.0010367301106573722 -0.01022170141989788 0 -0.00073782995207388128 -0.010945923804729453 0 -0.0011398046566300018 -0.011266678677872764 0 -0.0035087975527744461 -0.007098859977876442 0 -0.0029249330728548248 -0.0061860127872717802 0 -0.0034445806357792175 -0.0053281833318570629 0 -0.0029249330728548248 -0.0061860127872717802 0 -0.0024359736051708927 -0.0062948520057818152 0 -0.0026254127129429305 -0.0054719817956641282 0 -0.0029249330728548248 -0.0061860127872717802 0 -0.0024359736051708927 -0.0062948520057818152 0 -0.0026842458749123813 -0.0067486754134179977 0 -0.0035087975527744461 -0.007098859977876442 0 -0.0029249330728548248 -0.0061860127872717802 0 -0.0026842458749123813 -0.0067486754134179977 0 -0.0035087975527744461 -0.007098859977876442 0 -0.0026842458749123813 -0.0067486754134179977 0 -0.0023668323051873339 -0.0075576218474802219 0 -0.0024359736051708927 -0.0062948520057818152 0 -0.0026842458749123813 -0.0067486754134179977 0 -0.0022043711831541851 -0.0070136573207116911 0 -0.0026842458749123813 -0.0067486754134179977 0 -0.0023668323051873339 -0.0075576218474802219 0 -0.0022043711831541851 -0.0070136573207116911 0 -0.0021172818474013387 -0.0073538967588347767 0 -0.0023668323051873339 -0.0075576218474802219 0 -0.0022043711831541851 -0.0070136573207116911 0 -0.0021172818474013387 -0.0073538967588347767 0 -0.0019310525945313516 -0.0070651857545425455 0 -0.0022043711831541851 -0.0070136573207116911 0 -0.0019310525945313516 -0.0070651857545425455 0 -0.0022043711831541851 -0.0070136573207116911 0 -0.0019858011326827699 -0.0065424382811805583 0 -0.0017208654630013927 -0.006754293383201557 0 -0.0019310525945313516 -0.0070651857545425455 0 -0.0019858011326827699 -0.0065424382811805583 0 -0.0017208654630013927 -0.006754293383201557 0 -0.0015011609647639333 -0.0060300947314845419 0 -0.0019858011326827699 -0.0065424382811805583 0 -0.0024359736051708927 -0.0062948520057818152 0 -0.0022043711831541851 -0.0070136573207116911 0 -0.0019858011326827699 -0.0065424382811805583 0 -0.0024359736051708927 -0.0062948520057818152 0 -0.0019858011326827699 -0.0065424382811805583 0 -0.0020742845204097535 -0.0058848356328962985 0 -0.0024359736051708927 -0.0062948520057818152 0 -0.0020742845204097535 -0.0058848356328962985 0 -0.0026254127129429305 -0.0054719817956641282 0 -0.0015011609647639333 -0.0060300947314845419 0 -0.0019858011326827699 -0.0065424382811805583 0 -0.0020742845204097535 -0.0058848356328962985 0 -0.0015011609647639333 -0.0060300947314845419 0 -0.0020742845204097535 -0.0058848356328962985 0 -0.0019101338722490079 -0.004979303501140825 0 -0.0012522188282871533 -0.0060586476352429853 0 -0.0019349011237856785 -0.0050105781776794249 0 -0.0020742845204097535 -0.0058848356328962985 0 -0.0019101338722490079 -0.004979303501140825 0 -0.0026254127129429305 -0.0054719817956641282 0 -0.0019101338722490079 -0.004979303501140825 0 -0.0026254127129429305 -0.0054719817956641282 0 -0.0026633193849945488 -0.0045920042786397773 0 -0.0029249330728548248 -0.0061860127872717802 0 -0.0026254127129429305 -0.0054719817956641282 0 -0.0034445806357792175 -0.0053281833318570629 0 -0.0026254127129429305 -0.0054719817956641282 0 -0.0026633193849945488 -0.0045920042786397773 0 -0.0034445806357792175 -0.0053281833318570629 0 -0.0026633193849945488 -0.0045920042786397773 0 -0.0031745944195976498 -0.0034622423789446096 0 -0.0034445806357792175 -0.0053281833318570629 0 -0.0026633193849945488 -0.0045920042786397773 0 -0.0021379882852869893 -0.0037550158938847561 0 -0.0031745944195976498 -0.0034622423789446096 0 -0.0019101338722490079 -0.004979303501140825 0 -0.0021379882852869893 -0.0037550158938847561 0 -0.0015765078166138338 -0.0042781161152846943 0 -0.0019101338722490079 -0.004979303501140825 0 -0.0026633193849945488 -0.0045920042786397773 0 -0.0021379882852869893 -0.0037550158938847561 0 -0.0012941410268877979 -0.0033253058313104031 0 -0.0021379882852869893 -0.0037550158938847561 0 -0.0015765078166138338 -0.0042781161152846943 0 -0.0012941410268877979 -0.0033253058313104031 0 -0.0021379882852869893 -0.0037550158938847561 0 -0.001804019834981093 -0.0030510375955054652 0 -0.0021379882852869893 -0.0037550158938847561 0 -0.001804019834981093 -0.0030510375955054652 0 -0.0023112326858189649 -0.0028984547873076904 0 -0.001804019834981093 -0.0030510375955054652 0 -0.0023112326858189649 -0.0028984547873076904 0 -0.0018970972259005998 -0.0026677587584034092 0 -0.0015400785088536106 -0.0027723079598261711 0 -0.001804019834981093 -0.0030510375955054652 0 -0.0018970972259005998 -0.0026677587584034092 0 -0.0021379882852869893 -0.0037550158938847561 0 -0.0023112326858189649 -0.0028984547873076904 0 -0.0031745944195976498 -0.0034622423789446096 0 -0.0031745944195976498 -0.0034622423789446096 0 -0.0024885972117613337 -0.0021531530004959562 0 -0.0027122731410337666 -0.001930074300790035 0 -0.0012408821247948546 -0.012003878456423688 0 -0.0010214849244886478 -0.012678304859691984 0 -0.0013702316786966978 -0.0128744693248504 0 -0.0022521612710616778 -0.0080167657844901416 0 -0.0017569985622991596 -0.0061826890056347469 0 -0.0023112326858189649 -0.0028984547873076904 0 -0.0031745944195976498 -0.0034622423789446096 0 -0.0024885972117613337 -0.0021531530004959562 0 -0.0023112326858189649 -0.0028984547873076904 0 -0.0024885972117613337 -0.0021531530004959562 0 -0.0021204720511627138 -0.0022471396810183324 0 -0.0024885972117613337 -0.0021531530004959562 0 -0.0021204720511627138 -0.0022471396810183324 0 -0.0022886094855253765 -0.0020405489400052153 0 -0.0018048693642411613 -0.0022613723954197059 0 -0.0021204720511627138 -0.0022471396810183324 0 -0.0018970972259005998 -0.0026677587584034092 0 -0.0023112326858189649 -0.0028984547873076904 0 -0.0021204720511627138 -0.0022471396810183324 0 -0.0018970972259005998 -0.0026677587584034092 0 -0.00033149444481855102 -0.012486974485755626 0 -0.000804355192827448 -0.012407861198517695 0 -0.00067755585497719564 -0.012874507759930331 0 -0.0012408821247948546 -0.012003878456423688 0 -0.0010214849244886478 -0.012678304859691984 0 -0.000804355192827448 -0.012407861198517695 0 -0.0010214849244886478 -0.012678304859691984 0 -0.000804355192827448 -0.012407861198517695 0 -0.00067755585497719564 -0.012874507759930331 0 -0.0012408821247948546 -0.012003878456423688 0 -0.000804355192827448 -0.012407861198517695 0 -0.00076475355344052893 -0.011833063672062301 0 -0.00033149444481855102 -0.012486974485755626 0 -0.00076475355344052893 -0.011833063672062301 0 -0.00024832423100059519 -0.011971473320571137 0 -0.00033149444481855102 -0.012486974485755626 0 -0.000804355192827448 -0.012407861198517695 0 -0.00076475355344052893 -0.011833063672062301 0 -0.00076475355344052893 -0.011833063672062301 0 -0.00081063314480179973 -0.011402100720862752 0 -0.00024832423100059519 -0.011971473320571137 0 -0.00081063314480179973 -0.011402100720862752 0 -2.4924432678631829e-05 -0.011521136715989031 0 -9.4596097226449074e-05 -0.012469437824195908 0 -0.00077617824963992362 -0.011445394766088532 0 -0.00017118111438066354 -0.012211182737363102 0 -0.0022521612710616778 -0.0080167657844901416 0 -0.0023211740090978939 -0.0082711713965768468 0 -0.0012408821247948546 -0.012003878456423688 0 -0.00076475355344052893 -0.011833063672062301 0 -0.0011398046566300018 -0.011266678677872764 0 -0.00076475355344052893 -0.011833063672062301 0 -0.00081063314480179973 -0.011402100720862752 0 -0.0011398046566300018 -0.011266678677872764 0 -0.00073782995207388128 -0.010945923804729453 0 -0.00081063314480179973 -0.011402100720862752 0 -0.0011398046566300018 -0.011266678677872764 0 -0.00021175281941445846 -0.010678609413935424 0 -0.00045150376035107633 -0.011138469090400357 0 -2.4924432678631829e-05 -0.011521136715989031 0 -0.00081063314480179973 -0.011402100720862752 0 -0.00045150376035107633 -0.011138469090400357 0 -2.4924432678631829e-05 -0.011521136715989031 0 -0.00073782995207388128 -0.010945923804729453 0 -0.00081063314480179973 -0.011402100720862752 0 -0.00045150376035107633 -0.011138469090400357 0 -2.4924432678631829e-05 -0.011521136715989031 0 0.00064008357219162194 -0.011234122411263651 0 0.000695347683415388 -0.012255433170321075 0 -0.00021175281941445846 -0.010678609413935424 0 -2.4924432678631829e-05 -0.011521136715989031 0 0.00064008357219162194 -0.011234122411263651 0 0.00064008357219162194 -0.011234122411263651 0 0.000695347683415388 -0.012255433170321075 0 0.00141066621482503 -0.011836206588534992 0 0.00022725199467730985 -0.010794537676400342 0 0.0011812707898464924 -0.011654986435125863 0 -2.4924432678631829e-05 -0.011521136715989031 0 0.000695347683415388 -0.012255433170321075 0 -9.4596097226449074e-05 -0.012469437824195908 0 0.00141066621482503 -0.011836206588534992 0 0.001473224168664519 -0.012973208072443291 0 0.0020792243732749164 -0.012404433091134075 0 0.000695347683415388 -0.012255433170321075 0 0.00141066621482503 -0.011836206588534992 0 0.001473224168664519 -0.012973208072443291 0 0.0016801307168451123 -0.010923681746144689 0 0.00089083874101398924 -0.011444074352714865 0 0.0020792243732749164 -0.012404433091134075 0 0.00090398130271448292 -0.010058338552412829 0 0.0016801307168451123 -0.010923681746144689 0 0.00089083874101398924 -0.011444074352714865 0 0.00090398130271448292 -0.010058338552412829 0 -0.00013749777379391991 -0.010389986529242192 0 0.00089083874101398924 -0.011444074352714865 0 0.0011812707898464924 -0.011654986435125863 0 0.0020350525640489524 -0.01233314130032955 0 0.001473224168664519 -0.012973208072443291 0 0.0022234342200235734 -0.013224935754712905 0 0.0020792243732749164 -0.012404433091134075 0 0.001473224168664519 -0.012973208072443291 0 0.00063503883315972924 -0.013309054532186577 0 0.0013029477486036132 -0.01345961697655473 0 0.001473224168664519 -0.012973208072443291 0 0.0017894222221094224 -0.013717554669334329 0 0.0013029477486036132 -0.01345961697655473 0 0.001473224168664519 -0.012973208072443291 0 0.0017894222221094224 -0.013717554669334329 0 0.0022234342200235734 -0.013224935754712905 0 -0.00017118111438066354 -0.012211182737363102 0 0.0005474813578012571 -0.01302789164238974 0 0.000695347683415388 -0.012255433170321075 0 -9.4596097226449074e-05 -0.012469437824195908 0 0.00063503883315972924 -0.013309054532186577 0 0.000695347683415388 -0.012255433170321075 0 0.001473224168664519 -0.012973208072443291 0 0.00063503883315972924 -0.013309054532186577 0 -0.00033149444481855102 -0.012486974485755626 0 0.00045705957968013538 -0.012727766498296992 0 -0.00017608670541287448 -0.013239669393377196 0 -0.00033149444481855102 -0.012486974485755626 0 -0.00024832423100059519 -0.011971473320571137 0 0.00045705957968013538 -0.012727766498296992 0 0.00045705957968013538 -0.012727766498296992 0 -0.00017608670541287448 -0.013239669393377196 0 0.00038017319556087037 -0.013568592203990818 0 0.00045705957968013538 -0.012727766498296992 0 0.00038017319556087037 -0.013568592203990818 0 0.0011977105195898174 -0.013828515827261044 0 0.0005474813578012571 -0.01302789164238974 0 0.0011598332221995752 -0.01378480519778019 0 0.0011977105195898174 -0.013828515827261044 0 0.0012055443224341436 -0.014337965982973279 0 0.00041799058727661539 -0.014190426832499332 0 0.00038017319556087037 -0.013568592203990818 0 0.0011977105195898174 -0.013828515827261044 0 0.00041799058727661539 -0.014190426832499332 0 4.1101945907158324e-05 -0.013785388503042994 0 0.00038017319556087037 -0.013568592203990818 0 0.00041799058727661539 -0.014190426832499332 0 -0.00017608670541287448 -0.013239669393377196 0 4.1101945907158324e-05 -0.013785388503042994 0 0.00038017319556087037 -0.013568592203990818 0 -0.00017608670541287448 -0.013239669393377196 0 4.1101945907158324e-05 -0.013785388503042994 0 -0.00026323964795120822 -0.01362903935797055 0 0.00063503883315972924 -0.013309054532186577 0 0.0013029477486036132 -0.01345961697655473 0 0.0011977105195898174 -0.013828515827261044 0 0.0017894222221094224 -0.013717554669334329 0 0.0013029477486036132 -0.01345961697655473 0 0.0011977105195898174 -0.013828515827261044 0 0.0011977105195898174 -0.013828515827261044 0 0.0017470373962377571 -0.0141028877112772 0 0.0012055443224341436 -0.014337965982973279 0 0.0017894222221094224 -0.013717554669334329 0 0.0011977105195898174 -0.013828515827261044 0 0.0017470373962377571 -0.0141028877112772 0 0.0017470373962377571 -0.0141028877112772 0 0.0017359476606984695 -0.014470106856747041 0 0.0021974884225367717 -0.014233266047951366 0 0.0017894222221094224 -0.013717554669334329 0 0.0017470373962377571 -0.0141028877112772 0 0.0021974884225367717 -0.014233266047951366 0 0.0017470373962377571 -0.0141028877112772 0 0.0017359476606984695 -0.014470106856747041 0 0.0012055443224341436 -0.014337965982973279 0 0.0017359476606984695 -0.014470106856747041 0 0.0016861321131650348 -0.014737373269469611 0 0.0020440263128202458 -0.014688469039020741 0 0.0017359476606984695 -0.014470106856747041 0 0.0014583802948175443 -0.014608493316040758 0 0.0016861321131650348 -0.014737373269469611 0 0.0012055443224341436 -0.014337965982973279 0 0.0014583802948175443 -0.014608493316040758 0 0.0011820975794560196 -0.014901141781907028 0 0.0017359476606984695 -0.014470106856747041 0 0.0012055443224341436 -0.014337965982973279 0 0.0014583802948175443 -0.014608493316040758 0 0.0014583802948175443 -0.014608493316040758 0 0.0011820975794560196 -0.014901141781907028 0 0.0016861321131650348 -0.014737373269469611 0 0.0009384228418395067 -0.0099375426175097939 0 0.00012573140321205765 -0.0038319876712977338 0 0.00083218568966643934 -0.0052455271289557617 0 0.00099747801771623386 -0.0050811266239213643 0 0.00073060906880614862 -0.0048013070214093017 0 0.0011820975794560196 -0.014901141781907028 0 0.0016861321131650348 -0.014737373269469611 0 0.0019775838351935174 -0.015008878329930782 0 0.0009384228418395067 -0.0099375426175097939 0 0.00116953407078548 -0.0099199341652523136 0 0.0010770856012596794 -0.0051604767265082084 0 0.00026089108568579295 -0.0048073438906759483 0 0.00048975004758032895 -0.0045122050899256694 0 0.0016861321131650348 -0.014737373269469611 0 0.0019775838351935174 -0.015008878329930782 0 0.0020440263128202458 -0.014688469039020741 0 0.00011167353437154675 -0.014426662360281593 0 0.00041799058727661539 -0.014190426832499332 0 0.00047978377996011994 -0.014438245056712986 0 -0.001648656332144568 -0.0063335782776836264 0 -0.0011558537413175276 -0.0064820250278051364 0 0.00041102044563730739 -0.0084521078862803984 0 0.00040643179842152476 -0.0064571807073437052 0 -0.00053931261415307986 -0.0096768851886277173 0 0.00040643179842152476 -0.0064571807073437052 0 -0.0011596282803171027 -0.0039985282021705445 0 4.1101945907158324e-05 -0.013785388503042994 0 6.3692596083472593e-05 -0.014144829253270713 0 -0.00033586899344848219 -0.014132152926925472 0 0.00011167353437154675 -0.014426662360281593 0 6.3692596083472593e-05 -0.014144829253270713 0 -0.00033586899344848219 -0.014132152926925472 0 4.1101945907158324e-05 -0.013785388503042994 0 6.3692596083472593e-05 -0.014144829253270713 0 0.00041799058727661539 -0.014190426832499332 0 0.00011167353437154675 -0.014426662360281593 0 6.3692596083472593e-05 -0.014144829253270713 0 0.00041799058727661539 -0.014190426832499332 0 0.0012055443224341436 -0.014337965982973279 0 0.0011820975794560196 -0.014901141781907028 0 0.00041799058727661539 -0.014190426832499332 0 0.00071385981748482632 -0.014475213843912002 0 0.00041799058727661539 -0.014190426832499332 0 0.00047978377996011994 -0.014438245056712986 0 0.0009384228418395067 -0.0099375426175097939 0 0.00086762999427484255 -0.01582714541414449 0 0.00040643179842152476 -0.0064571807073437052 0 0.0003349042195994697 -0.0036220454489512789 0 -0.00033090512870315511 -0.0031915143799309642 0 -0.00036231481379929794 -0.0030703967474455625 0 -0.00038157576715651718 -0.0030512356065372542 0 0.0017589236801521949 -0.0055516343453730892 0 0.0012929853277854849 -0.0053989155349688633 0 0.0011442406304419406 -0.004887937635472581 0 0.00083218568966643934 -0.0052455271289557617 0 0.0012929853277854849 -0.0053989155349688633 0 0.00099747801771623386 -0.0050811266239213643 0 0.0009384228418395067 -0.0099375426175097939 0 0.0010956231403721009 -0.0098474866771071107 0 0.0012929853277854849 -0.0053989155349688633 0 0.00099747801771623386 -0.0050811266239213643 0 0.0011442406304419406 -0.004887937635472581 0 -0.0011596282803171027 -0.0039985282021705445 0 -0.00050664617115884646 -0.0025878381345565285 0 -0.00054599273353501347 -0.0024930748556725169 0 -0.00083628577528387755 -0.0022810192184003885 0 -0.00083157162144774312 -0.0026306705866519418 0 -0.00033090512870315511 -0.0031915143799309642 0 -0.00032003390320004877 -0.0031993907367895364 0 -0.00036231481379929794 -0.0030703967474455625 0 -0.00097390588336651585 -0.0018259384500886634 0 -0.00054599273353501347 -0.0024930748556725169 0 -0.00083628577528387755 -0.0022810192184003885 0 0.00040643179842152476 -0.0064571807073437052 0 0.0010956231403721009 -0.0098474866771071107 0 -0.00097390588336651585 -0.0018259384500886634 0 -0.00099554691244487241 -0.0021966701753935104 0 -0.0011168440351816957 -0.0020051327145128111 0 -0.00097390588336651585 -0.0018259384500886634 0 -0.00083628577528387755 -0.0022810192184003885 0 -0.00099554691244487241 -0.0021966701753935104 0 -0.00099554691244487241 -0.0021966701753935104 0 -0.0012780000010204342 -0.0021699011886541111 0 -0.00083157162144774312 -0.0026306705866519418 0 -0.00083628577528387755 -0.0022810192184003885 0 -0.00099554691244487241 -0.0021966701753935104 0 -0.00083157162144774312 -0.0026306705866519418 0 -0.0012780000010204342 -0.0021699011886541111 0 -0.0015472633266940489 -0.001965372534662408 0 -0.0016448345939619486 -0.0022947761775578305 0 -0.0012780000010204342 -0.0021699011886541111 0 -0.0013059105318423228 -0.001926148515246524 0 -0.0015472633266940489 -0.001965372534662408 0 -0.0012780000010204342 -0.0021699011886541111 0 -0.0011168440351816957 -0.0020051327145128111 0 -0.0013059105318423228 -0.001926148515246524 0 -0.00097390588336651585 -0.0018259384500886634 0 -0.0011168440351816957 -0.0020051327145128111 0 -0.0013059105318423228 -0.001926148515246524 0 -0.00099554691244487241 -0.0021966701753935104 0 -0.0012780000010204342 -0.0021699011886541111 0 -0.0011168440351816957 -0.0020051327145128111 0 -0.0019788417810277337 -0.0018456143734724608 0 -0.0018436448171040821 -0.0018203533507570127 0 -0.0020298372039296575 -0.0017395893671491493 0 -0.0011596282803171027 -0.0039985282021705445 0 -0.00053931261415307986 -0.0096768851886277173 0 -0.0017134006925250279 -0.0019910416393530317 0 -0.0019788417810277337 -0.0018456143734724608 0 -0.0018436448171040821 -0.0018203533507570127 0 -0.0011596282803171027 -0.0039985282021705445 0 -0.0018621380666348413 -0.0016467388785354367 0 -0.00097390588336651585 -0.0018259384500886634 0 -0.0013059105318423228 -0.001926148515246524 0 -0.0015398094256860119 -0.0016919747624590956 0 -0.0013059105318423228 -0.001926148515246524 0 -0.0015398094256860119 -0.0016919747624590956 0 -0.0015472633266940489 -0.001965372534662408 0 -0.0015398094256860119 -0.0016919747624590956 0 -0.0018031735871479216 -0.0018981668751102906 0 -0.0020031826333892265 -0.0016394985513584956 0 -0.0018621380666348413 -0.0016467388785354367 0 -0.0019178473323583928 -0.0016882257430769106 0 -0.0019788417810277337 -0.0018456143734724608 0 -0.0020031826333892265 -0.0016394985513584956 0 -0.0020298372039296575 -0.0017395893671491493 0 -0.0018031735871479216 -0.0018981668751102906 0 -0.0015472633266940489 -0.001965372534662408 0 -0.0016448345939619486 -0.0022947761775578305 0 -0.0018031735871479216 -0.0018981668751102906 0 -0.0018807868804815234 -0.0019879715214999477 0 -0.0016448345939619486 -0.0022947761775578305 0 -0.0015398094256860119 -0.0016919747624590956 0 -0.0018031735871479216 -0.0018981668751102906 0 -0.0015472633266940489 -0.001965372534662408 0 -0.0018031735871479216 -0.0018981668751102906 0 -0.0018807868804815234 -0.0019879715214999477 0 -0.001967814206939018 -0.0017706871087722292 0 -0.0018807868804815234 -0.0019879715214999477 0 -0.001967814206939018 -0.0017706871087722292 0 -0.0019992692359684094 -0.0019050480870590357 0 -0.0021085059795057956 -0.001631463221752068 0 -0.001967814206939018 -0.0017706871087722292 0 -0.0019992692359684094 -0.0019050480870590357 0 -0.002123254770137081 -0.0019578282726920885 0 -0.0021085059795057956 -0.001631463221752068 0 -0.0019992692359684094 -0.0019050480870590357 0 -0.0021085059795057956 -0.001631463221752068 0 -0.001967814206939018 -0.0017706871087722292 0 -0.0020503134194680434 -0.0015355845635492533 0 -0.001967814206939018 -0.0017706871087722292 0 -0.0020503134194680434 -0.0015355845635492533 0 -0.0020031826333892265 -0.0016394985513584956 0 -0.0018031735871479216 -0.0018981668751102906 0 -0.001967814206939018 -0.0017706871087722292 0 -0.0020031826333892265 -0.0016394985513584956 0 -0.0020503134194680434 -0.0015355845635492533 0 -0.0020031826333892265 -0.0016394985513584956 0 -0.0021227401455402315 -0.0015679940977848805 0 -0.0020031826333892265 -0.0016394985513584956 0 -0.0021421460226605572 -0.0016856226836571245 0 -0.0020713194456279476 -0.0017055331741641956 0 -0.0020031826333892265 -0.0016394985513584956 0 -0.0021421460226605572 -0.0016856226836571245 0 -0.0021227401455402315 -0.0015679940977848805 0 -0.0021227401455402315 -0.0015679940977848805 0 -0.0022016972505409034 -0.0017053824554822447 0 -0.0022134823462605525 -0.0017653984217943762 0 -0.0021421460226605572 -0.0016856226836571245 0 -0.0021227401455402315 -0.0015679940977848805 0 -0.0022016972505409034 -0.0017053824554822447 0 -0.0020618593560674798 -0.0011519754043882208 0 -0.0021227401455402315 -0.0015679940977848805 0 -0.0020514729574739174 -0.0017696365250360869 0 -0.0020618593560674798 -0.0011519754043882208 0 -0.0020503134194680434 -0.0015355845635492533 0 -0.0021227401455402315 -0.0015679940977848805 0 -0.0021227401455402315 -0.0015679940977848805 0 -0.0020514729574739174 -0.0017696365250360869 0 -0.0022134823462605525 -0.0017653984217943762 0 -0.0020514729574739174 -0.0017696365250360869 0 -0.0022073643790163798 -0.0018975329722282098 0 -0.0022134823462605525 -0.0017653984217943762 0 -0.0021204720511627138 -0.0022471396810183324 0 -0.0022073643790163798 -0.0018975329722282098 0 -0.0022886094855253765 -0.0020405489400052153 0 -0.0021204720511627138 -0.0022471396810183324 0 -0.0020514729574739174 -0.0017696365250360869 0 -0.0022073643790163798 -0.0018975329722282098 0 -0.0018048693642411613 -0.0022613723954197059 0 -0.0021204720511627138 -0.0022471396810183324 0 -0.0020514729574739174 -0.0017696365250360869 0 -0.0021421460226605572 -0.0016856226836571245 0 -0.0022914738621901197 -0.0017799720756011528 0 -0.0020467636134652105 -0.0016908904540391756 0 -0.0022967282719262082 -0.0017715725885424282 0 -0.0022914738621901197 -0.0017799720756011528 0 -0.0020467636134652105 -0.0016908904540391756 0 -0.0021421460226605572 -0.0016856226836571245 0 -0.0022016972505409034 -0.0017053824554822447 0 -0.0022914738621901197 -0.0017799720756011528 0 -0.0022016972505409034 -0.0017053824554822447 0 -0.0022134823462605525 -0.0017653984217943762 0 -0.0022914738621901197 -0.0017799720756011528 0 -0.0023199163925349082 -0.0019085336821270159 0 -0.0024577446141604595 -0.0019715013374252527 0 -0.0022914738621901197 -0.0017799720756011528 0 -0.0022134823462605525 -0.0017653984217943762 0 -0.0023199163925349082 -0.0019085336821270159 0 -0.0022914738621901197 -0.0017799720756011528 0 -0.0022073643790163798 -0.0018975329722282098 0 -0.0022134823462605525 -0.0017653984217943762 0 -0.0023199163925349082 -0.0019085336821270159 0 -0.0024885972117613337 -0.0021531530004959562 0 -0.0022886094855253765 -0.0020405489400052153 0 -0.0023199163925349082 -0.0019085336821270159 0 -0.0022073643790163798 -0.0018975329722282098 0 -0.0022886094855253765 -0.0020405489400052153 0 -0.0023199163925349082 -0.0019085336821270159 0 -0.0024885972117613337 -0.0021531530004959562 0 -0.0023199163925349082 -0.0019085336821270159 0 -0.0024577446141604595 -0.0019715013374252527 0 -0.0030832778300320068 -0.0038511898839416509 0 -0.0017569985622991596 -0.0061826890056347469 0 -0.0017569985622991596 -0.0061826890056347469 0 -0.0016209163049100148 -0.0033153984512807135 0 -0.0010214849244886478 -0.012678304859691984 0 -0.0013702316786966978 -0.0128744693248504 0 -0.0010506269623851282 -0.013124603561905391 0 -0.0010214849244886478 -0.012678304859691984 0 -0.0010506269623851282 -0.013124603561905391 0 -0.00067755585497719564 -0.012874507759930331 0 -0.0017569985622991596 -0.0061826890056347469 0 -0.0016969779754767626 -0.0072633660882994661 0 -0.0013702316786966978 -0.0128744693248504 0 -0.0010506269623851282 -0.013124603561905391 0 -0.00099423026312460265 -0.013197812417524902 0 -0.0010506269623851282 -0.013124603561905391 0 -0.00067755585497719564 -0.012874507759930331 0 -0.0005887893460420193 -0.013377635752215705 0 -0.00033149444481855102 -0.012486974485755626 0 -0.00017608670541287448 -0.013239669393377196 0 -0.00067755585497719564 -0.012874507759930331 0 -0.00017608670541287448 -0.013239669393377196 0 -0.00067755585497719564 -0.012874507759930331 0 -0.0005887893460420193 -0.013377635752215705 0 -0.00033586899344848219 -0.014132152926925472 0 -0.0010506269623851282 -0.013124603561905391 0 -0.0005887893460420193 -0.013377635752215705 0 -0.00033586899344848219 -0.014132152926925472 0 -0.0005887893460420193 -0.013377635752215705 0 -0.00026323964795120822 -0.01362903935797055 0 -0.00053931261415307986 -0.0096768851886277173 0 -0.0016969779754767626 -0.0072633660882994661 0 -0.00053931261415307986 -0.0096768851886277173 0 -0.00070836432662808012 -0.01467850819496588 0 -0.00017608670541287448 -0.013239669393377196 0 -0.0005887893460420193 -0.013377635752215705 0 -0.00026323964795120822 -0.01362903935797055 0 4.1101945907158324e-05 -0.013785388503042994 0 -0.00033586899344848219 -0.014132152926925472 0 -0.00026323964795120822 -0.01362903935797055 0 -0.00072211042594898787 -0.013295673178627683 0 -0.0010506269623851282 -0.013124603561905391 0 -0.00099423026312460265 -0.013197812417524902 0 -0.0018436448171040821 -0.0018203533507570127 0 -0.0020298372039296575 -0.0017395893671491493 0 -0.0020467636134652105 -0.0016908904540391756 0 -0.0020031826333892265 -0.0016394985513584956 0 -0.0020298372039296575 -0.0017395893671491493 0 -0.0020713194456279476 -0.0017055331741641956 0 -0.0020298372039296575 -0.0017395893671491493 0 -0.0020713194456279476 -0.0017055331741641956 0 -0.0020467636134652105 -0.0016908904540391756 0 -0.0021421460226605572 -0.0016856226836571245 0 -0.0020713194456279476 -0.0017055331741641956 0 -0.0020467636134652105 -0.0016908904540391756 0 0.0022041367954942705 -0.01573999043264868 0 0.0019645431012739662 -0.015889155320933324 0 0.0019971623741742331 -0.015606466433850835 0 0.0022041367954942705 -0.01573999043264868 0 0.0019971623741742331 -0.015606466433850835 0 0.0022477156145806489 -0.015446410124795076 0 0.0022041367954942705 -0.01573999043264868 0 0.0024707335955590133 -0.015584869459276391 0 0.0022477156145806489 -0.015446410124795076 0 0.0024707335955590133 -0.015584869459276391 0 0.0023824648812499371 -0.015882846445620272 0 0.0027632974995746894 -0.015643755787877304 0 0.0024707335955590133 -0.015584869459276391 0 0.0025545409569773005 -0.015220495815054023 0 0.0027632974995746894 -0.015643755787877304 0 0.0022041367954942705 -0.01573999043264868 0 0.0024707335955590133 -0.015584869459276391 0 0.0023824648812499371 -0.015882846445620272 0 0.0031124736643030966 -0.014855777121570457 0 0.003000402342131555 -0.015099577945930014 0 0.0034689112308598992 -0.014129227848348663 0 0.003523639826784903 -0.01364251706412959 0 0.0036636166609692196 -0.013732932010753174 0 0.0023824648812499371 -0.015882846445620272 0 0.0027632974995746894 -0.015643755787877304 0 0.0024680422212492179 -0.016166405601061324 0 0.0023824648812499371 -0.015882846445620272 0 0.0022568336829616909 -0.016120911288145044 0 0.0024680422212492179 -0.016166405601061324 0 0.0023824648812499371 -0.015882846445620272 0 0.0022568336829616909 -0.016120911288145044 0 0.0021377980748297854 -0.015999926027881427 0 0.0022041367954942705 -0.01573999043264868 0 0.0023824648812499371 -0.015882846445620272 0 0.0021377980748297854 -0.015999926027881427 0 0.0022041367954942705 -0.01573999043264868 0 0.0021377980748297854 -0.015999926027881427 0 0.0019645431012739662 -0.015889155320933324 0 0.0021377980748297854 -0.015999926027881427 0 0.0019256509422008517 -0.01614103717273033 0 0.0020947387477560373 -0.016181225492704451 0 0.0022568336829616909 -0.016120911288145044 0 0.0021377980748297854 -0.015999926027881427 0 0.0020947387477560373 -0.016181225492704451 0 0.0021377980748297854 -0.015999926027881427 0 0.0019256509422008517 -0.01614103717273033 0 0.0019645431012739662 -0.015889155320933324 0 0.0019256509422008517 -0.01614103717273033 0 0.0018417337389246902 -0.016016575783812298 0 0.0019645431012739662 -0.015889155320933324 0 0.0017250642765616903 -0.016158966247545096 0 0.0018417337389246902 -0.016016575783812298 0 0.0016891278872312888 -0.015997004333791247 0 0.0019256509422008517 -0.01614103717273033 0 0.0017250642765616903 -0.016158966247545096 0 0.0018417337389246902 -0.016016575783812298 0 0.0018417337389246902 -0.016016575783812298 0 0.0019645431012739662 -0.015889155320933324 0 0.0017473099037440224 -0.015780442253603977 0 0.0018417337389246902 -0.016016575783812298 0 0.0016891278872312888 -0.015997004333791247 0 0.0017473099037440224 -0.015780442253603977 0 0.0014343892180906318 -0.016191655428828538 0 0.0015688918386527221 -0.016095622462383552 0 0.0015811069764949505 -0.016292919869875095 0 0.0014343892180906318 -0.016191655428828538 0 0.0015688918386527221 -0.016095622462383552 0 0.0014276637903013201 -0.016016698104588507 0 0.0017250642765616903 -0.016158966247545096 0 0.0015688918386527221 -0.016095622462383552 0 0.0015811069764949505 -0.016292919869875095 0 0.0017250642765616903 -0.016158966247545096 0 0.0015688918386527221 -0.016095622462383552 0 0.0016891278872312888 -0.015997004333791247 0 0.0015688918386527221 -0.016095622462383552 0 0.0016891278872312888 -0.015997004333791247 0 0.0015596597714011464 -0.015918187131218217 0 0.0016891278872312888 -0.015997004333791247 0 0.0015596597714011464 -0.015918187131218217 0 0.0017473099037440224 -0.015780442253603977 0 0.0015688918386527221 -0.016095622462383552 0 0.0015596597714011464 -0.015918187131218217 0 0.0014276637903013201 -0.016016698104588507 0 0.0015596597714011464 -0.015918187131218217 0 0.0014276637903013201 -0.016016698104588507 0 0.0013571368025962858 -0.01584371582516126 0 0.0015596597714011464 -0.015918187131218217 0 0.0015252608236424263 -0.015772171066807266 0 0.0013571368025962858 -0.01584371582516126 0 0.0015252608236424263 -0.015772171066807266 0 0.0013571368025962858 -0.01584371582516126 0 0.0013782198548931777 -0.015702533924749473 0 0.0015596597714011464 -0.015918187131218217 0 0.0015252608236424263 -0.015772171066807266 0 0.0017473099037440224 -0.015780442253603977 0 0.0015252608236424263 -0.015772171066807266 0 0.0015844199677667319 -0.015624656319526755 0 0.0017473099037440224 -0.015780442253603977 0 0.0015252608236424263 -0.015772171066807266 0 0.0015844199677667319 -0.015624656319526755 0 0.0013782198548931777 -0.015702533924749473 0 0.0015844199677667319 -0.015624656319526755 0 0.0014317509641324951 -0.015578095308408306 0 0.0013782198548931777 -0.015702533924749473 0 0.0019645431012739662 -0.015889155320933324 0 0.0017473099037440224 -0.015780442253603977 0 0.0019971623741742331 -0.015606466433850835 0 0.0015844199677667319 -0.015624656319526755 0 0.0017473099037440224 -0.015780442253603977 0 0.0017784698278758601 -0.015511108807768466 0 0.0017473099037440224 -0.015780442253603977 0 0.0019971623741742331 -0.015606466433850835 0 0.0017784698278758601 -0.015511108807768466 0 0.0019971623741742331 -0.015606466433850835 0 0.0017784698278758601 -0.015511108807768466 0 0.0019988825482787818 -0.015354990255101401 0 0.0017784698278758601 -0.015511108807768466 0 0.0015573406879629047 -0.015454189469525547 0 0.0017608376041810562 -0.015296785033823607 0 0.0017784698278758601 -0.015511108807768466 0 0.0019988825482787818 -0.015354990255101401 0 0.0017608376041810562 -0.015296785033823607 0 0.0014317509641324951 -0.015578095308408306 0 0.0015573406879629047 -0.015454189469525547 0 0.0013649584381062187 -0.01549005587165099 0 0.0015844199677667319 -0.015624656319526755 0 0.0014317509641324951 -0.015578095308408306 0 0.0015573406879629047 -0.015454189469525547 0 0.0015844199677667319 -0.015624656319526755 0 0.0017784698278758601 -0.015511108807768466 0 0.0015573406879629047 -0.015454189469525547 0 0.0015573406879629047 -0.015454189469525547 0 0.0014837792015880487 -0.015309387438185943 0 0.0017608376041810562 -0.015296785033823607 0 0.0014837792015880487 -0.015309387438185943 0 0.0012999178954937196 -0.015400930411577555 0 0.0013649584381062187 -0.01549005587165099 0 0.0015573406879629047 -0.015454189469525547 0 0.0014837792015880487 -0.015309387438185943 0 0.0013649584381062187 -0.01549005587165099 0 0.0014837792015880487 -0.015309387438185943 0 0.0017608376041810562 -0.015296785033823607 0 0.0017207808452760595 -0.015011343168645082 0 0.0014837792015880487 -0.015309387438185943 0 0.0012999178954937196 -0.015400930411577555 0 0.0013026453990779246 -0.015311046298625085 0 0.0014837792015880487 -0.015309387438185943 0 0.0014086904538011056 -0.015161672349128043 0 0.0017207808452760595 -0.015011343168645082 0 0.0014837792015880487 -0.015309387438185943 0 0.0014086904538011056 -0.015161672349128043 0 0.0013026453990779246 -0.015311046298625085 0 0.0017608376041810562 -0.015296785033823607 0 0.0020163830071898122 -0.01508637805226375 0 0.0017207808452760595 -0.015011343168645082 0 0.0019988825482787818 -0.015354990255101401 0 0.0017608376041810562 -0.015296785033823607 0 0.0020163830071898122 -0.01508637805226375 0 0.0020163830071898122 -0.01508637805226375 0 0.0023040894810311464 -0.01515240367728273 0 0.0022871251582093277 -0.01490245962639465 0 0.0019988825482787818 -0.015354990255101401 0 0.0020163830071898122 -0.01508637805226375 0 0.0023040894810311464 -0.01515240367728273 0 0.0019988825482787818 -0.015354990255101401 0 0.0023040894810311464 -0.01515240367728273 0 0.0022477156145806489 -0.015446410124795076 0 0.0019971623741742331 -0.015606466433850835 0 0.0019988825482787818 -0.015354990255101401 0 0.0022477156145806489 -0.015446410124795076 0 0.0024707335955590133 -0.015584869459276391 0 0.0022477156145806489 -0.015446410124795076 0 0.0025545409569773005 -0.015220495815054023 0 0.0023040894810311464 -0.01515240367728273 0 0.0022477156145806489 -0.015446410124795076 0 0.0025545409569773005 -0.015220495815054023 0 0.0023040894810311464 -0.01515240367728273 0 0.0025545409569773005 -0.015220495815054023 0 0.0026454753699427223 -0.014899359216820124 0 0.0023040894810311464 -0.01515240367728273 0 0.0026454753699427223 -0.014899359216820124 0 0.0022871251582093277 -0.01490245962639465 0 0.0026454753699427223 -0.014899359216820124 0 0.0028139936500474936 -0.014897187926534749 0 0.0029731450896238096 -0.014862083286240705 0 0.0028139936500474936 -0.014897187926534749 0 0.0029731450896238096 -0.014862083286240705 0 0.0024133288584966901 -0.014719792513526129 0 0.0025545409569773005 -0.015220495815054023 0 0.0026454753699427223 -0.014899359216820124 0 0.0029731450896238096 -0.014862083286240705 0 0.0025545409569773005 -0.015220495815054023 0 0.0029731450896238096 -0.014862083286240705 0 0.0027632974995746894 -0.015643755787877304 0 0.0019775838351935174 -0.015008878329930782 0 0.0024133288584966901 -0.014719792513526129 0 0.0025955874174192583 -0.015017894597836359 0 0.0019775838351935174 -0.015008878329930782 0 0.0024133288584966901 -0.014719792513526129 0 0.0020440263128202458 -0.014688469039020741 0 0.0028139936500474936 -0.014897187926534749 0 0.0024133288584966901 -0.014719792513526129 0 0.0025955874174192583 -0.015017894597836359 0 0.0029731450896238096 -0.014862083286240705 0 0.0024133288584966901 -0.014719792513526129 0 0.0026987259983459883 -0.014355540133564867 0 0.0024133288584966901 -0.014719792513526129 0 0.0021974884225367717 -0.014233266047951366 0 0.0026987259983459883 -0.014355540133564867 0 0.0017359476606984695 -0.014470106856747041 0 0.0020440263128202458 -0.014688469039020741 0 0.0021974884225367717 -0.014233266047951366 0 0.0024133288584966901 -0.014719792513526129 0 0.0020440263128202458 -0.014688469039020741 0 0.0021974884225367717 -0.014233266047951366 0 0.0017894222221094224 -0.013717554669334329 0 0.0021974884225367717 -0.014233266047951366 0 0.0024615041783175658 -0.013806829618017354 0 0.0021974884225367717 -0.014233266047951366 0 0.0026987259983459883 -0.014355540133564867 0 0.0024615041783175658 -0.013806829618017354 0 0.0026987259983459883 -0.014355540133564867 0 0.0024615041783175658 -0.013806829618017354 0 0.0030790257088161637 -0.013851663707261456 0 0.0024615041783175658 -0.013806829618017354 0 0.0030790257088161637 -0.013851663707261456 0 0.002828158808765237 -0.013356776320613878 0 0.0017894222221094224 -0.013717554669334329 0 0.0024615041783175658 -0.013806829618017354 0 0.0022234342200235734 -0.013224935754712905 0 0.0029866217323424055 -0.014896644739992762 0 0.0031124736643030966 -0.014855777121570457 0 0.0026987259983459883 -0.014355540133564867 0 0.0034689112308598992 -0.014129227848348663 0 0.0030790257088161637 -0.013851663707261456 0 0.0029731450896238096 -0.014862083286240705 0 0.0026987259983459883 -0.014355540133564867 0 0.0034689112308598992 -0.014129227848348663 0 0.0034689112308598992 -0.014129227848348663 0 0.0030790257088161637 -0.013851663707261456 0 0.003523639826784903 -0.01364251706412959 0 0.0030244399646495519 -0.013915653573712059 0 0.0037731677775794809 -0.013248060832947092 0 0.0030790257088161637 -0.013851663707261456 0 0.0032622730798247488 -0.013316578254069244 0 0.0037400566794769069 -0.013265207468979719 0 0.0032622730798247488 -0.013316578254069244 0 0.0035256848442814415 -0.013033445377354323 0 0.0037400566794769069 -0.013265207468979719 0 0.0030790257088161637 -0.013851663707261456 0 0.0032622730798247488 -0.013316578254069244 0 0.002828158808765237 -0.013356776320613878 0 0.0032622730798247488 -0.013316578254069244 0 0.0031406119220248204 -0.013097898463246544 0 0.002828158808765237 -0.013356776320613878 0 0.0032622730798247488 -0.013316578254069244 0 0.0031406119220248204 -0.013097898463246544 0 0.0035256848442814415 -0.013033445377354323 0 0.0031406119220248204 -0.013097898463246544 0 0.0027733567056251389 -0.012876194217429259 0 0.0032714807470389782 -0.012767448757284954 0 0.0031406119220248204 -0.013097898463246544 0 0.0035256848442814415 -0.013033445377354323 0 0.0032714807470389782 -0.012767448757284954 0 0.0035256848442814415 -0.013033445377354323 0 0.0037501306230794552 -0.012960439599218779 0 0.0037400566794769069 -0.013265207468979719 0 0.0035256848442814415 -0.013033445377354323 0 0.0037152330556220496 -0.012865847924457507 0 0.0037501306230794552 -0.012960439599218779 0 0.0035256848442814415 -0.013033445377354323 0 0.0037152330556220496 -0.012865847924457507 0 0.0032714807470389782 -0.012767448757284954 0 0.0022234342200235734 -0.013224935754712905 0 0.002828158808765237 -0.013356776320613878 0 0.0027733567056251389 -0.012876194217429259 0 0.0024615041783175658 -0.013806829618017354 0 0.0022234342200235734 -0.013224935754712905 0 0.002828158808765237 -0.013356776320613878 0 0.0031406119220248204 -0.013097898463246544 0 0.002828158808765237 -0.013356776320613878 0 0.0027733567056251389 -0.012876194217429259 0 0.0022234342200235734 -0.013224935754712905 0 0.0027733567056251389 -0.012876194217429259 0 0.0020792243732749164 -0.012404433091134075 0 0.0027733567056251389 -0.012876194217429259 0 0.0020792243732749164 -0.012404433091134075 0 0.002999487469175399 -0.0123389843703351 0 0.0027733567056251389 -0.012876194217429259 0 0.002999487469175399 -0.0123389843703351 0 0.0032714807470389782 -0.012767448757284954 0 0.0029216172796543765 -0.012222699091340453 0 0.0023178924467129949 -0.011391865237711719 0 0.002999487469175399 -0.0123389843703351 0 0.0021194595258196606 -0.012047022787143242 0 0.0030007076723896739 -0.011862926809991427 0 0.0020792243732749164 -0.012404433091134075 0 0.002999487469175399 -0.0123389843703351 0 0.0025764406014282025 -0.010809500260107286 0 0.0016801307168451123 -0.010923681746144689 0 0.0020792243732749164 -0.012404433091134075 0 0.0025764406014282025 -0.010809500260107286 0 0.0037152330556220496 -0.012865847924457507 0 0.0035188527054284251 -0.012684644939704491 0 0.0032714807470389782 -0.012767448757284954 0 0.0037152330556220496 -0.012865847924457507 0 0.0035188527054284251 -0.012684644939704491 0 0.0039886589579276191 -0.012981311252273208 0 0.002999487469175399 -0.0123389843703351 0 0.0035188527054284251 -0.012684644939704491 0 0.0032714807470389782 -0.012767448757284954 0 0.002999487469175399 -0.0123389843703351 0 0.0035279310348248498 -0.012453223413949987 0 0.0030007076723896739 -0.011862926809991427 0 0.002999487469175399 -0.0123389843703351 0 0.0035188527054284251 -0.012684644939704491 0 0.0035279310348248498 -0.012453223413949987 0 0.0035279310348248498 -0.012453223413949987 0 0.0039886589579276191 -0.012981311252273208 0 0.0039333921414594327 -0.012721892502301402 0 0.0035188527054284251 -0.012684644939704491 0 0.0035279310348248498 -0.012453223413949987 0 0.0039886589579276191 -0.012981311252273208 0 0.0039886589579276191 -0.012981311252273208 0 0.0042646434614489756 -0.01421820047428682 0 0.0039333921414594327 -0.012721892502301402 0 0.0039886589579276191 -0.012981311252273208 0 0.0037823744822099818 -0.013178797887984994 0 0.0042646434614489756 -0.01421820047428682 0 0.0030749723698184207 -0.013541054368035392 0 0.0024031713951911445 -0.014713300110751157 0 0.0042646434614489756 -0.01421820047428682 0 0.0037823744822099818 -0.013178797887984994 0 0.0030749723698184207 -0.013541054368035392 0 0.0042646434614489756 -0.01421820047428682 0 0.0037823744822099818 -0.013178797887984994 0 0.0030749723698184207 -0.013541054368035392 0 0.0032732720521124847 -0.012942537319401854 0 0.0036635692956880203 -0.012733144625109143 0 0.0037759503373354852 -0.012882047049216824 0 0.0037141192646878854 -0.012675350254763009 0 0.0037823744822099818 -0.013178797887984994 0 0.0032732720521124847 -0.012942537319401854 0 0.0036635692956880203 -0.012733144625109143 0 0.0037823744822099818 -0.013178797887984994 0 0.0036635692956880203 -0.012733144625109143 0 0.0038494069261822456 -0.012901443044938567 0 0.0036635692956880203 -0.012733144625109143 0 0.0038494069261822456 -0.012901443044938567 0 0.0037563089788338598 -0.012846807223817341 0 0.0032732720521124847 -0.012942537319401854 0 0.0036635692956880203 -0.012733144625109143 0 0.0029477468003780332 -0.012635399353794719 0 0.0036591088436006983 -0.012747165980631806 0 0.0029395323737479943 -0.013309025024217446 0 0.0039886589579276191 -0.012981311252273208 0 0.0037823744822099818 -0.013178797887984994 0 0.0038494069261822456 -0.012901443044938567 0 0.0037152330556220496 -0.012865847924457507 0 0.0039886589579276191 -0.012981311252273208 0 0.0038494069261822456 -0.012901443044938567 0 0.0037152330556220496 -0.012865847924457507 0 0.0038494069261822456 -0.012901443044938567 0 0.0037501306230794552 -0.012960439599218779 0 0.0037501306230794552 -0.012960439599218779 0 0.0037759503373354852 -0.012882047049216824 0 0.0037400566794769069 -0.013265207468979719 0 0.0037501306230794552 -0.012960439599218779 0 0.0037563089788338598 -0.012846807223817341 0 0.0037759503373354852 -0.012882047049216824 0 0.0038494069261822456 -0.012901443044938567 0 0.0037501306230794552 -0.012960439599218779 0 0.0037563089788338598 -0.012846807223817341 0 0.0036635692956880203 -0.012733144625109143 0 0.0037563089788338598 -0.012846807223817341 0 0.0037759503373354852 -0.012882047049216824 0 0.003216095995147938 -0.014295574018391186 0 0.0029395323737479943 -0.013309025024217446 0 0.0021827077226672684 -0.016597715468270727 0 0.0020603548799395942 -0.016440414731044514 0 0.0019026931624073816 -0.016523090555730754 0 0.0021827077226672684 -0.016597715468270727 0 0.0021792255040355302 -0.016311321785553935 0 0.0024680422212492179 -0.016166405601061324 0 0.003216095995147938 -0.014295574018391186 0 0.003000402342131555 -0.015099577945930014 0 0.0021827077226672684 -0.016597715468270727 0 0.0020603548799395942 -0.016440414731044514 0 0.0021792255040355302 -0.016311321785553935 0 0.0020603548799395942 -0.016440414731044514 0 0.0021792255040355302 -0.016311321785553935 0 0.0019779651412453374 -0.016329082656938613 0 0.0020947387477560373 -0.016181225492704451 0 0.0021792255040355302 -0.016311321785553935 0 0.0019779651412453374 -0.016329082656938613 0 0.0022568336829616909 -0.016120911288145044 0 0.0020947387477560373 -0.016181225492704451 0 0.0021792255040355302 -0.016311321785553935 0 0.0022568336829616909 -0.016120911288145044 0 0.0021792255040355302 -0.016311321785553935 0 0.0024680422212492179 -0.016166405601061324 0 0.0038238734869785601 -0.013471561142404328 0 0.003523639826784903 -0.01364251706412959 0 0.0036636166609692196 -0.013732932010753174 0 0.003216095995147938 -0.014295574018391186 0 0.0037731677775794809 -0.013248060832947092 0 0.0015811069764949505 -0.016292919869875095 0 0.0017839356926039236 -0.016335484584103634 0 0.0015996744141220634 -0.016562525798320463 0 0.0015811069764949505 -0.016292919869875095 0 0.0015996744141220634 -0.016562525798320463 0 0.0014090854441844525 -0.016386164837389552 0 0.0014343892180906318 -0.016191655428828538 0 0.0015811069764949505 -0.016292919869875095 0 0.0014090854441844525 -0.016386164837389552 0 0.0017250642765616903 -0.016158966247545096 0 0.0015811069764949505 -0.016292919869875095 0 0.0017839356926039236 -0.016335484584103634 0 0.0019256509422008517 -0.01614103717273033 0 0.0017250642765616903 -0.016158966247545096 0 0.0017839356926039236 -0.016335484584103634 0 0.0019256509422008517 -0.01614103717273033 0 0.0019779651412453374 -0.016329082656938613 0 0.0017839356926039236 -0.016335484584103634 0 0.0019256509422008517 -0.01614103717273033 0 0.0020947387477560373 -0.016181225492704451 0 0.0019779651412453374 -0.016329082656938613 0 0.0020603548799395942 -0.016440414731044514 0 0.0019779651412453374 -0.016329082656938613 0 0.0019026931624073816 -0.016523090555730754 0 0.0019779651412453374 -0.016329082656938613 0 0.0017839356926039236 -0.016335484584103634 0 0.0019026931624073816 -0.016523090555730754 0 0.0017839356926039236 -0.016335484584103634 0 0.0019026931624073816 -0.016523090555730754 0 0.0015996744141220634 -0.016562525798320463 0 0.0019026931624073816 -0.016523090555730754 0 0.0015996744141220634 -0.016562525798320463 0 0.001828629684244566 -0.01683810907561754 0 0.003216095995147938 -0.014295574018391186 0 0.001847701733552863 -0.015940534002624396 0 0.0021827077226672684 -0.016597715468270727 0 0.0019026931624073816 -0.016523090555730754 0 0.001828629684244566 -0.01683810907561754 0 0.0015996744141220634 -0.016562525798320463 0 0.0015644709090523433 -0.016816295416549446 0 0.001828629684244566 -0.01683810907561754 0 0.0015996744141220634 -0.016562525798320463 0 0.0014090854441844525 -0.016386164837389552 0 0.0013428270091551497 -0.016568060242030065 0 0.0015996744141220634 -0.016562525798320463 0 0.0013428270091551497 -0.016568060242030065 0 0.0013414334135236465 -0.016802508641306536 0 0.0015996744141220634 -0.016562525798320463 0 0.0015644709090523433 -0.016816295416549446 0 0.0013414334135236465 -0.016802508641306536 0 0.0011534589434270099 -0.015461105098859961 0 0.0021804463527752239 -0.01474128446559224 0 0.0013849082690158998 -0.01561688668374547 0 0.0015644709090523433 -0.016816295416549446 0 0.0014921732557302315 -0.017057982733425386 0 0.001828629684244566 -0.01683810907561754 0 0.0014032781121319337 -0.016186555661804724 0 0.001847701733552863 -0.015940534002624396 0 0.0015644709090523433 -0.016816295416549446 0 0.0014921732557302315 -0.017057982733425386 0 0.0013414334135236465 -0.016802508641306536 0 0.0031978917513560746 -0.014037947642452872 0 0.0025731969439376431 -0.015012717888765821 0 0.0021804463527752239 -0.01474128446559224 0 0.0025731969439376431 -0.015012717888765821 0 0.0021804463527752239 -0.01474128446559224 0 0.0013849082690158998 -0.01561688668374547 0 0.0029592532711825463 -0.012377209315725774 0 0.0026814202790268324 -0.012736000259333224 0 0.00055536222474156292 -0.013200089179521068 0 0.0029395323737479943 -0.013309025024217446 0 0.00073440811285557632 -0.014326958127635802 0 0.0030749723698184207 -0.013541054368035392 0 0.0032732720521124847 -0.012942537319401854 0 0.0026814202790268324 -0.012736000259333224 0 0.0032732720521124847 -0.012942537319401854 0 0.0029477468003780332 -0.012635399353794719 0 0.0026814202790268324 -0.012736000259333224 0 0.0029395323737479943 -0.013309025024217446 0 0.0029829853195124834 -0.013092512539076022 0 0.0026814202790268324 -0.012736000259333224 0 0.0018254993541822009 -0.013756504319481253 0 0.00055536222474156292 -0.013200089179521068 0 0.0018254993541822009 -0.013756504319481253 0 0.00027157686362061127 -0.015556048224607764 0 0.0024031713951911445 -0.014713300110751157 0 0.0030749723698184207 -0.013541054368035392 0 0.0026814202790268324 -0.012736000259333224 0 0.0018254993541822009 -0.013756504319481253 0 0.0030749723698184207 -0.013541054368035392 0 0.0018254993541822009 -0.013756504319481253 0 0.0024031713951911445 -0.014713300110751157 0 0.00055536222474156292 -0.013200089179521068 0 0.00027157686362061127 -0.015556048224607764 0 -0.0018616265196689846 -0.01429909046923172 0 0.0011534589434270099 -0.015461105098859961 0 0.0013849082690158998 -0.01561688668374547 0 0.00012281293259906585 -0.01621188266724069 0 0.0018254993541822009 -0.013756504319481253 0 0.00055536222474156292 -0.013200089179521068 0 0.00027157686362061127 -0.015556048224607764 0 0.0017402300665582547 -0.018577360880438043 0 0.0016201580926945964 -0.01894654994176732 0 0.0014241947673746395 -0.019058409124251548 0 0.0017402300665582547 -0.018577360880438043 0 0.0016201580926945964 -0.01894654994176732 0 0.0024483857048047679 -0.017330393418177575 0 0.0024483857048047679 -0.017330393418177575 0 0.0032630900769525769 -0.019160593052251578 0 0.0021750570008041712 -0.018886470042295395 0 0.0016201580926945964 -0.01894654994176732 0 0.0024483857048047679 -0.017330393418177575 0 0.0021750570008041712 -0.018886470042295395 0 0.00027157686362061127 -0.015556048224607764 0 0.0024483857048047679 -0.017330393418177575 0 0.0024031713951911445 -0.014713300110751157 0 0.00093599353634721727 -0.016978707161857634 0 0.0024642050235337953 -0.017483043831120416 0 0.0024483857048047679 -0.017330393418177575 0 0.0024031713951911445 -0.014713300110751157 0 0.0042646434614489756 -0.01421820047428682 0 0.0042646434614489756 -0.01421820047428682 0 0.0041722511115633906 -0.012356391651531776 0 0.0039333921414594327 -0.012721892502301402 0 0.0042646434614489756 -0.01421820047428682 0 0.0063426235496837598 -0.016329673139712085 0 0.0044602085967408861 -0.017880257289611286 0 0.0041300341015330939 -0.013916353583638172 0 0.0056884237895650095 -0.014756186599242807 0 0.0063426235496837598 -0.016329673139712085 0 0.0060300485669482571 -0.017987318497262161 0 0.0044602085967408861 -0.017880257289611286 0 0.0024483857048047679 -0.017330393418177575 0 0.0044602085967408861 -0.017880257289611286 0 0.0032630900769525769 -0.019160593052251578 0 0.0024483857048047679 -0.017330393418177575 0 0.0042646434614489756 -0.01421820047428682 0 0.0044602085967408861 -0.017880257289611286 0 0.0044602085967408861 -0.017880257289611286 0 0.0032630900769525769 -0.019160593052251578 0 0.0052764359372245787 -0.019682389057815813 0 0.0032630900769525769 -0.019160593052251578 0 0.0052764359372245787 -0.019682389057815813 0 0.0030864465302306537 -0.020683043094187833 0 0.0060300485669482571 -0.017987318497262161 0 0.0044602085967408861 -0.017880257289611286 0 0.0052764359372245787 -0.019682389057815813 0 0.0060300485669482571 -0.017987318497262161 0 0.0052764359372245787 -0.019682389057815813 0 0.0080703895716320254 -0.017937423182377538 0 -0.0014841190835821322 -0.0074155280697898764 0 -0.0012077905723352263 -0.0079194167695514784 0 -0.0017085115630953256 -0.0081484755477266874 0 -0.0014841190835821322 -0.0074155280697898764 0 -0.0012077905723352263 -0.0079194167695514784 0 -0.00084937360384035852 -0.0074906836614864305 0 -0.0014841190835821322 -0.0074155280697898764 0 -0.0023799764685990335 -0.0080717890996250038 0 -0.0017085115630953256 -0.0081484755477266874 0 0.0020205775453434062 -0.013534248540314603 0 0.00023853149688550342 -0.014107102494551778 0 0.0032630900769525769 -0.019160593052251578 0 0.0030864465302306537 -0.020683043094187833 0 0.0025161712601434391 -0.01988494726019607 0 0.0030864465302306537 -0.020683043094187833 0 0.0025161712601434391 -0.01988494726019607 0 0.002123306206215027 -0.02036738895811804 0 0.002123306206215027 -0.02036738895811804 0 0.0015699721675838051 -0.02026579926962584 0 0.0018731005861908755 -0.021137246952086696 0 0.002123306206215027 -0.02036738895811804 0 0.0015699721675838051 -0.02026579926962584 0 0.0017922721394571235 -0.019633477954361014 0 0.0025161712601434391 -0.01988494726019607 0 0.002123306206215027 -0.02036738895811804 0 0.0017922721394571235 -0.019633477954361014 0 0.0025161712601434391 -0.01988494726019607 0 0.0017922721394571235 -0.019633477954361014 0 0.0021750570008041712 -0.018886470042295395 0 0.0016201580926945964 -0.01894654994176732 0 0.0017922721394571235 -0.019633477954361014 0 0.0021750570008041712 -0.018886470042295395 0 0.0032630900769525769 -0.019160593052251578 0 0.0025161712601434391 -0.01988494726019607 0 0.0021750570008041712 -0.018886470042295395 0 0.00095377614655303407 -0.010860154132614784 0 0.0021440897044667472 -0.01086541482150217 0 0.0013405779060637079 -0.0095781493596541218 0 0.0014267520376046027 -0.0101333295571597 0 0.0023178924467129949 -0.011391865237711719 0 0.0018810466756811696 -0.0094339038293589257 0 0.0016801307168451123 -0.010923681746144689 0 0.0025764406014282025 -0.010809500260107286 0 0.00095377614655303407 -0.010860154132614784 0 0.0021194595258196606 -0.012047022787143242 0 0.0021440897044667472 -0.01086541482150217 0 0.0021194595258196606 -0.012047022787143242 0 0.0021440897044667472 -0.01086541482150217 0 0.0030007076723896739 -0.011862926809991427 0 0.0021440897044667472 -0.01086541482150217 0 0.0028862963050682671 -0.010759925345712585 0 0.0030007076723896739 -0.011862926809991427 0 0.0021440897044667472 -0.01086541482150217 0 0.0028862963050682671 -0.010759925345712585 0 0.0022659463864923568 -0.0098466131359009092 0 0.0028862963050682671 -0.010759925345712585 0 0.0036113291329651462 -0.011334985459501878 0 0.0030007076723896739 -0.011862926809991427 0 0.0036113291329651462 -0.011334985459501878 0 0.0041804210156107628 -0.01093926337965449 0 0.0031975764710088454 -0.0097505624789119196 0 0.0028862963050682671 -0.010759925345712585 0 0.0036113291329651462 -0.011334985459501878 0 0.0031975764710088454 -0.0097505624789119196 0 0.0035279310348248498 -0.012453223413949987 0 0.0030007076723896739 -0.011862926809991427 0 0.0035977051256862514 -0.012098620068462245 0 0.0036113291329651462 -0.011334985459501878 0 0.0030007076723896739 -0.011862926809991427 0 0.0035977051256862514 -0.012098620068462245 0 0.0035977051256862514 -0.012098620068462245 0 0.0039333921414594327 -0.012721892502301402 0 0.0038328130568496947 -0.011990605264365049 0 0.0035279310348248498 -0.012453223413949987 0 0.0035977051256862514 -0.012098620068462245 0 0.0039333921414594327 -0.012721892502301402 0 0.0041722511115633906 -0.012356391651531776 0 0.0039333921414594327 -0.012721892502301402 0 0.0038328130568496947 -0.011990605264365049 0 0.0041722511115633906 -0.012356391651531776 0 0.0038328130568496947 -0.011990605264365049 0 0.0037942668160199974 -0.011336301684829351 0 0.0063426235496837598 -0.016329673139712085 0 0.0060300485669482571 -0.017987318497262161 0 0.0080703895716320254 -0.017937423182377538 0 0.0056884237895650095 -0.014756186599242807 0 0.0031551226744172276 -0.012446021093748693 0 0.0036113291329651462 -0.011334985459501878 0 0.0038328130568496947 -0.011990605264365049 0 0.0037942668160199974 -0.011336301684829351 0 0.0036113291329651462 -0.011334985459501878 0 0.0035977051256862514 -0.012098620068462245 0 0.0038328130568496947 -0.011990605264365049 0 0.0038930702734305102 -0.011560808129550133 0 0.0031551226744172276 -0.012446021093748693 0 0.0020205775453434062 -0.013534248540314603 0 0.0031551226744172276 -0.012446021093748693 0 -0.0014841190835821322 -0.0074155280697898764 0 -0.00071096738053455847 -0.0069092679036332899 0 -0.00084937360384035852 -0.0074906836614864305 0 -0.00084937360384035852 -0.0074906836614864305 0 -0.00030183184597580982 -0.0076943902160254343 0 -0.00074045873400059169 -0.0080600632099317362 0 -0.0012077905723352263 -0.0079194167695514784 0 -0.00084937360384035852 -0.0074906836614864305 0 -0.00074045873400059169 -0.0080600632099317362 0 -0.00084937360384035852 -0.0074906836614864305 0 -0.00030183184597580982 -0.0076943902160254343 0 -0.00020852571865310142 -0.0072738013028176961 0 0.0031551226744172276 -0.012446021093748693 0 0.0010336929506240451 -0.0080306447361244686 0 -0.00071096738053455847 -0.0069092679036332899 0 -0.00084937360384035852 -0.0074906836614864305 0 -0.00020852571865310142 -0.0072738013028176961 0 0.0031975764710088454 -0.0097505624789119196 0 0.0022659463864923568 -0.0098466131359009092 0 0.0021054456295929542 -0.0086675190361205252 0 0.0028862963050682671 -0.010759925345712585 0 0.0031975764710088454 -0.0097505624789119196 0 0.0022659463864923568 -0.0098466131359009092 0 -0.00030183184597580982 -0.0076943902160254343 0 -0.00020852571865310142 -0.0072738013028176961 0 0.00031725340528280052 -0.0075920715059039252 0 -0.00030183184597580982 -0.0076943902160254343 0 0.00031725340528280052 -0.0075920715059039252 0 -5.373207832949705e-05 -0.008072640472165455 0 0.0010336929506240451 -0.0080306447361244686 0 0.0013001736033508081 -0.0082310918619238685 0 0.00066572536483570888 -0.0084443456553192492 0 0.0021054456295929542 -0.0086675190361205252 0 0.00087477273846813073 -0.0078812727899940059 0 0.00066572536483570888 -0.0084443456553192492 0 0.0021054456295929542 -0.0086675190361205252 0 0.0013405779060637079 -0.0095781493596541218 0 0.0013001736033508081 -0.0082310918619238685 0 0.00088685729721644873 -0.0078818570082441874 0 0.0022659463864923568 -0.0098466131359009092 0 0.0021054456295929542 -0.0086675190361205252 0 0.0013405779060637079 -0.0095781493596541218 0 0.0021440897044667472 -0.01086541482150217 0 0.0022659463864923568 -0.0098466131359009092 0 0.0013405779060637079 -0.0095781493596541218 0 0.00061902588371593088 -0.0079042797129348138 0 0.00043080488174026036 -0.0082621058874362881 0 0.00039913587458234676 -0.0086483132999538286 0 0.00061902588371593088 -0.0079042797129348138 0 0.00043080488174026036 -0.0082621058874362881 0 0.00087477273846813073 -0.0078812727899940059 0 0.00031725340528280052 -0.0075920715059039252 0 0.00087477273846813073 -0.0078812727899940059 0 -5.373207832949705e-05 -0.008072640472165455 0 0.00043080488174026036 -0.0082621058874362881 0 0.00087477273846813073 -0.0078812727899940059 0 -5.373207832949705e-05 -0.008072640472165455 0 0.00043080488174026036 -0.0082621058874362881 0 9.8764686230255046e-06 -0.0087569426304787163 0 0.00039913587458234676 -0.0086483132999538286 0 0.00043080488174026036 -0.0082621058874362881 0 -5.373207832949705e-05 -0.008072640472165455 0 9.8764686230255046e-06 -0.0087569426304787163 0 -5.373207832949705e-05 -0.008072640472165455 0 9.8764686230255046e-06 -0.0087569426304787163 0 -0.00053731318074012088 -0.0084795433067432341 0 9.8764686230255046e-06 -0.0087569426304787163 0 -0.00053731318074012088 -0.0084795433067432341 0 -0.00062309762865800117 -0.009390489016720429 0 -5.373207832949705e-05 -0.008072640472165455 0 -0.00053731318074012088 -0.0084795433067432341 0 -0.00074045873400059169 -0.0080600632099317362 0 -0.00030183184597580982 -0.0076943902160254343 0 -5.373207832949705e-05 -0.008072640472165455 0 -0.00074045873400059169 -0.0080600632099317362 0 -0.00053731318074012088 -0.0084795433067432341 0 -0.00074045873400059169 -0.0080600632099317362 0 -0.0012006102653574729 -0.0083491318041615439 0 -0.0012077905723352263 -0.0079194167695514784 0 -0.00074045873400059169 -0.0080600632099317362 0 -0.0012006102653574729 -0.0083491318041615439 0 -0.00053731318074012088 -0.0084795433067432341 0 -0.0012006102653574729 -0.0083491318041615439 0 -0.0010401614880607252 -0.008904376863571534 0 -0.00053731318074012088 -0.0084795433067432341 0 -0.0010401614880607252 -0.008904376863571534 0 -0.00062309762865800117 -0.009390489016720429 0 -0.0013673140487439422 -0.010136603974577073 0 -0.00062309762865800117 -0.009390489016720429 0 -0.0014593358037158703 -0.0094131783423839332 0 -0.0010401614880607252 -0.008904376863571534 0 -0.00062309762865800117 -0.009390489016720429 0 -0.0014593358037158703 -0.0094131783423839332 0 -0.0013673140487439422 -0.010136603974577073 0 -8.9566957421163444e-05 -0.011411746495847926 0 -0.00062309762865800117 -0.009390489016720429 0 0.00016957483298799407 -0.013104765904962193 0 -7.1915736069011061e-07 -0.012094775202086615 0 1.1281697743338177e-07 -0.014134400108213296 0 -0.00064757564328505202 -0.011421074008423106 0 -1.4297406768069295e-05 -0.011611016785324745 0 0.00016957483298799407 -0.013104765904962193 0 -7.1915736069011061e-07 -0.012094775202086615 0 -8.9566957421163444e-05 -0.011411746495847926 0 -8.9566957421163444e-05 -0.011411746495847926 0 -0.00062309762865800117 -0.009390489016720429 0 8.0798582978629937e-05 -0.0097631766539419025 0 -7.1915736069011061e-07 -0.012094775202086615 0 -8.9566957421163444e-05 -0.011411746495847926 0 5.316760135709425e-07 -0.010052287700481714 0 9.8764686230255046e-06 -0.0087569426304787163 0 -0.00062309762865800117 -0.009390489016720429 0 8.0798582978629937e-05 -0.0097631766539419025 0 9.8764686230255046e-06 -0.0087569426304787163 0 8.0798582978629937e-05 -0.0097631766539419025 0 0.00039913587458234676 -0.0086483132999538286 0 -8.9566957421163444e-05 -0.011411746495847926 0 8.0798582978629937e-05 -0.0097631766539419025 0 5.316760135709425e-07 -0.010052287700481714 0 8.0798582978629937e-05 -0.0097631766539419025 0 5.316760135709425e-07 -0.010052287700481714 0 0.00039913587458234676 -0.0086483132999538286 0 6.8245145910388406e-07 -0.0080116381108286568 0 5.316760135709425e-07 -0.010052287700481714 0 0.00039913587458234676 -0.0086483132999538286 0 0.00020261933154091844 -0.017338855390618888 0 6.5622499917205129e-05 -0.017081145946862643 0 0.00027594044999085325 -0.017637733923732048 0 0.00020261933154091844 -0.017338855390618888 0 6.5622499917205129e-05 -0.017081145946862643 0 0.00037789436972833674 -0.016299598099620411 0 -0.0017566021125566171 -0.01276712119853937 0 0.00045132368177592717 -0.017089527525474702 0 0.00020261933154091844 -0.017338855390618888 0 0.00014456821661158997 -0.017928442034068334 0 0.00027594044999085325 -0.017637733923732048 0 0.00020261933154091844 -0.017338855390618888 0 0.00014456821661158997 -0.017928442034068334 0 0.00011269933854860626 -0.018148731105205505 0 0.00019833750512677809 -0.017359236063947358 0 0.0002231370208157903 -0.017223007256679621 0 0.0030864465302306537 -0.020683043094187833 0 0.002123306206215027 -0.02036738895811804 0 0.0018731005861908755 -0.021137246952086696 0 -0.0025088088628574274 -0.0094079985209243738 0 -0.003378792874622671 -0.0088781409074476202 0 -0.0025928292237445598 -0.0087539434917563823 0 -0.0023799764685990335 -0.0080717890996250038 0 -0.003378792874622671 -0.0088781409074476202 0 -0.0025928292237445598 -0.0087539434917563823 0 0.00023853149688550342 -0.014107102494551778 0 0.00045132368177592717 -0.017089527525474702 0 -0.0025088088628574274 -0.0094079985209243738 0 -0.0025928292237445598 -0.0087539434917563823 0 -0.0021068472242631755 -0.0086652375017060683 0 -0.0023799764685990335 -0.0080717890996250038 0 -0.0025928292237445598 -0.0087539434917563823 0 -0.0021068472242631755 -0.0086652375017060683 0 -0.001709360407704356 -0.0084228348358240911 0 -0.0017438152604936053 -0.0083989146760757322 0 -0.0023799764685990335 -0.0080717890996250038 0 -0.0017085115630953256 -0.0081484755477266874 0 -0.0021068472242631755 -0.0086652375017060683 0 -0.0017085115630953256 -0.0081484755477266874 0 -0.0021068472242631755 -0.0086652375017060683 0 -0.0015815773137017835 -0.0091139911761501016 0 -0.0012077905723352263 -0.0079194167695514784 0 -0.0012006102653574729 -0.0083491318041615439 0 -0.0017085115630953256 -0.0081484755477266874 0 -0.0012006102653574729 -0.0083491318041615439 0 -0.0017085115630953256 -0.0081484755477266874 0 -0.0018494270211276594 -0.0086842418302814708 0 -0.0010401614880607252 -0.008904376863571534 0 -0.0018494270211276594 -0.0086842418302814708 0 -0.0014593358037158703 -0.0094131783423839332 0 -0.0017438152604936053 -0.0083989146760757322 0 -0.00089578671690712826 -0.012483229331006184 0 -0.0018494270211276594 -0.0086842418302814708 0 -0.0014593358037158703 -0.0094131783423839332 0 -0.0019668401964946301 -0.009436846065037436 0 -0.0012006102653574729 -0.0083491318041615439 0 -0.0010401614880607252 -0.008904376863571534 0 -0.0018494270211276594 -0.0086842418302814708 0 -0.0025088088628574274 -0.0094079985209243738 0 -0.0021068472242631755 -0.0086652375017060683 0 -0.0015815773137017835 -0.0091139911761501016 0 -0.0017566021125566171 -0.01276712119853937 0 -0.00089578671690712826 -0.012483229331006184 0 -0.0025088088628574274 -0.0094079985209243738 0 -0.0015815773137017835 -0.0091139911761501016 0 -0.0015447263459892199 -0.010044013206051859 0 6.5622499917205129e-05 -0.017081145946862643 0 -0.00075727798707532728 -0.016249307569887107 0 6.9978215482165517e-05 -0.016011385809249101 0 -0.0013673140487439422 -0.010136603974577073 0 -0.0014593358037158703 -0.0094131783423839332 0 -0.0019668401964946301 -0.009436846065037436 0 -0.00064757564328505202 -0.011421074008423106 0 -0.00089578671690712826 -0.012483229331006184 0 0.00016957483298799407 -0.013104765904962193 0 -0.00034311969123227527 -0.012847249929183437 0 1.1281697743338177e-07 -0.014134400108213296 0 -0.00089578671690712826 -0.012483229331006184 0 9.9923342952718903e-09 -0.01413986936473461 0 -2.1088810746284091e-06 -0.014139265228834005 0 1.3341151838503489e-06 -0.015739332166845633 0 6.9978215482165517e-05 -0.016011385809249101 0 -0.00075727798707532728 -0.016249307569887107 0 -2.1088810746284091e-06 -0.014139265228834005 0 6.9978215482165517e-05 -0.016011385809249101 0 1.3341151838503489e-06 -0.015739332166845633 0 6.9978215482165517e-05 -0.016011385809249101 0 0.00037789436972833674 -0.016299598099620411 0 6.5622499917205129e-05 -0.017081145946862643 0 6.9978215482165517e-05 -0.016011385809249101 0 0.00037789436972833674 -0.016299598099620411 0 0.00014456821661158997 -0.017928442034068334 0 0.00011269933854860626 -0.018148731105205505 0 0.00018514528111408598 -0.018312221736892606 0 0.00011269933854860626 -0.018148731105205505 0 -1.7477626222784255e-07 -0.017344898808446634 0 0.00018514528111408598 -0.018312221736892606 0 1.3341151838503489e-06 -0.015739332166845633 0 0.00037789436972833674 -0.016299598099620411 0 -6.2782265557432388e-07 -0.017339275557403878 0 0.0002231370208157903 -0.017223007256679621 0 1.3723996916150218e-07 -0.017341729139837798 0 -1.7477626222784255e-07 -0.017344898808446634 0 4.8578439447969266e-07 -0.018895632217903458 0 0.00018514528111408598 -0.018312221736892606 0 4.8578439447969266e-07 -0.018895632217903458 0 5.025424310196511e-05 -0.018964094103230755 0 -6.3929959803379213e-08 -0.020451119937441434 0 4.8578439447969266e-07 -0.018895632217903458 0 5.025424310196511e-05 -0.018964094103230755 0 0.00018514528111408598 -0.018312221736892606 0 5.025424310196511e-05 -0.018964094103230755 0 5.2797620095301932e-05 -0.018122787959899387 0 -0.00017293542981601279 -0.019336722728692531 0 0.00042175058114815903 -0.021103007520704379 0 -0.00012898671226540173 -0.021221839961088108 0 5.025424310196511e-05 -0.018964094103230755 0 0.00018514528111408598 -0.018312221736892606 0 5.2797620095301932e-05 -0.018122787959899387 0 0.00014456821661158997 -0.017928442034068334 0 0.00018514528111408598 -0.018312221736892606 0 5.2797620095301932e-05 -0.018122787959899387 0 0.00045132368177592717 -0.017089527525474702 0 0.00042175058114815903 -0.021103007520704379 0 0.00014456821661158997 -0.017928442034068334 0 0.00027594044999085325 -0.017637733923732048 0 5.2797620095301932e-05 -0.018122787959899387 0 0.0006227208895061326 -0.023281444102721472 0 0.00013601373302977998 -0.022764999019671873 0 0.0015319308178466046 -0.022163219911792462 0 0.0023949891856452788 -0.02187752816652937 0 0.0006227208895061326 -0.023281444102721472 0 0.0015319308178466046 -0.022163219911792462 0 0.0006227208895061326 -0.023281444102721472 0 0.00013601373302977998 -0.022764999019671873 0 -0.0001443025944736109 -0.023271217922234813 0 0.00091804429355331829 -0.021439360749098996 0 0.00080126116252148753 -0.021009825408268491 0 0.0012411656372025427 -0.02110919790031424 0 0.00045132368177592717 -0.017089527525474702 0 0.0017768677823993284 -0.021537548437829582 0 0.0015699721675838051 -0.02026579926962584 0 0.0018731005861908755 -0.021137246952086696 0 0.001169276424858059 -0.020498128455287777 0 0.0023949891856452788 -0.02187752816652937 0 0.0015319308178466046 -0.022163219911792462 0 0.0012411656372025427 -0.02110919790031424 0 0.00091804429355331829 -0.021439360749098996 0 0.0015319308178466046 -0.022163219911792462 0 0.0012411656372025427 -0.02110919790031424 0 0.00063233746794785404 -0.02213125589410353 0 0.0015280205816913717 -0.022173251893890494 0 0.00030514423676955723 -0.022288600158726728 0 0.00019318382300437178 -0.022459923423372739 0 -0.00015241255096415656 -0.02344981964615394 0 -7.5143976849198057e-05 -0.023559307019315731 0 0.00010827311703952629 -0.023917568308333911 0 0.00065554515500189489 -0.021115190051032049 0 0.0003749689897449256 -0.021058108598518917 0 0.00065069361995251449 -0.020782358055680426 0 0.00013601373302977998 -0.022764999019671873 0 -0.00015241255096415656 -0.02344981964615394 0 -0.0001443025944736109 -0.023271217922234813 0 0.00091804429355331829 -0.021439360749098996 0 0.00065554515500189489 -0.021115190051032049 0 0.00080126116252148753 -0.021009825408268491 0 0.00065554515500189489 -0.021115190051032049 0 0.00080126116252148753 -0.021009825408268491 0 0.00065069361995251449 -0.020782358055680426 0 0.00063233746794785404 -0.02213125589410353 0 0.00030514423676955723 -0.022288600158726728 0 -0.00015241255096415656 -0.02344981964615394 0 -0.0001443025944736109 -0.023271217922234813 0 -7.5143976849198057e-05 -0.023559307019315731 0 -0.00037758806349671948 -0.023344545979297381 0 -7.2339155449110885e-07 -0.022010231985498837 0 0.00015526677500125565 -0.0233479496493759 0 -7.5143976849198057e-05 -0.023559307019315731 0 -0.00037758806349671948 -0.023344545979297381 0 0.00015526677500125565 -0.0233479496493759 0 -0.0001443025944736109 -0.023271217922234813 0 -7.5143976849198057e-05 -0.023559307019315731 0 -0.00037758806349671948 -0.023344545979297381 0 0.0006227208895061326 -0.023281444102721472 0 -0.0001443025944736109 -0.023271217922234813 0 -0.00037758806349671948 -0.023344545979297381 0 5.025424310196511e-05 -0.018964094103230755 0 -0.00017293542981601279 -0.019336722728692531 0 -6.3929959803379213e-08 -0.020451119937441434 0 -0.00012898671226540173 -0.021221839961088108 0 2.5867662250005677e-07 -0.022005498450684821 0 -0.00017293542981601279 -0.019336722728692531 0 -6.3929959803379213e-08 -0.020451119937441434 0 -6.6923089802739733e-07 -0.022004342522956712 0 -7.2339155449110885e-07 -0.022010231985498837 0 9.4651556876526409e-07 -0.023840233185778058 0 0.00015526677500125565 -0.0233479496493759 0 9.4651556876526409e-07 -0.023840233185778058 0 0.000282551868198446 -0.023914490546578088 0 0.00015526677500125565 -0.0233479496493759 0 9.4651556876526409e-07 -0.023840233185778058 0 0.000282551868198446 -0.023914490546578088 0 0.00034741602541047063 -0.024536557491145031 0 -7.5143976849198057e-05 -0.023559307019315731 0 0.000282551868198446 -0.023914490546578088 0 0.00015526677500125565 -0.0233479496493759 0 9.4651556876526409e-07 -0.023840233185778058 0 3.6932635785999939e-07 -0.025675937600802928 0 0.00034741602541047063 -0.024536557491145031 0 3.6932635785999939e-07 -0.025675937600802928 0 0.00034741602541047063 -0.024536557491145031 0 0.00023724623092630684 -0.025089687391606146 0 0.00023724623092630684 -0.025089687391606146 0 0.00049550167502185913 -0.024331973042551129 0 5.3142934905739217e-05 -0.024222618640410129 0 0.00034741602541047063 -0.024536557491145031 0 0.00023724623092630684 -0.025089687391606146 0 0.00049550167502185913 -0.024331973042551129 0 0.000282551868198446 -0.023914490546578088 0 0.00034741602541047063 -0.024536557491145031 0 0.00038897210913360251 -0.024140632611100724 0 0.00034741602541047063 -0.024536557491145031 0 0.00049550167502185913 -0.024331973042551129 0 0.00038897210913360251 -0.024140632611100724 0 0.00049550167502185913 -0.024331973042551129 0 0.00038897210913360251 -0.024140632611100724 0 0.00035495823653421105 -0.024166799256182616 0 0.00049551228438408066 -0.022788681212806222 0 0.00035864695960480844 -0.023390828258941898 0 0.00049550167502185913 -0.024331973042551129 0 0.00146908257655454 -0.023533551411475225 0 0.00013399700970208442 -0.023338427373911844 0 0.0005238168734354355 -0.024486473759645678 0 0.00049551228438408066 -0.022788681212806222 0 0.00049550167502185913 -0.024331973042551129 0 0.00013399700970208442 -0.023338427373911844 0 5.3142934905739217e-05 -0.024222618640410129 0 -7.5143976849198057e-05 -0.023559307019315731 0 0.000282551868198446 -0.023914490546578088 0 0.00010827311703952629 -0.023917568308333911 0 0.000282551868198446 -0.023914490546578088 0 0.00038897210913360251 -0.024140632611100724 0 0.00010827311703952629 -0.023917568308333911 0 0.00038897210913360251 -0.024140632611100724 0 0.00035495823653421105 -0.024166799256182616 0 0.00010827311703952629 -0.023917568308333911 0 0.00049551228438408066 -0.022788681212806222 0 0.00019318382300437178 -0.022459923423372739 0 0.0003749689897449256 -0.021058108598518917 0 0.00036955328058577689 -0.020746478883321796 0 0.00065069361995251449 -0.020782358055680426 0 3.1400203553761836e-05 -0.021035429999036646 0 0.0003749689897449256 -0.021058108598518917 0 0.00036955328058577689 -0.020746478883321796 0 0.00050724691857906485 -0.022837816516490021 0 0.00061195397897440234 -0.021587825089487315 0 0.00028741642689820209 -0.022030431216834411 0 0.00050724691857906485 -0.022837816516490021 0 0.00091093409119230183 -0.021857142347929324 0 0.00061195397897440234 -0.021587825089487315 0 0.00049551228438408066 -0.022788681212806222 0 0.00059641718881770259 -0.021172263796914843 0 0.00091093409119230183 -0.021857142347929324 0 0.00061195397897440234 -0.021587825089487315 0 0.00081668872160267755 -0.021029416047201148 0 0.00091093409119230183 -0.021857142347929324 0 0.00081668872160267755 -0.021029416047201148 0 0.00084603597076816732 -0.02055856176744825 0 0.00059641718881770259 -0.021172263796914843 0 0.00081275935673482975 -0.020723657579486514 0 0.00013399700970208442 -0.023338427373911844 0 0.00028741642689820209 -0.022030431216834411 0 -0.0001199524670168577 -0.022594894052213974 0 0.00050724691857906485 -0.022837816516490021 0 0.00013399700970208442 -0.023338427373911844 0 0.00028741642689820209 -0.022030431216834411 0 0.00028741642689820209 -0.022030431216834411 0 -0.00043831012585456724 -0.021570065376581626 0 -0.00057153091523823134 -0.02201956812199362 0 0.00028101362991313276 -0.022088223453402285 0 -0.00032498055796731964 -0.022290084972330121 0 -0.00043831012585456724 -0.021570065376581626 0 -0.00015463135631074175 -0.021172438186872995 0 -0.00052879287129799874 -0.021239843195184363 0 0.00028741642689820209 -0.022030431216834411 0 -0.00043831012585456724 -0.021570065376581626 0 -0.00015463135631074175 -0.021172438186872995 0 0.00028741642689820209 -0.022030431216834411 0 -0.00015463135631074175 -0.021172438186872995 0 0.00039288557893169831 -0.020981698553024647 0 -0.00015463135631074175 -0.021172438186872995 0 0.00039288557893169831 -0.020981698553024647 0 -8.1006563267388545e-05 -0.020433933899435829 0 0.00039288557893169831 -0.020981698553024647 0 0.00041020122273973005 -0.020430442044340049 0 -8.1006563267388545e-05 -0.020433933899435829 0 -0.00015463135631074175 -0.021172438186872995 0 -0.00032828942790382733 -0.021051536628497867 0 -0.00052879287129799874 -0.021239843195184363 0 -0.00015463135631074175 -0.021172438186872995 0 -0.00032828942790382733 -0.021051536628497867 0 -0.00015983388502253642 -0.020919071732464947 0 -0.00032828942790382733 -0.021051536628497867 0 -0.00052879287129799874 -0.021239843195184363 0 -0.00052725119469648166 -0.020859090587917954 0 -4.8433399516037103e-05 -0.020703947497997838 0 -0.00080784238670211555 -0.021766555307067469 0 0.00081668872160267755 -0.021029416047201148 0 0.00069873141196021222 -0.020875385030617415 0 0.00085632725172554843 -0.020509943604360741 0 0.00061195397897440234 -0.021587825089487315 0 0.00081668872160267755 -0.021029416047201148 0 0.00069873141196021222 -0.020875385030617415 0 0.00061195397897440234 -0.021587825089487315 0 0.00069873141196021222 -0.020875385030617415 0 0.00039288557893169831 -0.020981698553024647 0 0.00061195397897440234 -0.021587825089487315 0 0.00028741642689820209 -0.022030431216834411 0 0.00039288557893169831 -0.020981698553024647 0 0.00069873141196021222 -0.020875385030617415 0 0.00039288557893169831 -0.020981698553024647 0 0.0006741134074452614 -0.020482592776406822 0 0.00039288557893169831 -0.020981698553024647 0 0.0006741134074452614 -0.020482592776406822 0 0.00041020122273973005 -0.020430442044340049 0 0.00069873141196021222 -0.020875385030617415 0 0.00085632725172554843 -0.020509943604360741 0 0.0006741134074452614 -0.020482592776406822 0 0.00085632725172554843 -0.020509943604360741 0 0.0006741134074452614 -0.020482592776406822 0 0.00079151458789013371 -0.020221032703082571 0 0.00085632725172554843 -0.020509943604360741 0 0.00090325149016431104 -0.020237328346628863 0 0.00092096814259188641 -0.020118249166218155 0 0.00085632725172554843 -0.020509943604360741 0 0.00090325149016431104 -0.020237328346628863 0 0.00079151458789013371 -0.020221032703082571 0 0.00090325149016431104 -0.020237328346628863 0 0.00092096814259188641 -0.020118249166218155 0 0.00093534880362902651 -0.020076457107503984 0 0.00085632725172554843 -0.020509943604360741 0 0.00092096814259188641 -0.020118249166218155 0 0.00084603597076816732 -0.02055856176744825 0 0.00081668872160267755 -0.021029416047201148 0 0.00085632725172554843 -0.020509943604360741 0 0.00084603597076816732 -0.02055856176744825 0 0.00092096814259188641 -0.020118249166218155 0 0.0009684138750348497 -0.02004614225990772 0 0.0010399316664596668 -0.019723735339605128 0 0.00092096814259188641 -0.020118249166218155 0 0.0009684138750348497 -0.02004614225990772 0 0.00084603597076816732 -0.02055856176744825 0 0.00092096814259188641 -0.020118249166218155 0 0.00096263417760823072 -0.019773760445020473 0 0.0010399316664596668 -0.019723735339605128 0 0.00092096814259188641 -0.020118249166218155 0 0.00093534880362902651 -0.020076457107503984 0 0.00096263417760823072 -0.019773760445020473 0 0.00093534880362902651 -0.020076457107503984 0 0.00096263417760823072 -0.019773760445020473 0 0.00096224149018796831 -0.019984399516995408 0 0.00096263417760823072 -0.019773760445020473 0 0.00079699520383387946 -0.019890383861888163 0 0.00090606019306997449 -0.019910762006540784 0 0.00094506268344957925 -0.019695509336046312 0 0.00061317986552218825 -0.018480339147521476 0 0.0011901338497102424 -0.019351868997578368 0 0.0013027226960581082 -0.0189383842159981 0 0.0012097057171002951 -0.019042813199896001 0 0.00096263417760823072 -0.019773760445020473 0 0.0011901338497102424 -0.019351868997578368 0 0.0012097057171002951 -0.019042813199896001 0 0.0011901338497102424 -0.019351868997578368 0 0.0012292007987336553 -0.01947630887758418 0 0.0010399316664596668 -0.019723735339605128 0 0.00096263417760823072 -0.019773760445020473 0 0.0011901338497102424 -0.019351868997578368 0 0.0010399316664596668 -0.019723735339605128 0 0.0017402300665582547 -0.018577360880438043 0 0.0014241947673746395 -0.019058409124251548 0 0.0013027226960581082 -0.0189383842159981 0 0.0011901338497102424 -0.019351868997578368 0 0.0014241947673746395 -0.019058409124251548 0 0.0013027226960581082 -0.0189383842159981 0 0.00093599353634721727 -0.016978707161857634 0 0.00050043195391012913 -0.017108501482419335 0 0.0011901338497102424 -0.019351868997578368 0 0.0014241947673746395 -0.019058409124251548 0 0.0012292007987336553 -0.01947630887758418 0 0.0016201580926945964 -0.01894654994176732 0 0.0014241947673746395 -0.019058409124251548 0 0.0012292007987336553 -0.01947630887758418 0 0.0016201580926945964 -0.01894654994176732 0 0.0012292007987336553 -0.01947630887758418 0 0.0012220528616056401 -0.019943402547330964 0 0.0012292007987336553 -0.01947630887758418 0 0.0009684138750348497 -0.02004614225990772 0 0.0012220528616056401 -0.019943402547330964 0 0.0012292007987336553 -0.01947630887758418 0 0.0009684138750348497 -0.02004614225990772 0 0.0010399316664596668 -0.019723735339605128 0 0.0009684138750348497 -0.02004614225990772 0 0.0012220528616056401 -0.019943402547330964 0 0.00087381916080634726 -0.020495969727838844 0 0.0016201580926945964 -0.01894654994176732 0 0.0017922721394571235 -0.019633477954361014 0 0.0012220528616056401 -0.019943402547330964 0 0.0015699721675838051 -0.02026579926962584 0 0.0017922721394571235 -0.019633477954361014 0 0.0012220528616056401 -0.019943402547330964 0 0.0015699721675838051 -0.02026579926962584 0 0.0012220528616056401 -0.019943402547330964 0 0.001169276424858059 -0.020498128455287777 0 0.00080126116252148753 -0.021009825408268491 0 0.0012411656372025427 -0.02110919790031424 0 0.00087381916080634726 -0.020495969727838844 0 0.0012220528616056401 -0.019943402547330964 0 0.001169276424858059 -0.020498128455287777 0 0.00087381916080634726 -0.020495969727838844 0 0.0017768677823993284 -0.021537548437829582 0 0.00058513352806914337 -0.020251628964132982 0 0.00080126116252148753 -0.021009825408268491 0 0.00087381916080634726 -0.020495969727838844 0 0.00065069361995251449 -0.020782358055680426 0 0.00036955328058577689 -0.020746478883321796 0 0.00065069361995251449 -0.020782358055680426 0 0.00084603597076816732 -0.02055856176744825 0 0.0009684138750348497 -0.02004614225990772 0 0.00087381916080634726 -0.020495969727838844 0 0.00084603597076816732 -0.02055856176744825 0 0.00087381916080634726 -0.020495969727838844 0 0.00065069361995251449 -0.020782358055680426 0 0.00084603597076816732 -0.02055856176744825 0 -3.0173432976244813e-08 -0.03499995735605884 0 -3.5020849000457231e-05 -0.034970200933328914 0 -6.8334119295543518e-06 -0.034995325057683074 0 -3.0173432976244813e-08 -0.03499995735605884 0 -3.5020849000457231e-05 -0.034970200933328914 0 -3.7352216175293091e-05 -0.034948102885620939 0 -3.5020849000457231e-05 -0.034970200933328914 0 -3.7352216175293091e-05 -0.034948102885620939 0 -0.00013578140539729751 -0.034905388021134208 0 -3.5020849000457231e-05 -0.034970200933328914 0 -0.00013578140539729751 -0.034905388021134208 0 -7.5716742011000012e-05 -0.034944654086385467 0 -3.7352216175293091e-05 -0.034948102885620939 0 -7.2422801690840834e-05 -0.034865501949343701 0 -0.00013578140539729751 -0.034905388021134208 0 -3.0173432976244813e-08 -0.03499995735605884 0 -3.7352216175293091e-05 -0.034948102885620939 0 -5.9117659955982536e-09 -0.03499981238208006 0 -3.7352216175293091e-05 -0.034948102885620939 0 -5.9117659955982536e-09 -0.03499981238208006 0 -7.2422801690840834e-05 -0.034865501949343701 0 -3.9650566353009549e-07 -0.03499971387334673 0 8.2148262162718821e-05 -0.035400744290950588 0 -2.2740650086588587e-08 -0.035000156034651196 0 -8.1482594511087905e-05 -0.03495918039566466 0 -0.0001656849697233291 -0.034978648455932841 0 2.7017710615767681e-07 -0.034998878775971957 0 6.2137240792665827e-05 -0.033071408785792802 0 -4.3937830170033572e-07 -0.030955683009147188 0 -2.2740650086588587e-08 -0.035000156034651196 0 -8.1482594511087905e-05 -0.03495918039566466 0 1.3823675090434294e-08 -0.034999772642181778 0 -8.1482594511087905e-05 -0.03495918039566466 0 1.3823675090434294e-08 -0.034999772642181778 0 -0.00018803841716945969 -0.034844667130506941 0 -1.1181386676744224e-07 -0.034999212755085531 0 2.7017710615767681e-07 -0.034998878775971957 0 6.2137240792665827e-05 -0.033071408785792802 0 1.0691096961361264e-08 -0.03499947045225929 0 0.00018066735146815089 -0.034225782956746248 0 -8.1482594511087905e-05 -0.03495918039566466 0 -0.00018803841716945969 -0.034844667130506941 0 -0.0001656849697233291 -0.034978648455932841 0 -0.00018803841716945969 -0.034844667130506941 0 -0.00061456384440619312 -0.034762136552747076 0 -0.0005488384919200629 -0.034902605266258609 0 -7.2422801690840834e-05 -0.034865501949343701 0 -0.00021147113497698716 -0.034781931589853321 0 -0.00013578140539729751 -0.034905388021134208 0 -0.00018803841716945969 -0.034844667130506941 0 -0.0001656849697233291 -0.034978648455932841 0 -0.0005488384919200629 -0.034902605266258609 0 8.2148262162718821e-05 -0.035400744290950588 0 -0.001267779475724453 -0.030846896121335267 0 0.00018066735146815089 -0.034225782956746248 0 -0.0010802914938320017 -0.031359736422481112 0 6.2137240792665827e-05 -0.033071408785792802 0 -4.3937830170033572e-07 -0.030955683009147188 0 -0.00011681101837925139 -0.031662817116896114 0 -0.00022677861592977879 -0.031273230588983979 0 -4.3937830170033572e-07 -0.030955683009147188 0 -0.00011681101837925139 -0.031662817116896114 0 -0.0003411307718504343 -0.030735330637416292 0 -4.6898699079509369e-07 -0.030523200980330865 0 -6.7187874584051456e-07 -0.030733514573132885 0 -4.5182075082578876e-10 -0.030951377920495841 0 -5.3073807791130577e-10 -0.030524278818171987 0 -0.0003411307718504343 -0.030735330637416292 0 -4.6687160398729111e-07 -0.030952434245897668 0 -0.00068550161501805106 -0.030747351993095012 0 -0.0007318001598443358 -0.030656190086495168 0 -0.00063686464062487846 -0.030652021381525812 0 -0.0003411307718504343 -0.030735330637416292 0 -0.0010802914938320017 -0.031359736422481112 0 -0.0010802914938320017 -0.031359736422481112 0 -0.0004350158656536169 -0.029863063000992684 0 -0.001267779475724453 -0.030846896121335267 0 -0.0024158591937046619 -0.02782352327677733 0 -0.0010802914938320017 -0.031359736422481112 0 -0.001267779475724453 -0.030846896121335267 0 -0.0023492483619950637 -0.026892258856208117 0 -0.0026014868117190133 -0.026374340479962923 0 -0.0019555155920200238 -0.026371201596944584 0 -0.0023492483619950637 -0.026892258856208117 0 -0.0019555155920200238 -0.026371201596944584 0 -0.0018829642871309392 -0.026877085890131647 0 -0.0026227116415265036 -0.026303986850237226 0 -0.0021519385185643889 -0.025923310128713607 0 -0.0019555155920200238 -0.026371201596944584 0 -0.0026227116415265036 -0.026303986850237226 0 -0.0021519385185643889 -0.025923310128713607 0 -0.0022487496421211613 -0.025387735952255366 0 -0.0026227116415265036 -0.026303986850237226 0 -0.0022487496421211613 -0.025387735952255366 0 -0.0031766153165330335 -0.024872703116300389 0 -0.0022487496421211613 -0.025387735952255366 0 -0.0031766153165330335 -0.024872703116300389 0 -0.0023487901625962085 -0.024562724428029589 0 -0.001267779475724453 -0.030846896121335267 0 -0.0016226529505182527 -0.029941242142070262 0 -0.0016226529505182527 -0.029941242142070262 0 -0.0020296592154003248 -0.028842127958317653 0 -0.0031766153165330335 -0.024872703116300389 0 -0.0027331586385217774 -0.023967711173433607 0 -0.0034713285962840994 -0.023735392996247738 0 -0.0031766153165330335 -0.024872703116300389 0 -0.0027331586385217774 -0.023967711173433607 0 -0.0023487901625962085 -0.024562724428029589 0 -0.0027331586385217774 -0.023967711173433607 0 -0.0023487901625962085 -0.024562724428029589 0 -0.0019203437483132249 -0.023703139779637516 0 -0.0023487901625962085 -0.024562724428029589 0 -0.0015755908500959812 -0.02463437075434434 0 -0.0019203437483132249 -0.023703139779637516 0 -0.0017446836345618951 -0.024284261637278596 0 -0.0018650524162865496 -0.02386649135280243 0 -0.001843825970741558 -0.024287317161109091 0 -0.0016018217270485509 -0.023783462613340051 0 -0.0019203437483132249 -0.023703139779637516 0 -0.001843825970741558 -0.024287317161109091 0 -0.0013547064133811457 -0.02418419970489705 0 -0.0016018217270485509 -0.023783462613340051 0 -0.0013547064133811457 -0.02418419970489705 0 -0.0011441424504640234 -0.02356801502104645 0 -0.0016018217270485509 -0.023783462613340051 0 -0.0013547064133811457 -0.02418419970489705 0 -0.00079906131375406982 -0.024047834882897402 0 -0.0011441424504640234 -0.02356801502104645 0 -0.0013547064133811457 -0.02418419970489705 0 -0.00077216411880251415 -0.024752739741281091 0 -0.00079906131375406982 -0.024047834882897402 0 -0.0014127605954619043 -0.023979225159543475 0 -0.0011217541150138294 -0.026280321978939963 0 -0.0013547064133811457 -0.02418419970489705 0 -0.0012014123218796718 -0.025249091379510345 0 -0.0019651284616031693 -0.025509835683145351 0 -0.0013547064133811457 -0.02418419970489705 0 -0.0012014123218796718 -0.025249091379510345 0 -0.00077216411880251415 -0.024752739741281091 0 -0.0012014123218796718 -0.025249091379510345 0 -0.00051967481997370767 -0.025819513051745117 0 -0.00077216411880251415 -0.024752739741281091 0 -0.0022487496421211613 -0.025387735952255366 0 -0.0015755908500959812 -0.02463437075434434 0 -0.0013200852186278104 -0.025630145163407479 0 -0.001843825970741558 -0.024287317161109091 0 -0.0013547064133811457 -0.02418419970489705 0 -0.0017252145828669583 -0.024939319710816695 0 -0.0017446836345618951 -0.024284261637278596 0 -0.0011217541150138294 -0.026280321978939963 0 -0.0022487496421211613 -0.025387735952255366 0 -0.0023487901625962085 -0.024562724428029589 0 -0.0015755908500959812 -0.02463437075434434 0 -0.0021519385185643889 -0.025923310128713607 0 -0.0022487496421211613 -0.025387735952255366 0 -0.0013200852186278104 -0.025630145163407479 0 2.3585588894202194e-06 -0.029818015453126095 0 1.3684816884138271e-05 -0.029881264616873623 0 2.3234907281431043e-05 -0.029881823685967406 0 -0.0013200852186278104 -0.025630145163407479 0 -0.0019555155920200238 -0.026371201596944584 0 -0.0018829642871309392 -0.026877085890131647 0 -0.0011217541150138294 -0.026280321978939963 0 -0.0006242399185767269 -0.028596150943763377 0 2.3585588894202194e-06 -0.029818015453126095 0 8.627349141509917e-06 -0.029894214514623315 0 2.3234907281431043e-05 -0.029881823685967406 0 -0.0021519385185643889 -0.025923310128713607 0 -0.0013200852186278104 -0.025630145163407479 0 -0.0019555155920200238 -0.026371201596944584 0 -0.0011217541150138294 -0.026280321978939963 0 -0.0004350158656536169 -0.029863063000992684 0 -0.00021119810309899398 -0.030051212217261789 0 -3.8510142197037621e-05 -0.029838944196808204 0 8.067639894454519e-05 -0.029925859827911606 0 -2.6535868549092731e-07 -0.030520501475634041 0 8.067639894454519e-05 -0.029925859827911606 0 2.478124026426597e-07 -0.029348586432917094 0 8.627349141509917e-06 -0.029894214514623315 0 8.067639894454519e-05 -0.029925859827911606 0 2.478124026426597e-07 -0.029348586432917094 0 -0.0003411307718504343 -0.030735330637416292 0 -0.0004350158656536169 -0.029863063000992684 0 -3.8510142197037621e-05 -0.029838944196808204 0 2.3234907281431043e-05 -0.029881823685967406 0 8.067639894454519e-05 -0.029925859827911606 0 -0.0004350158656536169 -0.029863063000992684 0 -0.00022271046846324878 -0.029861950813723101 0 8.627349141509917e-06 -0.029894214514623315 0 2.3234907281431043e-05 -0.029881823685967406 0 8.067639894454519e-05 -0.029925859827911606 0 -0.00021119810309899398 -0.030051212217261789 0 -2.6535868549092731e-07 -0.030520501475634041 0 8.067639894454519e-05 -0.029925859827911606 0 -0.0006242399185767269 -0.028596150943763377 0 -4.4949359677764454e-07 -0.029345515894764831 0 -0.0014772483098059988 -0.026971030004550971 0 -3.8130514535940936e-06 -0.029343033109767089 0 -0.0002200439114993224 -0.027244422782292235 0 -0.0012014123218796718 -0.025249091379510345 0 -0.0014772483098059988 -0.026971030004550971 0 -0.00051967481997370767 -0.025819513051745117 0 -0.0012014123218796718 -0.025249091379510345 0 -0.0019651284616031693 -0.025509835683145351 0 -0.0014772483098059988 -0.026971030004550971 0 -0.0014772483098059988 -0.026971030004550971 0 -0.00051967481997370767 -0.025819513051745117 0 -0.0002200439114993224 -0.027244422782292235 0 -0.00051967481997370767 -0.025819513051745117 0 4.1483920899114278e-05 -0.02616441479746457 0 -0.00020890928398921885 -0.024694817659098652 0 -0.00051967481997370767 -0.025819513051745117 0 -0.0002200439114993224 -0.027244422782292235 0 4.1483920899114278e-05 -0.02616441479746457 0 8.3953795658017851e-07 -0.027510495919358412 0 -0.0002200439114993224 -0.027244422782292235 0 4.1483920899114278e-05 -0.02616441479746457 0 -3.8130514535940936e-06 -0.029343033109767089 0 8.3953795658017851e-07 -0.027510495919358412 0 -0.0002200439114993224 -0.027244422782292235 0 3.6932635785999939e-07 -0.025675937600802928 0 8.3953795658017851e-07 -0.027510495919358412 0 4.1483920899114278e-05 -0.02616441479746457 0 3.6932635785999939e-07 -0.025675937600802928 0 0.00023724623092630684 -0.025089687391606146 0 4.1483920899114278e-05 -0.02616441479746457 0 0.00023724623092630684 -0.025089687391606146 0 4.1483920899114278e-05 -0.02616441479746457 0 -0.00020890928398921885 -0.024694817659098652 0 0.00023724623092630684 -0.025089687391606146 0 -0.00020890928398921885 -0.024694817659098652 0 5.3142934905739217e-05 -0.024222618640410129 0 -0.00051967481997370767 -0.025819513051745117 0 -0.00020890928398921885 -0.024694817659098652 0 -0.00077216411880251415 -0.024752739741281091 0 -0.00020890928398921885 -0.024694817659098652 0 -0.00077216411880251415 -0.024752739741281091 0 -0.00079906131375406982 -0.024047834882897402 0 -0.00020890928398921885 -0.024694817659098652 0 -0.00079906131375406982 -0.024047834882897402 0 -0.00042415336605421838 -0.023506842967080142 0 -0.00079906131375406982 -0.024047834882897402 0 -0.00042415336605421838 -0.023506842967080142 0 -0.0011441424504640234 -0.02356801502104645 0 -0.00020890928398921885 -0.024694817659098652 0 5.3142934905739217e-05 -0.024222618640410129 0 -0.00042415336605421838 -0.023506842967080142 0 0.00013399700970208442 -0.023338427373911844 0 5.3142934905739217e-05 -0.024222618640410129 0 -0.00042415336605421838 -0.023506842967080142 0 0.00013399700970208442 -0.023338427373911844 0 -0.00042415336605421838 -0.023506842967080142 0 -0.0001199524670168577 -0.022594894052213974 0 -0.00042415336605421838 -0.023506842967080142 0 -0.00096820061938915998 -0.022690628417050517 0 -0.0011441424504640234 -0.02356801502104645 0 -0.00042415336605421838 -0.023506842967080142 0 -0.00096820061938915998 -0.022690628417050517 0 -0.0001199524670168577 -0.022594894052213974 0 -0.0011467158682064746 -0.022465380494696333 0 -0.00032498055796731964 -0.022290084972330121 0 -0.0012512582180511504 -0.022220950445753868 0 -0.00057153091523823134 -0.02201956812199362 0 -0.00080446826372097097 -0.021650289491431444 0 -0.00043831012585456724 -0.021570065376581626 0 -0.00057153091523823134 -0.02201956812199362 0 -0.00080446826372097097 -0.021650289491431444 0 -0.00043831012585456724 -0.021570065376581626 0 -0.00080446826372097097 -0.021650289491431444 0 -0.00052879287129799874 -0.021239843195184363 0 -0.00052879287129799874 -0.021239843195184363 0 -0.00090220283241313924 -0.021087981492282526 0 -0.00052725119469648166 -0.020859090587917954 0 -0.00080446826372097097 -0.021650289491431444 0 -0.00052879287129799874 -0.021239843195184363 0 -0.00090220283241313924 -0.021087981492282526 0 -0.00080446826372097097 -0.021650289491431444 0 -0.0011754582327255952 -0.021519714677757314 0 -0.00090220283241313924 -0.021087981492282526 0 -0.0011754582327255952 -0.021519714677757314 0 -0.00090220283241313924 -0.021087981492282526 0 -0.0012328962697580792 -0.020989334561481787 0 -0.0011103972797062418 -0.021366756968917607 0 -0.0013703737592652596 -0.022160069793426863 0 -0.0012512582180511504 -0.022220950445753868 0 -0.00080446826372097097 -0.021650289491431444 0 -0.0011754582327255952 -0.021519714677757314 0 -0.0012512582180511504 -0.022220950445753868 0 -0.0017317035278133677 -0.021620901383263485 0 -0.0021663936998260244 -0.022633933312960011 0 -0.0012512582180511504 -0.022220950445753868 0 -0.0011754582327255952 -0.021519714677757314 0 -0.0017317035278133677 -0.021620901383263485 0 -0.0019501092657380403 -0.021955752687766717 0 -0.0013703737592652596 -0.022160069793426863 0 -0.0021884023801072676 -0.022423465035464819 0 -0.0022029777903655018 -0.022087710071860018 0 -0.0019413631856378072 -0.022172638159146937 0 -0.0011754582327255952 -0.021519714677757314 0 -0.0017317035278133677 -0.021620901383263485 0 -0.0012328962697580792 -0.020989334561481787 0 -0.0021884023801072676 -0.022423465035464819 0 -0.0023942488240776298 -0.022224610995675381 0 -0.0024036274570079634 -0.022455446600357205 0 -0.0021884023801072676 -0.022423465035464819 0 -0.0023942488240776298 -0.022224610995675381 0 -0.0022029777903655018 -0.022087710071860018 0 -0.0019501092657380403 -0.021955752687766717 0 -0.0023263604699035492 -0.022601757637076388 0 -0.0021884023801072676 -0.022423465035464819 0 -0.0024036274570079634 -0.022455446600357205 0 -0.0023334448657601962 -0.022644996706003982 0 -0.0017317035278133677 -0.021620901383263485 0 -0.0023334448657601962 -0.022644996706003982 0 -0.0021663936998260244 -0.022633933312960011 0 -0.0022737506535751469 -0.022938569535795969 0 -0.0017104933177147931 -0.02313734593045022 0 -0.0023655393434819944 -0.023243546271998691 0 -0.0023334448657601962 -0.022644996706003982 0 -0.0021663936998260244 -0.022633933312960011 0 -0.0022737506535751469 -0.022938569535795969 0 -0.0021663936998260244 -0.022633933312960011 0 -0.0022737506535751469 -0.022938569535795969 0 -0.0017104933177147931 -0.02313734593045022 0 -0.0011467158682064746 -0.022465380494696333 0 -0.0021275402701887661 -0.022591251179351214 0 -0.00096820061938915998 -0.022690628417050517 0 -0.0021663936998260244 -0.022633933312960011 0 -0.0017104933177147931 -0.02313734593045022 0 -0.00096820061938915998 -0.022690628417050517 0 -0.0017104933177147931 -0.02313734593045022 0 -0.0011441424504640234 -0.02356801502104645 0 -0.0017104933177147931 -0.02313734593045022 0 -0.0011441424504640234 -0.02356801502104645 0 -0.0016018217270485509 -0.023783462613340051 0 -0.0017104933177147931 -0.02313734593045022 0 -0.0019203437483132249 -0.023703139779637516 0 -0.0023655393434819944 -0.023243546271998691 0 -0.0017104933177147931 -0.02313734593045022 0 -0.0016018217270485509 -0.023783462613340051 0 -0.0019203437483132249 -0.023703139779637516 0 -0.0027331586385217774 -0.023967711173433607 0 -0.0019203437483132249 -0.023703139779637516 0 -0.0023655393434819944 -0.023243546271998691 0 -0.0027331586385217774 -0.023967711173433607 0 -0.0028290063765816099 -0.023370284172406774 0 -0.0023655393434819944 -0.023243546271998691 0 -0.0028290063765816099 -0.023370284172406774 0 -0.0030716810787885926 -0.022966602678420028 0 -0.0034713285962840994 -0.023735392996247738 0 -0.0027331586385217774 -0.023967711173433607 0 -0.0028290063765816099 -0.023370284172406774 0 -0.0034713285962840994 -0.023735392996247738 0 -0.0028290063765816099 -0.023370284172406774 0 -0.0030716810787885926 -0.022966602678420028 0 -0.002666235290134278 -0.022900085449879905 0 -0.0030716810787885926 -0.022966602678420028 0 -0.002666235290134278 -0.022900085449879905 0 -0.0027158608876357354 -0.022552961357791754 0 -0.0028290063765816099 -0.023370284172406774 0 -0.0023655393434819944 -0.023243546271998691 0 -0.002666235290134278 -0.022900085449879905 0 -0.0022737506535751469 -0.022938569535795969 0 -0.0023655393434819944 -0.023243546271998691 0 -0.0024439869025945598 -0.022851086333857872 0 -0.0023655393434819944 -0.023243546271998691 0 -0.002666235290134278 -0.022900085449879905 0 -0.0024439869025945598 -0.022851086333857872 0 -0.002666235290134278 -0.022900085449879905 0 -0.0024439869025945598 -0.022851086333857872 0 -0.0025396611369774527 -0.022642650161347734 0 -0.0023334448657601962 -0.022644996706003982 0 -0.0024439869025945598 -0.022851086333857872 0 -0.0025396611369774527 -0.022642650161347734 0 -0.0023334448657601962 -0.022644996706003982 0 -0.0022737506535751469 -0.022938569535795969 0 -0.0024439869025945598 -0.022851086333857872 0 -0.0024036274570079634 -0.022455446600357205 0 -0.0023334448657601962 -0.022644996706003982 0 -0.0025396611369774527 -0.022642650161347734 0 -0.002666235290134278 -0.022900085449879905 0 -0.0025396611369774527 -0.022642650161347734 0 -0.0027158608876357354 -0.022552961357791754 0 -0.0024036274570079634 -0.022455446600357205 0 -0.0025396611369774527 -0.022642650161347734 0 -0.0027158608876357354 -0.022552961357791754 0 -0.0023942488240776298 -0.022224610995675381 0 -0.0024036274570079634 -0.022455446600357205 0 -0.0027403086331246836 -0.02219854413224957 0 -0.0024036274570079634 -0.022455446600357205 0 -0.0027158608876357354 -0.022552961357791754 0 -0.0027403086331246836 -0.02219854413224957 0 -0.0014941350116402848 -0.028423146387302069 0 -0.0016467519220877108 -0.028312393118337158 0 -0.0027158608876357354 -0.022552961357791754 0 -0.0027403086331246836 -0.02219854413224957 0 -0.0031806761401707347 -0.022478991711801038 0 -0.00019952587305022506 -0.034752724688194243 0 -0.0001553641695153763 -0.034664475472705708 0 -8.052742026808388e-05 -0.034836781889700963 0 -0.0030716810787885926 -0.022966602678420028 0 -0.0027158608876357354 -0.022552961357791754 0 -0.0031806761401707347 -0.022478991711801038 0 -0.0030716810787885926 -0.022966602678420028 0 -0.0031806761401707347 -0.022478991711801038 0 -0.0036956560719383631 -0.022970221631124655 0 -0.0001553641695153763 -0.034664475472705708 0 1.360760844574486e-05 -0.034731457510126164 0 -5.4768183515768067e-05 -0.034507648494115709 0 -0.0016467519220877108 -0.028312393118337158 0 -0.00065582354226212966 -0.031351886720598091 0 -0.0001553641695153763 -0.034664475472705708 0 -8.052742026808388e-05 -0.034836781889700963 0 1.360760844574486e-05 -0.034731457510126164 0 -1.3352833584498354e-06 -0.034998919649665949 0 1.1159828878680702e-08 -0.034999992771113375 0 -5.9879914846185965e-09 -0.035000005838821138 0 -8.052742026808388e-05 -0.034836781889700963 0 1.360760844574486e-05 -0.034731457510126164 0 1.6664532767448931e-07 -0.034999543034703366 0 0.00022687077452115441 -0.035467111713916977 0 -3.2342457674273709e-07 -0.034999236949679671 0 -1.3352833584498354e-06 -0.034998919649665949 0 1.1159828878680702e-08 -0.034999992771113375 0 -5.3906304789472932e-06 -0.034982048656286215 0 0.00022687077452115441 -0.035467111713916977 0 -0.00065582354226212966 -0.031351886720598091 0 -4.8863717774007083e-05 -0.034938932061400474 0 -4.1778633940155984e-05 -0.034964089802030293 0 -6.8334119295543518e-06 -0.034995325057683074 0 -5.3906304789472932e-06 -0.034982048656286215 0 -3.4116899083251041e-08 -0.034999959135482775 0 -6.8334119295543518e-06 -0.034995325057683074 0 1.1159828878680702e-08 -0.034999992771113375 0 -5.3906304789472932e-06 -0.034982048656286215 0 -3.4116899083251041e-08 -0.034999959135482775 0 -0.00065582354226212966 -0.031351886720598091 0 -0.00017398320799424529 -0.036118339784107369 0 -0.0030716810787885926 -0.022966602678420028 0 -0.0036956560719383631 -0.022970221631124655 0 -0.0034713285962840994 -0.023735392996247738 0 -0.00065582354226212966 -0.031351886720598091 0 -0.0020296592154003248 -0.028842127958317653 0 -4.8863717774007083e-05 -0.034938932061400474 0 -4.1778633940155984e-05 -0.034964089802030293 0 -7.5716742011000012e-05 -0.034944654086385467 0 -3.5020849000457231e-05 -0.034970200933328914 0 -4.1778633940155984e-05 -0.034964089802030293 0 -7.5716742011000012e-05 -0.034944654086385467 0 -3.0173432976244813e-08 -0.03499995735605884 0 -3.4116899083251041e-08 -0.034999959135482775 0 -6.8334119295543518e-06 -0.034995325057683074 0 -3.5020849000457231e-05 -0.034970200933328914 0 -4.1778633940155984e-05 -0.034964089802030293 0 -6.8334119295543518e-06 -0.034995325057683074 0 -4.0187054724269509e-08 -0.034999822130391288 0 -5.1094155703757717e-05 -0.034921323919125051 0 -4.4267042733870534e-05 -0.034903217850275753 0 -5.1094155703757717e-05 -0.034921323919125051 0 -7.4158285541911354e-05 -0.034828660256919948 0 -4.4267042733870534e-05 -0.034903217850275753 0 -5.1094155703757717e-05 -0.034921323919125051 0 -5.4137808868201138e-05 -0.034934057234302797 0 -6.5581552293774348e-05 -0.034867374987491352 0 -5.1094155703757717e-05 -0.034921323919125051 0 -5.4137808868201138e-05 -0.034934057234302797 0 -8.9097318350574823e-08 -0.035000011829330692 0 -4.0187054724269509e-08 -0.034999822130391288 0 -5.1094155703757717e-05 -0.034921323919125051 0 -8.9097318350574823e-08 -0.035000011829330692 0 -5.4137808868201138e-05 -0.034934057234302797 0 -8.9097318350574823e-08 -0.035000011829330692 0 -4.2402533288954512e-05 -0.034938831676204478 0 -8.9097318350574823e-08 -0.035000011829330692 0 1.6664532767448931e-07 -0.034999543034703366 0 -4.2402533288954512e-05 -0.034938831676204478 0 -8.052742026808388e-05 -0.034836781889700963 0 1.6664532767448931e-07 -0.034999543034703366 0 -4.2402533288954512e-05 -0.034938831676204478 0 -8.052742026808388e-05 -0.034836781889700963 0 -4.2402533288954512e-05 -0.034938831676204478 0 -0.00012040067078939815 -0.034855441986954491 0 -4.2402533288954512e-05 -0.034938831676204478 0 -8.1866874655992333e-05 -0.034910942783571826 0 -0.00012040067078939815 -0.034855441986954491 0 -5.4137808868201138e-05 -0.034934057234302797 0 -8.1866874655992333e-05 -0.034910942783571826 0 -6.5581552293774348e-05 -0.034867374987491352 0 -5.4137808868201138e-05 -0.034934057234302797 0 -4.2402533288954512e-05 -0.034938831676204478 0 -8.1866874655992333e-05 -0.034910942783571826 0 -8.1866874655992333e-05 -0.034910942783571826 0 -4.9799708594987112e-05 -0.034882710279459189 0 -6.5581552293774348e-05 -0.034867374987491352 0 -8.1866874655992333e-05 -0.034910942783571826 0 -0.00018349235642420794 -0.034873740277348728 0 -0.00012040067078939815 -0.034855441986954491 0 -0.00019698349907320661 -0.034849912354890468 0 0.0003194446376323568 -0.03483161616051493 0 -0.00019952587305022506 -0.034752724688194243 0 -0.00018349235642420794 -0.034873740277348728 0 -0.00012040067078939815 -0.034855441986954491 0 -0.00019952587305022506 -0.034752724688194243 0 -8.052742026808388e-05 -0.034836781889700963 0 -0.00012040067078939815 -0.034855441986954491 0 -0.0023942488240776298 -0.022224610995675381 0 -0.0027403086331246836 -0.02219854413224957 0 -0.0024667760306400165 -0.022010546615952337 0 -0.00019952587305022506 -0.034752724688194243 0 -0.00018349235642420794 -0.034873740277348728 0 -0.00026730060205766576 -0.034808448933767007 0 -0.0014941350116402848 -0.028423146387302069 0 -0.00094884107512177194 -0.029302045282767471 0 -4.9799708594987112e-05 -0.034882710279459189 0 -2.8029174934012773e-05 -0.034856785033001346 0 -6.5581552293774348e-05 -0.034867374987491352 0 -4.9799708594987112e-05 -0.034882710279459189 0 -1.7294923385524663e-05 -0.034866037984252765 0 -2.8029174934012773e-05 -0.034856785033001346 0 0.0003194446376323568 -0.03483161616051493 0 -0.00094884107512177194 -0.029302045282767471 0 -2.2977505354955193e-05 -0.034832053961993736 0 -4.5216665572444938e-05 -0.034770823895325174 0 1.4868569430742051e-05 -0.034793273959675672 0 -2.2977505354955193e-05 -0.034832053961993736 0 -6.5581552293774348e-05 -0.034867374987491352 0 -4.5216665572444938e-05 -0.034770823895325174 0 -2.8029174934012773e-05 -0.034856785033001346 0 -2.2977505354955193e-05 -0.034832053961993736 0 -6.5581552293774348e-05 -0.034867374987491352 0 -7.4158285541911354e-05 -0.034828660256919948 0 -4.5216665572444938e-05 -0.034770823895325174 0 -7.9000671987166537e-05 -0.034733014952087776 0 -5.1094155703757717e-05 -0.034921323919125051 0 -6.5581552293774348e-05 -0.034867374987491352 0 -7.4158285541911354e-05 -0.034828660256919948 0 -6.5581552293774348e-05 -0.034867374987491352 0 -7.4158285541911354e-05 -0.034828660256919948 0 -4.5216665572444938e-05 -0.034770823895325174 0 -4.5216665572444938e-05 -0.034770823895325174 0 3.763950830763485e-06 -0.034677273632872554 0 -5.3620179741289559e-05 -0.034677318687365614 0 1.3751979123014772e-05 -0.034744568038486641 0 7.738218245929275e-05 -0.034726798705700362 0 1.4868569430742051e-05 -0.034793273959675672 0 -4.5216665572444938e-05 -0.034770823895325174 0 1.3751979123014772e-05 -0.034744568038486641 0 1.4868569430742051e-05 -0.034793273959675672 0 -4.5216665572444938e-05 -0.034770823895325174 0 1.3751979123014772e-05 -0.034744568038486641 0 3.763950830763485e-06 -0.034677273632872554 0 1.3751979123014772e-05 -0.034744568038486641 0 3.763950830763485e-06 -0.034677273632872554 0 7.738218245929275e-05 -0.034726798705700362 0 3.763950830763485e-06 -0.034677273632872554 0 7.738218245929275e-05 -0.034726798705700362 0 8.2523245168632679e-05 -0.03461114726306011 0 0.00016722049502323111 -0.034656028272099702 0 7.738218245929275e-05 -0.034726798705700362 0 8.2523245168632679e-05 -0.03461114726306011 0 -0.00060389558942583704 -0.030138273501804404 0 -0.00055501539125246799 -0.030184020170011181 0 0.00016722049502323111 -0.034656028272099702 0 0.00015599168666332667 -0.03475011337081281 0 0.00023709431834874968 -0.03468535122337317 0 0.00016722049502323111 -0.034656028272099702 0 7.738218245929275e-05 -0.034726798705700362 0 0.00015599168666332667 -0.03475011337081281 0 7.738218245929275e-05 -0.034726798705700362 0 0.00015599168666332667 -0.03475011337081281 0 6.1519553902783129e-05 -0.034814053202958793 0 -0.0013384748171481298 -0.025536747025274701 0 -0.0013456881570732375 -0.025271931780881034 0 -0.0014321582790810395 -0.025661296610965199 0 -0.0013384748171481298 -0.025536747025274701 0 -0.0011919636369356126 -0.02535160401599236 0 -0.0013456881570732375 -0.025271931780881034 0 -0.00060389558942583704 -0.030138273501804404 0 -0.00051005034755709602 -0.030189771469207014 0 -2.2977505354955193e-05 -0.034832053961993736 0 6.1519553902783129e-05 -0.034814053202958793 0 1.4868569430742051e-05 -0.034793273959675672 0 7.738218245929275e-05 -0.034726798705700362 0 6.1519553902783129e-05 -0.034814053202958793 0 1.4868569430742051e-05 -0.034793273959675672 0 -2.8029174934012773e-05 -0.034856785033001346 0 -2.2977505354955193e-05 -0.034832053961993736 0 6.1519553902783129e-05 -0.034814053202958793 0 -1.7294923385524663e-05 -0.034866037984252765 0 -2.8029174934012773e-05 -0.034856785033001346 0 6.1519553902783129e-05 -0.034814053202958793 0 -0.00092814663001533398 -0.0250718776474382 0 -0.0011919636369356126 -0.02535160401599236 0 -0.0012154490792617 -0.025145987601631566 0 -0.00094884107512177194 -0.029302045282767471 0 -0.00051005034755709602 -0.030189771469207014 0 -0.00092814663001533398 -0.0250718776474382 0 -0.0011721875428292465 -0.024996927207181278 0 -0.0012015114410491119 -0.024932100190148961 0 -0.0023942488240776298 -0.022224610995675381 0 -0.0024667760306400165 -0.022010546615952337 0 -0.0022029777903655018 -0.022087710071860018 0 -0.00092814663001533398 -0.0250718776474382 0 -0.0011721875428292465 -0.024996927207181278 0 -0.0012154490792617 -0.025145987601631566 0 -0.00094884107512177194 -0.029302045282767471 0 -0.0020909022230371707 -0.023282902145907197 0 -0.0011721875428292465 -0.024996927207181278 0 -0.0013044272737757412 -0.025071151203436066 0 -0.0014158472580782684 -0.025037276035459397 0 -0.0012659188260245003 -0.025171983709265055 0 -0.0013653189595020897 -0.024117062389472293 0 -0.0020909022230371707 -0.023282902145907197 0 -0.0013703737592652596 -0.022160069793426863 0 -0.0012015114410491119 -0.024932100190148961 0 -0.0016271331489236252 -0.024906405919842483 0 -0.0015136837026001925 -0.024789302770055609 0 -0.0011721875428292465 -0.024996927207181278 0 -0.0012015114410491119 -0.024932100190148961 0 -0.0016271331489236252 -0.024906405919842483 0 -0.0011721875428292465 -0.024996927207181278 0 -0.0014158472580782684 -0.025037276035459397 0 -0.0015351457957025838 -0.024952739635638974 0 -0.0013044272737757412 -0.025071151203436066 0 -0.0013747876486132442 -0.025119036138698789 0 -0.0012154490792617 -0.025145987601631566 0 -0.0013044272737757412 -0.025071151203436066 0 -0.0013747876486132442 -0.025119036138698789 0 -0.0014158472580782684 -0.025037276035459397 0 -0.0013747876486132442 -0.025119036138698789 0 -0.0012154490792617 -0.025145987601631566 0 -0.0013456881570732375 -0.025271931780881034 0 -0.0011721875428292465 -0.024996927207181278 0 -0.0013044272737757412 -0.025071151203436066 0 -0.0012154490792617 -0.025145987601631566 0 -0.0011919636369356126 -0.02535160401599236 0 -0.0012154490792617 -0.025145987601631566 0 -0.0013456881570732375 -0.025271931780881034 0 -0.0013747876486132442 -0.025119036138698789 0 -0.0015162649581326956 -0.025104295265898566 0 -0.0015363340168325613 -0.025284270196608505 0 -0.0016328859053395782 -0.025156864890513591 0 -0.0015162649581326956 -0.025104295265898566 0 -0.0015351457957025838 -0.024952739635638974 0 -0.0013747876486132442 -0.025119036138698789 0 -0.0013456881570732375 -0.025271931780881034 0 -0.0015363340168325613 -0.025284270196608505 0 -0.0016328859053395782 -0.025156864890513591 0 -0.0015162649581326956 -0.025104295265898566 0 -0.0015363340168325613 -0.025284270196608505 0 -0.0016328859053395782 -0.025156864890513591 0 -0.0017119677213797112 -0.025287805075011039 0 -0.0015363340168325613 -0.025284270196608505 0 -0.0013747876486132442 -0.025119036138698789 0 -0.0015162649581326956 -0.025104295265898566 0 -0.0014158472580782684 -0.025037276035459397 0 -0.0015162649581326956 -0.025104295265898566 0 -0.0014158472580782684 -0.025037276035459397 0 -0.0015351457957025838 -0.024952739635638974 0 -0.00090220283241313924 -0.021087981492282526 0 -0.0010237177884688615 -0.020831616925106062 0 -0.0011861467759282879 -0.021004711990299609 0 -0.0013653189595020897 -0.024117062389472293 0 -0.0013703737592652596 -0.022160069793426863 0 -0.00090220283241313924 -0.021087981492282526 0 -0.0010237177884688615 -0.020831616925106062 0 -0.00052725119469648166 -0.020859090587917954 0 -0.001413948048027272 -0.024722005668157122 0 -0.0018081615727775363 -0.024702858257392057 0 -0.0018128443041641109 -0.02491117644400637 0 -0.0013653189595020897 -0.024117062389472293 0 -0.0012053200324730524 -0.022769369377660421 0 -0.0016328859053395782 -0.025156864890513591 0 -0.0015351457957025838 -0.024952739635638974 0 -0.0018499544334175211 -0.025178001833878298 0 -0.0013653189595020897 -0.024117062389472293 0 -0.001929725280838606 -0.025441955950364796 0 -0.001413948048027272 -0.024722005668157122 0 -0.0018128443041641109 -0.02491117644400637 0 -0.0018499544334175211 -0.025178001833878298 0 -0.0016328859053395782 -0.025156864890513591 0 -0.0018499544334175211 -0.025178001833878298 0 -0.0017119677213797112 -0.025287805075011039 0 -0.0018128443041641109 -0.02491117644400637 0 -0.0018499544334175211 -0.025178001833878298 0 -0.0019117602332789881 -0.025078759257620015 0 -0.0018499544334175211 -0.025178001833878298 0 -0.0018644177449961322 -0.025366018713033404 0 -0.0019117602332789881 -0.025078759257620015 0 -0.0018499544334175211 -0.025178001833878298 0 -0.0018644177449961322 -0.025366018713033404 0 -0.0017119677213797112 -0.025287805075011039 0 -0.0018644177449961322 -0.025366018713033404 0 -0.0018227098370542554 -0.025532575897816014 0 -0.0019867179426788653 -0.025502129210694488 0 -0.0018644177449961322 -0.025366018713033404 0 -0.0016936643088150784 -0.025469962621470294 0 -0.0018227098370542554 -0.025532575897816014 0 -0.0018644177449961322 -0.025366018713033404 0 -0.0016936643088150784 -0.025469962621470294 0 -0.0017119677213797112 -0.025287805075011039 0 -0.0016936643088150784 -0.025469962621470294 0 -0.0017119677213797112 -0.025287805075011039 0 -0.0015363340168325613 -0.025284270196608505 0 -0.0016936643088150784 -0.025469962621470294 0 -0.0015363340168325613 -0.025284270196608505 0 -0.0014321582790810395 -0.025661296610965199 0 -0.0013456881570732375 -0.025271931780881034 0 -0.0015363340168325613 -0.025284270196608505 0 -0.0014321582790810395 -0.025661296610965199 0 -0.0014321582790810395 -0.025661296610965199 0 -0.0015206393167361799 -0.025770992929434487 0 -0.0017952347160552255 -0.025701659767632896 0 -0.0016936643088150784 -0.025469962621470294 0 -0.0014321582790810395 -0.025661296610965199 0 -0.0017952347160552255 -0.025701659767632896 0 0.00016722049502323111 -0.034656028272099702 0 0.00023709431834874968 -0.03468535122337317 0 0.00030502732969506777 -0.034618853240213861 0 -0.00055501539125246799 -0.030184020170011181 0 -0.00067042543350001843 -0.030342963992396079 0 -0.0016936643088150784 -0.025469962621470294 0 -0.0017952347160552255 -0.025701659767632896 0 -0.0018227098370542554 -0.025532575897816014 0 -0.0017952347160552255 -0.025701659767632896 0 -0.0018227098370542554 -0.025532575897816014 0 -0.0019867179426788653 -0.025502129210694488 0 -0.0015206393167361799 -0.025770992929434487 0 -0.0017952347160552255 -0.025701659767632896 0 -0.001731772092784038 -0.026022773260866539 0 -0.0013935959618974331 -0.02865163175623785 0 -0.0033304112082872804 -0.02348798215428221 0 -0.0048488721352658755 -0.021206809358802928 0 -0.0044848351656018061 -0.0207770269008349 0 -0.0033543625873301646 -0.022028229526402914 0 -0.0017952347160552255 -0.025701659767632896 0 -0.001731772092784038 -0.026022773260866539 0 -0.0020404796960478851 -0.025828222823881163 0 -0.0013935959618974331 -0.02865163175623785 0 -0.0018216046548621121 -0.027684964996527048 0 0.00030502732969506777 -0.034618853240213861 0 0.00043980217812868161 -0.034445508427701027 0 0.00023096011621135759 -0.034527193950901001 0 0.00043980217812868161 -0.034445508427701027 0 0.00023096011621135759 -0.034527193950901001 0 0.00028623696106575084 -0.034372824430799927 0 -0.00067042543350001843 -0.030342963992396079 0 -0.0013935959618974331 -0.02865163175623785 0 0.00016722049502323111 -0.034656028272099702 0 0.00030502732969506777 -0.034618853240213861 0 0.00023096011621135759 -0.034527193950901001 0 -0.0013935959618974331 -0.02865163175623785 0 0.00078415889481554704 -0.034720578352575866 0 5.1814155905578827e-05 -0.03395466011077046 0 4.3668496587837761e-05 -0.033855349264263514 0 4.6871994797560407e-05 -0.033866059642073447 0 4.4580656250630305e-05 -0.033850581484967869 0 5.1814155905578827e-05 -0.03395466011077046 0 4.3668496587837761e-05 -0.033855349264263514 0 4.3668496587837761e-05 -0.033855349264263514 0 4.6871994797560407e-05 -0.033866059642073447 0 5.6082055701732529e-05 -0.033807716108493452 0 4.0112206548340367e-05 -0.033844277439685898 0 4.3048825098831908e-05 -0.033757824668584097 0 2.9401515590377238e-05 -0.033732476238880343 0 4.6871994797560407e-05 -0.033866059642073447 0 4.0112206548340367e-05 -0.033844277439685898 0 4.3048825098831908e-05 -0.033757824668584097 0 5.1814155905578827e-05 -0.03395466011077046 0 4.6871994797560407e-05 -0.033866059642073447 0 2.853109531857466e-05 -0.033953166265705791 0 4.6871994797560407e-05 -0.033866059642073447 0 4.0112206548340367e-05 -0.033844277439685898 0 2.853109531857466e-05 -0.033953166265705791 0 5.1814155905578827e-05 -0.03395466011077046 0 3.5439286732114693e-05 -0.034147679125802438 0 2.853109531857466e-05 -0.033953166265705791 0 3.5439286732114693e-05 -0.034147679125802438 0 2.853109531857466e-05 -0.033953166265705791 0 -5.3374251139220206e-05 -0.034058194281261035 0 2.853109531857466e-05 -0.033953166265705791 0 -7.2008775778152173e-05 -0.033924632995336407 0 -5.3374251139220206e-05 -0.034058194281261035 0 2.853109531857466e-05 -0.033953166265705791 0 -7.2008775778152173e-05 -0.033924632995336407 0 -3.5080469597807854e-05 -0.033775163081444411 0 4.0112206548340367e-05 -0.033844277439685898 0 2.853109531857466e-05 -0.033953166265705791 0 -3.5080469597807854e-05 -0.033775163081444411 0 -7.2008775778152173e-05 -0.033924632995336407 0 -5.3374251139220206e-05 -0.034058194281261035 0 -0.00029235337642420726 -0.033917021962642714 0 -7.2008775778152173e-05 -0.033924632995336407 0 -0.00029235337642420726 -0.033917021962642714 0 -3.5080469597807854e-05 -0.033775163081444411 0 -0.00012898267267376365 -0.034220585708642004 0 -9.918498681673269e-05 -0.033745227368747757 0 -0.00016185494754191249 -0.033841040883746024 0 -0.00015914342010323293 -0.033824549392807275 0 -0.00014924519430599805 -0.033822249405129207 0 3.5439286732114693e-05 -0.034147679125802438 0 -5.3374251139220206e-05 -0.034058194281261035 0 -0.00011077299555033362 -0.034455940115204475 0 -0.00012822181436732822 -0.034480007069893751 0 -0.00012898267267376365 -0.034220585708642004 0 -5.3374251139220206e-05 -0.034058194281261035 0 -0.00011077299555033362 -0.034455940115204475 0 -0.00029235337642420726 -0.033917021962642714 0 -0.00011077299555033362 -0.034455940115204475 0 -2.6558131662757278e-05 -0.034583785571282152 0 -8.308474262359339e-05 -0.034599542195535238 0 -0.00011077299555033362 -0.034455940115204475 0 8.0419161417718158e-05 -0.034466129208223187 0 -2.6558131662757278e-05 -0.034583785571282152 0 3.5439286732114693e-05 -0.034147679125802438 0 -0.00011077299555033362 -0.034455940115204475 0 8.0419161417718158e-05 -0.034466129208223187 0 0.00078415889481554704 -0.034720578352575866 0 -0.00021911555248793716 -0.033967524010048357 0 0.00023096011621135759 -0.034527193950901001 0 0.00028623696106575084 -0.034372824430799927 0 8.0419161417718158e-05 -0.034466129208223187 0 0.00028623696106575084 -0.034372824430799927 0 3.5439286732114693e-05 -0.034147679125802438 0 8.0419161417718158e-05 -0.034466129208223187 0 0.00023096011621135759 -0.034527193950901001 0 8.0419161417718158e-05 -0.034466129208223187 0 8.2523245168632679e-05 -0.03461114726306011 0 0.00016722049502323111 -0.034656028272099702 0 0.00023096011621135759 -0.034527193950901001 0 8.2523245168632679e-05 -0.03461114726306011 0 3.763950830763485e-06 -0.034677273632872554 0 8.2523245168632679e-05 -0.03461114726306011 0 -2.6558131662757278e-05 -0.034583785571282152 0 3.763950830763485e-06 -0.034677273632872554 0 -2.6558131662757278e-05 -0.034583785571282152 0 -5.3620179741289559e-05 -0.034677318687365614 0 8.0419161417718158e-05 -0.034466129208223187 0 8.2523245168632679e-05 -0.03461114726306011 0 -2.6558131662757278e-05 -0.034583785571282152 0 -4.5216665572444938e-05 -0.034770823895325174 0 -5.3620179741289559e-05 -0.034677318687365614 0 -7.9000671987166537e-05 -0.034733014952087776 0 -5.3620179741289559e-05 -0.034677318687365614 0 -7.9000671987166537e-05 -0.034733014952087776 0 -8.308474262359339e-05 -0.034599542195535238 0 -2.6558131662757278e-05 -0.034583785571282152 0 -5.3620179741289559e-05 -0.034677318687365614 0 -8.308474262359339e-05 -0.034599542195535238 0 -7.4158285541911354e-05 -0.034828660256919948 0 -7.9000671987166537e-05 -0.034733014952087776 0 -8.758611156424917e-05 -0.034821594202961277 0 -7.9000671987166537e-05 -0.034733014952087776 0 -7.0846454153545058e-05 -0.034668758267475175 0 -8.758611156424917e-05 -0.034821594202961277 0 -7.0846454153545058e-05 -0.034668758267475175 0 -6.0218531807533569e-05 -0.034629052867285466 0 -8.758611156424917e-05 -0.034821594202961277 0 -7.0846454153545058e-05 -0.034668758267475175 0 -8.308474262359339e-05 -0.034599542195535238 0 -6.7691476200078826e-05 -0.03457143644380898 0 -7.0846454153545058e-05 -0.034668758267475175 0 -6.7691476200078826e-05 -0.03457143644380898 0 -6.0218531807533569e-05 -0.034629052867285466 0 -7.9000671987166537e-05 -0.034733014952087776 0 -7.0846454153545058e-05 -0.034668758267475175 0 -8.308474262359339e-05 -0.034599542195535238 0 -0.00011077299555033362 -0.034455940115204475 0 -8.308474262359339e-05 -0.034599542195535238 0 -6.7691476200078826e-05 -0.03457143644380898 0 -6.7691476200078826e-05 -0.03457143644380898 0 -5.5994048384159797e-05 -0.034631223355381907 0 -8.837160451881219e-05 -0.034675016071478486 0 -0.00011077299555033362 -0.034455940115204475 0 -6.7691476200078826e-05 -0.03457143644380898 0 -8.837160451881219e-05 -0.034675016071478486 0 -6.7691476200078826e-05 -0.03457143644380898 0 -5.5994048384159797e-05 -0.034631223355381907 0 -6.0218531807533569e-05 -0.034629052867285466 0 -5.5994048384159797e-05 -0.034631223355381907 0 -7.3580148783420477e-05 -0.034611410653771456 0 -6.0218531807533569e-05 -0.034629052867285466 0 -6.1836305181203315e-05 -0.034588512169079433 0 -8.2700516818761755e-05 -0.034577794325478896 0 -5.6731361003236361e-05 -0.034524383926337894 0 -0.00016185494754191249 -0.033841040883746024 0 -0.00015914342010323293 -0.033824549392807275 0 -0.00016665201989115401 -0.033821276467506413 0 -0.00012898267267376365 -0.034220585708642004 0 -0.00011824696125527291 -0.034132478124602579 0 -3.0554244838043251e-05 -0.034603647471021202 0 -6.1836305181203315e-05 -0.034588512169079433 0 -5.6731361003236361e-05 -0.034524383926337894 0 -0.00018441503794054719 -0.034453025718515509 0 -0.00012898267267376365 -0.034220585708642004 0 -5.5994048384159797e-05 -0.034631223355381907 0 -3.0554244838043251e-05 -0.034603647471021202 0 -6.1836305181203315e-05 -0.034588512169079433 0 -5.5994048384159797e-05 -0.034631223355381907 0 -6.1836305181203315e-05 -0.034588512169079433 0 -7.3580148783420477e-05 -0.034611410653771456 0 -8.4198142014990854e-05 -0.034775963829905387 0 -6.8176541798965737e-05 -0.034842228978788303 0 -8.2700516818761755e-05 -0.034577794325478896 0 -0.0001123881604773815 -0.034612217677209095 0 -0.00010011929736484027 -0.03453855681686728 0 -6.7496830204644728e-05 -0.034979628186517973 0 -3.3317011265184172e-05 -0.034995061476204875 0 -2.9017535549132212e-05 -0.034997872815408747 0 -8.2700516818761755e-05 -0.034577794325478896 0 -0.0001123881604773815 -0.034612217677209095 0 -7.3580148783420477e-05 -0.034611410653771456 0 -6.1836305181203315e-05 -0.034588512169079433 0 -8.2700516818761755e-05 -0.034577794325478896 0 -7.3580148783420477e-05 -0.034611410653771456 0 -0.0001123881604773815 -0.034612217677209095 0 -6.0218531807533569e-05 -0.034629052867285466 0 -8.758611156424917e-05 -0.034821594202961277 0 -8.4198142014990854e-05 -0.034775963829905387 0 -8.9144371006312083e-05 -0.03482005515187208 0 -0.0001123881604773815 -0.034612217677209095 0 -7.3580148783420477e-05 -0.034611410653771456 0 -6.0218531807533569e-05 -0.034629052867285466 0 -6.7496830204644728e-05 -0.034979628186517973 0 -1.9841156880092615e-05 -0.034949064734668578 0 -2.4974355831085922e-05 -0.034988905629717695 0 -6.7496830204644728e-05 -0.034979628186517973 0 -1.9841156880092615e-05 -0.034949064734668578 0 -8.758611156424917e-05 -0.034821594202961277 0 -6.7496830204644728e-05 -0.034979628186517973 0 -2.4974355831085922e-05 -0.034988905629717695 0 -3.3317011265184172e-05 -0.034995061476204875 0 -2.4974355831085922e-05 -0.034988905629717695 0 -3.3317011265184172e-05 -0.034995061476204875 0 -1.6252945225319002e-05 -0.034998659328896002 0 -2.4974355831085922e-05 -0.034988905629717695 0 2.1107955916909396e-10 -0.03499999518690039 0 -1.6252945225319002e-05 -0.034998659328896002 0 -1.9841156880092615e-05 -0.034949064734668578 0 2.1107955916909396e-10 -0.03499999518690039 0 -6.6898425014872824e-09 -0.034999894849184511 0 -1.9841156880092615e-05 -0.034949064734668578 0 -2.4974355831085922e-05 -0.034988905629717695 0 2.1107955916909396e-10 -0.03499999518690039 0 -1.9841156880092615e-05 -0.034949064734668578 0 -6.6898425014872824e-09 -0.034999894849184511 0 -4.4267042733870534e-05 -0.034903217850275753 0 -1.9841156880092615e-05 -0.034949064734668578 0 -8.758611156424917e-05 -0.034821594202961277 0 -4.4267042733870534e-05 -0.034903217850275753 0 -7.4158285541911354e-05 -0.034828660256919948 0 -8.758611156424917e-05 -0.034821594202961277 0 -4.4267042733870534e-05 -0.034903217850275753 0 -4.0187054724269509e-08 -0.034999822130391288 0 -6.6898425014872824e-09 -0.034999894849184511 0 -4.4267042733870534e-05 -0.034903217850275753 0 0.00077157672656066574 -0.016689779627444661 0 0.00090692041958398569 -0.016577906108092112 0 0.0009052091075057244 -0.016833007158603211 0 0.00077157672656066574 -0.016689779627444661 0 0.00073153752770588126 -0.016579499705370739 0 0.00065262169419149361 -0.016908296127855119 0 0.00074724857576565482 -0.016832535209343098 0 0.00079749783978715647 -0.018772058308421592 0 0.00077157672656066574 -0.016689779627444661 0 0.00073153752770588126 -0.016579499705370739 0 0.00074541316274792907 -0.016557180724416812 0 0.00077157672656066574 -0.016689779627444661 0 0.00074541316274792907 -0.016557180724416812 0 0.00090692041958398569 -0.016577906108092112 0 0.00080646230138133588 -0.01760089973900231 0 0.00038057611853769288 -0.017654775467314702 0 0.00084752032362827678 -0.018415381068178027 0 0.00038057611853769288 -0.017654775467314702 0 0.00084752032362827678 -0.018415381068178027 0 0.00011892570200930282 -0.017997014531239645 0 0.00080646230138133588 -0.01760089973900231 0 0.00038057611853769288 -0.017654775467314702 0 0.00038385651202552009 -0.017214937556604529 0 0.00076479833512035022 -0.016631927031671354 0 0.00057904192130306647 -0.016204084868173801 0 0.00073153752770588126 -0.016579499705370739 0 0.00074541316274792907 -0.016557180724416812 0 0.00070353089481076515 -0.016763361053771977 0 0.00084843811431086012 -0.016433468351449026 0 0.00074541316274792907 -0.016557180724416812 0 0.00090692041958398569 -0.016577906108092112 0 0.00084843811431086012 -0.016433468351449026 0 0.00074541316274792907 -0.016557180724416812 0 0.00078215081689296593 -0.016238366584764213 0 0.00084843811431086012 -0.016433468351449026 0 0.00094769513430767352 -0.016343155544406417 0 0.00078215081689296593 -0.016238366584764213 0 0.00094769513430767352 -0.016343155544406417 0 0.00078215081689296593 -0.016238366584764213 0 0.00090685360439027979 -0.016191716845694884 0 0.00094769513430767352 -0.016343155544406417 0 0.0011194812882612606 -0.016294089278679515 0 0.00105836823418802 -0.016470279195133598 0 0.00094769513430767352 -0.016343155544406417 0 0.0011194812882612606 -0.016294089278679515 0 0.0010279138417092477 -0.016157812782449144 0 0.00084843811431086012 -0.016433468351449026 0 0.00094769513430767352 -0.016343155544406417 0 0.00090692041958398569 -0.016577906108092112 0 0.00094769513430767352 -0.016343155544406417 0 0.00105836823418802 -0.016470279195133598 0 0.00090692041958398569 -0.016577906108092112 0 0.0014343892180906318 -0.016191655428828538 0 0.0012762408792772639 -0.016261615314752332 0 0.0014090854441844525 -0.016386164837389552 0 0.0012762408792772639 -0.016261615314752332 0 0.0012266749150748951 -0.016439111624437827 0 0.0014090854441844525 -0.016386164837389552 0 0.0011194812882612606 -0.016294089278679515 0 0.0012762408792772639 -0.016261615314752332 0 0.0012266749150748951 -0.016439111624437827 0 0.0011194812882612606 -0.016294089278679515 0 0.00105836823418802 -0.016470279195133598 0 0.0012266749150748951 -0.016439111624437827 0 0.0012266749150748951 -0.016439111624437827 0 0.0014090854441844525 -0.016386164837389552 0 0.0013428270091551497 -0.016568060242030065 0 0.0012266749150748951 -0.016439111624437827 0 0.0013428270091551497 -0.016568060242030065 0 0.0011308803025272653 -0.016673368606976706 0 0.00105836823418802 -0.016470279195133598 0 0.0012266749150748951 -0.016439111624437827 0 0.0011308803025272653 -0.016673368606976706 0 0.0013428270091551497 -0.016568060242030065 0 0.0011308803025272653 -0.016673368606976706 0 0.0013414334135236465 -0.016802508641306536 0 0.0011308803025272653 -0.016673368606976706 0 0.00090692041958398569 -0.016577906108092112 0 0.0009052091075057244 -0.016833007158603211 0 0.00105836823418802 -0.016470279195133598 0 0.0011308803025272653 -0.016673368606976706 0 0.00090692041958398569 -0.016577906108092112 0 0.0011308803025272653 -0.016673368606976706 0 0.0009052091075057244 -0.016833007158603211 0 0.0011616622590396271 -0.016963575500676835 0 0.0009052091075057244 -0.016833007158603211 0 0.0011616622590396271 -0.016963575500676835 0 0.0008999150763455173 -0.017091931688837908 0 0.0011308803025272653 -0.016673368606976706 0 0.0011616622590396271 -0.016963575500676835 0 0.0013414334135236465 -0.016802508641306536 0 0.0014921732557302315 -0.017057982733425386 0 0.0011616622590396271 -0.016963575500676835 0 0.0013414334135236465 -0.016802508641306536 0 0.0014921732557302315 -0.017057982733425386 0 0.0011616622590396271 -0.016963575500676835 0 0.0011798550997925332 -0.017264326967276974 0 0.00073440811285557632 -0.014326958127635802 0 0.00050043195391012913 -0.017108501482419335 0 0.0014032781121319337 -0.016186555661804724 0 0.00050043195391012913 -0.017108501482419335 0 0.00050043195391012913 -0.017108501482419335 0 0.00061317986552218825 -0.018480339147521476 0 0.0011616622590396271 -0.016963575500676835 0 0.0011798550997925332 -0.017264326967276974 0 0.0008999150763455173 -0.017091931688837908 0 0.00050043195391012913 -0.017108501482419335 0 0.0010538481152995867 -0.01863589595070534 0 0.00075523290858168905 -0.019909546416450905 0 0.00094474656652440399 -0.0199807461757322 0 0.00079699520383387946 -0.019890383861888163 0 0.00094474656652440399 -0.0199807461757322 0 0.00079699520383387946 -0.019890383861888163 0 0.00090606019306997449 -0.019910762006540784 0 0.00094474656652440399 -0.0199807461757322 0 0.00090606019306997449 -0.019910762006540784 0 0.00096224149018796831 -0.019984399516995408 0 0.00093534880362902651 -0.020076457107503984 0 0.00096224149018796831 -0.019984399516995408 0 0.00091269329749427098 -0.0199057696102607 0 0.00096263417760823072 -0.019773760445020473 0 0.00090606019306997449 -0.019910762006540784 0 0.00096224149018796831 -0.019984399516995408 0 0.00094474656652440399 -0.0199807461757322 0 0.00096224149018796831 -0.019984399516995408 0 0.00091269329749427098 -0.0199057696102607 0 0.0009774765147929109 -0.020581261579161084 0 0.00079749783978715647 -0.018772058308421592 0 0.00077157672656066574 -0.016689779627444661 0 0.0009052091075057244 -0.016833007158603211 0 0.00065262169419149361 -0.016908296127855119 0 0.0009052091075057244 -0.016833007158603211 0 0.0008999150763455173 -0.017091931688837908 0 0.00065262169419149361 -0.016908296127855119 0 0.0010538481152995867 -0.01863589595070534 0 0.00079749783978715647 -0.018772058308421592 0 0.00079749783978715647 -0.018772058308421592 0 0.00051684189686218042 -0.018771011173915948 0 0.00096005903300413846 -0.020090610278934277 0 0.00079151458789013371 -0.020221032703082571 0 0.00070255554715687384 -0.019920003703650508 0 0.00096005903300413846 -0.020090610278934277 0 0.00091482652764361043 -0.020145587994465478 0 0.00079151458789013371 -0.020221032703082571 0 0.00093534880362902651 -0.020076457107503984 0 0.00096005903300413846 -0.020090610278934277 0 0.00091482652764361043 -0.020145587994465478 0 0.00090325149016431104 -0.020237328346628863 0 0.00093534880362902651 -0.020076457107503984 0 0.00091482652764361043 -0.020145587994465478 0 0.00090325149016431104 -0.020237328346628863 0 0.00091482652764361043 -0.020145587994465478 0 0.00079151458789013371 -0.020221032703082571 0 0.0006741134074452614 -0.020482592776406822 0 0.00079151458789013371 -0.020221032703082571 0 0.00051025670673697694 -0.020171314799331357 0 0.0006741134074452614 -0.020482592776406822 0 0.00041020122273973005 -0.020430442044340049 0 0.00051025670673697694 -0.020171314799331357 0 0.00041020122273973005 -0.020430442044340049 0 0.00051025670673697694 -0.020171314799331357 0 0.00032024378938121171 -0.020274450861461173 0 0.00051025670673697694 -0.020171314799331357 0 0.00070255554715687384 -0.019920003703650508 0 0.00042942216614641184 -0.019937498090798589 0 0.00079151458789013371 -0.020221032703082571 0 0.00051025670673697694 -0.020171314799331357 0 0.00070255554715687384 -0.019920003703650508 0 -0.0021182866032148583 -0.024685714850102344 0 -0.0021226489316726019 -0.025025906794627756 0 -0.0020228521928795881 -0.024885410048739891 0 -0.0012053200324730524 -0.022769369377660421 0 -0.00080784238670211555 -0.021766555307067469 0 -0.00032828942790382733 -0.021051536628497867 0 -0.00052725119469648166 -0.020859090587917954 0 -0.00015983388502253642 -0.020919071732464947 0 -0.0018081615727775363 -0.024702858257392057 0 -0.0021182866032148583 -0.024685714850102344 0 -0.0020228521928795881 -0.024885410048739891 0 -0.0018081615727775363 -0.024702858257392057 0 -0.0018128443041641109 -0.02491117644400637 0 -0.0020228521928795881 -0.024885410048739891 0 0.00015675438557177391 -0.020406362789165123 0 0.00032024378938121171 -0.020274450861461173 0 0.00021644456826738575 -0.020095519926885567 0 -0.00080784238670211555 -0.021766555307067469 0 -0.0009232765616612711 -0.022562430112487052 0 0.00059515808887233672 -0.02049152270876857 0 -0.00080784238670211555 -0.021766555307067469 0 0.00041020122273973005 -0.020430442044340049 0 0.00015675438557177391 -0.020406362789165123 0 0.00032024378938121171 -0.020274450861461173 0 0.00051025670673697694 -0.020171314799331357 0 0.00021644456826738575 -0.020095519926885567 0 0.00042942216614641184 -0.019937498090798589 0 0.00051025670673697694 -0.020171314799331357 0 0.00032024378938121171 -0.020274450861461173 0 0.00021644456826738575 -0.020095519926885567 0 -0.0021226489316726019 -0.025025906794627756 0 -0.0020228521928795881 -0.024885410048739891 0 -0.0020513935244701321 -0.025066621507722792 0 -0.0020228521928795881 -0.024885410048739891 0 -0.0020513935244701321 -0.025066621507722792 0 -0.0019117602332789881 -0.025078759257620015 0 -0.0018128443041641109 -0.02491117644400637 0 -0.0020228521928795881 -0.024885410048739891 0 -0.0019117602332789881 -0.025078759257620015 0 -0.002318525221354398 -0.025901315884438662 0 -0.00161057764213169 -0.023216492940357058 0 -0.0018644177449961322 -0.025366018713033404 0 -0.0019117602332789881 -0.025078759257620015 0 -0.0019867179426788653 -0.025502129210694488 0 -0.0019117602332789881 -0.025078759257620015 0 -0.0023348884374744454 -0.025488880322582726 0 -0.0019867179426788653 -0.025502129210694488 0 -0.0020513935244701321 -0.025066621507722792 0 -0.0019117602332789881 -0.025078759257620015 0 -0.0021440141842384345 -0.025198854450922153 0 0.00021644456826738575 -0.020095519926885567 0 0.00025952195920406977 -0.019819575304054159 0 0.00042942216614641184 -0.019937498090798589 0 -0.0021226489316726019 -0.025025906794627756 0 -0.0020513935244701321 -0.025066621507722792 0 -0.0021440141842384345 -0.025198854450922153 0 -0.0009232765616612711 -0.022562430112487052 0 -0.00161057764213169 -0.023216492940357058 0 0.00033484146116721482 -0.019739868192027912 0 0.00025952195920406977 -0.019819575304054159 0 0.00042942216614641184 -0.019937498090798589 0 -0.0010935730090481021 -0.021911800702610982 0 -0.0015005274827296652 -0.021681255225627298 0 -0.001604748437795902 -0.022429918956595202 0 -0.00080505853225406167 -0.020507753535174457 0 -0.00161057764213169 -0.023216492940357058 0 -0.00080505853225406167 -0.020507753535174457 0 -0.0012360001713097439 -0.022919321413166698 0 -0.0012360001713097439 -0.022919321413166698 0 -0.0015783030493502846 -0.021874750861629023 0 -0.0014112613482329002 -0.023072209650643313 0 -0.0012346215647600018 -0.022310849998313054 0 -0.0018008994369518902 -0.022847445756854257 0 -0.0012346215647600018 -0.022310849998313054 0 -0.0018008994369518902 -0.022847445756854257 0 -0.0016499478604698973 -0.021649573478693781 0 -0.0012360001713097439 -0.022919321413166698 0 -0.00161057764213169 -0.023216492940357058 0 -0.0023514903798510681 -0.025637135532121092 0 -0.0023348884374744454 -0.025488880322582726 0 -0.0021613235916946721 -0.025596149994561026 0 -0.0017952347160552255 -0.025701659767632896 0 -0.0019867179426788653 -0.025502129210694488 0 -0.0020404796960478851 -0.025828222823881163 0 -0.0021613235916946721 -0.025596149994561026 0 -0.0019867179426788653 -0.025502129210694488 0 -0.0020404796960478851 -0.025828222823881163 0 -0.0023348884374744454 -0.025488880322582726 0 -0.0021613235916946721 -0.025596149994561026 0 -0.0019867179426788653 -0.025502129210694488 0 -0.0023514903798510681 -0.025637135532121092 0 -0.0021613235916946721 -0.025596149994561026 0 -0.0020404796960478851 -0.025828222823881163 0 -0.0012360001713097439 -0.022919321413166698 0 -0.0033304112082872804 -0.02348798215428221 0 -0.00080505853225406167 -0.020507753535174457 0 0.00051684189686218042 -0.018771011173915948 0 0.00033484146116721482 -0.019739868192027912 0 0.00070255554715687384 -0.019920003703650508 0 0.00042942216614641184 -0.019937498090798589 0 -0.00080505853225406167 -0.020507753535174457 0 -8.7314314013683719e-05 -0.019372840236751111 0 -0.00060582891723646353 -0.017606131560266251 0 0.00011892570200930282 -0.017997014531239645 0 2.5918525365187323e-05 -0.017521499121211689 0 -0.00060582891723646353 -0.017606131560266251 0 2.5918525365187323e-05 -0.017521499121211689 0 -0.00015389530130701325 -0.01713700689581241 0 -0.0014112613482329002 -0.023072209650643313 0 -0.0012346215647600018 -0.022310849998313054 0 1.0593655041047889e-05 -0.021648565805602253 0 0.00038057611853769288 -0.017654775467314702 0 0.00011892570200930282 -0.017997014531239645 0 2.5918525365187323e-05 -0.017521499121211689 0 0.00038057611853769288 -0.017654775467314702 0 2.5918525365187323e-05 -0.017521499121211689 0 0.00038385651202552009 -0.017214937556604529 0 2.5918525365187323e-05 -0.017521499121211689 0 -0.00015389530130701325 -0.01713700689581241 0 0.00038385651202552009 -0.017214937556604529 0 -0.00015389530130701325 -0.01713700689581241 0 0.00031828557942153903 -0.01670521920505821 0 0.00046665142274888663 -0.016912788821007173 0 -8.7314314013683719e-05 -0.019372840236751111 0 0.00092774391574299443 -0.018525187040910746 0 -0.00015389530130701325 -0.01713700689581241 0 0.00038385651202552009 -0.017214937556604529 0 0.00046665142274888663 -0.016912788821007173 0 1.0593655041047889e-05 -0.021648565805602253 0 -0.0016499478604698973 -0.021649573478693781 0 -0.0013389511899088297 -0.020689251216792853 0 -0.0012346215647600018 -0.022310849998313054 0 1.0593655041047889e-05 -0.021648565805602253 0 -0.0016499478604698973 -0.021649573478693781 0 1.0593655041047889e-05 -0.021648565805602253 0 -0.00050519913775027583 -0.020433895270056453 0 -0.0013389511899088297 -0.020689251216792853 0 1.0593655041047889e-05 -0.021648565805602253 0 -0.00050519913775027583 -0.020433895270056453 0 0.00022961696124597873 -0.019948402424749951 0 -0.00050519913775027583 -0.020433895270056453 0 -0.0007641244329095728 -0.019518226812784156 0 -0.0013389511899088297 -0.020689251216792853 0 -0.00050519913775027583 -0.020433895270056453 0 -0.0007641244329095728 -0.019518226812784156 0 0.00022961696124597873 -0.019948402424749951 0 -0.0007641244329095728 -0.019518226812784156 0 0.00022961696124597873 -0.019948402424749951 0 0.00013124877571172024 -0.018891220769178454 0 0.00022961696124597873 -0.019948402424749951 0 0.0010185637196031907 -0.019152774626270026 0 0.00013124877571172024 -0.018891220769178454 0 0.0014665133864200958 -0.020166340020837652 0 0.0017554663868613912 -0.018580697563318274 0 0.0010185637196031907 -0.019152774626270026 0 0.00022961696124597873 -0.019948402424749951 0 0.0014665133864200958 -0.020166340020837652 0 0.0010185637196031907 -0.019152774626270026 0 1.0593655041047889e-05 -0.021648565805602253 0 0.00022961696124597873 -0.019948402424749951 0 0.0014665133864200958 -0.020166340020837652 0 -0.0033543625873301646 -0.022028229526402914 0 -0.0026695216396741234 -0.021288412937670878 0 -0.0016499478604698973 -0.021649573478693781 0 -0.0044848351656018061 -0.0207770269008349 0 -0.0033543625873301646 -0.022028229526402914 0 -0.0032536860951893594 -0.020928921821769531 0 -0.0026695216396741234 -0.021288412937670878 0 -0.0032536860951893594 -0.020928921821769531 0 -0.0024150362698782532 -0.02054652373808763 0 -0.0033543625873301646 -0.022028229526402914 0 -0.0026695216396741234 -0.021288412937670878 0 -0.0032536860951893594 -0.020928921821769531 0 -0.0018137998208615134 -0.022894987506701311 0 -0.0033543625873301646 -0.022028229526402914 0 -0.0016499478604698973 -0.021649573478693781 0 -0.0026695216396741234 -0.021288412937670878 0 -0.0016499478604698973 -0.021649573478693781 0 -0.0024150362698782532 -0.02054652373808763 0 -0.0016499478604698973 -0.021649573478693781 0 -0.0013389511899088297 -0.020689251216792853 0 -0.0024150362698782532 -0.02054652373808763 0 -0.0007641244329095728 -0.019518226812784156 0 -0.0013389511899088297 -0.020689251216792853 0 -0.0017623731872135604 -0.019819837871595324 0 -0.0007641244329095728 -0.019518226812784156 0 -0.0017623731872135604 -0.019819837871595324 0 -0.0015259892733033983 -0.018829426326257375 0 -0.0017623731872135604 -0.019819837871595324 0 -0.0024150362698782532 -0.02054652373808763 0 -0.0026742282898833984 -0.019808095033263043 0 -0.0017623731872135604 -0.019819837871595324 0 -0.0026742282898833984 -0.019808095033263043 0 -0.0022518966564682549 -0.01923485873899794 0 -0.0013389511899088297 -0.020689251216792853 0 -0.0017623731872135604 -0.019819837871595324 0 -0.0024150362698782532 -0.02054652373808763 0 -0.0024150362698782532 -0.02054652373808763 0 -0.0032427141619685734 -0.020302007038825065 0 -0.0026742282898833984 -0.019808095033263043 0 -0.0032536860951893594 -0.020928921821769531 0 -0.0024150362698782532 -0.02054652373808763 0 -0.0032427141619685734 -0.020302007038825065 0 -0.0032427141619685734 -0.020302007038825065 0 -0.0026742282898833984 -0.019808095033263043 0 -0.0033735632827086898 -0.019439425681595766 0 -0.0026742282898833984 -0.019808095033263043 0 -0.0033735632827086898 -0.019439425681595766 0 -0.0022518966564682549 -0.01923485873899794 0 -0.0018216046548621121 -0.027684964996527048 0 -0.001683494890176065 -0.026596675223790851 0 -0.0044848351656018061 -0.0207770269008349 0 -0.0032427141619685734 -0.020302007038825065 0 -0.0033735632827086898 -0.019439425681595766 0 -0.0044848351656018061 -0.0207770269008349 0 -0.0032536860951893594 -0.020928921821769531 0 -0.0032427141619685734 -0.020302007038825065 0 4.6871994797560407e-05 -0.033866059642073447 0 5.7821685929635893e-05 -0.033790039260966964 0 4.3048825098831908e-05 -0.033757824668584097 0 4.6871994797560407e-05 -0.033866059642073447 0 5.6082055701732529e-05 -0.033807716108493452 0 5.7821685929635893e-05 -0.033790039260966964 0 5.7821685929635893e-05 -0.033790039260966964 0 5.1854667659373157e-05 -0.033757726221347567 0 4.3048825098831908e-05 -0.033757824668584097 0 -0.0033735632827086898 -0.019439425681595766 0 -0.0030196590928545019 -0.019009738286968562 0 -0.0022518966564682549 -0.01923485873899794 0 -0.001683494890176065 -0.026596675223790851 0 -0.001538376310235364 -0.026387817407956555 0 -0.001538376310235364 -0.026387817407956555 0 -0.0010507583617521627 -0.025902818912026782 0 -0.0017623731872135604 -0.019819837871595324 0 -0.0022518966564682549 -0.01923485873899794 0 -0.0015259892733033983 -0.018829426326257375 0 -0.0030196590928545019 -0.019009738286968562 0 -0.0022405072309053258 -0.018029148138964529 0 -0.0022518966564682549 -0.01923485873899794 0 -0.0022405072309053258 -0.018029148138964529 0 -0.0022518966564682549 -0.01923485873899794 0 -0.0015259892733033983 -0.018829426326257375 0 -0.0015259892733033983 -0.018829426326257375 0 -0.0014428088385311038 -0.017994041921434049 0 -0.00063284738740759306 -0.018387991632932889 0 -0.0022405072309053258 -0.018029148138964529 0 -0.0015259892733033983 -0.018829426326257375 0 -0.0014428088385311038 -0.017994041921434049 0 3.3235578430426152e-05 -0.033786369844615555 0 4.3048825098831908e-05 -0.033757824668584097 0 5.7187943742579053e-05 -0.033609249026115222 0 5.1854667659373157e-05 -0.033757726221347567 0 3.3235578430426152e-05 -0.033786369844615555 0 4.3048825098831908e-05 -0.033757824668584097 0 -0.0014428088385311038 -0.017994041921434049 0 -0.0014519696004860764 -0.017199456703911601 0 -0.00098319939663948225 -0.017588457955334532 0 -0.0022405072309053258 -0.018029148138964529 0 -0.0014428088385311038 -0.017994041921434049 0 -0.0014519696004860764 -0.017199456703911601 0 -0.0010507583617521627 -0.025902818912026782 0 -0.00072267177415466499 -0.025505520632877737 0 0.0010185637196031907 -0.019152774626270026 0 0.00013124877571172024 -0.018891220769178454 0 0.00082157181829418165 -0.017513319759495872 0 0.0017554663868613912 -0.018580697563318274 0 0.00082157181829418165 -0.017513319759495872 0 0.0025598781296907662 -0.017399638458861458 0 0.0017554663868613912 -0.018580697563318274 0 0.0010185637196031907 -0.019152774626270026 0 0.00082157181829418165 -0.017513319759495872 0 -0.00063284738740759306 -0.018387991632932889 0 -0.00098319939663948225 -0.017588457955334532 0 0.00082157181829418165 -0.017513319759495872 0 -0.0007641244329095728 -0.019518226812784156 0 -0.0015259892733033983 -0.018829426326257375 0 -0.00063284738740759306 -0.018387991632932889 0 -0.0007641244329095728 -0.019518226812784156 0 0.00013124877571172024 -0.018891220769178454 0 -0.00063284738740759306 -0.018387991632932889 0 -0.0014428088385311038 -0.017994041921434049 0 -0.00063284738740759306 -0.018387991632932889 0 -0.00098319939663948225 -0.017588457955334532 0 0.00013124877571172024 -0.018891220769178454 0 -0.00063284738740759306 -0.018387991632932889 0 0.00082157181829418165 -0.017513319759495872 0 -0.00088999711842043146 -0.017541514980605855 0 0.00044571266649836509 -0.017370389964105743 0 -0.0014519696004860764 -0.017199456703911601 0 -0.0004688058224336722 -0.016858112969956526 0 -0.00032481368449784054 -0.016110483051723971 0 -0.00098319939663948225 -0.017588457955334532 0 -0.0004688058224336722 -0.016858112969956526 0 3.8287013787016519e-05 -0.017201971149035898 0 -0.0014519696004860764 -0.017199456703911601 0 -0.00098319939663948225 -0.017588457955334532 0 -0.0004688058224336722 -0.016858112969956526 0 0.00044571266649836509 -0.017370389964105743 0 0.0013656129660378398 -0.017016884546270535 0 3.8287013787016519e-05 -0.017201971149035898 0 0.00023187061868912073 -0.016586551296926471 0 0.00088909828725657178 -0.016963921997771823 0 -0.0004688058224336722 -0.016858112969956526 0 3.8287013787016519e-05 -0.017201971149035898 0 0.00023187061868912073 -0.016586551296926471 0 0.00023187061868912073 -0.016586551296926471 0 0.00073246838688684982 -0.016405056077602734 0 0.00088909828725657178 -0.016963921997771823 0 0.00089802319664148756 -0.016379256896919662 0 0.0013656129660378398 -0.017016884546270535 0 0.00073246838688684982 -0.016405056077602734 0 0.00087572946904136348 -0.016304219167783348 0 0.00079048350260252061 -0.016443840808684995 0 0.001117234499686 -0.016485502956297356 0 0.0012943173612773352 -0.016469048276843423 0 0.0011517961927276824 -0.016617792111611521 0 0.0013656129660378398 -0.017016884546270535 0 0.0011321523982803865 -0.015863353069315297 0 0.00087572946904136348 -0.016304219167783348 0 0.00079048350260252061 -0.016443840808684995 0 0.0011293381871745926 -0.016306073692214238 0 0.0011293381871745926 -0.016306073692214238 0 0.00098838454536969008 -0.016120257882223269 0 0.0011435225475817299 -0.01589397230428044 0 0.00087572946904136348 -0.016304219167783348 0 0.0011293381871745926 -0.016306073692214238 0 0.00098838454536969008 -0.016120257882223269 0 0.00079597127714462802 -0.015317700192697247 0 0.00078212610302843112 -0.015508203797445047 0 0.00092149069056779789 -0.015462832998308704 0 0.00079597127714462802 -0.015317700192697247 0 0.00078212610302843112 -0.015508203797445047 0 0.00052926723549140701 -0.015561426050758526 0 0.0011321523982803865 -0.015863353069315297 0 0.0011180843733019875 -0.01676156672132062 0 0.00078212610302843112 -0.015508203797445047 0 0.00076177201972381814 -0.015646225101518359 0 0.00052926723549140701 -0.015561426050758526 0 0.00078212610302843112 -0.015508203797445047 0 0.00076177201972381814 -0.015646225101518359 0 0.00091745045630165032 -0.015606966455576998 0 0.0014665133864200958 -0.020166340020837652 0 0.0017554663868613912 -0.018580697563318274 0 0.0029029882070235593 -0.018680111519608359 0 0.0017554663868613912 -0.018580697563318274 0 0.0025598781296907662 -0.017399638458861458 0 0.0029029882070235593 -0.018680111519608359 0 0.0013656129660378398 -0.017016884546270535 0 0.0011180843733019875 -0.01676156672132062 0 0.00092774391574299443 -0.018525187040910746 0 0.0011180843733019875 -0.01676156672132062 0 0.00067706618673848897 -0.016535141129182477 0 0.00054437814601316682 -0.016710469032154975 0 0.00069141666563836564 -0.016763378755491463 0 0.00031828557942153903 -0.01670521920505821 0 0.00067706618673848897 -0.016535141129182477 0 0.00054437814601316682 -0.016710469032154975 0 0.00067706618673848897 -0.016535141129182477 0 0.00069141666563836564 -0.016763378755491463 0 0.00070353089481076515 -0.016763361053771977 0 0.00031828557942153903 -0.01670521920505821 0 0.00054437814601316682 -0.016710469032154975 0 0.00046665142274888663 -0.016912788821007173 0 0.00054437814601316682 -0.016710469032154975 0 0.00069141666563836564 -0.016763378755491463 0 0.00046665142274888663 -0.016912788821007173 0 0.0011180843733019875 -0.01676156672132062 0 0.00057904192130306647 -0.016204084868173801 0 0.00052926723549140701 -0.015561426050758526 0 0.00072674428128409279 -0.015798543079739092 0 0.00060914706759043974 -0.015996379082332778 0 0.00076177201972381814 -0.015646225101518359 0 0.00052926723549140701 -0.015561426050758526 0 0.00072674428128409279 -0.015798543079739092 0 0.00076177201972381814 -0.015646225101518359 0 0.00072674428128409279 -0.015798543079739092 0 0.00088409909447185108 -0.015749580649533957 0 0.00072674428128409279 -0.015798543079739092 0 0.00087017826879830348 -0.015908776453950751 0 0.00088409909447185108 -0.015749580649533957 0 0.00072674428128409279 -0.015798543079739092 0 0.00075050592205058806 -0.015937376326989879 0 0.00087017826879830348 -0.015908776453950751 0 0.00072674428128409279 -0.015798543079739092 0 0.00075050592205058806 -0.015937376326989879 0 0.00060914706759043974 -0.015996379082332778 0 0.00074541316274792907 -0.016557180724416812 0 0.00060914706759043974 -0.015996379082332778 0 0.00078215081689296593 -0.016238366584764213 0 0.00073153752770588126 -0.016579499705370739 0 0.00069141666563836564 -0.016763378755491463 0 0.00070353089481076515 -0.016763361053771977 0 0.00075050592205058806 -0.015937376326989879 0 0.00060914706759043974 -0.015996379082332778 0 0.00079518535104640615 -0.016051831827586609 0 0.00075050592205058806 -0.015937376326989879 0 0.00079518535104640615 -0.016051831827586609 0 0.00087017826879830348 -0.015908776453950751 0 0.00079518535104640615 -0.016051831827586609 0 0.00078215081689296593 -0.016238366584764213 0 0.00090685360439027979 -0.016191716845694884 0 0.00060914706759043974 -0.015996379082332778 0 0.00079518535104640615 -0.016051831827586609 0 0.00078215081689296593 -0.016238366584764213 0 0.00080646230138133588 -0.01760089973900231 0 0.00069141666563836564 -0.016763378755491463 0 0.00038385651202552009 -0.017214937556604529 0 0.00074724857576565482 -0.016832535209343098 0 0.00070985248519377434 -0.016890947468978398 0 0.00069141666563836564 -0.016763378755491463 0 0.00038385651202552009 -0.017214937556604529 0 0.00046665142274888663 -0.016912788821007173 0 0.0012974643285082496 -0.01598937855401 0 0.0011967745145753034 -0.01609707238890367 0 0.001190141831172515 -0.015908712971351987 0 0.0011967745145753034 -0.01609707238890367 0 0.0010575942047458789 -0.016000680875464211 0 0.001190141831172515 -0.015908712971351987 0 0.0014276637903013201 -0.016016698104588507 0 0.0012974643285082496 -0.01598937855401 0 0.0013571368025962858 -0.01584371582516126 0 0.0014276637903013201 -0.016016698104588507 0 0.0012974643285082496 -0.01598937855401 0 0.001328040068215788 -0.016120249871101836 0 0.0012974643285082496 -0.01598937855401 0 0.001328040068215788 -0.016120249871101836 0 0.0011967745145753034 -0.01609707238890367 0 0.0014343892180906318 -0.016191655428828538 0 0.0014276637903013201 -0.016016698104588507 0 0.001328040068215788 -0.016120249871101836 0 0.0014343892180906318 -0.016191655428828538 0 0.0012762408792772639 -0.016261615314752332 0 0.001328040068215788 -0.016120249871101836 0 0.0012762408792772639 -0.016261615314752332 0 0.001328040068215788 -0.016120249871101836 0 0.0011967745145753034 -0.01609707238890367 0 0.0011194812882612606 -0.016294089278679515 0 0.0012762408792772639 -0.016261615314752332 0 0.0011967745145753034 -0.01609707238890367 0 0.0011967745145753034 -0.01609707238890367 0 0.0010279138417092477 -0.016157812782449144 0 0.0010575942047458789 -0.016000680875464211 0 0.0011194812882612606 -0.016294089278679515 0 0.0011967745145753034 -0.01609707238890367 0 0.0010279138417092477 -0.016157812782449144 0 0.00079518535104640615 -0.016051831827586609 0 0.00090685360439027979 -0.016191716845694884 0 0.00094131232754140635 -0.016042113664814939 0 0.00094769513430767352 -0.016343155544406417 0 0.0010279138417092477 -0.016157812782449144 0 0.00090685360439027979 -0.016191716845694884 0 0.0010279138417092477 -0.016157812782449144 0 0.00090685360439027979 -0.016191716845694884 0 0.00094131232754140635 -0.016042113664814939 0 0.00079518535104640615 -0.016051831827586609 0 0.00094131232754140635 -0.016042113664814939 0 0.00087017826879830348 -0.015908776453950751 0 0.00094131232754140635 -0.016042113664814939 0 0.00097290567927130808 -0.015951195081091399 0 0.00087017826879830348 -0.015908776453950751 0 0.0010279138417092477 -0.016157812782449144 0 0.00094131232754140635 -0.016042113664814939 0 0.0010575942047458789 -0.016000680875464211 0 0.00094131232754140635 -0.016042113664814939 0 0.00097290567927130808 -0.015951195081091399 0 0.0010575942047458789 -0.016000680875464211 0 0.0010215050659201574 -0.015853974538474463 0 0.0011373118872950942 -0.015775087325653706 0 0.001190141831172515 -0.015908712971351987 0 0.00097290567927130808 -0.015951195081091399 0 0.0010575942047458789 -0.016000680875464211 0 0.0010215050659201574 -0.015853974538474463 0 0.0010575942047458789 -0.016000680875464211 0 0.0010215050659201574 -0.015853974538474463 0 0.001190141831172515 -0.015908712971351987 0 0.00097290567927130808 -0.015951195081091399 0 0.0010215050659201574 -0.015853974538474463 0 0.00087017826879830348 -0.015908776453950751 0 0.0010215050659201574 -0.015853974538474463 0 0.00087017826879830348 -0.015908776453950751 0 0.00088409909447185108 -0.015749580649533957 0 0.00076177201972381814 -0.015646225101518359 0 0.00088409909447185108 -0.015749580649533957 0 0.00091745045630165032 -0.015606966455576998 0 0.00088409909447185108 -0.015749580649533957 0 0.0010270845076268543 -0.015692237528302587 0 0.00091745045630165032 -0.015606966455576998 0 0.0010270845076268543 -0.015692237528302587 0 0.0011373118872950942 -0.015775087325653706 0 0.0011375534611965923 -0.015621242912316579 0 0.0010215050659201574 -0.015853974538474463 0 0.00088409909447185108 -0.015749580649533957 0 0.0010270845076268543 -0.015692237528302587 0 0.0010215050659201574 -0.015853974538474463 0 0.0010270845076268543 -0.015692237528302587 0 0.0011373118872950942 -0.015775087325653706 0 0.0012349218722160641 -0.015695533155321611 0 0.0011373118872950942 -0.015775087325653706 0 0.0011375534611965923 -0.015621242912316579 0 0.0012349218722160641 -0.015695533155321611 0 0.0011373118872950942 -0.015775087325653706 0 0.0012470399748367549 -0.015800541229244566 0 0.0011373118872950942 -0.015775087325653706 0 0.0012470399748367549 -0.015800541229244566 0 0.001190141831172515 -0.015908712971351987 0 0.0012470399748367549 -0.015800541229244566 0 0.001190141831172515 -0.015908712971351987 0 0.0013571368025962858 -0.01584371582516126 0 0.0012974643285082496 -0.01598937855401 0 0.001190141831172515 -0.015908712971351987 0 0.0013571368025962858 -0.01584371582516126 0 0.0012470399748367549 -0.015800541229244566 0 0.0013571368025962858 -0.01584371582516126 0 0.0013782198548931777 -0.015702533924749473 0 0.0012349218722160641 -0.015695533155321611 0 0.0012470399748367549 -0.015800541229244566 0 0.0013782198548931777 -0.015702533924749473 0 0.0012349218722160641 -0.015695533155321611 0 0.0013782198548931777 -0.015702533924749473 0 0.0012869616844704602 -0.015596294457957922 0 0.0012869616844704602 -0.015596294457957922 0 0.0011835350350634698 -0.015494687971561028 0 0.0013649584381062187 -0.01549005587165099 0 0.0014317509641324951 -0.015578095308408306 0 0.0013782198548931777 -0.015702533924749473 0 0.0012869616844704602 -0.015596294457957922 0 0.0014317509641324951 -0.015578095308408306 0 0.0012869616844704602 -0.015596294457957922 0 0.0013649584381062187 -0.01549005587165099 0 0.0012349218722160641 -0.015695533155321611 0 0.0012869616844704602 -0.015596294457957922 0 0.0011375534611965923 -0.015621242912316579 0 0.0012869616844704602 -0.015596294457957922 0 0.0011375534611965923 -0.015621242912316579 0 0.0011835350350634698 -0.015494687971561028 0 0.0011375534611965923 -0.015621242912316579 0 0.0011835350350634698 -0.015494687971561028 0 0.0010452517228064612 -0.0155357848633185 0 0.0011835350350634698 -0.015494687971561028 0 0.0010463605946145532 -0.015416169462957654 0 0.0011747341722785623 -0.015400333204023502 0 0.0011835350350634698 -0.015494687971561028 0 0.0012999178954937196 -0.015400930411577555 0 0.0011747341722785623 -0.015400333204023502 0 0.0011835350350634698 -0.015494687971561028 0 0.0012999178954937196 -0.015400930411577555 0 0.0013649584381062187 -0.01549005587165099 0 0.00091745045630165032 -0.015606966455576998 0 0.0010452517228064612 -0.0155357848633185 0 0.00092149069056779789 -0.015462832998308704 0 0.0010270845076268543 -0.015692237528302587 0 0.0011375534611965923 -0.015621242912316579 0 0.0010452517228064612 -0.0155357848633185 0 0.0010270845076268543 -0.015692237528302587 0 0.00091745045630165032 -0.015606966455576998 0 0.0010452517228064612 -0.0155357848633185 0 0.0010452517228064612 -0.0155357848633185 0 0.0010463605946145532 -0.015416169462957654 0 0.00092149069056779789 -0.015462832998308704 0 0.0011835350350634698 -0.015494687971561028 0 0.0010452517228064612 -0.0155357848633185 0 0.0010463605946145532 -0.015416169462957654 0 0.00078212610302843112 -0.015508203797445047 0 0.00091745045630165032 -0.015606966455576998 0 0.00092149069056779789 -0.015462832998308704 0 0.00079597127714462802 -0.015317700192697247 0 0.0010463605946145532 -0.015416169462957654 0 0.0011629734444464919 -0.015313635113306847 0 0.0015896850858287781 -0.015464794760057533 0 0.0011629734444464919 -0.015313635113306847 0 0.0013464723693368628 -0.01570643738420243 0 0.00079597127714462802 -0.015317700192697247 0 0.0010463605946145532 -0.015416169462957654 0 0.00092149069056779789 -0.015462832998308704 0 0.0011321523982803865 -0.015863353069315297 0 0.0011832889273330318 -0.015217868450913098 0 0.0011321523982803865 -0.015863353069315297 0 0.0013855783677949481 -0.015731280948099231 0 0.0013026453990779246 -0.015311046298625085 0 0.0011747341722785623 -0.015400333204023502 0 0.0011629734444464919 -0.015313635113306847 0 0.0012999178954937196 -0.015400930411577555 0 0.0013026453990779246 -0.015311046298625085 0 0.0011747341722785623 -0.015400333204023502 0 0.0010463605946145532 -0.015416169462957654 0 0.0011747341722785623 -0.015400333204023502 0 0.0011629734444464919 -0.015313635113306847 0 0.0011629734444464919 -0.015313635113306847 0 0.0011529523738277852 -0.015407871330935838 0 0.0013464723693368628 -0.01570643738420243 0 0.0011629734444464919 -0.015313635113306847 0 0.0011529523738277852 -0.015407871330935838 0 0.0012451633480554331 -0.015279369557667986 0 0.0011529523738277852 -0.015407871330935838 0 0.0012451633480554331 -0.015279369557667986 0 0.0012746911402258263 -0.015123672918279036 0 0.0013026453990779246 -0.015311046298625085 0 0.0011629734444464919 -0.015313635113306847 0 0.0012451633480554331 -0.015279369557667986 0 0.0014086904538011056 -0.015161672349128043 0 0.0013026453990779246 -0.015311046298625085 0 0.0012451633480554331 -0.015279369557667986 0 0.0014086904538011056 -0.015161672349128043 0 0.0012451633480554331 -0.015279369557667986 0 0.0012746911402258263 -0.015123672918279036 0 0.0011529523738277852 -0.015407871330935838 0 0.0011635895914771707 -0.014920872282907921 0 0.00078338580926492465 -0.014691298953200909 0 0.0014086904538011056 -0.015161672349128043 0 0.0012746911402258263 -0.015123672918279036 0 0.0014145687281930622 -0.014826929193280941 0 0.0011529523738277852 -0.015407871330935838 0 0.0012746911402258263 -0.015123672918279036 0 0.0011635895914771707 -0.014920872282907921 0 0.0011162217333177036 -0.015358490599584709 0 0.0010964552297512255 -0.015338381874029252 0 0.0011635895914771707 -0.014920872282907921 0 0.00078338580926492465 -0.014691298953200909 0 0.0011089879604434969 -0.014585926227847807 0 0.0012746911402258263 -0.015123672918279036 0 0.0011635895914771707 -0.014920872282907921 0 0.0014145687281930622 -0.014826929193280941 0 0.0011635895914771707 -0.014920872282907921 0 0.0011089879604434969 -0.014585926227847807 0 0.0014145687281930622 -0.014826929193280941 0 0.0011293381871745926 -0.016306073692214238 0 0.0013464723693368628 -0.01570643738420243 0 0.0011435225475817299 -0.01589397230428044 0 0.0011529523738277852 -0.015407871330935838 0 0.0013464723693368628 -0.01570643738420243 0 0.0012886583399160396 -0.015805567152174665 0 0.0013464723693368628 -0.01570643738420243 0 0.0012482260412268271 -0.015789257629463371 0 0.0012886583399160396 -0.015805567152174665 0 0.0013464723693368628 -0.01570643738420243 0 0.0012482260412268271 -0.015789257629463371 0 0.0011435225475817299 -0.01589397230428044 0 0.0012510691534962203 -0.015703544800680539 0 0.0012886583399160396 -0.015805567152174665 0 0.0012763546205279985 -0.015533560119216383 0 0.00078338580926492465 -0.014691298953200909 0 0.00090216539700176753 -0.014291797919354341 0 0.00056176556389911489 -0.014122672182010064 0 0.0010964552297512255 -0.015338381874029252 0 0.00049731121011823819 -0.014330381201429838 0 0.0012482260412268271 -0.015789257629463371 0 0.0011963478714111951 -0.015722294008603109 0 0.0012510691534962203 -0.015703544800680539 0 0.0012482260412268271 -0.015789257629463371 0 0.0011963478714111951 -0.015722294008603109 0 0.001134704978127708 -0.015778336854390531 0 0.0012482260412268271 -0.015789257629463371 0 0.0012510691534962203 -0.015703544800680539 0 0.0012886583399160396 -0.015805567152174665 0 0.0012510691534962203 -0.015703544800680539 0 0.0012309281603008076 -0.015626561250468046 0 0.0012636647750780999 -0.015556517042884193 0 0.0012510691534962203 -0.015703544800680539 0 0.0012636647750780999 -0.015556517042884193 0 0.0012763546205279985 -0.015533560119216383 0 0.0012510691534962203 -0.015703544800680539 0 0.0012309281603008076 -0.015626561250468046 0 0.0011947381117659538 -0.015655468066164746 0 0.0012309281603008076 -0.015626561250468046 0 0.0012048975448563208 -0.015587794333185193 0 0.0012636647750780999 -0.015556517042884193 0 0.0012309281603008076 -0.015626561250468046 0 0.0012048975448563208 -0.015587794333185193 0 0.0011947381117659538 -0.015655468066164746 0 0.0012048975448563208 -0.015587794333185193 0 0.0011947381117659538 -0.015655468066164746 0 0.0011528825418990927 -0.015601434086312189 0 0.0011963478714111951 -0.015722294008603109 0 0.0012510691534962203 -0.015703544800680539 0 0.0011947381117659538 -0.015655468066164746 0 0.0011089879604434969 -0.014585926227847807 0 0.0014145687281930622 -0.014826929193280941 0 0.0014025875502492197 -0.014169112750688434 0 0.0011089879604434969 -0.014585926227847807 0 0.00090216539700176753 -0.014291797919354341 0 0.0014025875502492197 -0.014169112750688434 0 0.00078338580926492465 -0.014691298953200909 0 0.0011089879604434969 -0.014585926227847807 0 0.00090216539700176753 -0.014291797919354341 0 0.00064552067943907067 -0.0047227745352569576 0 0.00079728201061941774 -0.0047349527382396523 0 0.000531284333176674 -0.0045809386650512924 0 0.00021483300696812066 -0.010730075049393804 0 0.001024271685467492 -0.0092137671651745124 0 0.00090216539700176753 -0.014291797919354341 0 0.00063706284794376694 -0.013903558660152799 0 0.0014025875502492197 -0.014169112750688434 0 0.00090216539700176753 -0.014291797919354341 0 0.00056176556389911489 -0.014122672182010064 0 0.00063706284794376694 -0.013903558660152799 0 0.0012751330945459493 -0.015523294526559725 0 0.0012185336906625024 -0.015366355506072408 0 0.0011439681398004134 -0.015486318844281897 0 0.00049731121011823819 -0.014330381201429838 0 0.00052563020770039846 -0.014009984017901694 0 0.00013754045910189557 -0.013143304812983833 0 5.7528573627609402e-06 -0.012816257548004481 0 0.00022857476638274234 -0.012876920438528009 0 0.0012048975448563208 -0.015587794333185193 0 0.0012636647750780999 -0.015556517042884193 0 0.0011439681398004134 -0.015486318844281897 0 0.0012636647750780999 -0.015556517042884193 0 0.0012751330945459493 -0.015523294526559725 0 0.0011439681398004134 -0.015486318844281897 0 0.0004959321766334593 -0.014427077867811189 0 0.00049731121011823819 -0.014330381201429838 0 0.00049731121011823819 -0.014330381201429838 0 0.00021483300696812066 -0.010730075049393804 0 0.00052563020770039846 -0.014009984017901694 0 0.00021483300696812066 -0.010730075049393804 0 0.00089959496522874554 -0.012374953224744259 0 0.00068104759568868908 -0.012309388084314801 0 0.00072110687784530231 -0.012587279760223934 0 0.00064552067943907067 -0.0047227745352569576 0 0.00079728201061941774 -0.0047349527382396523 0 0.00073265641431593002 -0.0047996828277087553 0 0.00021483300696812066 -0.010730075049393804 0 0.00064402478292909166 -0.0098210154779689515 0 0.00068104759568868908 -0.012309388084314801 0 0.00050532488770732955 -0.012818513384059106 0 0.00072110687784530231 -0.012587279760223934 0 0.00079728201061941774 -0.0047349527382396523 0 0.00074692242937586539 -0.0048727609461613414 0 0.00073265641431593002 -0.0047996828277087553 0 0.00052563020770039846 -0.014009984017901694 0 0.0012012825980131819 -0.015873197497235824 0 0.00050532488770732955 -0.012818513384059106 0 0.00072110687784530231 -0.012587279760223934 0 0.0010996587554793415 -0.012861580352349579 0 0.00089959496522874554 -0.012374953224744259 0 0.00072110687784530231 -0.012587279760223934 0 0.0010996587554793415 -0.012861580352349579 0 0.00064402478292909166 -0.0098210154779689515 0 0.0012012825980131819 -0.015873197497235824 0 0.00045746450831969047 -0.014817791117636654 0 0.0016575611332059308 -0.014888718308202998 0 0.00088057972160032305 -0.015727750599682924 0 0.00031746899132776527 -0.0067352592316657677 0 5.1076257585012487e-05 -0.0066447644569584303 0 0.00012066591669630897 -0.0067242968107738086 0 0.00064402478292909166 -0.0098210154779689515 0 0.00020937547217090034 -0.005151840403083593 0 0.00064402478292909166 -0.0098210154779689515 0 -5.7842213133381962e-05 -0.008188875820518542 0 0.00064552067943907067 -0.0047227745352569576 0 0.00074692242937586539 -0.0048727609461613414 0 0.00043734120490362196 -0.004762368092611111 0 0.0007658384654023341 -0.0095524968241178076 0 0.00032758315136365793 -0.010010870821059659 0 -0.00025392631941760892 -0.0098199989966318915 0 0.00064552067943907067 -0.0047227745352569576 0 0.00074692242937586539 -0.0048727609461613414 0 0.00073265641431593002 -0.0047996828277087553 0 0.0020716770157073561 -0.021874841457252468 0 0.0005953070706473172 -0.029785470328995801 0 0.0012758744516660769 -0.022513422907765607 0 0.001776503309585059 -0.022703007076858111 0 0.0013604124254239323 -0.022832753626502764 0 0.0012758744516660769 -0.022513422907765607 0 0.0010197240865566677 -0.022768463863349412 0 0.0013604124254239323 -0.022832753626502764 0 0.00051443821934652161 -0.01707994645066855 0 0.0020821324092320523 -0.017557956748250895 0 0.0014735771313181035 -0.01810469834831982 0 0.0018710732742414069 -0.015415129605116401 0 0.0016575611332059308 -0.014888718308202998 0 0.00088057972160032305 -0.015727750599682924 0 0.001317081413870054 -0.016683903584673237 0 0.0012012825980131819 -0.015873197497235824 0 0.0014735771313181035 -0.01810469834831982 0 0.001147618641020416 -0.018603751463778229 0 0.00093470176724290757 -0.018078664309785265 0 0.0014429412751499812 -0.019546629298156773 0 0.0012012825980131819 -0.015873197497235824 0 0.00051443821934652161 -0.01707994645066855 0 0.0014735771313181035 -0.01810469834831982 0 0.00092311091174713232 -0.018075260823166489 0 0.0020716770157073561 -0.021874841457252468 0 0.0014429412751499812 -0.019546629298156773 0 0.0020821324092320523 -0.017557956748250895 0 0.0014735771313181035 -0.01810469834831982 0 0.001147618641020416 -0.018603751463778229 0 0.00052563020770039846 -0.014009984017901694 0 0.0020716770157073561 -0.021874841457252468 0 0.00084920211275256907 -0.015264051551944003 0 0.0011439681398004134 -0.015486318844281897 0 0.00095395208608141466 -0.015539109468162393 0 0.0012185336906625024 -0.015366355506072408 0 0.00084920211275256907 -0.015264051551944003 0 0.0011439681398004134 -0.015486318844281897 0 0.0011439681398004134 -0.015486318844281897 0 0.00095395208608141466 -0.015539109468162393 0 0.0010734242816978828 -0.015598885054141804 0 0.0012048975448563208 -0.015587794333185193 0 0.0011439681398004134 -0.015486318844281897 0 0.0011528825418990927 -0.015601434086312189 0 0.0011439681398004134 -0.015486318844281897 0 0.0011528825418990927 -0.015601434086312189 0 0.0010734242816978828 -0.015598885054141804 0 0.0020716770157073561 -0.021874841457252468 0 0.0011428697552175835 -0.023598054860824069 0 0.0035583555892842187 -0.029508115395567729 0 0.0018957526034612082 -0.031457752671936748 0 0.0011566690902247798 -0.028903464533853545 0 0.00084920211275256907 -0.015264051551944003 0 0.00095395208608141466 -0.015539109468162393 0 0.00043537443411917115 -0.015569578747021046 0 0.00095395208608141466 -0.015539109468162393 0 0.00075656038255638683 -0.015760348891013853 0 0.00043537443411917115 -0.015569578747021046 0 0.00075656038255638683 -0.015760348891013853 0 0.00047184073582974572 -0.016047692904291144 0 0.00043537443411917115 -0.015569578747021046 0 0.00075656038255638683 -0.015760348891013853 0 0.00097936832892454493 -0.015701023979740852 0 0.00090600156266695559 -0.015873552425871691 0 0.0011963478714111951 -0.015722294008603109 0 0.0011947381117659538 -0.015655468066164746 0 0.0011356173415284065 -0.015677395010678059 0 0.0011947381117659538 -0.015655468066164746 0 0.0011356173415284065 -0.015677395010678059 0 0.0011528825418990927 -0.015601434086312189 0 0.0011356173415284065 -0.015677395010678059 0 0.0011528825418990927 -0.015601434086312189 0 0.0010734242816978828 -0.015598885054141804 0 0.0011356173415284065 -0.015677395010678059 0 0.0010734242816978828 -0.015598885054141804 0 0.0010716494599596847 -0.015717980947135002 0 0.00095395208608141466 -0.015539109468162393 0 0.0010734242816978828 -0.015598885054141804 0 0.00097936832892454493 -0.015701023979740852 0 0.00095395208608141466 -0.015539109468162393 0 0.00075656038255638683 -0.015760348891013853 0 0.00097936832892454493 -0.015701023979740852 0 0.0010734242816978828 -0.015598885054141804 0 0.00097936832892454493 -0.015701023979740852 0 0.0010716494599596847 -0.015717980947135002 0 0.00097936832892454493 -0.015701023979740852 0 0.0010264993702096446 -0.015833262211830419 0 0.00090600156266695559 -0.015873552425871691 0 0.00097936832892454493 -0.015701023979740852 0 0.0010264993702096446 -0.015833262211830419 0 0.0010716494599596847 -0.015717980947135002 0 0.0011356173415284065 -0.015677395010678059 0 0.0010716494599596847 -0.015717980947135002 0 0.001134704978127708 -0.015778336854390531 0 0.0010264993702096446 -0.015833262211830419 0 0.0010716494599596847 -0.015717980947135002 0 0.001134704978127708 -0.015778336854390531 0 0.0011963478714111951 -0.015722294008603109 0 0.0011356173415284065 -0.015677395010678059 0 0.001134704978127708 -0.015778336854390531 0 0.0010264993702096446 -0.015833262211830419 0 0.001134704978127708 -0.015778336854390531 0 0.0011435225475817299 -0.01589397230428044 0 0.0012482260412268271 -0.015789257629463371 0 0.001134704978127708 -0.015778336854390531 0 0.0011435225475817299 -0.01589397230428044 0 0.0010264993702096446 -0.015833262211830419 0 0.00097225129265468156 -0.015957918697406346 0 0.0011435225475817299 -0.01589397230428044 0 0.0010264993702096446 -0.015833262211830419 0 0.00090600156266695559 -0.015873552425871691 0 0.00097225129265468156 -0.015957918697406346 0 0.00097225129265468156 -0.015957918697406346 0 0.00098838454536969008 -0.016120257882223269 0 0.00080782012845994787 -0.016032199370266093 0 0.00097225129265468156 -0.015957918697406346 0 0.00098838454536969008 -0.016120257882223269 0 0.0011435225475817299 -0.01589397230428044 0 0.00075656038255638683 -0.015760348891013853 0 0.00080782012845994787 -0.016032199370266093 0 0.00047184073582974572 -0.016047692904291144 0 0.00075656038255638683 -0.015760348891013853 0 0.00090600156266695559 -0.015873552425871691 0 0.00080782012845994787 -0.016032199370266093 0 0.00090600156266695559 -0.015873552425871691 0 0.00097225129265468156 -0.015957918697406346 0 0.00080782012845994787 -0.016032199370266093 0 0.00087572946904136348 -0.016304219167783348 0 0.00098838454536969008 -0.016120257882223269 0 0.00080782012845994787 -0.016032199370266093 0 0.00073246838688684982 -0.016405056077602734 0 0.00087572946904136348 -0.016304219167783348 0 0.00080782012845994787 -0.016032199370266093 0 0.00073246838688684982 -0.016405056077602734 0 0.00080782012845994787 -0.016032199370266093 0 0.00047184073582974572 -0.016047692904291144 0 0.00023187061868912073 -0.016586551296926471 0 0.00073246838688684982 -0.016405056077602734 0 0.00047184073582974572 -0.016047692904291144 0 0.00023187061868912073 -0.016586551296926471 0 0.00047184073582974572 -0.016047692904291144 0 -0.00032481368449784054 -0.016110483051723971 0 -0.0004688058224336722 -0.016858112969956526 0 0.00023187061868912073 -0.016586551296926471 0 -0.00032481368449784054 -0.016110483051723971 0 3.3235578430426152e-05 -0.033786369844615555 0 0.00022230840819249613 -0.033369425833550077 0 0.00045083704855248733 -0.03311754072270072 0 0.00022230840819249613 -0.033369425833550077 0 0.00045083704855248733 -0.03311754072270072 0 0.00044624496718852691 -0.031404900680358498 0 -0.00072267177415466499 -0.025505520632877737 0 7.6641468295668004e-05 -0.024607478288119055 0 2.8662237978554375e-05 -0.033604237255112468 0 0.00013725654622422421 -0.033511046176956633 0 9.0361095144689976e-05 -0.033587147374699575 0 0.00022119642338908234 -0.033165890334515266 0 0.00021466563893108136 -0.032821770692968953 0 0.00022230840819249613 -0.033369425833550077 0 2.8662237978554375e-05 -0.033604237255112468 0 0.00013725654622422421 -0.033511046176956633 0 0.00045083704855248733 -0.03311754072270072 0 0.00044624496718852691 -0.031404900680358498 0 0.0018957526034612082 -0.031457752671936748 0 0.00047184073582974572 -0.016047692904291144 0 -0.00032481368449784054 -0.016110483051723971 0 0.00043537443411917115 -0.015569578747021046 0 7.6641468295668004e-05 -0.024607478288119055 0 0.0011428697552175835 -0.023598054860824069 0 4.3048825098831908e-05 -0.033757824668584097 0 5.7187943742579053e-05 -0.033609249026115222 0 3.9064306877104766e-05 -0.033667173588008019 0 0.00022230840819249613 -0.033369425833550077 0 0.00013725654622422421 -0.033511046176956633 0 5.7187943742579053e-05 -0.033609249026115222 0 3.3235578430426152e-05 -0.033786369844615555 0 0.00022230840819249613 -0.033369425833550077 0 5.7187943742579053e-05 -0.033609249026115222 0 5.7187943742579053e-05 -0.033609249026115222 0 9.0361095144689976e-05 -0.033587147374699575 0 3.9064306877104766e-05 -0.033667173588008019 0 0.00013725654622422421 -0.033511046176956633 0 5.7187943742579053e-05 -0.033609249026115222 0 9.0361095144689976e-05 -0.033587147374699575 0 9.0361095144689976e-05 -0.033587147374699575 0 3.9064306877104766e-05 -0.033667173588008019 0 3.8281225700975028e-05 -0.033652422161655857 0 3.9064306877104766e-05 -0.033667173588008019 0 3.8281225700975028e-05 -0.033652422161655857 0 -3.9913510376714797e-05 -0.033719605828636368 0 3.8281225700975028e-05 -0.033652422161655857 0 1.3672752929450709e-05 -0.033670732289368607 0 -3.9913510376714797e-05 -0.033719605828636368 0 9.0361095144689976e-05 -0.033587147374699575 0 3.8281225700975028e-05 -0.033652422161655857 0 4.0986776143731143e-05 -0.033640894316171226 0 3.8281225700975028e-05 -0.033652422161655857 0 4.0986776143731143e-05 -0.033640894316171226 0 1.3672752929450709e-05 -0.033670732289368607 0 3.268712089461489e-05 -0.033647030162998449 0 1.3672752929450709e-05 -0.033670732289368607 0 -2.5923516228217097e-05 -0.033683318838816562 0 4.0986776143731143e-05 -0.033640894316171226 0 3.268712089461489e-05 -0.033647030162998449 0 1.3672752929450709e-05 -0.033670732289368607 0 1.3672752929450709e-05 -0.033670732289368607 0 -2.5923516228217097e-05 -0.033683318838816562 0 -3.9913510376714797e-05 -0.033719605828636368 0 0.00044624496718852691 -0.031404900680358498 0 0.0018957526034612082 -0.031457752671936748 0 0.0011566690902247798 -0.028903464533853545 0 0.00021466563893108136 -0.032821770692968953 0 0.0005953070706473172 -0.029785470328995801 0 2.8662237978554375e-05 -0.033604237255112468 0 4.0986776143731143e-05 -0.033640894316171226 0 2.6537862495610092e-05 -0.03361588059792342 0 2.8662237978554375e-05 -0.033604237255112468 0 9.0361095144689976e-05 -0.033587147374699575 0 4.0986776143731143e-05 -0.033640894316171226 0 -7.7911086317047687e-05 -0.034054214308060833 0 0.0005953070706473172 -0.029785470328995801 0 4.0986776143731143e-05 -0.033640894316171226 0 3.268712089461489e-05 -0.033647030162998449 0 2.6537862495610092e-05 -0.03361588059792342 0 0.0005953070706473172 -0.029785470328995801 0 0.00083913460095676499 -0.028135605690828326 0 0.001776503309585059 -0.022703007076858111 0 0.0016558830263937534 -0.023214973984084439 0 0.0013604124254239323 -0.022832753626502764 0 -0.00014925709309530493 -0.03371718631339643 0 -0.00015670882586366343 -0.03374720998523318 0 -0.00013521921253280132 -0.033723092682445985 0 -0.00017082826344090997 -0.033758300788401419 0 -0.00015670882586366343 -0.03374720998523318 0 -0.00018405700547709255 -0.033772869565364884 0 -0.00017082826344090997 -0.033758300788401419 0 -0.00014925709309530493 -0.03371718631339643 0 -0.00015670882586366343 -0.03374720998523318 0 -0.00015670882586366343 -0.03374720998523318 0 -0.00018405700547709255 -0.033772869565364884 0 -0.00014370160987304506 -0.033757823268272008 0 -0.00013521921253280132 -0.033723092682445985 0 -0.00014370160987304506 -0.033757823268272008 0 -8.6459813383388495e-05 -0.033732819453826723 0 -0.00015670882586366343 -0.03374720998523318 0 -0.00013521921253280132 -0.033723092682445985 0 -0.00014370160987304506 -0.033757823268272008 0 -0.00020234536567377882 -0.033771968170783123 0 -0.00021711037579699859 -0.033812147112150637 0 -0.00022136440984871117 -0.033826877086580137 0 -0.00020234536567377882 -0.033771968170783123 0 -0.00018405700547709255 -0.033772869565364884 0 -0.00021711037579699859 -0.033812147112150637 0 -0.00017082826344090997 -0.033758300788401419 0 -0.00020234536567377882 -0.033771968170783123 0 -0.00018405700547709255 -0.033772869565364884 0 -7.7911086317047687e-05 -0.034054214308060833 0 -0.00012115533910234978 -0.033696681281376741 0 -0.00021711037579699859 -0.033812147112150637 0 -0.00018653795740990238 -0.033779978750161289 0 -0.00024083410860703181 -0.033821323952430031 0 -0.00021711037579699859 -0.033812147112150637 0 -0.00025230708351473854 -0.033850472278819224 0 -0.00024083410860703181 -0.033821323952430031 0 -0.00018405700547709255 -0.033772869565364884 0 -0.00021711037579699859 -0.033812147112150637 0 -0.00018653795740990238 -0.033779978750161289 0 -0.00018653795740990238 -0.033779978750161289 0 -0.00017980325203506456 -0.033760818984000927 0 -0.00024083410860703181 -0.033821323952430031 0 -0.00014370160987304506 -0.033757823268272008 0 -8.7246170727720086e-05 -0.033732433884294033 0 -8.6459813383388495e-05 -0.033732819453826723 0 -0.00018653795740990238 -0.033779978750161289 0 -0.00014370160987304506 -0.033757823268272008 0 -0.00017980325203506456 -0.033760818984000927 0 -0.00018405700547709255 -0.033772869565364884 0 -0.00018653795740990238 -0.033779978750161289 0 -0.00014370160987304506 -0.033757823268272008 0 -0.00022288541939155838 -0.033746240735445118 0 -9.7067370009987247e-05 -0.033739300426585676 0 -0.00014370160987304506 -0.033757823268272008 0 -0.00017980325203506456 -0.033760818984000927 0 -8.7246170727720086e-05 -0.033732433884294033 0 -0.00027257977760389648 -0.033734069449867427 0 -8.7246170727720086e-05 -0.033732433884294033 0 -9.9982143043180144e-05 -0.033661296744103383 0 -8.7246170727720086e-05 -0.033732433884294033 0 4.6855323039849188e-05 -0.033679921146024548 0 -9.9982143043180144e-05 -0.033661296744103383 0 0.00073691417424876339 -0.028900053668244063 0 0.00089495176649279117 -0.029328544574490221 0 -8.7246170727720086e-05 -0.033732433884294033 0 -8.6459813383388495e-05 -0.033732819453826723 0 4.6855323039849188e-05 -0.033679921146024548 0 0.0015810726445318441 -0.023897978509642273 0 0.0010996130169773053 -0.023931633958825638 0 0.0017034120000841084 -0.024920743023250477 0 0.0015810726445318441 -0.023897978509642273 0 0.0010996130169773053 -0.023931633958825638 0 0.0011952955013369176 -0.02346683804811376 0 0.00083269596086232313 -0.023615199354833187 0 0.0010996130169773053 -0.023931633958825638 0 0.0011952955013369176 -0.02346683804811376 0 0.00083269596086232313 -0.023615199354833187 0 0.0010996130169773053 -0.023931633958825638 0 0.0005591513905712711 -0.023940591943041597 0 0.0010996130169773053 -0.023931633958825638 0 0.0007657100197777869 -0.024341292736853332 0 0.0017034120000841084 -0.024920743023250477 0 0.0010996130169773053 -0.023931633958825638 0 0.0007657100197777869 -0.024341292736853332 0 0.0005591513905712711 -0.023940591943041597 0 0.0007657100197777869 -0.024341292736853332 0 0.00021892496287614238 -0.02441090001193056 0 0.00032374062274992112 -0.024881595735663769 0 0.00021892496287614238 -0.02441090001193056 0 -1.1640638801870693e-05 -0.024299290029517601 0 -0.00011012777565530909 -0.024511783538448829 0 0.00021892496287614238 -0.02441090001193056 0 0.00017610737009180957 -0.024094412258919132 0 0.0005591513905712711 -0.023940591943041597 0 0.00021892496287614238 -0.02441090001193056 0 0.00017610737009180957 -0.024094412258919132 0 -1.1640638801870693e-05 -0.024299290029517601 0 0.0007657100197777869 -0.024341292736853332 0 0.00021892496287614238 -0.02441090001193056 0 0.0005591513905712711 -0.023940591943041597 0 -0.00011667873824479411 -0.024264501220746127 0 -1.1640638801870693e-05 -0.024299290029517601 0 -8.1076453294243674e-05 -0.024157824110959746 0 -0.00011667873824479411 -0.024264501220746127 0 -1.1640638801870693e-05 -0.024299290029517601 0 -0.00011012777565530909 -0.024511783538448829 0 0.00017610737009180957 -0.024094412258919132 0 -1.1640638801870693e-05 -0.024299290029517601 0 -8.1076453294243674e-05 -0.024157824110959746 0 -8.1076453294243674e-05 -0.024157824110959746 0 -0.00017369701042235856 -0.024043424467052578 0 -0.00014031658574586181 -0.024180137458198091 0 -0.00011667873824479411 -0.024264501220746127 0 -8.1076453294243674e-05 -0.024157824110959746 0 -0.00014031658574586181 -0.024180137458198091 0 2.877077408567901e-05 -0.023942306645583371 0 -0.00017353036454073321 -0.023798281512016146 0 0.00027275955148580306 -0.02365714611666871 0 -8.1076453294243674e-05 -0.024157824110959746 0 2.877077408567901e-05 -0.023942306645583371 0 -0.00017369701042235856 -0.024043424467052578 0 2.877077408567901e-05 -0.023942306645583371 0 -0.00017353036454073321 -0.023798281512016146 0 -0.00017369701042235856 -0.024043424467052578 0 -0.00018806710531090674 -0.01885755373436725 0 -0.00096686833162326006 -0.023500763445908231 0 0.00017610737009180957 -0.024094412258919132 0 -8.1076453294243674e-05 -0.024157824110959746 0 2.877077408567901e-05 -0.023942306645583371 0 0.00083269596086232313 -0.023615199354833187 0 0.0005591513905712711 -0.023940591943041597 0 0.00027275955148580306 -0.02365714611666871 0 0.00017610737009180957 -0.024094412258919132 0 0.0005591513905712711 -0.023940591943041597 0 0.00027275955148580306 -0.02365714611666871 0 0.00017610737009180957 -0.024094412258919132 0 2.877077408567901e-05 -0.023942306645583371 0 0.00027275955148580306 -0.02365714611666871 0 0.00083269596086232313 -0.023615199354833187 0 0.00027275955148580306 -0.02365714611666871 0 0.00078130976393858003 -0.023259096498466317 0 0.00027275955148580306 -0.02365714611666871 0 0.00032871301954736661 -0.023170450301379635 0 0.00078130976393858003 -0.023259096498466317 0 -0.00018806710531090674 -0.01885755373436725 0 0.00031558347733015303 -0.020338776990483923 0 -0.00074500150918951967 -0.018419087993132049 0 0.00056075779806693507 -0.016905943279397994 0 -0.00014850273033845121 -0.01661359930305421 0 -0.00018806710531090674 -0.01885755373436725 0 0.00014160245969058123 -0.013398660174581037 0 -1.1192091873324179e-05 -0.011879952138132768 0 0.00038992026794864155 -0.010686634261544561 0 -0.00031226483141253407 -0.01117642893353548 0 -0.00017353036454073321 -0.023798281512016146 0 0.00027275955148580306 -0.02365714611666871 0 0.00032871301954736661 -0.023170450301379635 0 -5.0690878168549229e-05 -0.010494409704148786 0 0.00038992026794864155 -0.010686634261544561 0 -0.00031226483141253407 -0.01117642893353548 0 0.0007658384654023341 -0.0095524968241178076 0 0.00038992026794864155 -0.010686634261544561 0 0.00032758315136365793 -0.010010870821059659 0 0.00064402478292909166 -0.0098210154779689515 0 0.00014160245969058123 -0.013398660174581037 0 -5.0690878168549229e-05 -0.010494409704148786 0 0.00038992026794864155 -0.010686634261544561 0 0.00032758315136365793 -0.010010870821059659 0 -5.0690878168549229e-05 -0.010494409704148786 0 0.00032758315136365793 -0.010010870821059659 0 -0.00025392631941760892 -0.0098199989966318915 0 0.0018710732742414069 -0.015415129605116401 0 0.00056075779806693507 -0.016905943279397994 0 0.00088057972160032305 -0.015727750599682924 0 0.00092047742782880716 -0.022565036394528032 0 0.00032871301954736661 -0.023170450301379635 0 0.00078130976393858003 -0.023259096498466317 0 0.0014429412751499812 -0.019546629298156773 0 0.00031558347733015303 -0.020338776990483923 0 0.00045746450831969047 -0.014817791117636654 0 -0.00014850273033845121 -0.01661359930305421 0 0.00088057972160032305 -0.015727750599682924 0 0.00056075779806693507 -0.016905943279397994 0 -0.00014850273033845121 -0.01661359930305421 0 0.00088057972160032305 -0.015727750599682924 0 0.0014429412751499812 -0.019546629298156773 0 0.0016008978275882516 -0.02343974966575468 0 0.00092047742782880716 -0.022565036394528032 0 0.001094047985966711 -0.02300888770652294 0 0.00078130976393858003 -0.023259096498466317 0 0.0010197240865566677 -0.022768463863349412 0 0.001094047985966711 -0.02300888770652294 0 0.0013604124254239323 -0.022832753626502764 0 0.0016558830263937534 -0.023214973984084439 0 0.001094047985966711 -0.02300888770652294 0 0.0013604124254239323 -0.022832753626502764 0 0.0016558830263937534 -0.023214973984084439 0 0.001094047985966711 -0.02300888770652294 0 0.0011952955013369176 -0.02346683804811376 0 0.00083913460095676499 -0.028135605690828326 0 0.00073691417424876339 -0.028900053668244063 0 0.0016558830263937534 -0.023214973984084439 0 0.0015810726445318441 -0.023897978509642273 0 0.0011952955013369176 -0.02346683804811376 0 0.001094047985966711 -0.02300888770652294 0 0.0011952955013369176 -0.02346683804811376 0 0.00078130976393858003 -0.023259096498466317 0 0.00083269596086232313 -0.023615199354833187 0 0.0011952955013369176 -0.02346683804811376 0 0.00078130976393858003 -0.023259096498466317 0 -5.3296061643107955e-06 -0.03499782284321027 0 -5.2967041358328464e-09 -0.034999997363472278 0 -3.5315220005936622e-09 -0.034999996622960029 0 -5.3296061643107955e-06 -0.03499782284321027 0 -1.2555061704485772e-05 -0.034996184091003558 0 -1.0647494179150558e-05 -0.034994130320847035 0 -5.3296061643107955e-06 -0.03499782284321027 0 -1.2555061704485772e-05 -0.034996184091003558 0 -6.668469170714853e-06 -0.034999136577664784 0 -5.3296061643107955e-06 -0.03499782284321027 0 -6.668469170714853e-06 -0.034999136577664784 0 -5.2967041358328464e-09 -0.034999997363472278 0 -6.668469170714853e-06 -0.034999136577664784 0 -5.2967041358328464e-09 -0.034999997363472278 0 -1.4282280183616654e-08 -0.035000001184181929 0 -6.668469170714853e-06 -0.034999136577664784 0 -1.4282280183616654e-08 -0.035000001184181929 0 -1.5265931697385807e-05 -0.034998482688834438 0 2.1107955916909396e-10 -0.03499999518690039 0 -1.4282280183616654e-08 -0.035000001184181929 0 -1.6252945225319002e-05 -0.034998659328896002 0 -1.4282280183616654e-08 -0.035000001184181929 0 -1.6252945225319002e-05 -0.034998659328896002 0 -1.5265931697385807e-05 -0.034998482688834438 0 -1.6252945225319002e-05 -0.034998659328896002 0 -2.4032560963284833e-05 -0.034998053427056329 0 -1.5265931697385807e-05 -0.034998482688834438 0 -3.3317011265184172e-05 -0.034995061476204875 0 -1.6252945225319002e-05 -0.034998659328896002 0 -2.4032560963284833e-05 -0.034998053427056329 0 -1.5265931697385807e-05 -0.034998482688834438 0 -1.672414027943516e-05 -0.034996160748180703 0 -2.0888693902298814e-05 -0.034996831592101228 0 -1.2555061704485772e-05 -0.034996184091003558 0 -6.668469170714853e-06 -0.034999136577664784 0 -1.5265931697385807e-05 -0.034998482688834438 0 -1.2555061704485772e-05 -0.034996184091003558 0 -1.5265931697385807e-05 -0.034998482688834438 0 -1.672414027943516e-05 -0.034996160748180703 0 -2.4032560963284833e-05 -0.034998053427056329 0 -1.5265931697385807e-05 -0.034998482688834438 0 -2.0888693902298814e-05 -0.034996831592101228 0 -1.7003666097943966e-05 -0.034993298565841713 0 -2.0888693902298814e-05 -0.034996831592101228 0 -2.9017535549132212e-05 -0.034997872815408747 0 -1.2555061704485772e-05 -0.034996184091003558 0 -1.672414027943516e-05 -0.034996160748180703 0 -1.7003666097943966e-05 -0.034993298565841713 0 -1.672414027943516e-05 -0.034996160748180703 0 -1.7003666097943966e-05 -0.034993298565841713 0 -2.0888693902298814e-05 -0.034996831592101228 0 -0.00010635221856271842 -0.034350876922346472 0 -6.8176541798965737e-05 -0.034842228978788303 0 -0.00016118391276354031 -0.033804434147395125 0 -0.00015865089046085157 -0.033802609668957026 0 -0.00015476277895683967 -0.033799937613691274 0 -2.4032560963284833e-05 -0.034998053427056329 0 -2.0888693902298814e-05 -0.034996831592101228 0 -2.9017535549132212e-05 -0.034997872815408747 0 -8.3858334528680252e-05 -0.034442522563410419 0 -0.00010011929736484027 -0.03453855681686728 0 -5.6731361003236361e-05 -0.034524383926337894 0 -8.2700516818761755e-05 -0.034577794325478896 0 -0.00010011929736484027 -0.03453855681686728 0 -5.6731361003236361e-05 -0.034524383926337894 0 -3.3317011265184172e-05 -0.034995061476204875 0 -2.4032560963284833e-05 -0.034998053427056329 0 -2.9017535549132212e-05 -0.034997872815408747 0 -0.00016665201989115401 -0.033821276467506413 0 -0.00015907239510337765 -0.03381362176272909 0 -0.00016112999087252171 -0.033808843947087941 0 -0.00015914342010323293 -0.033824549392807275 0 -0.00016665201989115401 -0.033821276467506413 0 -0.00015907239510337765 -0.03381362176272909 0 -0.00010635221856271842 -0.034350876922346472 0 -0.00011824696125527291 -0.034132478124602579 0 -0.00016118391276354031 -0.033804434147395125 0 -0.00016665201989115401 -0.033821276467506413 0 -0.00016112999087252171 -0.033808843947087941 0 -0.00015907239510337765 -0.03381362176272909 0 -0.00016112999087252171 -0.033808843947087941 0 -0.00015947728779646997 -0.0338036961769742 0 -0.00016118391276354031 -0.033804434147395125 0 -0.00016112999087252171 -0.033808843947087941 0 -0.00015865089046085157 -0.033802609668957026 0 -0.00016112999087252171 -0.033808843947087941 0 -0.00015865089046085157 -0.033802609668957026 0 -0.00015947728779646997 -0.0338036961769742 0 -0.00015947728779646997 -0.0338036961769742 0 -0.00015763480462725407 -0.033799519000629136 0 -0.00016039870987075581 -0.03379911358537914 0 -0.00015763480462725407 -0.033799519000629136 0 -0.00016263241488164478 -0.033799260404757836 0 -0.00015117972719181787 -0.033801377789211814 0 -0.00015763480462725407 -0.033799519000629136 0 -0.00016263241488164478 -0.033799260404757836 0 -0.00016039870987075581 -0.03379911358537914 0 -0.00015763480462725407 -0.033799519000629136 0 -0.00015476277895683967 -0.033799937613691274 0 -0.00015117972719181787 -0.033801377789211814 0 -0.00015865089046085157 -0.033802609668957026 0 -0.00015947728779646997 -0.0338036961769742 0 -0.00015763480462725407 -0.033799519000629136 0 -0.00015865089046085157 -0.033802609668957026 0 -0.00015763480462725407 -0.033799519000629136 0 -0.00015476277895683967 -0.033799937613691274 0 -1.2555061704485772e-05 -0.034996184091003558 0 -1.7003666097943966e-05 -0.034993298565841713 0 -1.0647494179150558e-05 -0.034994130320847035 0 -0.00015881802168760849 -0.033798947405791993 0 -0.00015476277895683967 -0.033799937613691274 0 -0.00012340781919258976 -0.033804571747190627 0 -0.00010635221856271842 -0.034350876922346472 0 -6.2060359647830396e-05 -0.034411774761761792 0 -0.00015476277895683967 -0.033799937613691274 0 -0.00012340781919258976 -0.033804571747190627 0 -0.00015117972719181787 -0.033801377789211814 0 -0.00010635221856271842 -0.034350876922346472 0 -7.7117047159899047e-05 -0.033985958973950486 0 -0.00012340781919258976 -0.033804571747190627 0 -0.00015614020280200146 -0.033816732715880121 0 -0.00015117972719181787 -0.033801377789211814 0 -0.00015614020280200146 -0.033816732715880121 0 -0.00016263241488164478 -0.033799260404757836 0 -0.00017455603965331468 -0.033800770846225882 0 -0.00015614020280200146 -0.033816732715880121 0 -0.00016263241488164478 -0.033799260404757836 0 -0.00015117972719181787 -0.033801377789211814 0 -0.00016119798039791129 -0.03379132049214497 0 -0.00012931498275499511 -0.033808145718000587 0 -0.00015403585621879241 -0.033763875016503075 0 -0.00016263241488164478 -0.033799260404757836 0 -0.00017455603965331468 -0.033800770846225882 0 -0.00016119798039791129 -0.03379132049214497 0 -0.00017455603965331468 -0.033800770846225882 0 -0.00016119798039791129 -0.03379132049214497 0 -0.00015403585621879241 -0.033763875016503075 0 -0.00016119798039791129 -0.03379132049214497 0 -0.00016039870987075581 -0.03379911358537914 0 -0.00015707220576650552 -0.033805150358664354 0 -0.00016119798039791129 -0.03379132049214497 0 -0.00015707220576650552 -0.033805150358664354 0 -0.00014926666387406976 -0.033805685029180639 0 -0.00016263241488164478 -0.033799260404757836 0 -0.00016119798039791129 -0.03379132049214497 0 -0.00016039870987075581 -0.03379911358537914 0 -0.00015707220576650552 -0.033805150358664354 0 -0.00014924519430599805 -0.033822249405129207 0 -0.00014926666387406976 -0.033805685029180639 0 -0.00015907239510337765 -0.03381362176272909 0 -0.00015707220576650552 -0.033805150358664354 0 -0.00014924519430599805 -0.033822249405129207 0 -0.00015947728779646997 -0.0338036961769742 0 -0.00016039870987075581 -0.03379911358537914 0 -0.00015707220576650552 -0.033805150358664354 0 -0.00015907239510337765 -0.03381362176272909 0 -0.00015947728779646997 -0.0338036961769742 0 -0.00015707220576650552 -0.033805150358664354 0 -0.00015914342010323293 -0.033824549392807275 0 -0.00015907239510337765 -0.03381362176272909 0 -0.00014924519430599805 -0.033822249405129207 0 -9.918498681673269e-05 -0.033745227368747757 0 -6.4545312369420382e-05 -0.033772801737417778 0 -0.00016119798039791129 -0.03379132049214497 0 -0.00014926666387406976 -0.033805685029180639 0 -0.00012931498275499511 -0.033808145718000587 0 -0.00014924519430599805 -0.033822249405129207 0 -0.00014926666387406976 -0.033805685029180639 0 -0.00012931498275499511 -0.033808145718000587 0 3.9064306877104766e-05 -0.033667173588008019 0 2.9401515590377238e-05 -0.033732476238880343 0 -3.9913510376714797e-05 -0.033719605828636368 0 2.6976744534046996e-06 -0.033723555707767271 0 2.9401515590377238e-05 -0.033732476238880343 0 -3.9913510376714797e-05 -0.033719605828636368 0 -3.5080469597807854e-05 -0.033775163081444411 0 2.6976744534046996e-06 -0.033723555707767271 0 2.9401515590377238e-05 -0.033732476238880343 0 4.0112206548340367e-05 -0.033844277439685898 0 -3.5080469597807854e-05 -0.033775163081444411 0 2.9401515590377238e-05 -0.033732476238880343 0 4.3048825098831908e-05 -0.033757824668584097 0 3.9064306877104766e-05 -0.033667173588008019 0 2.9401515590377238e-05 -0.033732476238880343 0 -0.00012931498275499511 -0.033808145718000587 0 -3.9913510376714797e-05 -0.033719605828636368 0 -0.00015403585621879241 -0.033763875016503075 0 -6.4545312369420382e-05 -0.033772801737417778 0 -3.7198553823942136e-05 -0.033719578304467701 0 -3.9913510376714797e-05 -0.033719605828636368 0 -0.00015403585621879241 -0.033763875016503075 0 -0.00016387916321472816 -0.033761888890603199 0 -2.5923516228217097e-05 -0.033683318838816562 0 -3.9913510376714797e-05 -0.033719605828636368 0 -0.00016387916321472816 -0.033761888890603199 0 -0.00020234536567377882 -0.033771968170783123 0 -0.00016387916321472816 -0.033761888890603199 0 -0.00022136440984871117 -0.033826877086580137 0 -0.00012115533910234978 -0.033696681281376741 0 -0.00014446415435516238 -0.033761849450658209 0 -0.00015403585621879241 -0.033763875016503075 0 -0.00016387916321472816 -0.033761888890603199 0 -0.00018570055413429516 -0.033803175845339553 0 -0.00016387916321472816 -0.033761888890603199 0 -0.00021427358147276711 -0.033836325670835082 0 -0.00018570055413429516 -0.033803175845339553 0 -0.00016387916321472816 -0.033761888890603199 0 -0.00021427358147276711 -0.033836325670835082 0 -0.00022136440984871117 -0.033826877086580137 0 -0.00025230708351473854 -0.033850472278819224 0 -0.00027120394507884778 -0.033891450101321989 0 -0.00036053172804970519 -0.033894427362158197 0 -0.00021711037579699859 -0.033812147112150637 0 -0.00022136440984871117 -0.033826877086580137 0 -0.00025230708351473854 -0.033850472278819224 0 -0.00022136440984871117 -0.033826877086580137 0 -0.00025230708351473854 -0.033850472278819224 0 -0.00027120394507884778 -0.033891450101321989 0 -0.00021427358147276711 -0.033836325670835082 0 -0.00027120394507884778 -0.033891450101321989 0 -0.00024928231726016424 -0.033907501448708792 0 -0.00021427358147276711 -0.033836325670835082 0 -0.00022136440984871117 -0.033826877086580137 0 -0.00027120394507884778 -0.033891450101321989 0 -0.00021427358147276711 -0.033836325670835082 0 -0.00024928231726016424 -0.033907501448708792 0 -0.00021231260013920543 -0.033858739367095297 0 -0.00027120394507884778 -0.033891450101321989 0 -0.00024928231726016424 -0.033907501448708792 0 -0.00029878837120721137 -0.033970894791536969 0 -0.00024928231726016424 -0.033907501448708792 0 -0.00024002198218002935 -0.03398175945135061 0 -0.00029878837120721137 -0.033970894791536969 0 -0.00024002198218002935 -0.03398175945135061 0 -0.00027277749240424724 -0.034084418593859668 0 -0.00029878837120721137 -0.033970894791536969 0 -0.00024928231726016424 -0.033907501448708792 0 -0.00024002198218002935 -0.03398175945135061 0 -0.00021358912260991132 -0.033903210097228874 0 -0.00024928231726016424 -0.033907501448708792 0 -0.00021358912260991132 -0.033903210097228874 0 -0.00021231260013920543 -0.033858739367095297 0 -0.00021231260013920543 -0.033858739367095297 0 -0.00018570055413429516 -0.033803175845339553 0 -0.00018268304426177447 -0.033859363795236394 0 -0.00021358912260991132 -0.033903210097228874 0 -0.00021231260013920543 -0.033858739367095297 0 -0.00018268304426177447 -0.033859363795236394 0 -0.00021427358147276711 -0.033836325670835082 0 -0.00021231260013920543 -0.033858739367095297 0 -0.00018570055413429516 -0.033803175845339553 0 -0.00017455603965331468 -0.033800770846225882 0 -0.00015403585621879241 -0.033763875016503075 0 -0.00018570055413429516 -0.033803175845339553 0 -0.00017455603965331468 -0.033800770846225882 0 -0.00018570055413429516 -0.033803175845339553 0 -0.00018268304426177447 -0.033859363795236394 0 -0.00015614020280200146 -0.033816732715880121 0 -0.00013630236648721423 -0.033851205322123212 0 -0.00018268304426177447 -0.033859363795236394 0 -0.00015614020280200146 -0.033816732715880121 0 -0.00017455603965331468 -0.033800770846225882 0 -0.00018268304426177447 -0.033859363795236394 0 -0.00012340781919258976 -0.033804571747190627 0 -0.00013630236648721423 -0.033851205322123212 0 -6.1923922925399391e-05 -0.033868566077472739 0 -0.00012340781919258976 -0.033804571747190627 0 -0.00015614020280200146 -0.033816732715880121 0 -0.00013630236648721423 -0.033851205322123212 0 -0.00013630236648721423 -0.033851205322123212 0 -0.00015937179878105603 -0.033960635234586159 0 -6.1923922925399391e-05 -0.033868566077472739 0 -0.00013630236648721423 -0.033851205322123212 0 -0.00018268304426177447 -0.033859363795236394 0 -0.00015937179878105603 -0.033960635234586159 0 -0.00021358912260991132 -0.033903210097228874 0 -0.00018268304426177447 -0.033859363795236394 0 -0.00015937179878105603 -0.033960635234586159 0 -0.00024002198218002935 -0.03398175945135061 0 -0.00021358912260991132 -0.033903210097228874 0 -0.00015937179878105603 -0.033960635234586159 0 -0.00024002198218002935 -0.03398175945135061 0 -0.00020282573810516841 -0.034094874550631246 0 -0.00015937179878105603 -0.033960635234586159 0 -0.00024002198218002935 -0.03398175945135061 0 -0.00020282573810516841 -0.034094874550631246 0 -0.00027277749240424724 -0.034084418593859668 0 -0.00020282573810516841 -0.034094874550631246 0 -0.00012610133497950897 -0.034090728059876216 0 -0.00015937179878105603 -0.033960635234586159 0 -0.00012610133497950897 -0.034090728059876216 0 -5.4920544684420345e-05 -0.034196938043325818 0 -0.00015353814148909883 -0.034217952781184634 0 -0.00020282573810516841 -0.034094874550631246 0 -0.00012610133497950897 -0.034090728059876216 0 -0.00015353814148909883 -0.034217952781184634 0 -0.00012610133497950897 -0.034090728059876216 0 -0.00015937179878105603 -0.033960635234586159 0 8.5170603798303402e-06 -0.034011833225517166 0 -0.00015937179878105603 -0.033960635234586159 0 8.5170603798303402e-06 -0.034011833225517166 0 -6.1923922925399391e-05 -0.033868566077472739 0 8.5170603798303402e-06 -0.034011833225517166 0 -5.4920544684420345e-05 -0.034196938043325818 0 0.00010906515526482746 -0.034314015022849816 0 -0.00012610133497950897 -0.034090728059876216 0 8.5170603798303402e-06 -0.034011833225517166 0 -5.4920544684420345e-05 -0.034196938043325818 0 -1.587989123285399e-06 -0.034997298581133172 0 -2.3740114727668835e-10 -0.034999996324704782 0 -3.4738229613509386e-07 -0.034998956755884041 0 -1.587989123285399e-06 -0.034997298581133172 0 -1.6353111178816389e-09 -0.034999995804866249 0 -2.3740114727668835e-10 -0.034999996324704782 0 5.5660736743366312e-06 -0.034508542368401951 0 3.8256717124860391e-05 -0.034653138404069139 0 -1.587989123285399e-06 -0.034997298581133172 0 -1.6353111178816389e-09 -0.034999995804866249 0 -1.896084415403873e-06 -0.034998166260003918 0 -1.896084415403873e-06 -0.034998166260003918 0 -5.1311871689419541e-06 -0.034995723447690134 0 -3.5315220005936622e-09 -0.034999996622960029 0 -1.6353111178816389e-09 -0.034999995804866249 0 -1.896084415403873e-06 -0.034998166260003918 0 -3.5315220005936622e-09 -0.034999996622960029 0 -1.587989123285399e-06 -0.034997298581133172 0 -1.896084415403873e-06 -0.034998166260003918 0 -5.1311871689419541e-06 -0.034995723447690134 0 5.5660736743366312e-06 -0.034508542368401951 0 -3.4854922670586163e-05 -0.034431363233799146 0 -5.3296061643107955e-06 -0.03499782284321027 0 -1.0647494179150558e-05 -0.034994130320847035 0 -5.1311871689419541e-06 -0.034995723447690134 0 -6.2060359647830396e-05 -0.034411774761761792 0 -3.4854922670586163e-05 -0.034431363233799146 0 -5.3296061643107955e-06 -0.03499782284321027 0 -5.1311871689419541e-06 -0.034995723447690134 0 -3.5315220005936622e-09 -0.034999996622960029 0 -9.7293329199808626e-08 -0.034999953323522903 0 -5.0406852353628167e-05 -0.034785087936423299 0 -3.0405179568677596e-05 -0.034805096787702168 0 -5.0406852353628167e-05 -0.034785087936423299 0 -3.0405179568677596e-05 -0.034805096787702168 0 -0.00010614863466524648 -0.034620152124131609 0 -3.0405179568677596e-05 -0.034805096787702168 0 -8.4133984074974736e-05 -0.034581017385314043 0 -0.00010614863466524648 -0.034620152124131609 0 -9.7293329199808626e-08 -0.034999953323522903 0 -3.0405179568677596e-05 -0.034805096787702168 0 4.3726092550804862e-07 -0.034998731693329448 0 -3.0405179568677596e-05 -0.034805096787702168 0 4.3726092550804862e-07 -0.034998731693329448 0 -8.4133984074974736e-05 -0.034581017385314043 0 2.3674686485764651e-08 -0.034999856773794816 0 3.8256717124860391e-05 -0.034653138404069139 0 4.3726092550804862e-07 -0.034998731693329448 0 0.00010906515526482746 -0.034314015022849816 0 -6.3911071821673654e-05 -0.034411594228622104 0 3.2476630593576465e-10 -0.034999999812950537 0 -2.3740114727668835e-10 -0.034999996324704782 0 -3.4738229613509386e-07 -0.034998956755884041 0 -5.4920544684420345e-05 -0.034196938043325818 0 -6.3911071821673654e-05 -0.034411594228622104 0 -0.00015353814148909883 -0.034217952781184634 0 -5.4920544684420345e-05 -0.034196938043325818 0 0.00010906515526482746 -0.034314015022849816 0 -6.3911071821673654e-05 -0.034411594228622104 0 4.3726092550804862e-07 -0.034998731693329448 0 -6.3911071821673654e-05 -0.034411594228622104 0 -8.4133984074974736e-05 -0.034581017385314043 0 -6.3911071821673654e-05 -0.034411594228622104 0 -8.4133984074974736e-05 -0.034581017385314043 0 -0.0001456042917706689 -0.034354816866735347 0 -8.4133984074974736e-05 -0.034581017385314043 0 -0.0001456042917706689 -0.034354816866735347 0 -0.0001979076308636363 -0.034387812643141495 0 -0.0001456042917706689 -0.034354816866735347 0 -0.00021449112039847396 -0.034238675483729428 0 -0.0001979076308636363 -0.034387812643141495 0 -6.3911071821673654e-05 -0.034411594228622104 0 -0.0001456042917706689 -0.034354816866735347 0 -0.00015353814148909883 -0.034217952781184634 0 -0.00020282573810516841 -0.034094874550631246 0 -0.00015353814148909883 -0.034217952781184634 0 -0.00021449112039847396 -0.034238675483729428 0 -0.0001456042917706689 -0.034354816866735347 0 -0.00015353814148909883 -0.034217952781184634 0 -0.00021449112039847396 -0.034238675483729428 0 -0.00020282573810516841 -0.034094874550631246 0 -0.00021449112039847396 -0.034238675483729428 0 -0.00027277749240424724 -0.034084418593859668 0 -0.00021449112039847396 -0.034238675483729428 0 -0.0002842649319778122 -0.034191230762594872 0 -0.00027277749240424724 -0.034084418593859668 0 -0.00021449112039847396 -0.034238675483729428 0 -0.0001979076308636363 -0.034387812643141495 0 -0.0002842649319778122 -0.034191230762594872 0 -0.0001979076308636363 -0.034387812643141495 0 -0.00016995499992080541 -0.034502921510429475 0 -0.00026747402645668441 -0.034355464427914539 0 -0.0001979076308636363 -0.034387812643141495 0 -0.00026747402645668441 -0.034355464427914539 0 -0.0002842649319778122 -0.034191230762594872 0 -8.4133984074974736e-05 -0.034581017385314043 0 -0.0001979076308636363 -0.034387812643141495 0 -0.00010614863466524648 -0.034620152124131609 0 -0.0001979076308636363 -0.034387812643141495 0 -0.00010614863466524648 -0.034620152124131609 0 -0.00016995499992080541 -0.034502921510429475 0 -0.00010614863466524648 -0.034620152124131609 0 -0.00016995499992080541 -0.034502921510429475 0 -0.00011444822770384483 -0.034650608998857663 0 -5.0406852353628167e-05 -0.034785087936423299 0 -0.00010614863466524648 -0.034620152124131609 0 -0.00011444822770384483 -0.034650608998857663 0 -0.00016995499992080541 -0.034502921510429475 0 -0.00026747402645668441 -0.034355464427914539 0 -0.00011444822770384483 -0.034650608998857663 0 -0.00026747402645668441 -0.034355464427914539 0 -0.00036187084286833419 -0.034086270457328718 0 -0.00044766643826272764 -0.034053896408339827 0 -0.00036187084286833419 -0.034086270457328718 0 -0.00041186885267100625 -0.033923900466783362 0 -0.00044766643826272764 -0.034053896408339827 0 -0.00026747402645668441 -0.034355464427914539 0 -0.00036187084286833419 -0.034086270457328718 0 -0.0002842649319778122 -0.034191230762594872 0 -0.0002842649319778122 -0.034191230762594872 0 -0.00027277749240424724 -0.034084418593859668 0 -0.0003233489584110538 -0.034044256810480386 0 -0.00036187084286833419 -0.034086270457328718 0 -0.0002842649319778122 -0.034191230762594872 0 -0.0003233489584110538 -0.034044256810480386 0 -0.00027277749240424724 -0.034084418593859668 0 -0.00029878837120721137 -0.033970894791536969 0 -0.0003233489584110538 -0.034044256810480386 0 -0.00029878837120721137 -0.033970894791536969 0 -0.0003233489584110538 -0.034044256810480386 0 -0.00036053172804970519 -0.033894427362158197 0 -0.00036187084286833419 -0.034086270457328718 0 -0.0003233489584110538 -0.034044256810480386 0 -0.00036053172804970519 -0.033894427362158197 0 -0.00027120394507884778 -0.033891450101321989 0 -0.00029878837120721137 -0.033970894791536969 0 -0.00036053172804970519 -0.033894427362158197 0 -0.00035564881324841975 -0.033875163421676686 0 -0.00032263467384600723 -0.033787576454860226 0 -0.00025230708351473854 -0.033850472278819224 0 -0.00036053172804970519 -0.033894427362158197 0 -0.00024083410860703181 -0.033821323952430031 0 -0.00036053172804970519 -0.033894427362158197 0 -0.0004186904970504455 -0.03377055183154138 0 -0.00040276133271012195 -0.033739024596122442 0 -0.00036053172804970519 -0.033894427362158197 0 -0.0004186904970504455 -0.03377055183154138 0 -0.00041186885267100625 -0.033923900466783362 0 -0.0004186904970504455 -0.03377055183154138 0 -0.00041186885267100625 -0.033923900466783362 0 -0.00044310765994659931 -0.033776661235815651 0 -0.00036187084286833419 -0.034086270457328718 0 -0.00036053172804970519 -0.033894427362158197 0 -0.00041186885267100625 -0.033923900466783362 0 -0.00041186885267100625 -0.033923900466783362 0 -0.00044310765994659931 -0.033776661235815651 0 -0.00044766643826272764 -0.034053896408339827 0 -0.00044310765994659931 -0.033776661235815651 0 -0.00045093879528910563 -0.033696816019764902 0 -0.0004466663988097731 -0.033837622430243991 0 -0.00044310765994659931 -0.033776661235815651 0 -0.0004466663988097731 -0.033837622430243991 0 -0.00044766643826272764 -0.034053896408339827 0 -0.0004466663988097731 -0.033837622430243991 0 -0.00047796227810523254 -0.033959338300948425 0 -0.00044766643826272764 -0.034053896408339827 0 -0.00045093879528910563 -0.033696816019764902 0 -0.0004466663988097731 -0.033837622430243991 0 -0.00045103534387958162 -0.03371967721216821 0 -0.0004466663988097731 -0.033837622430243991 0 -0.00047950232111613708 -0.033781842098422457 0 -0.00045103534387958162 -0.03371967721216821 0 -0.00047950232111613708 -0.033781842098422457 0 -0.00052300735440788252 -0.03369754277027541 0 -0.00047696596677345549 -0.033706690753505901 0 -0.00047950232111613708 -0.033781842098422457 0 -0.00045103534387958162 -0.03371967721216821 0 -0.00047696596677345549 -0.033706690753505901 0 -0.0004899404403658535 -0.03398352426743742 0 -0.00045669950255721408 -0.034118160112980842 0 -0.00057267976044155563 -0.033940880130529025 0 -0.00054115375272974003 -0.033727558823657106 0 -0.0004899404403658535 -0.03398352426743742 0 -0.00057267976044155563 -0.033940880130529025 0 -0.00054378345901024935 -0.033807927498181518 0 -0.00047922703290122806 -0.033996230877799655 0 -0.00045669950255721408 -0.034118160112980842 0 -0.00057267976044155563 -0.033940880130529025 0 -0.00048236769432749555 -0.034119550382431328 0 -0.0004466663988097731 -0.033837622430243991 0 -0.00047950232111613708 -0.033781842098422457 0 -0.00048189304279491849 -0.033869664569827866 0 -0.0004466663988097731 -0.033837622430243991 0 -0.00048189304279491849 -0.033869664569827866 0 -0.00047796227810523254 -0.033959338300948425 0 -0.00047950232111613708 -0.033781842098422457 0 -0.00052300735440788252 -0.03369754277027541 0 -0.00048189304279491849 -0.033869664569827866 0 -0.00048236769432749555 -0.034119550382431328 0 -0.00043034092977231109 -0.0341463506561187 0 -0.00039664765935089742 -0.034328649021441449 0 -0.00048189304279491849 -0.033869664569827866 0 -0.00043034092977231109 -0.0341463506561187 0 -0.00047796227810523254 -0.033959338300948425 0 -0.00047922703290122806 -0.033996230877799655 0 -0.00042477359162112615 -0.03411624432861337 0 -0.0004263521892767507 -0.034324368625696142 0 -0.00048236769432749555 -0.034119550382431328 0 -0.00039664765935089742 -0.034328649021441449 0 -0.00045669950255721408 -0.034118160112980842 0 -0.0004263521892767507 -0.034324368625696142 0 -0.00048236769432749555 -0.034119550382431328 0 -0.00043034092977231109 -0.0341463506561187 0 -0.00045106235459442821 -0.033998788375475805 0 -0.00047796227810523254 -0.033959338300948425 0 -0.00045106235459442821 -0.033998788375475805 0 -0.00047796227810523254 -0.033959338300948425 0 -0.00044766643826272764 -0.034053896408339827 0 -0.00035827088092477296 -0.034289549135405502 0 -0.00043716219744001367 -0.034093878117227097 0 -0.00026747402645668441 -0.034355464427914539 0 -0.00029203076693533163 -0.034586300415247441 0 -0.00044766643826272764 -0.034053896408339827 0 -0.00026747402645668441 -0.034355464427914539 0 -0.00011444822770384483 -0.034650608998857663 0 -0.00015238727695519383 -0.034675541626896927 0 -0.00026747402645668441 -0.034355464427914539 0 -0.00029203076693533163 -0.034586300415247441 0 -0.00015238727695519383 -0.034675541626896927 0 -0.00011444822770384483 -0.034650608998857663 0 -0.00015238727695519383 -0.034675541626896927 0 -4.2076977955386751e-05 -0.034839998099926502 0 -0.00015238727695519383 -0.034675541626896927 0 -9.5370514721483267e-05 -0.034807683866132741 0 -4.2076977955386751e-05 -0.034839998099926502 0 -0.00035827088092477296 -0.034289549135405502 0 -0.00019533346362540462 -0.034531803700584632 0 -0.00029203076693533163 -0.034586300415247441 0 -0.00015238727695519383 -0.034675541626896927 0 -9.5370514721483267e-05 -0.034807683866132741 0 -0.00043034092977231109 -0.0341463506561187 0 -0.00045106235459442821 -0.033998788375475805 0 -0.00026925422372342528 -0.034252392175854601 0 -0.00043034092977231109 -0.0341463506561187 0 -0.00039664765935089742 -0.034328649021441449 0 -0.00026925422372342528 -0.034252392175854601 0 -0.0004263521892767507 -0.034324368625696142 0 -0.00039664765935089742 -0.034328649021441449 0 -0.00029791253197994209 -0.034531716407791839 0 -0.00039664765935089742 -0.034328649021441449 0 -0.00029791253197994209 -0.034531716407791839 0 -0.00026925422372342528 -0.034252392175854601 0 -0.00029791253197994209 -0.034531716407791839 0 -0.00026925422372342528 -0.034252392175854601 0 -7.0963995366260543e-05 -0.034776236778393962 0 -0.00019533346362540462 -0.034531803700584632 0 -8.1977407063302016e-05 -0.034738714230237076 0 -9.5370514721483267e-05 -0.034807683866132741 0 -7.0963995366260543e-05 -0.034776236778393962 0 -4.2076977955386751e-05 -0.034839998099926502 0 -0.00015187222491386883 -0.034754753485185363 0 -0.00029791253197994209 -0.034531716407791839 0 -7.0963995366260543e-05 -0.034776236778393962 0 -0.00015187222491386883 -0.034754753485185363 0 -7.0963995366260543e-05 -0.034776236778393962 0 -5.1429546245477717e-08 -0.034999634487870974 0 -7.0963995366260543e-05 -0.034776236778393962 0 -5.1429546245477717e-08 -0.034999634487870974 0 -5.0495583893114981e-08 -0.034999748810523444 0 -7.0963995366260543e-05 -0.034776236778393962 0 -5.0495583893114981e-08 -0.034999748810523444 0 -4.2076977955386751e-05 -0.034839998099926502 0 -9.7293329199808626e-08 -0.034999953323522903 0 -5.0406852353628167e-05 -0.034785087936423299 0 -4.2076977955386751e-05 -0.034839998099926502 0 -5.0406852353628167e-05 -0.034785087936423299 0 -0.00011444822770384483 -0.034650608998857663 0 -4.2076977955386751e-05 -0.034839998099926502 0 -9.7293329199808626e-08 -0.034999953323522903 0 -5.0495583893114981e-08 -0.034999748810523444 0 -4.2076977955386751e-05 -0.034839998099926502 0 0.00019946184614660467 -0.032936380292674788 0 0.00033972368937885213 -0.032946794178452671 0 0.00041104818763405387 -0.032523803050186824 0 0.00052971358722521346 -0.031806209355848457 0 0.0004043516171877755 -0.033423572269881893 0 0.00052971358722521346 -0.031806209355848457 0 -4.7827951222012597e-05 -0.029746427669071613 0 0.0016073903305393543 -0.027740914117147311 0 0.00041104818763405387 -0.032523803050186824 0 7.2668267400279859e-05 -0.033160649978600458 0 0.0006498726872367365 -0.031877754156305498 0 0.00057121182567519192 -0.031768853706028277 0 0.00093389060084835083 -0.030608432426729091 0 -4.7827951222012597e-05 -0.029746427669071613 0 9.4041311911704584e-05 -0.027975372606206458 0 0.0016073903305393543 -0.027740914117147311 0 0.00041104818763405387 -0.032523803050186824 0 7.2668267400279859e-05 -0.033160649978600458 0 0.0004043516171877755 -0.033423572269881893 0 7.2668267400279859e-05 -0.033160649978600458 0 5.9943669429473882e-05 -0.033234697497426018 0 0.00017947717009599861 -0.033176336477723854 0 7.2668267400279859e-05 -0.033160649978600458 0 5.9943669429473882e-05 -0.033234697497426018 0 -5.5382028290099024e-06 -0.033372801106899712 0 5.9943669429473882e-05 -0.033234697497426018 0 -5.5382028290099024e-06 -0.033372801106899712 0 -6.0445316676551133e-05 -0.033339912256276215 0 5.9943669429473882e-05 -0.033234697497426018 0 6.1504392397301785e-05 -0.03319104462568756 0 -6.0445316676551133e-05 -0.033339912256276215 0 6.1504392397301785e-05 -0.03319104462568756 0 0.00014670047054838667 -0.033085867078845081 0 0.00017947717009599861 -0.033176336477723854 0 5.9943669429473882e-05 -0.033234697497426018 0 6.1504392397301785e-05 -0.03319104462568756 0 0.00017947717009599861 -0.033176336477723854 0 6.1504392397301785e-05 -0.03319104462568756 0 0.00014670047054838667 -0.033085867078845081 0 2.775155666424858e-05 -0.033033028101498364 0 6.1504392397301785e-05 -0.03319104462568756 0 -8.4024102110586636e-05 -0.033249338167865086 0 2.775155666424858e-05 -0.033033028101498364 0 0.00014670047054838667 -0.033085867078845081 0 0.00025159257056839133 -0.033069373385126208 0 0.00017947717009599861 -0.033176336477723854 0 0.00025159257056839133 -0.033069373385126208 0 0.00017947717009599861 -0.033176336477723854 0 0.00033723028519181075 -0.033171971186627736 0 7.2668267400279859e-05 -0.033160649978600458 0 0.00017947717009599861 -0.033176336477723854 0 0.00033723028519181075 -0.033171971186627736 0 0.00041104818763405387 -0.032523803050186824 0 0.00052971358722521346 -0.031806209355848457 0 0.0006498726872367365 -0.031877754156305498 0 0.00025159257056839133 -0.033069373385126208 0 0.00033723028519181075 -0.033171971186627736 0 0.00038471411108050214 -0.032917248701720719 0 0.0001957419510828508 -0.027675316193252229 0 -9.7515152028665607e-05 -0.027835970510026467 0 0.00010404583471967189 -0.027090324692981924 0 0.00052971358722521346 -0.031806209355848457 0 0.0006498726872367365 -0.031877754156305498 0 -0.00049110574781904869 -0.033987982713275411 0 0.00052971358722521346 -0.031806209355848457 0 -0.00089359009745545569 -0.032006203009317002 0 -0.00049110574781904869 -0.033987982713275411 0 0.00052971358722521346 -0.031806209355848457 0 -0.00089359009745545569 -0.032006203009317002 0 -4.7827951222012597e-05 -0.029746427669071613 0 -0.00017572502509396312 -0.02541323791698373 0 -0.00030377807396329539 -0.026421328503068008 0 -0.00027569410212683801 -0.023458036200514742 0 -0.00037724483499214096 -0.023772855040451166 0 -0.00011992450807234667 -0.023601765697076581 0 -0.00027569410212683801 -0.023458036200514742 0 -7.9478090034680219e-05 -0.023356204419916319 0 -0.00011992450807234667 -0.023601765697076581 0 -0.00013241255335949976 -0.023820625369186534 0 -0.00037724483499214096 -0.023772855040451166 0 -0.00011992450807234667 -0.023601765697076581 0 -0.00089359009745545569 -0.032006203009317002 0 -4.7827951222012597e-05 -0.029746427669071613 0 -0.0014741396305682356 -0.029080637542784834 0 -0.00035725995376745452 -0.030034274163823919 0 -0.00030377807396329539 -0.026421328503068008 0 -4.7827951222012597e-05 -0.029746427669071613 0 -0.0014741396305682356 -0.029080637542784834 0 9.4041311911704584e-05 -0.027975372606206458 0 6.9339850909910717e-06 -0.025869493449739954 0 -7.1127500063252781e-05 -0.025262547822216479 0 0.0001855371409177102 -0.02525936325705213 0 9.4041311911704584e-05 -0.027975372606206458 0 -0.00062160955016944729 -0.026725872878186136 0 0.00046828277721118093 -0.027144626624714632 0 -0.0014741396305682356 -0.029080637542784834 0 9.4041311911704584e-05 -0.027975372606206458 0 -0.00062160955016944729 -0.026725872878186136 0 -0.00030377807396329539 -0.026421328503068008 0 -0.00023048712360686474 -0.024381165284105839 0 -0.00030377807396329539 -0.026421328503068008 0 -0.00025550348557887547 -0.026198944127919475 0 -7.1127500063252781e-05 -0.025262547822216479 0 0.0001855371409177102 -0.02525936325705213 0 0.00010736523208628503 -0.024941155394287977 0 -0.00062160955016944729 -0.026725872878186136 0 0.00080218481416224766 -0.026164469661262964 0 0.00046828277721118093 -0.027144626624714632 0 -0.00013241255335949976 -0.023820625369186534 0 -0.00037724483499214096 -0.023772855040451166 0 -0.00018543387292446932 -0.023981487798658899 0 -0.00037724483499214096 -0.023772855040451166 0 -0.00035066738186798405 -0.024036513541251813 0 -0.00018543387292446932 -0.023981487798658899 0 -0.00013241255335949976 -0.023820625369186534 0 -0.00018543387292446932 -0.023981487798658899 0 -7.1502159540674719e-05 -0.023973212935781293 0 -0.00035066738186798405 -0.024036513541251813 0 -0.00018543387292446932 -0.023981487798658899 0 -0.00018570383317184828 -0.024163849563155246 0 -0.00018543387292446932 -0.023981487798658899 0 -0.00011615020379588473 -0.024150447673878417 0 -7.1502159540674719e-05 -0.023973212935781293 0 -0.00018543387292446932 -0.023981487798658899 0 -0.00011615020379588473 -0.024150447673878417 0 -0.00018570383317184828 -0.024163849563155246 0 -0.00035066738186798405 -0.024036513541251813 0 -0.00018570383317184828 -0.024163849563155246 0 -0.00011012777565530909 -0.024511783538448829 0 -0.00011615020379588473 -0.024150447673878417 0 -0.00010654269492582673 -0.024252986714562844 0 -6.9619655548221364e-05 -0.024121205986849005 0 -0.00011615020379588473 -0.024150447673878417 0 -0.00018570383317184828 -0.024163849563155246 0 -0.00011012777565530909 -0.024511783538448829 0 -0.00011667873824479411 -0.024264501220746127 0 -0.00011012777565530909 -0.024511783538448829 0 -0.00010654269492582673 -0.024252986714562844 0 -0.00011615020379588473 -0.024150447673878417 0 -0.00011012777565530909 -0.024511783538448829 0 -0.00010654269492582673 -0.024252986714562844 0 -7.1127500063252781e-05 -0.025262547822216479 0 -0.00011012777565530909 -0.024511783538448829 0 0.00010736523208628503 -0.024941155394287977 0 -0.00025550348557887547 -0.026198944127919475 0 0.00022506654316212493 -0.024970728490827168 0 -0.00023048712360686474 -0.024381165284105839 0 -0.00013893635862995666 -0.024606053998668609 0 -0.00062160955016944729 -0.026725872878186136 0 0.00032374062274992112 -0.024881595735663769 0 0.00080218481416224766 -0.026164469661262964 0 0.0001855371409177102 -0.02525936325705213 0 0.00010736523208628503 -0.024941155394287977 0 0.00032374062274992112 -0.024881595735663769 0 -0.00011012777565530909 -0.024511783538448829 0 0.00010736523208628503 -0.024941155394287977 0 0.00032374062274992112 -0.024881595735663769 0 0.00021892496287614238 -0.02441090001193056 0 -0.00011012777565530909 -0.024511783538448829 0 0.00032374062274992112 -0.024881595735663769 0 0.00032374062274992112 -0.024881595735663769 0 0.00080218481416224766 -0.026164469661262964 0 0.0017034120000841084 -0.024920743023250477 0 0.0007657100197777869 -0.024341292736853332 0 0.00032374062274992112 -0.024881595735663769 0 0.0017034120000841084 -0.024920743023250477 0 0.0004043516171877755 -0.033423572269881893 0 0.00011009914626593779 -0.033484727964579054 0 4.6855323039849188e-05 -0.033679921146024548 0 0.00080218481416224766 -0.026164469661262964 0 0.0016073903305393543 -0.027740914117147311 0 0.00046828277721118093 -0.027144626624714632 0 0.00080218481416224766 -0.026164469661262964 0 0.0016073903305393543 -0.027740914117147311 0 0.0017034120000841084 -0.024920743023250477 0 0.00093389060084835083 -0.030608432426729091 0 0.00089495176649279117 -0.029328544574490221 0 7.2668267400279859e-05 -0.033160649978600458 0 0.0004043516171877755 -0.033423572269881893 0 0.00011009914626593779 -0.033484727964579054 0 9.4041311911704584e-05 -0.027975372606206458 0 0.0016073903305393543 -0.027740914117147311 0 0.00046828277721118093 -0.027144626624714632 0 7.2668267400279859e-05 -0.033160649978600458 0 -5.5382028290099024e-06 -0.033372801106899712 0 0.00011009914626593779 -0.033484727964579054 0 -5.5382028290099024e-06 -0.033372801106899712 0 -1.6042252841433164e-05 -0.033560829555749148 0 -0.00014357363686247078 -0.033560437502401445 0 -5.5382028290099024e-06 -0.033372801106899712 0 0.00011009914626593779 -0.033484727964579054 0 -1.6042252841433164e-05 -0.033560829555749148 0 0.00011009914626593779 -0.033484727964579054 0 -1.6042252841433164e-05 -0.033560829555749148 0 4.6855323039849188e-05 -0.033679921146024548 0 -1.6042252841433164e-05 -0.033560829555749148 0 4.6855323039849188e-05 -0.033679921146024548 0 -9.9982143043180144e-05 -0.033661296744103383 0 -0.00027257977760389648 -0.033734069449867427 0 -9.9982143043180144e-05 -0.033661296744103383 0 -0.00014357363686247078 -0.033560437502401445 0 -1.6042252841433164e-05 -0.033560829555749148 0 -9.9982143043180144e-05 -0.033661296744103383 0 -0.00014357363686247078 -0.033560437502401445 0 -0.00027257977760389648 -0.033734069449867427 0 -0.00014357363686247078 -0.033560437502401445 0 -0.00033753495288963586 -0.033617490247026566 0 -0.00014357363686247078 -0.033560437502401445 0 -0.00033753495288963586 -0.033617490247026566 0 -0.00021157863823629742 -0.033495661660402763 0 -0.00014357363686247078 -0.033560437502401445 0 -6.0445316676551133e-05 -0.033339912256276215 0 -0.00021157863823629742 -0.033495661660402763 0 -5.5382028290099024e-06 -0.033372801106899712 0 -0.00014357363686247078 -0.033560437502401445 0 -6.0445316676551133e-05 -0.033339912256276215 0 -0.00022288541939155838 -0.033746240735445118 0 -0.00032263467384600723 -0.033787576454860226 0 -0.00027257977760389648 -0.033734069449867427 0 -0.00040276133271012195 -0.033739024596122442 0 -0.00033753495288963586 -0.033617490247026566 0 -0.0004186904970504455 -0.03377055183154138 0 -0.00040276133271012195 -0.033739024596122442 0 -0.00033753495288963586 -0.033617490247026566 0 -0.0004186904970504455 -0.03377055183154138 0 -0.00044310765994659931 -0.033776661235815651 0 -0.00041641828717579681 -0.033585908040257045 0 -0.0004186904970504455 -0.03377055183154138 0 -0.00033753495288963586 -0.033617490247026566 0 -0.00041641828717579681 -0.033585908040257045 0 -0.00033753495288963586 -0.033617490247026566 0 -0.00041641828717579681 -0.033585908040257045 0 -0.00025309497252808192 -0.033413045867981883 0 -0.00041641828717579681 -0.033585908040257045 0 -0.00025309497252808192 -0.033413045867981883 0 -0.00034424012332146946 -0.033338616078453537 0 -0.00041641828717579681 -0.033585908040257045 0 -0.00034424012332146946 -0.033338616078453537 0 -0.0005032583940900358 -0.033478729188249595 0 -0.00044310765994659931 -0.033776661235815651 0 -0.00041641828717579681 -0.033585908040257045 0 -0.0005032583940900358 -0.033478729188249595 0 -6.0445316676551133e-05 -0.033339912256276215 0 -0.00025309497252808192 -0.033413045867981883 0 -8.4024102110586636e-05 -0.033249338167865086 0 -6.0445316676551133e-05 -0.033339912256276215 0 -0.00021157863823629742 -0.033495661660402763 0 -0.00025309497252808192 -0.033413045867981883 0 -0.00033753495288963586 -0.033617490247026566 0 -0.00021157863823629742 -0.033495661660402763 0 -0.00025309497252808192 -0.033413045867981883 0 -0.00025309497252808192 -0.033413045867981883 0 -0.00034424012332146946 -0.033338616078453537 0 -0.00016393349756023857 -0.033158791882397634 0 -0.00025309497252808192 -0.033413045867981883 0 -8.4024102110586636e-05 -0.033249338167865086 0 -0.00016393349756023857 -0.033158791882397634 0 6.1504392397301785e-05 -0.03319104462568756 0 -6.0445316676551133e-05 -0.033339912256276215 0 -8.4024102110586636e-05 -0.033249338167865086 0 -8.4024102110586636e-05 -0.033249338167865086 0 -0.00016393349756023857 -0.033158791882397634 0 2.775155666424858e-05 -0.033033028101498364 0 -0.00016393349756023857 -0.033158791882397634 0 -0.00026898931471091035 -0.032979402073462012 0 -6.4166530700438871e-05 -0.03277405423504226 0 -0.00016393349756023857 -0.033158791882397634 0 -6.4166530700438871e-05 -0.03277405423504226 0 2.775155666424858e-05 -0.033033028101498364 0 -0.00034424012332146946 -0.033338616078453537 0 -0.00016393349756023857 -0.033158791882397634 0 -0.00026898931471091035 -0.032979402073462012 0 -0.00026898931471091035 -0.032979402073462012 0 -0.00047656397644139117 -0.032698059091635569 0 -0.00014478610386709032 -0.032505020822217921 0 -6.4166530700438871e-05 -0.03277405423504226 0 -0.00014478610386709032 -0.032505020822217921 0 5.1493749921858149e-05 -0.032352712810795214 0 -0.00026898931471091035 -0.032979402073462012 0 -6.4166530700438871e-05 -0.03277405423504226 0 -0.00014478610386709032 -0.032505020822217921 0 -0.00044310765994659931 -0.033776661235815651 0 -0.00045093879528910563 -0.033696816019764902 0 -0.0005032583940900358 -0.033478729188249595 0 -0.00034424012332146946 -0.033338616078453537 0 -0.00026898931471091035 -0.032979402073462012 0 -0.0005032583940900358 -0.033478729188249595 0 -0.00026898931471091035 -0.032979402073462012 0 -0.0005032583940900358 -0.033478729188249595 0 -0.00047656397644139117 -0.032698059091635569 0 -0.0005032583940900358 -0.033478729188249595 0 -0.00042973192520457044 -0.033672296533915354 0 -0.00046330493773868807 -0.033678952193741937 0 -0.00049719567080883369 -0.033418439425265123 0 -0.00042332415582937148 -0.03317327089003351 0 -0.00045093879528910563 -0.033696816019764902 0 -0.0005032583940900358 -0.033478729188249595 0 -0.00045103534387958162 -0.03371967721216821 0 -0.0005032583940900358 -0.033478729188249595 0 -0.00045103534387958162 -0.03371967721216821 0 -0.00046330493773868807 -0.033678952193741937 0 -0.00047696596677345549 -0.033706690753505901 0 -0.00046330493773868807 -0.033678952193741937 0 -0.00045025707100756118 -0.033627379350405003 0 -0.00045103534387958162 -0.03371967721216821 0 -0.00047696596677345549 -0.033706690753505901 0 -0.00046330493773868807 -0.033678952193741937 0 -0.00046330493773868807 -0.033678952193741937 0 -0.00038759302143902567 -0.033532794266496115 0 -0.00045025707100756118 -0.033627379350405003 0 -0.00042973192520457044 -0.033672296533915354 0 -0.00046330493773868807 -0.033678952193741937 0 -0.00038759302143902567 -0.033532794266496115 0 -0.00013605048854098558 -0.033142517044254464 0 -0.00043456041770373414 -0.033575748262233508 0 2.9827795169222938e-05 -0.033320354462489633 0 -0.00029159907309372364 -0.033492071578099199 0 -0.00045025707100756118 -0.033627379350405003 0 -0.00033684121212441254 -0.032989535480617151 0 -0.00038759302143902567 -0.033532794266496115 0 -0.00045025707100756118 -0.033627379350405003 0 -0.00054378345901024935 -0.033807927498181518 0 -0.00031109327939380282 -0.033541499006705847 0 -0.00054115375272974003 -0.033727558823657106 0 -0.00057267976044155563 -0.033940880130529025 0 -0.00029159907309372364 -0.033492071578099199 0 -0.00052300735440788252 -0.03369754277027541 0 -0.00029159907309372364 -0.033492071578099199 0 -0.00045025707100756118 -0.033627379350405003 0 -0.00052300735440788252 -0.03369754277027541 0 -0.00047696596677345549 -0.033706690753505901 0 -0.00045025707100756118 -0.033627379350405003 0 -0.00014478610386709032 -0.032505020822217921 0 2.9566468668896079e-05 -0.032121320951478467 0 5.1493749921858149e-05 -0.032352712810795214 0 -0.00014478610386709032 -0.032505020822217921 0 -0.00022716577553707641 -0.03215204571709749 0 2.9566468668896079e-05 -0.032121320951478467 0 -0.00042973192520457044 -0.033672296533915354 0 -0.00038759302143902567 -0.033532794266496115 0 -0.00012159215312943876 -0.033467525345586384 0 -0.00047656397644139117 -0.032698059091635569 0 -0.00014478610386709032 -0.032505020822217921 0 -0.00022716577553707641 -0.03215204571709749 0 -0.00042332415582937148 -0.03317327089003351 0 -0.000169615266887829 -0.032808633402847849 0 -0.00033684121212441254 -0.032989535480617151 0 -0.00038759302143902567 -0.033532794266496115 0 -0.00012159215312943876 -0.033467525345586384 0 0.00019099657166321129 -0.032380427121377238 0 -0.000169615266887829 -0.032808633402847849 0 0.00029796065831051987 -0.032788433912079806 0 -0.00033684121212441254 -0.032989535480617151 0 -0.00012159215312943876 -0.033467525345586384 0 0.00012060356195346046 -0.031940512396907338 0 -0.00022716577553707641 -0.03215204571709749 0 2.9566468668896079e-05 -0.032121320951478467 0 0.00018433096716234958 -0.031253582746290802 0 2.9566468668896079e-05 -0.032121320951478467 0 0.00016400102094222004 -0.031970015959775722 0 0.00035874607991229045 -0.031626417321642848 0 6.0012066989296177e-05 -0.032057946008593408 0 0.00034879732914920049 -0.031952564637843787 0 0.00048969560275186996 -0.032018621782752332 0 2.9566468668896079e-05 -0.032121320951478467 0 0.00018433096716234958 -0.031253582746290802 0 0.00034782121746136608 -0.031781659875167879 0 0.00041315420439520058 -0.031429913153212377 0 0.00018433096716234958 -0.031253582746290802 0 0.00034782121746136608 -0.031781659875167879 0 0.00016400102094222004 -0.031970015959775722 0 0.00034782121746136608 -0.031781659875167879 0 0.00016400102094222004 -0.031970015959775722 0 0.00024765409093328161 -0.032303266859074128 0 0.00034782121746136608 -0.031781659875167879 0 0.00024765409093328161 -0.032303266859074128 0 0.00042118207517418554 -0.032022717561561956 0 2.9566468668896079e-05 -0.032121320951478467 0 0.00016400102094222004 -0.031970015959775722 0 5.1493749921858149e-05 -0.032352712810795214 0 0.00016400102094222004 -0.031970015959775722 0 5.1493749921858149e-05 -0.032352712810795214 0 0.00024765409093328161 -0.032303266859074128 0 -6.4166530700438871e-05 -0.03277405423504226 0 5.1493749921858149e-05 -0.032352712810795214 0 0.00012359796503511587 -0.032670581432289826 0 5.1493749921858149e-05 -0.032352712810795214 0 0.00012359796503511587 -0.032670581432289826 0 0.00024765409093328161 -0.032303266859074128 0 0.00024765409093328161 -0.032303266859074128 0 0.00038334943295028804 -0.032671485851702972 0 0.00068286483152342026 -0.032420938878441573 0 0.00024765409093328161 -0.032303266859074128 0 0.00047641306159056318 -0.032079510176492132 0 0.00042118207517418554 -0.032022717561561956 0 0.00025652886521960653 -0.032287333246884375 0 0.0006291722102807699 -0.031898825681631611 0 0.00012359796503511587 -0.032670581432289826 0 0.00024765409093328161 -0.032303266859074128 0 0.00038334943295028804 -0.032671485851702972 0 0.00033723028519181075 -0.033171971186627736 0 0.00038471411108050214 -0.032917248701720719 0 0.00069849951059361025 -0.032778915844153746 0 0.00038334943295028804 -0.032671485851702972 0 0.00038471411108050214 -0.032917248701720719 0 0.00022457037351430431 -0.032909529807339306 0 0.00012359796503511587 -0.032670581432289826 0 0.00038334943295028804 -0.032671485851702972 0 0.00022457037351430431 -0.032909529807339306 0 0.00038334943295028804 -0.032671485851702972 0 0.00038471411108050214 -0.032917248701720719 0 0.00069849951059361025 -0.032778915844153746 0 0.00025159257056839133 -0.033069373385126208 0 0.00038471411108050214 -0.032917248701720719 0 0.00022457037351430431 -0.032909529807339306 0 0.00014670047054838667 -0.033085867078845081 0 0.00025159257056839133 -0.033069373385126208 0 0.00022457037351430431 -0.032909529807339306 0 0.00012359796503511587 -0.032670581432289826 0 0.00022457037351430431 -0.032909529807339306 0 2.775155666424858e-05 -0.033033028101498364 0 0.00014670047054838667 -0.033085867078845081 0 0.00022457037351430431 -0.032909529807339306 0 2.775155666424858e-05 -0.033033028101498364 0 -6.4166530700438871e-05 -0.03277405423504226 0 0.00012359796503511587 -0.032670581432289826 0 2.775155666424858e-05 -0.033033028101498364 0 -0.00027569410212683801 -0.023458036200514742 0 -0.00018749537540945171 -0.023204294448588687 0 -7.9478090034680219e-05 -0.023356204419916319 0 -9.7515152028665607e-05 -0.027835970510026467 0 0.00027043223046624139 -0.028242658806776653 0 -0.00029932764276495097 -0.028541700868405864 0 -0.00017572502509396312 -0.02541323791698373 0 0.00010085402444987399 -0.026065731306535785 0 -0.00035725995376745452 -0.030034274163823919 0 0.00021155470791197305 -0.031418652703362027 0 0.0001957419510828508 -0.027675316193252229 0 -9.7515152028665607e-05 -0.027835970510026467 0 0.00027043223046624139 -0.028242658806776653 0 0.00033972368937885213 -0.032946794178452671 0 0.00021155470791197305 -0.031418652703362027 0 0.00042197211446548592 -0.031364099603173601 0 0.00039789567882038526 -0.031168830138577727 0 0.00052913703772240089 -0.031187446288581781 0 0.00021155470791197305 -0.031418652703362027 0 0.00072137482797010382 -0.030464350702174924 0 0.00021155470791197305 -0.031418652703362027 0 0.0006291722102807699 -0.031898825681631611 0 0.00038334943295028804 -0.032671485851702972 0 0.00069849951059361025 -0.032778915844153746 0 0.00068286483152342026 -0.032420938878441573 0 0.00046775509053235259 -0.032093249368349432 0 0.00046978213337084765 -0.032055641195375337 0 0.00054344471047671047 -0.032013023352275301 0 0.00046978213337084765 -0.032055641195375337 0 0.00054344471047671047 -0.032013023352275301 0 0.00050572246062310846 -0.031947116727663816 0 0.0006291722102807699 -0.031898825681631611 0 0.00062382914588898753 -0.031927448354573368 0 0.00047641306159056318 -0.032079510176492132 0 0.00046978213337084765 -0.032055641195375337 0 0.00042118207517418554 -0.032022717561561956 0 0.00067399969134292984 -0.03213082526757139 0 0.00054344471047671047 -0.032013023352275301 0 0.00062750842662130538 -0.031828025952648997 0 0.0006291722102807699 -0.031898825681631611 0 0.00072137482797010382 -0.030464350702174924 0 0.00046775509053235259 -0.032093249368349432 0 0.00067399969134292984 -0.03213082526757139 0 0.00054344471047671047 -0.032013023352275301 0 0.00027043223046624139 -0.028242658806776653 0 4.8248194516986017e-05 -0.028609995255879261 0 -0.00029932764276495097 -0.028541700868405864 0 0.00072137482797010382 -0.030464350702174924 0 0.00010085402444987399 -0.026065731306535785 0 0.0012142937835355537 -0.030512794006353205 0 0.0009762168777353626 -0.030474084785069688 0 0.0010333364603578579 -0.030837899980314203 0 0.00072137482797010382 -0.030464350702174924 0 0.00088294324413473952 -0.031340454314974821 0 0.00067399969134292984 -0.03213082526757139 0 0.00087520546818013788 -0.031656893765880857 0 0.00062750842662130538 -0.031828025952648997 0 0.00010085402444987399 -0.026065731306535785 0 0.00093265539510631345 -0.027078982287061116 0 0.0009762168777353626 -0.030474084785069688 0 0.0010333364603578579 -0.030837899980314203 0 0.00092917933395751824 -0.030882381532950701 0 0.00068453549876271939 -0.031581457948236982 0 0.00087520546818013788 -0.031656893765880857 0 0.00062750842662130538 -0.031828025952648997 0 0.00068453549876271939 -0.031581457948236982 0 0.00087520546818013788 -0.031656893765880857 0 0.00072008714263797858 -0.031245256075450596 0 0.00046978213337084765 -0.032055641195375337 0 0.00042118207517418554 -0.032022717561561956 0 0.00050572246062310846 -0.031947116727663816 0 0.00042118207517418554 -0.032022717561561956 0 0.00050572246062310846 -0.031947116727663816 0 0.00048580777936067327 -0.031825135325712704 0 0.00050572246062310846 -0.031947116727663816 0 0.00062750842662130538 -0.031828025952648997 0 0.00048580777936067327 -0.031825135325712704 0 0.00054344471047671047 -0.032013023352275301 0 0.00050572246062310846 -0.031947116727663816 0 0.00062750842662130538 -0.031828025952648997 0 0.00068453549876271939 -0.031581457948236982 0 0.00062750842662130538 -0.031828025952648997 0 0.00054917858785352486 -0.031542235717771178 0 0.00062750842662130538 -0.031828025952648997 0 0.00048580777936067327 -0.031825135325712704 0 0.00054917858785352486 -0.031542235717771178 0 0.00034782121746136608 -0.031781659875167879 0 0.00042118207517418554 -0.032022717561561956 0 0.00048580777936067327 -0.031825135325712704 0 0.00034782121746136608 -0.031781659875167879 0 0.00048580777936067327 -0.031825135325712704 0 0.00054917858785352486 -0.031542235717771178 0 0.00018433096716234958 -0.031253582746290802 0 0.00041315420439520058 -0.031429913153212377 0 0.00056515120431064637 -0.031125696283949466 0 0.00034782121746136608 -0.031781659875167879 0 0.00041315420439520058 -0.031429913153212377 0 0.00054917858785352486 -0.031542235717771178 0 0.00041315420439520058 -0.031429913153212377 0 0.00054917858785352486 -0.031542235717771178 0 0.00056515120431064637 -0.031125696283949466 0 0.00054917858785352486 -0.031542235717771178 0 0.00056515120431064637 -0.031125696283949466 0 0.00072008714263797858 -0.031245256075450596 0 0.00087520546818013788 -0.031656893765880857 0 0.00072008714263797858 -0.031245256075450596 0 0.00089739224447096572 -0.030907398410031827 0 0.0010333364603578579 -0.030837899980314203 0 0.00089739224447096572 -0.030907398410031827 0 0.00092917933395751824 -0.030882381532950701 0 0.00088294324413473952 -0.031340454314974821 0 0.00095022888966869615 -0.030949767458256755 0 0.00068453549876271939 -0.031581457948236982 0 0.00054917858785352486 -0.031542235717771178 0 0.00072008714263797858 -0.031245256075450596 0 0.00070924274824616122 -0.030814573126405363 0 0.00056515120431064637 -0.031125696283949466 0 0.00072008714263797858 -0.031245256075450596 0 0.00070924274824616122 -0.030814573126405363 0 0.00072008714263797858 -0.031245256075450596 0 0.00089739224447096572 -0.030907398410031827 0 0.0014760513895772933 -0.024983954753550589 0 0.00062467578583886424 -0.023660451671845065 0 0.00076885542096399699 -0.022995887944289192 0 0.00084427877174149098 -0.030818713428699834 0 0.00089739224447096572 -0.030907398410031827 0 0.00092917933395751824 -0.030882381532950701 0 0.0010100036034384112 -0.028011359515409135 0 0.00093265539510631345 -0.027078982287061116 0 0.00062467578583886424 -0.023660451671845065 0 0.0003523471398528547 -0.023201511272847121 0 0.00076885542096399699 -0.022995887944289192 0 0.00062467578583886424 -0.023660451671845065 0 0.0003523471398528547 -0.023201511272847121 0 -0.00024208061937774049 -0.023630130862559828 0 0.0014760513895772933 -0.024983954753550589 0 0.00062467578583886424 -0.023660451671845065 0 -0.00024208061937774049 -0.023630130862559828 0 -0.00024208061937774049 -0.023630130862559828 0 1.356300973251557e-05 -0.022985241092129939 0 -0.00020663896559979596 -0.022944069957086359 0 0.0003523471398528547 -0.023201511272847121 0 -0.00024208061937774049 -0.023630130862559828 0 1.356300973251557e-05 -0.022985241092129939 0 1.356300973251557e-05 -0.022985241092129939 0 7.293689427714796e-05 -0.022939069475476297 0 0.00012434544601404925 -0.022838500754076677 0 0.00062609881533035397 -0.022735731036951368 0 0.00041789450246902904 -0.022860505157735921 0 0.00076885542096399699 -0.022995887944289192 0 0.0003523471398528547 -0.023201511272847121 0 1.356300973251557e-05 -0.022985241092129939 0 0.00041789450246902904 -0.022860505157735921 0 0.0003523471398528547 -0.023201511272847121 0 0.00041789450246902904 -0.022860505157735921 0 0.00076885542096399699 -0.022995887944289192 0 0.0002657836304127821 -0.0215907700324794 0 0.00026021068614153229 -0.022530503901916878 0 -0.00020663896559979596 -0.022944069957086359 0 0.00026021068614153229 -0.022530503901916878 0 -0.00020663896559979596 -0.022944069957086359 0 7.293689427714796e-05 -0.022939069475476297 0 1.356300973251557e-05 -0.022985241092129939 0 -0.00020663896559979596 -0.022944069957086359 0 7.293689427714796e-05 -0.022939069475476297 0 7.293689427714796e-05 -0.022939069475476297 0 0.00062946829237315975 -0.023064412649514067 0 0.00058711202207584634 -0.022641967064573158 0 0.00026021068614153229 -0.022530503901916878 0 7.293689427714796e-05 -0.022939069475476297 0 0.00058711202207584634 -0.022641967064573158 0 0.00026496658610338528 -0.023161052993914601 0 0.0002451833619704026 -0.023436412487232994 0 0.00075792706446367001 -0.023378690448589895 0 7.293689427714796e-05 -0.022939069475476297 0 0.00026496658610338528 -0.023161052993914601 0 0.00062946829237315975 -0.023064412649514067 0 0.00029515865060013139 -0.02322989176258216 0 9.3079461242177665e-05 -0.022658873395103266 0 7.293689427714796e-05 -0.022939069475476297 0 0.00026496658610338528 -0.023161052993914601 0 0.00012434544601404925 -0.022838500754076677 0 0.00026496658610338528 -0.023161052993914601 0 6.5895653748152637e-05 -0.023206819140940381 0 0.0002451833619704026 -0.023436412487232994 0 0.00062609881533035397 -0.022735731036951368 0 0.00041789450246902904 -0.022860505157735921 0 0.00012434544601404925 -0.022838500754076677 0 -0.00018749537540945171 -0.023204294448588687 0 6.5895653748152637e-05 -0.023206819140940381 0 -7.9478090034680219e-05 -0.023356204419916319 0 0.00010085402444987399 -0.026065731306535785 0 9.3079461242177665e-05 -0.022658873395103266 0 1.356300973251557e-05 -0.022985241092129939 0 0.00041789450246902904 -0.022860505157735921 0 0.00012434544601404925 -0.022838500754076677 0 6.5895653748152637e-05 -0.023206819140940381 0 6.2711422066134785e-05 -0.02350020139979073 0 0.0002451833619704026 -0.023436412487232994 0 6.5895653748152637e-05 -0.023206819140940381 0 -7.9478090034680219e-05 -0.023356204419916319 0 6.2711422066134785e-05 -0.02350020139979073 0 -7.9478090034680219e-05 -0.023356204419916319 0 -0.00011992450807234667 -0.023601765697076581 0 6.2711422066134785e-05 -0.02350020139979073 0 -0.00011992450807234667 -0.023601765697076581 0 4.8452785643965503e-05 -0.023775771035366974 0 6.2711422066134785e-05 -0.02350020139979073 0 -0.00013241255335949976 -0.023820625369186534 0 -0.00011992450807234667 -0.023601765697076581 0 4.8452785643965503e-05 -0.023775771035366974 0 4.8452785643965503e-05 -0.023775771035366974 0 6.2711422066134785e-05 -0.02350020139979073 0 0.0002138843187966898 -0.023633460847563965 0 4.8452785643965503e-05 -0.023775771035366974 0 0.0002138843187966898 -0.023633460847563965 0 0.00028475397859617648 -0.023812447063683104 0 6.2711422066134785e-05 -0.02350020139979073 0 0.0002451833619704026 -0.023436412487232994 0 0.0002138843187966898 -0.023633460847563965 0 0.0002451833619704026 -0.023436412487232994 0 0.00049152565521779368 -0.023561895493979076 0 0.00075792706446367001 -0.023378690448589895 0 9.2430776728005462e-05 -0.014388331154253944 0 -9.13356981114293e-06 -0.014179533581918273 0 0.00049152565521779368 -0.023561895493979076 0 0.0002138843187966898 -0.023633460847563965 0 0.00028475397859617648 -0.023812447063683104 0 0.0002451833619704026 -0.023436412487232994 0 0.00049152565521779368 -0.023561895493979076 0 0.0002138843187966898 -0.023633460847563965 0 -0.0002713117358659432 -0.0050830049570290475 0 -0.00037448928324854266 -0.0052131317993657812 0 -0.0002571638473272138 -0.005193115619143992 0 -0.0002571638473272138 -0.005193115619143992 0 -0.00038485243014970799 -0.0053209350891370282 0 -0.00031235325874167438 -0.0053415246237396435 0 -0.00037448928324854266 -0.0052131317993657812 0 -0.00038485243014970799 -0.0053209350891370282 0 -0.00051411758645040161 -0.005413073045540031 0 -0.00037448928324854266 -0.0052131317993657812 0 -0.0002571638473272138 -0.005193115619143992 0 -0.00038485243014970799 -0.0053209350891370282 0 0.00028475397859617648 -0.023812447063683104 0 0.0001000681081834143 -0.024021444982252865 0 1.5787739959152399e-05 -0.023989941474119834 0 -9.13356981114293e-06 -0.014179533581918273 0 0.00010609704759492932 -0.016602834483608189 0 0.00010609704759492932 -0.016602834483608189 0 0.0010755372530482116 -0.02588410398898713 0 1.1404451429423807e-05 -0.024155799184028083 0 -7.3570462956851662e-05 -0.024175558705383477 0 1.5787739959152399e-05 -0.023989941474119834 0 -0.00010654269492582673 -0.024252986714562844 0 -7.3570462956851662e-05 -0.024175558705383477 0 -6.9619655548221364e-05 -0.024121205986849005 0 -0.00010654269492582673 -0.024252986714562844 0 -7.3570462956851662e-05 -0.024175558705383477 0 -0.00012133886601997975 -0.024204168557570502 0 -0.00011615020379588473 -0.024150447673878417 0 -6.9619655548221364e-05 -0.024121205986849005 0 -7.1502159540674719e-05 -0.023973212935781293 0 -7.3570462956851662e-05 -0.024175558705383477 0 -6.9619655548221364e-05 -0.024121205986849005 0 1.5787739959152399e-05 -0.023989941474119834 0 4.8452785643965503e-05 -0.023775771035366974 0 1.5787739959152399e-05 -0.023989941474119834 0 -7.1502159540674719e-05 -0.023973212935781293 0 -0.00013241255335949976 -0.023820625369186534 0 4.8452785643965503e-05 -0.023775771035366974 0 -7.1502159540674719e-05 -0.023973212935781293 0 -6.9619655548221364e-05 -0.024121205986849005 0 1.5787739959152399e-05 -0.023989941474119834 0 -7.1502159540674719e-05 -0.023973212935781293 0 4.8452785643965503e-05 -0.023775771035366974 0 0.00028475397859617648 -0.023812447063683104 0 1.5787739959152399e-05 -0.023989941474119834 0 -0.00021188098554966747 -0.0050543014500941778 0 -0.00014935677501607268 -0.0050586045416448873 0 -0.00014983561677158575 -0.0050549852304563698 0 -0.00058779778851375552 -0.0031426469865255113 0 -0.00035942346534768599 -0.0039935020570090697 0 -0.0011784356943465384 -0.003879374565449276 0 -0.00041817275583979838 -0.004028127470040381 0 -0.00026264230510735003 -0.0045340651235370637 0 -0.00058779778851375552 -0.0031426469865255113 0 -0.0011784356943465384 -0.003879374565449276 0 -0.0014822282541573626 -0.0030027992613830385 0 -0.00058779778851375552 -0.0031426469865255113 0 -0.0014822282541573626 -0.0030027992613830385 0 -0.00087320645672382658 -0.0023249491575904314 0 -0.00041817275583979838 -0.004028127470040381 0 -0.00062125902281727138 -0.0039089781211023881 0 -0.00021188098554966747 -0.0050543014500941778 0 -0.00020453811420033339 -0.0049659575321881148 0 -0.00034783911680824468 -0.0048528136750193452 0 -0.00021188098554966747 -0.0050543014500941778 0 -0.00020453811420033339 -0.0049659575321881148 0 -0.00014935677501607268 -0.0050586045416448873 0 -0.00020453811420033339 -0.0049659575321881148 0 -0.00014935677501607268 -0.0050586045416448873 0 -0.00012641973680884184 -0.0049549375143813114 0 -0.00014935677501607268 -0.0050586045416448873 0 -0.00018090845694433423 -0.0051803413847903079 0 -0.00012641973680884184 -0.0049549375143813114 0 -0.0002571638473272138 -0.005193115619143992 0 -0.00019461180461513306 -0.0050993559430202885 0 -0.00018090845694433423 -0.0051803413847903079 0 -0.00014935677501607268 -0.0050586045416448873 0 -0.00019461180461513306 -0.0050993559430202885 0 -0.00018090845694433423 -0.0051803413847903079 0 -0.0002713117358659432 -0.0050830049570290475 0 -0.0002571638473272138 -0.005193115619143992 0 -0.00019461180461513306 -0.0050993559430202885 0 -0.00014935677501607268 -0.0050586045416448873 0 -0.00019461180461513306 -0.0050993559430202885 0 -0.00014983561677158575 -0.0050549852304563698 0 -0.00020293077360077704 -0.0050094062027351473 0 -0.00021881211579819677 -0.004876628353018584 0 -0.00014983561677158575 -0.0050549852304563698 0 -0.00021198096664374773 -0.0048324053017876553 0 -0.00026264230510735003 -0.0045340651235370637 0 -0.00019461180461513306 -0.0050993559430202885 0 -0.00020293077360077704 -0.0050094062027351473 0 -0.00014983561677158575 -0.0050549852304563698 0 -0.0002713117358659432 -0.0050830049570290475 0 -0.00019461180461513306 -0.0050993559430202885 0 -0.00020293077360077704 -0.0050094062027351473 0 -0.0002713117358659432 -0.0050830049570290475 0 -0.00020293077360077704 -0.0050094062027351473 0 -0.00013191616951942596 -0.0050133539999584328 0 9.2430776728005462e-05 -0.014388331154253944 0 0.00032542328193971932 -0.014192113514027225 0 -0.00020293077360077704 -0.0050094062027351473 0 -0.00021881211579819677 -0.004876628353018584 0 -0.00013191616951942596 -0.0050133539999584328 0 -0.00021881211579819677 -0.004876628353018584 0 -0.00035942346534768599 -0.0039935020570090697 0 -0.00091692546060375768 -0.0046186938732617738 0 -0.00021881211579819677 -0.004876628353018584 0 -0.00091692546060375768 -0.0046186938732617738 0 -0.0007106978807641742 -0.0050470828051079088 0 -0.00035942346534768599 -0.0039935020570090697 0 -0.0011784356943465384 -0.003879374565449276 0 -0.00091692546060375768 -0.0046186938732617738 0 -0.0011784356943465384 -0.003879374565449276 0 -0.00091692546060375768 -0.0046186938732617738 0 -0.001668643852678697 -0.0046252880163719697 0 -0.00037335391634401086 -0.0054702983355693442 0 -0.00087133537488655809 -0.0060588669743886422 0 -0.0013517412231103508 -0.0052191702120663198 0 -0.0007106978807641742 -0.0050470828051079088 0 -0.00037335391634401086 -0.0054702983355693442 0 -0.0013517412231103508 -0.0052191702120663198 0 -0.00091692546060375768 -0.0046186938732617738 0 -0.0007106978807641742 -0.0050470828051079088 0 -0.0013517412231103508 -0.0052191702120663198 0 -0.00021881211579819677 -0.004876628353018584 0 -0.0007106978807641742 -0.0050470828051079088 0 -0.00037335391634401086 -0.0054702983355693442 0 0.00026496658610338528 -0.023161052993914601 0 0.00075792706446367001 -0.023378690448589895 0 0.00062946829237315975 -0.023064412649514067 0 0.0013442491095980232 -0.023104989257336849 0 0.00075792706446367001 -0.023378690448589895 0 0.00062946829237315975 -0.023064412649514067 0 -0.00021881211579819677 -0.004876628353018584 0 -0.00037335391634401086 -0.0054702983355693442 0 -0.00013191616951942596 -0.0050133539999584328 0 0.00048970528505577282 -0.014273800890307104 0 0.00032542328193971932 -0.014192113514027225 0 0.0013442491095980232 -0.023104989257336849 0 0.00062946829237315975 -0.023064412649514067 0 0.0012402323403085779 -0.022510897443363608 0 0.00062946829237315975 -0.023064412649514067 0 0.00058711202207584634 -0.022641967064573158 0 0.0012402323403085779 -0.022510897443363608 0 0.0013418809930123726 -0.021767598780559415 0 0.0012402323403085779 -0.022510897443363608 0 0.00076354798892279982 -0.022093083205408755 0 0.0002657836304127821 -0.0215907700324794 0 0.00026021068614153229 -0.022530503901916878 0 0.00076354798892279982 -0.022093083205408755 0 0.00058711202207584634 -0.022641967064573158 0 0.0012402323403085779 -0.022510897443363608 0 0.00076354798892279982 -0.022093083205408755 0 0.00026021068614153229 -0.022530503901916878 0 0.00058711202207584634 -0.022641967064573158 0 0.00076354798892279982 -0.022093083205408755 0 0.0013442491095980232 -0.023104989257336849 0 0.0012402323403085779 -0.022510897443363608 0 0.0021934033334999256 -0.022553270232746909 0 0.00048970528505577282 -0.014273800890307104 0 0.0006640200124785891 -0.014318721708778135 0 0.0021313944430608714 -0.021652165715739472 0 0.0013418809930123726 -0.021767598780559415 0 0.0012402323403085779 -0.022510897443363608 0 0.0021313944430608714 -0.021652165715739472 0 0.0012402323403085779 -0.022510897443363608 0 0.0021934033334999256 -0.022553270232746909 0 -0.0013987165210551363 -0.006732412379015929 0 -0.00087133537488655809 -0.0060588669743886422 0 -0.0013867104885503464 -0.0061618849274505663 0 0.0031719301593875989 -0.021721658361635896 0 0.0021313944430608714 -0.021652165715739472 0 0.0021934033334999256 -0.022553270232746909 0 0.00087665809227715618 -0.014096445932923958 0 0.0006640200124785891 -0.014318721708778135 0 -0.0013987165210551363 -0.006732412379015929 0 -0.0017450979885155198 -0.0065179191704791348 0 -0.0013867104885503464 -0.0061618849274505663 0 -0.0017450979885155198 -0.0065179191704791348 0 -0.0013867104885503464 -0.0061618849274505663 0 -0.0019061958410098879 -0.0061505827319048249 0 -0.00087133537488655809 -0.0060588669743886422 0 -0.0013867104885503464 -0.0061618849274505663 0 -0.0016328546530717564 -0.0056864382408994699 0 -0.0013867104885503464 -0.0061618849274505663 0 -0.0016328546530717564 -0.0056864382408994699 0 -0.0019061958410098879 -0.0061505827319048249 0 -0.0020902216856765925 -0.0057889100686643255 0 -0.0019061958410098879 -0.0061505827319048249 0 -0.0024943665666430173 -0.0060340559645349102 0 -0.0016328546530717564 -0.0056864382408994699 0 -0.0020902216856765925 -0.0057889100686643255 0 -0.0019061958410098879 -0.0061505827319048249 0 -0.0019061958410098879 -0.0061505827319048249 0 -0.0022749340134085656 -0.0065926712899504148 0 -0.0024943665666430173 -0.0060340559645349102 0 -0.0017450979885155198 -0.0065179191704791348 0 -0.0019061958410098879 -0.0061505827319048249 0 -0.0022749340134085656 -0.0065926712899504148 0 -0.0022749340134085656 -0.0065926712899504148 0 -0.0028275947309014987 -0.0064638360355686467 0 -0.0024943665666430173 -0.0060340559645349102 0 -0.0028275947309014987 -0.0064638360355686467 0 -0.0030339365855583844 -0.0060542474217256791 0 -0.0024943665666430173 -0.0060340559645349102 0 -0.0028275947309014987 -0.0064638360355686467 0 -0.0030339365855583844 -0.0060542474217256791 0 -0.0035642932641820895 -0.0063655080076388945 0 -0.0030339365855583844 -0.0060542474217256791 0 -0.0035642932641820895 -0.0063655080076388945 0 -0.0034826272945413183 -0.0059975770917401203 0 -0.0030339365855583844 -0.0060542474217256791 0 -0.0032460306167470024 -0.0057435662005228868 0 -0.0027682981494937917 -0.0055408801366968307 0 -0.0030339365855583844 -0.0060542474217256791 0 -0.0032460306167470024 -0.0057435662005228868 0 -0.0034826272945413183 -0.0059975770917401203 0 -0.0032460306167470024 -0.0057435662005228868 0 -0.0027682981494937917 -0.0055408801366968307 0 -0.0032731382269034449 -0.0052747452981412911 0 -0.0020902216856765925 -0.0057889100686643255 0 -0.0024943665666430173 -0.0060340559645349102 0 -0.0027682981494937917 -0.0055408801366968307 0 -0.0030339365855583844 -0.0060542474217256791 0 -0.0024943665666430173 -0.0060340559645349102 0 -0.0027682981494937917 -0.0055408801366968307 0 -0.0020902216856765925 -0.0057889100686643255 0 -0.0027682981494937917 -0.0055408801366968307 0 -0.0021508817127933707 -0.0052832185487497185 0 -0.0027682981494937917 -0.0055408801366968307 0 -0.0028642806262901416 -0.004926257616430914 0 -0.0021508817127933707 -0.0052832185487497185 0 -0.0032731382269034449 -0.0052747452981412911 0 -0.0028642806262901416 -0.004926257616430914 0 -0.003412666995495446 -0.0047249171992690677 0 -0.0027682981494937917 -0.0055408801366968307 0 -0.0032731382269034449 -0.0052747452981412911 0 -0.0028642806262901416 -0.004926257616430914 0 -0.0028642806262901416 -0.004926257616430914 0 -0.003412666995495446 -0.0047249171992690677 0 -0.003104463177204472 -0.0043324462080191212 0 -0.0028642806262901416 -0.004926257616430914 0 -0.0024735542964109142 -0.0044312981836757519 0 -0.0021508817127933707 -0.0052832185487497185 0 -0.0028642806262901416 -0.004926257616430914 0 -0.0024735542964109142 -0.0044312981836757519 0 -0.003104463177204472 -0.0043324462080191212 0 -0.0024735542964109142 -0.0044312981836757519 0 -0.0019108940222966142 -0.0047812971130759352 0 -0.0021508817127933707 -0.0052832185487497185 0 -0.0024735542964109142 -0.0044312981836757519 0 -0.0019108940222966142 -0.0047812971130759352 0 -0.0016341218008518006 -0.0041717747536208077 0 -0.0019108940222966142 -0.0047812971130759352 0 -0.0013517412231103508 -0.0052191702120663198 0 -0.0016341218008518006 -0.0041717747536208077 0 -0.0013736818861337847 -0.0051592958322303059 0 -0.0016544356236595312 -0.0044066071444069247 0 -0.00091692546060375768 -0.0046186938732617738 0 -0.0013517412231103508 -0.0052191702120663198 0 -0.001668643852678697 -0.0046252880163719697 0 -0.00087133537488655809 -0.0060588669743886422 0 -0.0016328546530717564 -0.0056864382408994699 0 -0.0013517412231103508 -0.0052191702120663198 0 -0.0016328546530717564 -0.0056864382408994699 0 -0.0013517412231103508 -0.0052191702120663198 0 -0.0021508817127933707 -0.0052832185487497185 0 -0.0019108940222966142 -0.0047812971130759352 0 -0.0013517412231103508 -0.0052191702120663198 0 -0.0021508817127933707 -0.0052832185487497185 0 -0.0016328546530717564 -0.0056864382408994699 0 -0.0020902216856765925 -0.0057889100686643255 0 -0.0021508817127933707 -0.0052832185487497185 0 -0.0013655784878240265 0.0022205764866852595 0 -0.0023471176982023845 0.0024359715603731115 0 -0.0017259851853552394 0.001406477446286071 0 -0.0011451680362335034 0.0029023880617244919 0 -0.0013655784878240265 0.0022205764866852595 0 -0.0023471176982023845 0.0024359715603731115 0 -0.0016773028942100596 0.0038931491056747565 0 -0.0011451680362335034 0.0029023880617244919 0 -0.0023471176982023845 0.0024359715603731115 0 -0.0025580048318676438 0.0018795121507034632 0 -0.0020285026210283925 0.00039966793994674563 0 -0.0029223682321863789 0.00092290541760178314 0 -0.0025580048318676438 0.0018795121507034632 0 -0.0037870447983342007 0.0016438072850056052 0 -0.0029223682321863789 0.00092290541760178314 0 -0.0020285026210283925 0.00039966793994674563 0 -0.0029223682321863789 0.00092290541760178314 0 -0.0033108615825703479 -0.00023576939480629908 0 -0.0021210679861386429 0.0016196204455605661 0 -0.0031696876339800026 -0.0015042090371938546 0 -0.0020285026210283925 0.00039966793994674563 0 -0.0033108615825703479 -0.00023576939480629908 0 -0.0028229818902459464 -0.0021222507929842677 0 -0.0023471176982023845 0.0024359715603731115 0 -0.0029096780108703933 0.00094931793833129578 0 -0.0017259851853552394 0.001406477446286071 0 -0.0038065567123555422 -0.0034272614864280957 0 -0.0031696876339800026 -0.0015042090371938546 0 -0.0043165797075203072 -0.0058571313419192783 0 -0.0038167265618524833 -0.0060563732636466196 0 -0.0040735965600520079 -0.005423070349716585 0 -0.0043165797075203072 -0.0058571313419192783 0 -0.0040735965600520079 -0.005423070349716585 0 -0.0045435450727879141 -0.0051477383009179345 0 -0.0037870447983342007 0.0016438072850056052 0 -0.0029223682321863789 0.00092290541760178314 0 -0.0033108615825703479 -0.00023576939480629908 0 -0.0035771495123110247 -0.0023200434553434521 0 -0.0038065567123555422 -0.0034272614864280957 0 -0.0041063495363402591 -0.0064945963322805269 0 -0.0043165797075203072 -0.0058571313419192783 0 -0.0038167265618524833 -0.0060563732636466196 0 -0.0035771495123110247 -0.0023200434553434521 0 -0.0044385063610241264 -0.0071743939083886779 0 -0.0038184493696163161 -0.0063131810363991174 0 -0.0038167265618524833 -0.0060563732636466196 0 -0.0035642932641820895 -0.0063655080076388945 0 -0.0038167265618524833 -0.0060563732636466196 0 -0.0035642932641820895 -0.0063655080076388945 0 -0.0034826272945413183 -0.0059975770917401203 0 -0.0032460306167470024 -0.0057435662005228868 0 -0.0034826272945413183 -0.0059975770917401203 0 -0.0036294580658190047 -0.0056282934900353581 0 -0.0038167265618524833 -0.0060563732636466196 0 -0.0036294580658190047 -0.0056282934900353581 0 -0.0040735965600520079 -0.005423070349716585 0 -0.0038167265618524833 -0.0060563732636466196 0 -0.0034826272945413183 -0.0059975770917401203 0 -0.0036294580658190047 -0.0056282934900353581 0 -0.0032460306167470024 -0.0057435662005228868 0 -0.0032731382269034449 -0.0052747452981412911 0 -0.0036294580658190047 -0.0056282934900353581 0 -0.0036294580658190047 -0.0056282934900353581 0 -0.003729235102951158 -0.0050547890968535066 0 -0.0040735965600520079 -0.005423070349716585 0 -0.0032731382269034449 -0.0052747452981412911 0 -0.0036294580658190047 -0.0056282934900353581 0 -0.003729235102951158 -0.0050547890968535066 0 -0.0032731382269034449 -0.0052747452981412911 0 -0.003729235102951158 -0.0050547890968535066 0 -0.003412666995495446 -0.0047249171992690677 0 -0.003412666995495446 -0.0047249171992690677 0 -0.0036022482684335564 -0.0042071882209978586 0 -0.003104463177204472 -0.0043324462080191212 0 -0.003412666995495446 -0.0047249171992690677 0 -0.0039186853248372533 -0.0045324987527849327 0 -0.0036022482684335564 -0.0042071882209978586 0 -0.003729235102951158 -0.0050547890968535066 0 -0.003412666995495446 -0.0047249171992690677 0 -0.0039186853248372533 -0.0045324987527849327 0 -0.0043658053934823287 -0.0044368340567877643 0 -0.0041311743981675489 -0.0049260473100601367 0 -0.0045435450727879141 -0.0051477383009179345 0 -0.0039186853248372533 -0.0045324987527849327 0 -0.0043658053934823287 -0.0044368340567877643 0 -0.0041311743981675489 -0.0049260473100601367 0 -0.003729235102951158 -0.0050547890968535066 0 -0.0039186853248372533 -0.0045324987527849327 0 -0.0041311743981675489 -0.0049260473100601367 0 -0.0041311743981675489 -0.0049260473100601367 0 -0.0040735965600520079 -0.005423070349716585 0 -0.0045435450727879141 -0.0051477383009179345 0 -0.003729235102951158 -0.0050547890968535066 0 -0.0041311743981675489 -0.0049260473100601367 0 -0.0040735965600520079 -0.005423070349716585 0 -0.0029096780108703933 0.00094931793833129578 0 -0.0027498573678207284 0.00022103497712010886 0 -0.0021098886318423864 0.00069037363809505313 0 -0.0031696876339800026 -0.0015042090371938546 0 -0.0030362093915434181 0.0008975794175043576 0 -0.0032914411097259588 -0.00010289455496617774 0 -0.0029305011499976821 0.00090873218792172385 0 -0.0027498573678207284 0.00022103497712010886 0 -0.0027498573678207284 0.00022103497712010886 0 -0.0019972428285622954 -5.4058097199544789e-05 0 -0.0028347636314254975 -0.00042331964839784184 0 -0.003894965918290071 -0.0024091406154186264 0 -0.0031696876339800026 -0.0015042090371938546 0 -0.0032914411097259588 -0.00010289455496617774 0 -0.0027498573678207284 0.00022103497712010886 0 -0.0028347636314254975 -0.00042331964839784184 0 -0.0027498573678207284 0.00022103497712010886 0 -0.0019972428285622954 -5.4058097199544789e-05 0 -0.0021098886318423864 0.00069037363809505313 0 -0.00085643247126830256 0.00062251947311279653 0 -0.0019972428285622954 -5.4058097199544789e-05 0 -0.0021098886318423864 0.00069037363809505313 0 -0.0029096780108703933 0.00094931793833129578 0 -0.0017259851853552394 0.001406477446286071 0 -0.0021098886318423864 0.00069037363809505313 0 -0.00085643247126830256 0.00062251947311279653 0 -0.0017259851853552394 0.001406477446286071 0 -0.0021098886318423864 0.00069037363809505313 0 -0.0015210791135717155 -0.00063993917241649142 0 -0.0023283042778147757 -0.0017629403336972879 0 -0.0025324388360620925 -0.00098791216355013857 0 -0.0015210791135717155 -0.00063993917241649142 0 -0.0019972428285622954 -5.4058097199544789e-05 0 -0.0025324388360620925 -0.00098791216355013857 0 -0.0025324388360620925 -0.00098791216355013857 0 -0.0028347636314254975 -0.00042331964839784184 0 -0.0036600347263651893 -0.001250641487317513 0 -0.0019972428285622954 -5.4058097199544789e-05 0 -0.0025324388360620925 -0.00098791216355013857 0 -0.0028347636314254975 -0.00042331964839784184 0 -0.0023283042778147757 -0.0017629403336972879 0 -0.0025324388360620925 -0.00098791216355013857 0 -0.0031508107009872209 -0.001950381812493287 0 -0.0025324388360620925 -0.00098791216355013857 0 -0.0031508107009872209 -0.001950381812493287 0 -0.0036600347263651893 -0.001250641487317513 0 -0.0038686083609949904 -0.0024276745659858193 0 -0.0038171498709956308 -0.0026365650786547424 0 -0.0031508107009872209 -0.001950381812493287 0 -0.0036600347263651893 -0.001250641487317513 0 -0.0037713280061321603 -0.0026691373505746707 0 -0.003894965918290071 -0.0024091406154186264 0 -0.0038686083609949904 -0.0024276745659858193 0 -0.0039186853248372533 -0.0045324987527849327 0 -0.0043658053934823287 -0.0044368340567877643 0 -0.0041617807053247616 -0.0036587072459002179 0 -0.0039186853248372533 -0.0045324987527849327 0 -0.0041617807053247616 -0.0036587072459002179 0 -0.0036022482684335564 -0.0042071882209978586 0 -0.0032914411097259588 -0.00010289455496617774 0 -0.0028347636314254975 -0.00042331964839784184 0 -0.0036600347263651893 -0.001250641487317513 0 -0.0036022482684335564 -0.0042071882209978586 0 -0.0034618106691261057 -0.0036438716964875264 0 -0.003104463177204472 -0.0043324462080191212 0 -0.0041617807053247616 -0.0036587072459002179 0 -0.0036022482684335564 -0.0042071882209978586 0 -0.0034618106691261057 -0.0036438716964875264 0 -0.0034618106691261057 -0.0036438716964875264 0 -0.0037713280061321603 -0.0026691373505746707 0 -0.0032637417377203307 -0.003101389938715136 0 -0.0041617807053247616 -0.0036587072459002179 0 -0.0034618106691261057 -0.0036438716964875264 0 -0.0037713280061321603 -0.0026691373505746707 0 -0.0034676931358297554 -0.0027602622982928074 0 -0.0037713280061321603 -0.0026691373505746707 0 -0.0032637417377203307 -0.003101389938715136 0 -0.0034676931358297554 -0.0027602622982928074 0 -0.0036108712775548921 -0.0027043492190244943 0 -0.0037713280061321603 -0.0026691373505746707 0 -0.0034676931358297554 -0.0027602622982928074 0 -0.0032637417377203307 -0.003101389938715136 0 -0.0031649416531002498 -0.0027884369435202932 0 -0.0034676931358297554 -0.0027602622982928074 0 -0.0034698561025009933 -0.0026468431266566139 0 -0.0031649416531002498 -0.0027884369435202932 0 -0.0034698561025009933 -0.0026468431266566139 0 -0.0031649416531002498 -0.0027884369435202932 0 -0.0032455614653992032 -0.0025312991132738329 0 -0.0034698561025009933 -0.0026468431266566139 0 -0.0032455614653992032 -0.0025312991132738329 0 -0.0034480031140856496 -0.0025409965914260963 0 -0.0034698561025009933 -0.0026468431266566139 0 -0.0035698500942628847 -0.0026827353739612152 0 -0.0035639805071035219 -0.0025883845206825479 0 -0.0034698561025009933 -0.0026468431266566139 0 -0.0034480031140856496 -0.0025409965914260963 0 -0.0035639805071035219 -0.0025883845206825479 0 -0.0034676931358297554 -0.0027602622982928074 0 -0.0034698561025009933 -0.0026468431266566139 0 -0.0036108712775548921 -0.0027043492190244943 0 -0.0034698561025009933 -0.0026468431266566139 0 -0.0036108712775548921 -0.0027043492190244943 0 -0.0035698500942628847 -0.0026827353739612152 0 -0.0036108712775548921 -0.0027043492190244943 0 -0.0035698500942628847 -0.0026827353739612152 0 -0.0032380806382913828 -0.0027472935646037566 0 -0.003104113009395813 -0.0025366952814910061 0 -0.0027457005760828544 -0.0029580783527968393 0 -0.0035698500942628847 -0.0026827353739612152 0 -0.0032380806382913828 -0.0027472935646037566 0 -0.0035988465459414597 -0.0026582239268998853 0 -0.0035698500942628847 -0.0026827353739612152 0 -0.0035988465459414597 -0.0026582239268998853 0 -0.0035639805071035219 -0.0025883845206825479 0 -0.0036108712775548921 -0.0027043492190244943 0 -0.0037713280061321603 -0.0026691373505746707 0 -0.0032380806382913828 -0.0027472935646037566 0 -0.0031508107009872209 -0.001950381812493287 0 -0.0037713280061321603 -0.0026691373505746707 0 -0.0032380806382913828 -0.0027472935646037566 0 -0.0023533968951630329 -0.0018157604120557533 0 -0.003104113009395813 -0.0025366952814910061 0 -0.0023283042778147757 -0.0017629403336972879 0 -0.002821005137774499 -0.0023790525714137731 0 -0.0021322699739202682 -0.0023873281684774891 0 -0.0023283042778147757 -0.0017629403336972879 0 -0.0031508107009872209 -0.001950381812493287 0 -0.0032380806382913828 -0.0027472935646037566 0 -0.002821005137774499 -0.0023790525714137731 0 -0.0021322699739202682 -0.0023873281684774891 0 -0.0024223255946766381 -0.0030059510275738705 0 -0.002821005137774499 -0.0023790525714137731 0 -0.0024223255946766381 -0.0030059510275738705 0 -0.0033510463950275726 -0.0029701121126508895 0 -0.0016711501445672008 -0.0026291658430063775 0 -0.0015053684143994635 -0.0029931977259305053 0 -0.0024223255946766381 -0.0030059510275738705 0 -0.0016711501445672008 -0.0026291658430063775 0 -0.0021322699739202682 -0.0023873281684774891 0 -0.0024223255946766381 -0.0030059510275738705 0 -0.0013924902136997193 -0.0021500774431289617 0 -0.0023283042778147757 -0.0017629403336972879 0 -0.0021322699739202682 -0.0023873281684774891 0 -0.002006034928253637 -0.0033198582924469709 0 -0.0016341218008518006 -0.0041717747536208077 0 -0.0024227990592765249 -0.0037464187058326207 0 -0.0020232358688263411 -0.0035335333239153179 0 -0.0016544356236595312 -0.0044066071444069247 0 -0.0011784356943465384 -0.003879374565449276 0 -0.0020419502092923268 -0.0037603916564726649 0 -0.001668643852678697 -0.0046252880163719697 0 -0.0024735542964109142 -0.0044312981836757519 0 -0.0016341218008518006 -0.0041717747536208077 0 -0.0024227990592765249 -0.0037464187058326207 0 -0.0024735542964109142 -0.0044312981836757519 0 -0.0030113292898033234 -0.0037607366308939154 0 -0.0024227990592765249 -0.0037464187058326207 0 -0.0024735542964109142 -0.0044312981836757519 0 -0.003104463177204472 -0.0043324462080191212 0 -0.0030113292898033234 -0.0037607366308939154 0 -0.0034618106691261057 -0.0036438716964875264 0 -0.003104463177204472 -0.0043324462080191212 0 -0.0030113292898033234 -0.0037607366308939154 0 -0.0034618106691261057 -0.0036438716964875264 0 -0.0030113292898033234 -0.0037607366308939154 0 -0.0032637417377203307 -0.003101389938715136 0 -0.0030113292898033234 -0.0037607366308939154 0 -0.0027231697239848093 -0.0031289824650127794 0 -0.0032637417377203307 -0.003101389938715136 0 -0.0030113292898033234 -0.0037607366308939154 0 -0.0024227990592765249 -0.0037464187058326207 0 -0.0027231697239848093 -0.0031289824650127794 0 -0.002006034928253637 -0.0033198582924469709 0 -0.0024227990592765249 -0.0037464187058326207 0 -0.0027231697239848093 -0.0031289824650127794 0 -0.0027231697239848093 -0.0031289824650127794 0 -0.0031649416531002498 -0.0027884369435202932 0 -0.0028200177213781735 -0.0026740743100865721 0 -0.0027231697239848093 -0.0031289824650127794 0 -0.0032637417377203307 -0.003101389938715136 0 -0.0031649416531002498 -0.0027884369435202932 0 -0.0031649416531002498 -0.0027884369435202932 0 -0.0032455614653992032 -0.0025312991132738329 0 -0.0028200177213781735 -0.0026740743100865721 0 -0.0032455614653992032 -0.0025312991132738329 0 -0.0028200177213781735 -0.0026740743100865721 0 -0.0028122205627641502 -0.0022708586900672674 0 -0.0027231697239848093 -0.0031289824650127794 0 -0.0028200177213781735 -0.0026740743100865721 0 -0.0023424305309388688 -0.0027415213853593766 0 -0.0028200177213781735 -0.0026740743100865721 0 -0.0023424305309388688 -0.0027415213853593766 0 -0.0028122205627641502 -0.0022708586900672674 0 -0.0023424305309388688 -0.0027415213853593766 0 -0.0014822282541573626 -0.0030027992613830385 0 -0.0019175423916900811 -0.0022730431189019349 0 -0.0020419502092923268 -0.0037603916564726649 0 -0.0023424305309388688 -0.0027415213853593766 0 -0.0014822282541573626 -0.0030027992613830385 0 -0.002006034928253637 -0.0033198582924469709 0 -0.0027231697239848093 -0.0031289824650127794 0 -0.0023424305309388688 -0.0027415213853593766 0 -0.0020232358688263411 -0.0035335333239153179 0 -0.002315897674020153 -0.0027984275474633199 0 -0.0011784356943465384 -0.003879374565449276 0 -0.0020419502092923268 -0.0037603916564726649 0 -0.0014822282541573626 -0.0030027992613830385 0 -0.0014822282541573626 -0.0030027992613830385 0 -0.0019175423916900811 -0.0022730431189019349 0 -0.00087320645672382658 -0.0023249491575904314 0 -0.0011554374099737442 -0.0031040402933284381 0 -0.00062125902281727138 -0.0039089781211023881 0 -0.00039749074568934677 -0.0040653133385698415 0 -0.00044228164374686152 -0.0041080027032319322 0 -0.00035846058316472805 -0.0040863469610501997 0 -0.00041338654746155213 -0.0040216606759470516 0 -0.0003694562170326115 -0.0040860813322324829 0 -0.00038299006640063563 -0.0040487396514874065 0 -0.00039749074568934677 -0.0040653133385698415 0 -0.00041338654746155213 -0.0040216606759470516 0 -0.00044228164374686152 -0.0041080027032319322 0 -0.00039749074568934677 -0.0040653133385698415 0 -0.00041338654746155213 -0.0040216606759470516 0 -0.00038299006640063563 -0.0040487396514874065 0 -0.00041338654746155213 -0.0040216606759470516 0 -0.00054908003508244679 -0.0040212135251605739 0 -0.00052429198366015981 -0.0039065896102597718 0 -0.00041338654746155213 -0.0040216606759470516 0 -0.00054908003508244679 -0.0040212135251605739 0 -0.00044228164374686152 -0.0041080027032319322 0 -0.00054908003508244679 -0.0040212135251605739 0 -0.00044228164374686152 -0.0041080027032319322 0 -0.00070720170226777016 -0.0041321190213492211 0 -0.0011554374099737442 -0.0031040402933284381 0 -0.0018842493321267638 -0.0031748039010406934 0 -0.0023424305309388688 -0.0027415213853593766 0 -0.0019175423916900811 -0.0022730431189019349 0 -0.0028122205627641502 -0.0022708586900672674 0 -0.0032455614653992032 -0.0025312991132738329 0 -0.0028122205627641502 -0.0022708586900672674 0 -0.0034980027785298153 -0.0023509926644786545 0 -0.00070720170226777016 -0.0041321190213492211 0 -0.00081843318420773861 -0.0038219017008803754 0 -0.0011208347525788092 -0.0041220893563327279 0 -0.0018842493321267638 -0.0031748039010406934 0 -0.0017449244720562247 -0.0035367247746542893 0 -0.00054908003508244679 -0.0040212135251605739 0 -0.00070720170226777016 -0.0041321190213492211 0 -0.00081843318420773861 -0.0038219017008803754 0 -0.00054908003508244679 -0.0040212135251605739 0 -0.00081843318420773861 -0.0038219017008803754 0 -0.00052429198366015981 -0.0039065896102597718 0 -0.00069261592339574522 -0.0037598183316732707 0 -0.00051788322046359293 -0.0038159110469219598 0 -0.00052429198366015981 -0.0039065896102597718 0 -0.00081843318420773861 -0.0038219017008803754 0 -0.00069261592339574522 -0.0037598183316732707 0 -0.00052429198366015981 -0.0039065896102597718 0 -0.00081843318420773861 -0.0038219017008803754 0 -0.00069261592339574522 -0.0037598183316732707 0 -0.00092180550031110574 -0.0036000991305611563 0 -0.00092180550031110574 -0.0036000991305611563 0 -0.00088216354962181414 -0.0034955324746330676 0 -0.00070980911801869491 -0.0036150082000671962 0 -0.00069261592339574522 -0.0037598183316732707 0 -0.00092180550031110574 -0.0036000991305611563 0 -0.00070980911801869491 -0.0036150082000671962 0 -0.00051788322046359293 -0.0038159110469219598 0 -0.00047385848393622016 -0.0037146985495569102 0 -0.00070980911801869491 -0.0036150082000671962 0 -0.00069261592339574522 -0.0037598183316732707 0 -0.00051788322046359293 -0.0038159110469219598 0 -0.00070980911801869491 -0.0036150082000671962 0 -0.00051788322046359293 -0.0038159110469219598 0 -0.00035293696642066012 -0.0039062940419647679 0 -0.00041490228666897982 -0.0039683716074968567 0 -0.00051788322046359293 -0.0038159110469219598 0 -0.00035293696642066012 -0.0039062940419647679 0 -0.00047385848393622016 -0.0037146985495569102 0 -0.00035293696642066012 -0.0039062940419647679 0 -0.0003694562170326115 -0.0040860813322324829 0 -0.0002128087526792124 -0.0039912816462407 0 -0.00035293696642066012 -0.0039062940419647679 0 -0.00041490228666897982 -0.0039683716074968567 0 -0.0003694562170326115 -0.0040860813322324829 0 -0.00041338654746155213 -0.0040216606759470516 0 -0.00041490228666897982 -0.0039683716074968567 0 -0.0003694562170326115 -0.0040860813322324829 0 -0.00041338654746155213 -0.0040216606759470516 0 -0.00041490228666897982 -0.0039683716074968567 0 -0.00052429198366015981 -0.0039065896102597718 0 -0.00051788322046359293 -0.0038159110469219598 0 -0.00041490228666897982 -0.0039683716074968567 0 -0.00052429198366015981 -0.0039065896102597718 0 -0.0011906137112395112 -0.0034725950927804537 0 -0.0011696816509859387 -0.0035180713455638547 0 -0.0012167823881991677 -0.0034301393160002629 0 -0.0011906137112395112 -0.0034725950927804537 0 -0.0012021320138345226 -0.0034098855770452454 0 -0.0012167823881991677 -0.0034301393160002629 0 -0.0012010864040528661 -0.0033584396916684347 0 -0.0012021320138345226 -0.0034098855770452454 0 -0.0012167823881991677 -0.0034301393160002629 0 -0.0011906137112395112 -0.0034725950927804537 0 -0.0012021320138345226 -0.0034098855770452454 0 -0.0011885189043812732 -0.0034565871743624669 0 -0.0012052975855216721 -0.003305369350292818 0 -0.0011885189043812732 -0.0034565871743624669 0 -0.0011723462699551681 -0.0034715926491719288 0 -0.0012052975855216721 -0.003305369350292818 0 -0.0012021320138345226 -0.0034098855770452454 0 -0.0011885189043812732 -0.0034565871743624669 0 -0.0013624910744962613 -0.0031455939128035098 0 -0.0017176114854360804 -0.0032594498829559416 0 -0.0011723462699551681 -0.0034715926491719288 0 -0.0011944074661536324 -0.0035334533893036767 0 -0.0014095308385874245 -0.0034505162614434236 0 -0.0011885189043812732 -0.0034565871743624669 0 -0.0011944074661536324 -0.0035334533893036767 0 -0.0011753674328464289 -0.0035302948205748596 0 -0.0011885189043812732 -0.0034565871743624669 0 -0.0011723462699551681 -0.0034715926491719288 0 -0.0011944074661536324 -0.0035334533893036767 0 -0.0011944074661536324 -0.0035334533893036767 0 -0.0011753674328464289 -0.0035302948205748596 0 -0.0011287683328838412 -0.0035819240688585484 0 -0.0011753674328464289 -0.0035302948205748596 0 -0.0011696816509859387 -0.0035180713455638547 0 -0.0011287683328838412 -0.0035819240688585484 0 -0.0011906137112395112 -0.0034725950927804537 0 -0.0011885189043812732 -0.0034565871743624669 0 -0.0011753674328464289 -0.0035302948205748596 0 -0.0011906137112395112 -0.0034725950927804537 0 -0.0011753674328464289 -0.0035302948205748596 0 -0.0011696816509859387 -0.0035180713455638547 0 -0.0010592629756343505 -0.0036483176377273344 0 -0.0011287683328838412 -0.0035819240688585484 0 -0.0010233962156086871 -0.0037194759724841161 0 -0.0011696816509859387 -0.0035180713455638547 0 -0.0010924009863701367 -0.0035903393334772524 0 -0.0011287683328838412 -0.0035819240688585484 0 -0.0010924009863701367 -0.0035903393334772524 0 -0.0010592629756343505 -0.0036483176377273344 0 -0.0011287683328838412 -0.0035819240688585484 0 -0.0010924009863701367 -0.0035903393334772524 0 -0.0010592629756343505 -0.0036483176377273344 0 -0.00099425313326416821 -0.003693290830125092 0 -0.0011944074661536324 -0.0035334533893036767 0 -0.0011287683328838412 -0.0035819240688585484 0 -0.0010233962156086871 -0.0037194759724841161 0 -0.0017176114854360804 -0.0032594498829559416 0 -0.0027457005760828544 -0.0029580783527968393 0 -0.00097333522718448474 -0.0035726154770606127 0 -0.0017449244720562247 -0.0035367247746542893 0 -0.0011944074661536324 -0.0035334533893036767 0 -0.0014095308385874245 -0.0034505162614434236 0 -0.0014856040319431245 -0.0035318266008644147 0 -0.0027457005760828544 -0.0029580783527968393 0 -0.00306310834755197 -0.0029073259994841418 0 -0.0034980027785298153 -0.0023509926644786545 0 -0.0034480031140856496 -0.0025409965914260963 0 -0.0035639805071035219 -0.0025883845206825479 0 -0.0036540458705725007 -0.0025885455923376549 0 -0.0034980027785298153 -0.0023509926644786545 0 -0.0035639805071035219 -0.0025883845206825479 0 -0.0027457005760828544 -0.0029580783527968393 0 -0.0017449244720562247 -0.0035367247746542893 0 -0.0032455614653992032 -0.0025312991132738329 0 -0.0034980027785298153 -0.0023509926644786545 0 -0.0034480031140856496 -0.0025409965914260963 0 -0.0010592629756343505 -0.0036483176377273344 0 -0.0010233962156086871 -0.0037194759724841161 0 -0.00099425313326416821 -0.003693290830125092 0 -0.00081843318420773861 -0.0038219017008803754 0 -0.00099425313326416821 -0.003693290830125092 0 -0.0010057009485106322 -0.0036284737313358934 0 -0.00081843318420773861 -0.0038219017008803754 0 -0.0010233962156086871 -0.0037194759724841161 0 -0.00099425313326416821 -0.003693290830125092 0 -0.00062834496568706761 -0.0038919419364617574 0 -0.0017449244720562247 -0.0035367247746542893 0 -0.0010057009485106322 -0.0036284737313358934 0 -0.00092180550031110574 -0.0036000991305611563 0 -0.0010769751765677266 -0.0035356506239886784 0 -0.00081843318420773861 -0.0038219017008803754 0 -0.0010057009485106322 -0.0036284737313358934 0 -0.00092180550031110574 -0.0036000991305611563 0 -0.00092180550031110574 -0.0036000991305611563 0 -0.0010769751765677266 -0.0035356506239886784 0 -0.0010232457167569447 -0.0033962336913761645 0 -0.0010769751765677266 -0.0035356506239886784 0 -0.001167300290804453 -0.003408545524709075 0 -0.0010232457167569447 -0.0033962336913761645 0 -0.0010924009863701367 -0.0035903393334772524 0 -0.0010769751765677266 -0.0035356506239886784 0 -0.001169675641551136 -0.003490177903756179 0 -0.0010924009863701367 -0.0035903393334772524 0 -0.0010057009485106322 -0.0036284737313358934 0 -0.0010769751765677266 -0.0035356506239886784 0 -0.0010924009863701367 -0.0035903393334772524 0 -0.00099425313326416821 -0.003693290830125092 0 -0.0010057009485106322 -0.0036284737313358934 0 -0.0011696816509859387 -0.0035180713455638547 0 -0.001169675641551136 -0.003490177903756179 0 -0.0012167823881991677 -0.0034301393160002629 0 -0.0011696816509859387 -0.0035180713455638547 0 -0.0010924009863701367 -0.0035903393334772524 0 -0.001169675641551136 -0.003490177903756179 0 -0.001169675641551136 -0.003490177903756179 0 -0.001167300290804453 -0.003408545524709075 0 -0.0012303754500041007 -0.0034098781297981912 0 -0.0010769751765677266 -0.0035356506239886784 0 -0.001169675641551136 -0.003490177903756179 0 -0.001167300290804453 -0.003408545524709075 0 -0.001167300290804453 -0.003408545524709075 0 -0.0012303754500041007 -0.0034098781297981912 0 -0.0012630734180676178 -0.0033345234762312604 0 -0.0012674018924802592 -0.0033602498387326767 0 -0.0012303754500041007 -0.0034098781297981912 0 -0.0012630734180676178 -0.0033345234762312604 0 -0.0012431158039711821 -0.0033844778074784217 0 -0.0012674018924802592 -0.0033602498387326767 0 -0.0012303754500041007 -0.0034098781297981912 0 -0.0012431158039711821 -0.0033844778074784217 0 -0.0012303754500041007 -0.0034098781297981912 0 -0.0012167823881991677 -0.0034301393160002629 0 -0.001169675641551136 -0.003490177903756179 0 -0.0012303754500041007 -0.0034098781297981912 0 -0.0012167823881991677 -0.0034301393160002629 0 -0.0013499909658288285 -0.0031908643606669783 0 -0.0013076912913636621 -0.0032980720529656171 0 -0.0013060735654638752 -0.0032448908823183983 0 -0.0013499909658288285 -0.0031908643606669783 0 -0.0013026392058964856 -0.0031566181410894612 0 -0.0013060735654638752 -0.0032448908823183983 0 -0.0013026392058964856 -0.0031566181410894612 0 -0.0013060735654638752 -0.0032448908823183983 0 -0.0012398570400385053 -0.0032645133180720571 0 -0.0013076912913636621 -0.0032980720529656171 0 -0.0013060735654638752 -0.0032448908823183983 0 -0.0012630734180676178 -0.0033345234762312604 0 -0.0013076912913636621 -0.0032980720529656171 0 -0.0012674018924802592 -0.0033602498387326767 0 -0.0012630734180676178 -0.0033345234762312604 0 -0.0013060735654638752 -0.0032448908823183983 0 -0.0012630734180676178 -0.0033345234762312604 0 -0.0012398570400385053 -0.0032645133180720571 0 -0.001167300290804453 -0.003408545524709075 0 -0.0012398570400385053 -0.0032645133180720571 0 -0.0011405312853778643 -0.0032846889910924772 0 -0.001167300290804453 -0.003408545524709075 0 -0.0012630734180676178 -0.0033345234762312604 0 -0.0012398570400385053 -0.0032645133180720571 0 -0.0012398570400385053 -0.0032645133180720571 0 -0.0012061914940129149 -0.0031371560567191419 0 -0.0011405312853778643 -0.0032846889910924772 0 -0.0013026392058964856 -0.0031566181410894612 0 -0.0012398570400385053 -0.0032645133180720571 0 -0.0012061914940129149 -0.0031371560567191419 0 -0.0010770111674592417 -0.0031503173484374201 0 -0.0011405312853778643 -0.0032846889910924772 0 -0.0010232457167569447 -0.0033962336913761645 0 -0.0012061914940129149 -0.0031371560567191419 0 -0.0010770111674592417 -0.0031503173484374201 0 -0.0011405312853778643 -0.0032846889910924772 0 -0.001167300290804453 -0.003408545524709075 0 -0.0011405312853778643 -0.0032846889910924772 0 -0.0010232457167569447 -0.0033962336913761645 0 -0.00092180550031110574 -0.0036000991305611563 0 -0.0010232457167569447 -0.0033962336913761645 0 -0.00088216354962181414 -0.0034955324746330676 0 -0.0010232457167569447 -0.0033962336913761645 0 -0.00088216354962181414 -0.0034955324746330676 0 -0.00084261099259740459 -0.0033569212231252619 0 -0.0010770111674592417 -0.0031503173484374201 0 -0.0010232457167569447 -0.0033962336913761645 0 -0.00093848218883059214 -0.0031666398290770286 0 -0.0010232457167569447 -0.0033962336913761645 0 -0.00093848218883059214 -0.0031666398290770286 0 -0.00084261099259740459 -0.0033569212231252619 0 -0.0010770111674592417 -0.0031503173484374201 0 -0.00093848218883059214 -0.0031666398290770286 0 -0.0009480492691202226 -0.0029360539979451823 0 -0.00093848218883059214 -0.0031666398290770286 0 -0.0009480492691202226 -0.0029360539979451823 0 -0.00077148572738059416 -0.0031282812819262073 0 -0.0009480492691202226 -0.0029360539979451823 0 -0.0010851481591911208 -0.0027908176308948092 0 -0.00083157162144774312 -0.0026306705866519418 0 -0.0013342112853688055 -0.0025351873690386498 0 -0.00083591886545553629 -0.0026100722294861412 0 -0.0012780000010204342 -0.0021699011886541111 0 -0.0016448345939619486 -0.0022947761775578305 0 -0.00083157162144774312 -0.0026306705866519418 0 -0.0009480492691202226 -0.0029360539979451823 0 -0.0010851481591911208 -0.0027908176308948092 0 -0.0011572472228981536 -0.0029475434976619763 0 -0.0010770111674592417 -0.0031503173484374201 0 -0.0009480492691202226 -0.0029360539979451823 0 -0.0011572472228981536 -0.0029475434976619763 0 -0.0012061914940129149 -0.0031371560567191419 0 -0.0010770111674592417 -0.0031503173484374201 0 -0.0011572472228981536 -0.0029475434976619763 0 -0.0011572472228981536 -0.0029475434976619763 0 -0.0013322840490074405 -0.0029195982650036525 0 -0.0014400532081567656 -0.002632343024503811 0 -0.0012061914940129149 -0.0031371560567191419 0 -0.0011572472228981536 -0.0029475434976619763 0 -0.0013322840490074405 -0.0029195982650036525 0 -0.0013026392058964856 -0.0031566181410894612 0 -0.0012061914940129149 -0.0031371560567191419 0 -0.0013322840490074405 -0.0029195982650036525 0 -0.0018807868804815234 -0.0019879715214999477 0 -0.0016448345939619486 -0.0022947761775578305 0 -0.001943836056526049 -0.0020773798597481376 0 -0.0013342112853688055 -0.0025351873690386498 0 -0.001722900259236387 -0.0023654746568014273 0 -0.0010851481591911208 -0.0027908176308948092 0 -0.0011572472228981536 -0.0029475434976619763 0 -0.0014400532081567656 -0.002632343024503811 0 -0.0018807868804815234 -0.0019879715214999477 0 -0.0019992692359684094 -0.0019050480870590357 0 -0.001943836056526049 -0.0020773798597481376 0 -0.002308122145484974 -0.0023226434190688427 0 -0.001722900259236387 -0.0023654746568014273 0 -0.002123254770137081 -0.0019578282726920885 0 -0.0019992692359684094 -0.0019050480870590357 0 -0.001943836056526049 -0.0020773798597481376 0 -0.0016391759187444773 -0.0031828548080897203 0 -0.001310730961205313 -0.0029020311323081707 0 -0.00197000395185254 -0.0026628457243666743 0 -0.0014400532081567656 -0.002632343024503811 0 -0.0017200502062858995 -0.0028017751272492739 0 -0.0019039439382012814 -0.0030226492399473464 0 -0.0013322840490074405 -0.0029195982650036525 0 -0.0017200502062858995 -0.0028017751272492739 0 -0.0013499909658288285 -0.0031908643606669783 0 -0.0013026392058964856 -0.0031566181410894612 0 -0.0013322840490074405 -0.0029195982650036525 0 -0.0013322840490074405 -0.0029195982650036525 0 -0.0014400532081567656 -0.002632343024503811 0 -0.0017200502062858995 -0.0028017751272492739 0 -0.0019279272562471243 -0.0028347507729118296 0 -0.0019039439382012814 -0.0030226492399473464 0 -0.0017200502062858995 -0.0028017751272492739 0 -0.00028602280750858895 -0.0035765204804030525 0 -0.00041844687851284694 -0.0036064173143183849 0 -0.00049756574411353603 -0.0034060238860522153 0 -0.00028602280750858895 -0.0035765204804030525 0 -0.00049756574411353603 -0.0034060238860522153 0 -0.00040453579367643352 -0.0032660685304716367 0 -0.00028602280750858895 -0.0035765204804030525 0 -0.00025491066187277405 -0.0038054304237050834 0 -0.00041844687851284694 -0.0036064173143183849 0 -0.00028602280750858895 -0.0035765204804030525 0 -0.00025491066187277405 -0.0038054304237050834 0 -1.2301891424205764e-05 -0.0038314843775287145 0 -0.00028602280750858895 -0.0035765204804030525 0 -0.00028971847992571457 -0.0031521806869031755 0 -1.2301891424205764e-05 -0.0038314843775287145 0 -0.00035293696642066012 -0.0039062940419647679 0 -0.00025491066187277405 -0.0038054304237050834 0 -0.0002128087526792124 -0.0039912816462407 0 -0.00025491066187277405 -0.0038054304237050834 0 -1.2301891424205764e-05 -0.0038314843775287145 0 -0.00012126085052928379 -0.003910736023911422 0 -0.00035293696642066012 -0.0039062940419647679 0 -0.00025491066187277405 -0.0038054304237050834 0 -0.00047385848393622016 -0.0037146985495569102 0 -0.00047385848393622016 -0.0037146985495569102 0 -0.00041844687851284694 -0.0036064173143183849 0 -0.00061957934727359051 -0.0034978990637895327 0 -0.00025491066187277405 -0.0038054304237050834 0 -0.00047385848393622016 -0.0037146985495569102 0 -0.00041844687851284694 -0.0036064173143183849 0 -0.00047385848393622016 -0.0037146985495569102 0 -0.00061957934727359051 -0.0034978990637895327 0 -0.00070980911801869491 -0.0036150082000671962 0 -0.00088216354962181414 -0.0034955324746330676 0 -0.00070980911801869491 -0.0036150082000671962 0 -0.00084261099259740459 -0.0033569212231252619 0 -0.00061957934727359051 -0.0034978990637895327 0 -0.00070980911801869491 -0.0036150082000671962 0 -0.00084261099259740459 -0.0033569212231252619 0 -0.00061957934727359051 -0.0034978990637895327 0 -0.00084261099259740459 -0.0033569212231252619 0 -0.0006548316333634714 -0.0033170650444887938 0 -0.00084261099259740459 -0.0033569212231252619 0 -0.0006548316333634714 -0.0033170650444887938 0 -0.00077148572738059416 -0.0031282812819262073 0 -0.00093848218883059214 -0.0031666398290770286 0 -0.00084261099259740459 -0.0033569212231252619 0 -0.00077148572738059416 -0.0031282812819262073 0 -0.00041844687851284694 -0.0036064173143183849 0 -0.00061957934727359051 -0.0034978990637895327 0 -0.00049756574411353603 -0.0034060238860522153 0 -0.00061957934727359051 -0.0034978990637895327 0 -0.0006548316333634714 -0.0033170650444887938 0 -0.00049756574411353603 -0.0034060238860522153 0 -0.0006548316333634714 -0.0033170650444887938 0 -0.00049756574411353603 -0.0034060238860522153 0 -0.00054396611482676041 -0.0031942660124884611 0 -0.00054396611482676041 -0.0031942660124884611 0 -0.00037193030359581111 -0.0030771558828181778 0 -0.00040453579367643352 -0.0032660685304716367 0 -0.00049756574411353603 -0.0034060238860522153 0 -0.00054396611482676041 -0.0031942660124884611 0 -0.00040453579367643352 -0.0032660685304716367 0 -0.0006548316333634714 -0.0033170650444887938 0 -0.00054396611482676041 -0.0031942660124884611 0 -0.00077148572738059416 -0.0031282812819262073 0 -0.00054396611482676041 -0.0031942660124884611 0 -0.00077148572738059416 -0.0031282812819262073 0 -0.00061931052187417818 -0.0029230124598225798 0 -0.00054396611482676041 -0.0031942660124884611 0 -0.00061931052187417818 -0.0029230124598225798 0 -0.00037193030359581111 -0.0030771558828181778 0 -0.00077148572738059416 -0.0031282812819262073 0 -0.00079820393302866262 -0.0029131978490363718 0 -0.00061931052187417818 -0.0029230124598225798 0 -0.0009480492691202226 -0.0029360539979451823 0 -0.00077148572738059416 -0.0031282812819262073 0 -0.00079820393302866262 -0.0029131978490363718 0 -0.0009480492691202226 -0.0029360539979451823 0 -0.00079820393302866262 -0.0029131978490363718 0 -0.00083157162144774312 -0.0026306705866519418 0 -0.00079820393302866262 -0.0029131978490363718 0 -0.00083157162144774312 -0.0026306705866519418 0 -0.00061931052187417818 -0.0029230124598225798 0 -0.00054599273353501347 -0.0024930748556725169 0 -0.00083157162144774312 -0.0026306705866519418 0 -0.00061931052187417818 -0.0029230124598225798 0 -0.00036231481379929794 -0.0030703967474455625 0 -0.00038157576715651718 -0.0030512356065372542 0 -0.00037193030359581111 -0.0030771558828181778 0 -0.00050664617115884646 -0.0025878381345565285 0 -0.00033697621927235755 -0.0030913291793199594 0 -0.00054599273353501347 -0.0024930748556725169 0 -0.00061931052187417818 -0.0029230124598225798 0 -0.00037193030359581111 -0.0030771558828181778 0 -0.00038157576715651718 -0.0030512356065372542 0 -0.00037193030359581111 -0.0030771558828181778 0 -0.00028971847992571457 -0.0031521806869031755 0 0.00073060906880614862 -0.0048013070214093017 0 0.00054639737842611738 -0.0043016104768540302 0 0.00034860295085632255 -0.0046592288179061444 0 0.0003349042195994697 -0.0036220454489512789 0 0.00014478931023020948 -0.0038077725897951889 0 0.00083218568966643934 -0.0052455271289557617 0 0.00073060906880614862 -0.0048013070214093017 0 0.00034860295085632255 -0.0046592288179061444 0 0.0011442406304419406 -0.004887937635472581 0 0.00073060906880614862 -0.0048013070214093017 0 0.00054639737842611738 -0.0043016104768540302 0 0.00099747801771623386 -0.0050811266239213643 0 0.0011442406304419406 -0.004887937635472581 0 0.00073060906880614862 -0.0048013070214093017 0 -0.00037193030359581111 -0.0030771558828181778 0 -0.00028971847992571457 -0.0031521806869031755 0 -0.00040453579367643352 -0.0032660685304716367 0 -0.00028602280750858895 -0.0035765204804030525 0 -0.00028971847992571457 -0.0031521806869031755 0 -0.00040453579367643352 -0.0032660685304716367 0 0.00054639737842611738 -0.0043016104768540302 0 0.00034860295085632255 -0.0046592288179061444 0 -9.7097143882137391e-06 -0.0041847508237781985 0 0.00054639737842611738 -0.0043016104768540302 0 -9.7097143882137391e-06 -0.0041847508237781985 0 -1.2301891424205764e-05 -0.0038314843775287145 0 0.00012573140321205765 -0.0038319876712977338 0 0.00019820507191158505 -0.0044767030453744449 0 0.00014478931023020948 -0.0038077725897951889 0 -1.5033934743161917e-05 -0.0037723759064199071 0 0.00026089108568579295 -0.0048073438906759483 0 0.00048975004758032895 -0.0045122050899256694 0 6.9617470106274649e-05 -0.0044428135317050024 0 0.00116953407078548 -0.0099199341652523136 0 0.001217351186012849 -0.0097332301818211751 0 0.00026089108568579295 -0.0048073438906759483 0 6.9617470106274649e-05 -0.0044428135317050024 0 -0.00014034396186168255 -0.0044616119294174457 0 0.00048975004758032895 -0.0045122050899256694 0 6.9617470106274649e-05 -0.0044428135317050024 0 -9.7097143882137391e-06 -0.0041847508237781985 0 6.9617470106274649e-05 -0.0044428135317050024 0 -0.00014034396186168255 -0.0044616119294174457 0 -8.6409673895190985e-05 -0.0042781243662174543 0 -0.00014034396186168255 -0.0044616119294174457 0 -8.6409673895190985e-05 -0.0042781243662174543 0 -0.00014774108358574762 -0.004277405363763179 0 -8.6409673895190985e-05 -0.0042781243662174543 0 -0.00012083213163981683 -0.004181579515520284 0 -8.7356966508561046e-05 -0.0040611978833618809 0 -8.6409673895190985e-05 -0.0042781243662174543 0 -0.00012083213163981683 -0.004181579515520284 0 -0.00014774108358574762 -0.004277405363763179 0 -0.00012083213163981683 -0.004181579515520284 0 -0.00012757939800520719 -0.0042090995753567137 0 -0.00014774108358574762 -0.004277405363763179 0 6.9617470106274649e-05 -0.0044428135317050024 0 -8.6409673895190985e-05 -0.0042781243662174543 0 -9.7097143882137391e-06 -0.0041847508237781985 0 -8.6409673895190985e-05 -0.0042781243662174543 0 -9.7097143882137391e-06 -0.0041847508237781985 0 -8.7356966508561046e-05 -0.0040611978833618809 0 -1.2301891424205764e-05 -0.0038314843775287145 0 -9.5962249611870114e-05 -0.0039770489196955788 0 -0.00012126085052928379 -0.003910736023911422 0 -1.2301891424205764e-05 -0.0038314843775287145 0 -9.5962249611870114e-05 -0.0039770489196955788 0 -8.7356966508561046e-05 -0.0040611978833618809 0 -9.7097143882137391e-06 -0.0041847508237781985 0 -1.2301891424205764e-05 -0.0038314843775287145 0 -8.7356966508561046e-05 -0.0040611978833618809 0 -0.00012083213163981683 -0.004181579515520284 0 -8.7356966508561046e-05 -0.0040611978833618809 0 -0.0001106088292878701 -0.0041060720564658369 0 -0.00012083213163981683 -0.004181579515520284 0 -0.0001106088292878701 -0.0041060720564658369 0 -0.00012757939800520719 -0.0042090995753567137 0 -0.0001106088292878701 -0.0041060720564658369 0 -9.8888708803341683e-05 -0.0040777180801007465 0 -0.00010153610974962508 -0.0041721322596915741 0 -9.5962249611870114e-05 -0.0039770489196955788 0 -8.7356966508561046e-05 -0.0040611978833618809 0 -0.0001106088292878701 -0.0041060720564658369 0 -9.5962249611870114e-05 -0.0039770489196955788 0 -0.0001106088292878701 -0.0041060720564658369 0 -9.8888708803341683e-05 -0.0040777180801007465 0 -9.5962249611870114e-05 -0.0039770489196955788 0 -9.8888708803341683e-05 -0.0040777180801007465 0 -0.00012355718471434809 -0.0040111675326015032 0 -9.8888708803341683e-05 -0.0040777180801007465 0 -0.00010655500833899204 -0.0040945401031790363 0 -8.3565803125888131e-05 -0.0041205374299018343 0 -0.00010655500833899204 -0.0040945401031790363 0 -8.3565803125888131e-05 -0.0041205374299018343 0 -7.8122853548040849e-05 -0.0041517827654706883 0 -0.00010655500833899204 -0.0040945401031790363 0 -0.00012355718471434809 -0.0040111675326015032 0 -0.00014642162493418699 -0.0040778202338554951 0 -9.8888708803341683e-05 -0.0040777180801007465 0 -0.00010655500833899204 -0.0040945401031790363 0 -0.00012355718471434809 -0.0040111675326015032 0 -0.00012355718471434809 -0.0040111675326015032 0 -0.00012126085052928379 -0.003910736023911422 0 -0.0002128087526792124 -0.0039912816462407 0 -0.00025491066187277405 -0.0038054304237050834 0 -0.00012126085052928379 -0.003910736023911422 0 -0.0002128087526792124 -0.0039912816462407 0 -9.5962249611870114e-05 -0.0039770489196955788 0 -0.00012355718471434809 -0.0040111675326015032 0 -0.00012126085052928379 -0.003910736023911422 0 0.00010116677095644048 -0.0041484427627871455 0 5.8680603435880147e-07 -0.0041765303091029615 0 -6.9006484654467502e-05 -0.0041579579984443752 0 -0.00020092411934154926 -0.0049423023201934663 0 -8.3051876481337841e-05 -0.00427300459041253 0 -0.00020092411934154926 -0.0049423023201934663 0 -0.00022482046491353156 -0.0043804671541435121 0 -0.00042979142616941161 -0.0041592152230818229 0 -6.9006484654467502e-05 -0.0041579579984443752 0 -0.00011269307776472074 -0.0042539842844266113 0 0.00010116677095644048 -0.0041484427627871455 0 0.00011912623048848074 -0.0042353528142662893 0 5.6562704333396719e-05 -0.0042033830615996678 0 0.00010116677095644048 -0.0041484427627871455 0 5.6562704333396719e-05 -0.0042033830615996678 0 5.8680603435880147e-07 -0.0041765303091029615 0 0.00011912623048848074 -0.0042353528142662893 0 5.6562704333396719e-05 -0.0042033830615996678 0 6.6637436040153223e-05 -0.0042370205812938735 0 5.6562704333396719e-05 -0.0042033830615996678 0 8.7233638459566536e-06 -0.0041983772704197678 0 6.6637436040153223e-05 -0.0042370205812938735 0 5.6562704333396719e-05 -0.0042033830615996678 0 5.8680603435880147e-07 -0.0041765303091029615 0 8.7233638459566536e-06 -0.0041983772704197678 0 5.8680603435880147e-07 -0.0041765303091029615 0 8.7233638459566536e-06 -0.0041983772704197678 0 -4.9587415858429823e-05 -0.004162447402080844 0 8.7233638459566536e-06 -0.0041983772704197678 0 -4.9587415858429823e-05 -0.004162447402080844 0 -1.9216633280818878e-05 -0.0041954837527215776 0 -4.9587415858429823e-05 -0.004162447402080844 0 -5.8878133102898442e-05 -0.0041558967558504656 0 -7.9590283893928482e-05 -0.0041369771030385048 0 -4.9587415858429823e-05 -0.004162447402080844 0 -5.8878133102898442e-05 -0.0041558967558504656 0 -1.9216633280818878e-05 -0.0041954837527215776 0 -5.8878133102898442e-05 -0.0041558967558504656 0 -8.3565803125888131e-05 -0.0041205374299018343 0 -7.9590283893928482e-05 -0.0041369771030385048 0 -5.8878133102898442e-05 -0.0041558967558504656 0 -8.3565803125888131e-05 -0.0041205374299018343 0 -7.8122853548040849e-05 -0.0041517827654706883 0 -9.8888708803341683e-05 -0.0040777180801007465 0 -7.9590283893928482e-05 -0.0041369771030385048 0 -0.00010153610974962508 -0.0041721322596915741 0 -9.8888708803341683e-05 -0.0040777180801007465 0 -8.3565803125888131e-05 -0.0041205374299018343 0 -7.9590283893928482e-05 -0.0041369771030385048 0 -7.9590283893928482e-05 -0.0041369771030385048 0 -8.7952663636966629e-05 -0.0041903259698768775 0 -0.00010153610974962508 -0.0041721322596915741 0 5.8680603435880147e-07 -0.0041765303091029615 0 -4.9587415858429823e-05 -0.004162447402080844 0 -6.9006484654467502e-05 -0.0041579579984443752 0 -4.9587415858429823e-05 -0.004162447402080844 0 -7.4124281445996239e-05 -0.0041556819604822081 0 -6.9006484654467502e-05 -0.0041579579984443752 0 -4.9587415858429823e-05 -0.004162447402080844 0 -7.9590283893928482e-05 -0.0041369771030385048 0 -7.4124281445996239e-05 -0.0041556819604822081 0 -7.4124281445996239e-05 -0.0041556819604822081 0 -6.9006484654467502e-05 -0.0041579579984443752 0 -8.7952663636966629e-05 -0.0041903259698768775 0 -7.9590283893928482e-05 -0.0041369771030385048 0 -7.4124281445996239e-05 -0.0041556819604822081 0 -8.7952663636966629e-05 -0.0041903259698768775 0 -6.9006484654467502e-05 -0.0041579579984443752 0 -8.7952663636966629e-05 -0.0041903259698768775 0 -0.00011269307776472074 -0.0042539842844266113 0 -0.00011026087639856019 -0.0042414632636923492 0 -0.00010153610974962508 -0.0041721322596915741 0 -0.00012061897435827613 -0.0042475905514812798 0 -0.00011026087639856019 -0.0042414632636923492 0 -8.7952663636966629e-05 -0.0041903259698768775 0 -0.00010153610974962508 -0.0041721322596915741 0 -0.00011026087639856019 -0.0042414632636923492 0 -0.00012061897435827613 -0.0042475905514812798 0 -0.00011649680838939361 -0.0043027633838848504 0 -0.00011026087639856019 -0.0042414632636923492 0 -8.7952663636966629e-05 -0.0041903259698768775 0 -0.00011269307776472074 -0.0042539842844266113 0 -0.00010153610974962508 -0.0041721322596915741 0 -0.00012757939800520719 -0.0042090995753567137 0 -0.00012061897435827613 -0.0042475905514812798 0 -0.0001106088292878701 -0.0041060720564658369 0 -0.00010153610974962508 -0.0041721322596915741 0 -0.00012757939800520719 -0.0042090995753567137 0 -0.00012061897435827613 -0.0042475905514812798 0 -0.00011649680838939361 -0.0043027633838848504 0 -0.00013387236524804955 -0.0042771818256994616 0 -0.00012757939800520719 -0.0042090995753567137 0 -0.00012061897435827613 -0.0042475905514812798 0 -0.00013387236524804955 -0.0042771818256994616 0 -8.6749942647475613e-05 -0.0044230866896155649 0 -0.00011649680838939361 -0.0043027633838848504 0 -9.031435798703661e-05 -0.0043264196567048153 0 -0.00011649680838939361 -0.0043027633838848504 0 -9.031435798703661e-05 -0.0043264196567048153 0 -0.00013387236524804955 -0.0042771818256994616 0 -8.6749942647475613e-05 -0.0044230866896155649 0 -0.00011649680838939361 -0.0043027633838848504 0 -0.00011269307776472074 -0.0042539842844266113 0 -0.00011026087639856019 -0.0042414632636923492 0 -0.00011649680838939361 -0.0043027633838848504 0 -0.00011269307776472074 -0.0042539842844266113 0 -9.031435798703661e-05 -0.0043264196567048153 0 -0.00014408132574228886 -0.0042983683520442231 0 9.8449532342025156e-06 -0.0043073783122761387 0 0.0013098076820714107 -0.0095502179261360426 0 0.0012343640893397387 -0.0094376134108438911 0 -9.031435798703661e-05 -0.0043264196567048153 0 -0.00013387236524804955 -0.0042771818256994616 0 -0.00014408132574228886 -0.0042983683520442231 0 -0.00013387236524804955 -0.0042771818256994616 0 -0.00014774108358574762 -0.004277405363763179 0 -0.00014408132574228886 -0.0042983683520442231 0 -0.00012757939800520719 -0.0042090995753567137 0 -0.00013387236524804955 -0.0042771818256994616 0 -0.00014774108358574762 -0.004277405363763179 0 -0.00014034396186168255 -0.0044616119294174457 0 -0.00014774108358574762 -0.004277405363763179 0 -0.00014408132574228886 -0.0042983683520442231 0 0.0028139936500474936 -0.014897187926534749 0 0.0025955874174192583 -0.015017894597836359 0 0.0027865046813822202 -0.014782699348988435 0 0.001217351186012849 -0.0097332301818211751 0 0.0013098076820714107 -0.0095502179261360426 0 0.0026454753699427223 -0.014899359216820124 0 0.0027865046813822202 -0.014782699348988435 0 0.002465244687317921 -0.014560458624773957 0 0.0026454753699427223 -0.014899359216820124 0 0.0028139936500474936 -0.014897187926534749 0 0.0027865046813822202 -0.014782699348988435 0 0.0026454753699427223 -0.014899359216820124 0 0.0022871251582093277 -0.01490245962639465 0 0.002465244687317921 -0.014560458624773957 0 0.0020163830071898122 -0.01508637805226375 0 0.0022871251582093277 -0.01490245962639465 0 0.00200662551731414 -0.014785277875064179 0 0.0022871251582093277 -0.01490245962639465 0 0.002465244687317921 -0.014560458624773957 0 0.00200662551731414 -0.014785277875064179 0 0.0012343640893397387 -0.0094376134108438911 0 0.0011016282003122799 -0.0094230822324473332 0 0.002465244687317921 -0.014560458624773957 0 0.00200662551731414 -0.014785277875064179 0 0.0019787367842018155 -0.014395945346506985 0 9.8449532342025156e-06 -0.0043073783122761387 0 0.00025394966399258656 -0.0044190612658866844 0 2.6279049451762706e-05 -0.0044336605366542487 0 -9.031435798703661e-05 -0.0043264196567048153 0 9.8449532342025156e-06 -0.0043073783122761387 0 2.6279049451762706e-05 -0.0044336605366542487 0 0.0014086904538011056 -0.015161672349128043 0 0.0014145687281930622 -0.014826929193280941 0 0.0017207808452760595 -0.015011343168645082 0 0.0014145687281930622 -0.014826929193280941 0 0.0017207808452760595 -0.015011343168645082 0 0.0017180623279955981 -0.014655738680664143 0 0.0020163830071898122 -0.01508637805226375 0 0.0017207808452760595 -0.015011343168645082 0 0.00200662551731414 -0.014785277875064179 0 0.0017207808452760595 -0.015011343168645082 0 0.00200662551731414 -0.014785277875064179 0 0.0017180623279955981 -0.014655738680664143 0 0.00200662551731414 -0.014785277875064179 0 0.0019787367842018155 -0.014395945346506985 0 0.0017180623279955981 -0.014655738680664143 0 0.0014145687281930622 -0.014826929193280941 0 0.0017180623279955981 -0.014655738680664143 0 0.0014025875502492197 -0.014169112750688434 0 0.0019787367842018155 -0.014395945346506985 0 0.0017180623279955981 -0.014655738680664143 0 0.0014025875502492197 -0.014169112750688434 0 0.0011016282003122799 -0.0094230822324473332 0 0.001024271685467492 -0.0092137671651745124 0 0.00025394966399258656 -0.0044190612658866844 0 0.000531284333176674 -0.0045809386650512924 0 0.00043734120490362196 -0.004762368092611111 0 0.00064552067943907067 -0.0047227745352569576 0 0.000531284333176674 -0.0045809386650512924 0 0.00043734120490362196 -0.004762368092611111 0 0.00025394966399258656 -0.0044190612658866844 0 0.00043734120490362196 -0.004762368092611111 0 0.00013924848226150942 -0.0046255575518851953 0 0.00020937547217090034 -0.005151840403083593 0 -3.5059053685271477e-05 -0.0057412025272674631 0 5.1076257585012487e-05 -0.0066447644569584303 0 -0.00021288674971178446 -0.0065868838992057576 0 -7.3862961242781151e-05 -0.0067431700544371932 0 -5.7842213133381962e-05 -0.008188875820518542 0 -0.00061529272187339507 -0.0077587377534190111 0 5.1076257585012487e-05 -0.0066447644569584303 0 0.00012066591669630897 -0.0067242968107738086 0 -7.3862961242781151e-05 -0.0067431700544371932 0 -8.6749942647475613e-05 -0.0044230866896155649 0 -9.031435798703661e-05 -0.0043264196567048153 0 2.6279049451762706e-05 -0.0044336605366542487 0 0.00025394966399258656 -0.0044190612658866844 0 2.6279049451762706e-05 -0.0044336605366542487 0 0.00013924848226150942 -0.0046255575518851953 0 3.4715022498542955e-05 -0.0053100197229404983 0 -0.00061529272187339507 -0.0077587377534190111 0 -0.00021288674971178446 -0.0065868838992057576 0 -0.00027418713139427682 -0.006636273411885771 0 -7.3862961242781151e-05 -0.0067431700544371932 0 -0.00047453778358326742 -0.0065219594759525967 0 -0.00021288674971178446 -0.0065868838992057576 0 -0.00027418713139427682 -0.006636273411885771 0 -0.00020092411934154926 -0.0049423023201934663 0 3.4715022498542955e-05 -0.0053100197229404983 0 0.00010116677095644048 -0.0041484427627871455 0 0.00021282615990912286 -0.0042640085666033351 0 0.00016504361420265556 -0.0042526344886169134 0 -0.00020092411934154926 -0.0049423023201934663 0 -3.5059053685271477e-05 -0.0057412025272674631 0 -8.6749942647475613e-05 -0.0044230866896155649 0 2.6279049451762706e-05 -0.0044336605366542487 0 0.00013924848226150942 -0.0046255575518851953 0 0.00010116677095644048 -0.0041484427627871455 0 0.00011912623048848074 -0.0042353528142662893 0 0.00016504361420265556 -0.0042526344886169134 0 0.00016504361420265556 -0.0042526344886169134 0 0.00016537135267396231 -0.0042792803956185075 0 0.00018574839388450404 -0.0043029554537170837 0 0.00011912623048848074 -0.0042353528142662893 0 0.00016537135267396231 -0.0042792803956185075 0 0.0001248073480324336 -0.0042797244307448308 0 0.00011912623048848074 -0.0042353528142662893 0 0.00016504361420265556 -0.0042526344886169134 0 0.00016537135267396231 -0.0042792803956185075 0 0.00019258850126390635 -0.0043171602757464018 0 0.00029829849528395237 -0.0043033055326214256 0 0.00021815068319154762 -0.0044440304311078567 0 0.00016537135267396231 -0.0042792803956185075 0 0.00019258850126390635 -0.0043171602757464018 0 0.0001248073480324336 -0.0042797244307448308 0 0.00016537135267396231 -0.0042792803956185075 0 0.00019258850126390635 -0.0043171602757464018 0 0.00018574839388450404 -0.0043029554537170837 0 0.00040383877197610609 -0.0056150483202851535 0 -0.00095428766506976722 -0.0069815534777631708 0 0.00019258850126390635 -0.0043171602757464018 0 0.00018570627965259977 -0.0043057939388571982 0 0.00018574839388450404 -0.0043029554537170837 0 -0.00095428766506976722 -0.0069815534777631708 0 -0.00099465651250539361 -0.006766283428564575 0 0.00021282615990912286 -0.0042640085666033351 0 0.00018754898568090417 -0.0043092157116823024 0 0.00018574839388450404 -0.0043029554537170837 0 0.00021282615990912286 -0.0042640085666033351 0 0.00016504361420265556 -0.0042526344886169134 0 0.00018574839388450404 -0.0043029554537170837 0 0.00021282615990912286 -0.0042640085666033351 0 0.00018754898568090417 -0.0043092157116823024 0 0.0002545429398289251 -0.0043309387236553669 0 -0.0027408874360356941 -0.01040451629287519 0 -0.0017442814193343213 -0.010772957439014417 0 -0.0013030869667796396 -0.010040974495772848 0 -0.00095428766506976722 -0.0069815534777631708 0 -0.00061529272187339507 -0.0077587377534190111 0 -0.0027408874360356941 -0.01040451629287519 0 -0.0017442814193343213 -0.010772957439014417 0 -0.0021087411184308766 -0.01154952384798213 0 -0.00095428766506976722 -0.0069815534777631708 0 -0.00081675708408522857 -0.0080772990993867467 0 0.00029829849528395237 -0.0043033055326214256 0 0.00021815068319154762 -0.0044440304311078567 0 0.00047360163370995607 -0.004590336101499024 0 -5.0690878168549229e-05 -0.010494409704148786 0 -0.00083334771361914513 -0.010720982641472502 0 -0.0013030869667796396 -0.010040974495772848 0 -0.00023735375005135351 -0.010991291406204357 0 -0.00061529272187339507 -0.0077587377534190111 0 -5.0690878168549229e-05 -0.010494409704148786 0 -0.00025392631941760892 -0.0098199989966318915 0 -0.0012162626865819383 -0.010059412867208994 0 -0.0017442814193343213 -0.010772957439014417 0 -0.00083334771361914513 -0.010720982641472502 0 -0.0013030869667796396 -0.010040974495772848 0 -0.0017442814193343213 -0.010772957439014417 0 -0.00083334771361914513 -0.010720982641472502 0 -0.0011272009173588565 -0.011219670365358012 0 -0.0017442814193343213 -0.010772957439014417 0 -0.0011272009173588565 -0.011219670365358012 0 -0.0021087411184308766 -0.01154952384798213 0 -0.0011272009173588565 -0.011219670365358012 0 -0.00031226483141253407 -0.01117642893353548 0 -0.0010735990887228183 -0.011937680073659538 0 -0.00083334771361914513 -0.010720982641472502 0 -0.0011272009173588565 -0.011219670365358012 0 -0.00031226483141253407 -0.01117642893353548 0 -5.0690878168549229e-05 -0.010494409704148786 0 -0.00083334771361914513 -0.010720982641472502 0 -0.00031226483141253407 -0.01117642893353548 0 -1.1192091873324179e-05 -0.011879952138132768 0 -0.0010735990887228183 -0.011937680073659538 0 -0.00072974205476924157 -0.012676520028398145 0 -0.00020383256966665422 -0.023932553086890435 0 -0.00017369701042235856 -0.024043424467052578 0 -0.00014476766189542873 -0.024187086756060319 0 -1.1192091873324179e-05 -0.011879952138132768 0 -0.00031226483141253407 -0.01117642893353548 0 -0.0010735990887228183 -0.011937680073659538 0 -0.00018806710531090674 -0.01885755373436725 0 -0.00057450831090712171 -0.017597517383508909 0 -0.0010735990887228183 -0.011937680073659538 0 -0.001462659221309229 -0.012698794182304303 0 -0.0021087411184308766 -0.01154952384798213 0 -0.0011272009173588565 -0.011219670365358012 0 -0.0010735990887228183 -0.011937680073659538 0 -0.0021087411184308766 -0.01154952384798213 0 -0.00038485243014970799 -0.0053209350891370282 0 -0.00051411758645040161 -0.005413073045540031 0 -0.00047054829751473452 -0.0054596032934178295 0 0.00010609704759492932 -0.016602834483608189 0 -0.00068527525292746202 -0.0091258883427958268 0 -0.00026664933983088618 -0.014341413167944095 0 -0.00024948991689603239 -0.01435916453887459 0 -0.0003031843590235468 -0.014387017638046919 0 0.00010609704759492932 -0.016602834483608189 0 -0.00057450831090712171 -0.017597517383508909 0 -0.0010735990887228183 -0.011937680073659538 0 -0.001462659221309229 -0.012698794182304303 0 -0.00072974205476924157 -0.012676520028398145 0 -0.00068527525292746202 -0.0091258883427958268 0 -0.00057450831090712171 -0.017597517383508909 0 -0.00056182853482249554 -0.017810729300136142 0 -0.00057450831090712171 -0.017597517383508909 0 -7.3570462956851662e-05 -0.024175558705383477 0 -0.00012032802283765042 -0.024186259322405573 0 -0.00012133886601997975 -0.024204168557570502 0 1.1404451429423807e-05 -0.024155799184028083 0 -7.3570462956851662e-05 -0.024175558705383477 0 -0.00012032802283765042 -0.024186259322405573 0 -0.00013966171001093521 -0.024182758611588945 0 -0.00012032802283765042 -0.024186259322405573 0 -0.00012133886601997975 -0.024204168557570502 0 -0.00011667873824479411 -0.024264501220746127 0 -0.00010654269492582673 -0.024252986714562844 0 -0.00012133886601997975 -0.024204168557570502 0 -0.00013966171001093521 -0.024182758611588945 0 -0.00012133886601997975 -0.024204168557570502 0 -0.00014031658574586181 -0.024180137458198091 0 -0.00011667873824479411 -0.024264501220746127 0 -0.00012133886601997975 -0.024204168557570502 0 -0.00014031658574586181 -0.024180137458198091 0 -0.00017369701042235856 -0.024043424467052578 0 -0.00013966171001093521 -0.024182758611588945 0 -0.00014476766189542873 -0.024187086756060319 0 -0.00017369701042235856 -0.024043424467052578 0 -0.00013966171001093521 -0.024182758611588945 0 -0.00014031658574586181 -0.024180137458198091 0 0.00022216801320491854 -0.0046470538228974029 0 0.00047360163370995607 -0.004590336101499024 0 0.00037618562436315505 -0.0048524542566691208 0 0.00021815068319154762 -0.0044440304311078567 0 0.00022216801320491854 -0.0046470538228974029 0 0.00047360163370995607 -0.004590336101499024 0 -0.00068527525292746202 -0.0091258883427958268 0 -0.00081675708408522857 -0.0080772990993867467 0 -0.00038485243014970799 -0.0053209350891370282 0 -0.00047054829751473452 -0.0054596032934178295 0 -0.00031235325874167438 -0.0053415246237396435 0 -0.00068527525292746202 -0.0091258883427958268 0 0.00021685461398713378 -0.0048121109489610578 0 0.00061678047212756029 -0.0048745738750471772 0 0.00047360163370995607 -0.004590336101499024 0 0.00037618562436315505 -0.0048524542566691208 0 0.00021685461398713378 -0.0048121109489610578 0 -7.1081362955653968e-05 -0.0050409544138457852 0 0.00022216801320491854 -0.0046470538228974029 0 0.00037618562436315505 -0.0048524542566691208 0 0.00015913210201948794 -0.0048548526216462507 0 -0.0002571638473272138 -0.005193115619143992 0 -0.00031235325874167438 -0.0053415246237396435 0 -0.00018090845694433423 -0.0051803413847903079 0 0.00022216801320491854 -0.0046470538228974029 0 0.00015913210201948794 -0.0048548526216462507 0 2.8212972799301027e-05 -0.0046593049401677704 0 0.00022216801320491854 -0.0046470538228974029 0 2.8212972799301027e-05 -0.0046593049401677704 0 9.0444355998999245e-05 -0.0044747816223993193 0 -9.8221144415113569e-05 -0.0045855609087105042 0 -0.0001127196376488402 -0.0044265421885882738 0 -2.5803215084471409e-05 -0.0044540552639755924 0 2.8212972799301027e-05 -0.0046593049401677704 0 -9.8221144415113569e-05 -0.0045855609087105042 0 -2.5803215084471409e-05 -0.0044540552639755924 0 2.8212972799301027e-05 -0.0046593049401677704 0 9.0444355998999245e-05 -0.0044747816223993193 0 -2.5803215084471409e-05 -0.0044540552639755924 0 2.8212972799301027e-05 -0.0046593049401677704 0 -9.8221144415113569e-05 -0.0045855609087105042 0 -0.00012166278022450942 -0.0047558254503271098 0 2.8212972799301027e-05 -0.0046593049401677704 0 -0.00012166278022450942 -0.0047558254503271098 0 -0.00012641973680884184 -0.0049549375143813114 0 -7.1081362955653968e-05 -0.0050409544138457852 0 -0.0001173595594721578 -0.0049687044240926967 0 0.00015913210201948794 -0.0048548526216462507 0 2.8212972799301027e-05 -0.0046593049401677704 0 -0.00012641973680884184 -0.0049549375143813114 0 -0.00020453811420033339 -0.0049659575321881148 0 -0.00012641973680884184 -0.0049549375143813114 0 -0.00019122570303425749 -0.004870803920868306 0 -0.00020453811420033339 -0.0049659575321881148 0 -0.00028456610982955407 -0.0048460821248247276 0 -0.00034783911680824468 -0.0048528136750193452 0 -0.00020453811420033339 -0.0049659575321881148 0 -0.00019122570303425749 -0.004870803920868306 0 -0.00028456610982955407 -0.0048460821248247276 0 -0.00019122570303425749 -0.004870803920868306 0 -0.00028456610982955407 -0.0048460821248247276 0 -0.00019719631357819985 -0.0047050829659261596 0 -0.00028456610982955407 -0.0048460821248247276 0 -0.00030364530928389072 -0.0046592136745007206 0 -0.00019719631357819985 -0.0047050829659261596 0 -0.00012166278022450942 -0.0047558254503271098 0 -0.00012641973680884184 -0.0049549375143813114 0 -0.00019122570303425749 -0.004870803920868306 0 -0.00012166278022450942 -0.0047558254503271098 0 -0.00019122570303425749 -0.004870803920868306 0 -0.00019719631357819985 -0.0047050829659261596 0 -0.00039845212421328754 -0.0041588951642164218 0 -0.00062125902281727138 -0.0039089781211023881 0 -0.00028456610982955407 -0.0048460821248247276 0 -0.00037857729753504961 -0.0048338099503636139 0 -0.00030364530928389072 -0.0046592136745007206 0 -0.00062125902281727138 -0.0039089781211023881 0 -0.00034889661314452231 -0.0043849039594554247 0 -0.00039749074568934677 -0.0040653133385698415 0 -0.00035846058316472805 -0.0040863469610501997 0 -0.00038299006640063563 -0.0040487396514874065 0 -0.00037857729753504961 -0.0048338099503636139 0 -0.00030364530928389072 -0.0046592136745007206 0 -0.00042083248761920917 -0.0045031037066186348 0 -0.00030364530928389072 -0.0046592136745007206 0 -0.00042083248761920917 -0.0045031037066186348 0 -0.00021488190292811757 -0.0044901631872865926 0 -0.00042083248761920917 -0.0045031037066186348 0 -0.00021488190292811757 -0.0044901631872865926 0 -0.00026882401252086924 -0.0042724726802845139 0 -9.8221144415113569e-05 -0.0045855609087105042 0 -0.00019719631357819985 -0.0047050829659261596 0 -0.00021488190292811757 -0.0044901631872865926 0 -9.8221144415113569e-05 -0.0045855609087105042 0 -0.00012166278022450942 -0.0047558254503271098 0 -0.00019719631357819985 -0.0047050829659261596 0 -0.00030364530928389072 -0.0046592136745007206 0 -0.00019719631357819985 -0.0047050829659261596 0 -0.00021488190292811757 -0.0044901631872865926 0 -9.8221144415113569e-05 -0.0045855609087105042 0 -0.00021488190292811757 -0.0044901631872865926 0 -0.0001127196376488402 -0.0044265421885882738 0 -0.00021488190292811757 -0.0044901631872865926 0 -0.0001127196376488402 -0.0044265421885882738 0 -0.00017471447857258683 -0.0043120419425448165 0 -0.0001127196376488402 -0.0044265421885882738 0 -0.00017471447857258683 -0.0043120419425448165 0 -9.3664267396565735e-05 -0.0042940764167873693 0 -0.00021488190292811757 -0.0044901631872865926 0 -0.00017471447857258683 -0.0043120419425448165 0 -0.00026882401252086924 -0.0042724726802845139 0 -0.00017471447857258683 -0.0043120419425448165 0 -0.00026882401252086924 -0.0042724726802845139 0 -0.00018688050036813202 -0.0041483537543861573 0 -0.00017471447857258683 -0.0043120419425448165 0 -9.3664267396565735e-05 -0.0042940764167873693 0 -0.00018688050036813202 -0.0041483537543861573 0 -0.0003694562170326115 -0.0040860813322324829 0 -0.00042083248761920917 -0.0045031037066186348 0 -0.00026882401252086924 -0.0042724726802845139 0 -0.0003694562170326115 -0.0040860813322324829 0 -0.00026882401252086924 -0.0042724726802845139 0 -0.00018688050036813202 -0.0041483537543861573 0 -0.00040060720898343725 -0.0040900398309071722 0 -0.00034889661314452231 -0.0043849039594554247 0 -0.0003694562170326115 -0.0040860813322324829 0 -0.0002128087526792124 -0.0039912816462407 0 -0.00018688050036813202 -0.0041483537543861573 0 -0.00012355718471434809 -0.0040111675326015032 0 -0.0002128087526792124 -0.0039912816462407 0 -0.00014642162493418699 -0.0040778202338554951 0 -0.0002128087526792124 -0.0039912816462407 0 -0.00018688050036813202 -0.0041483537543861573 0 -0.00014642162493418699 -0.0040778202338554951 0 -9.3664267396565735e-05 -0.0042940764167873693 0 -0.00010917492335645631 -0.0041590120537851605 0 -0.00018688050036813202 -0.0041483537543861573 0 -0.00010917492335645631 -0.0041590120537851605 0 -0.00018688050036813202 -0.0041483537543861573 0 -0.00014642162493418699 -0.0040778202338554951 0 -0.00010655500833899204 -0.0040945401031790363 0 -0.00010917492335645631 -0.0041590120537851605 0 -0.00014642162493418699 -0.0040778202338554951 0 -0.00010655500833899204 -0.0040945401031790363 0 -0.00010917492335645631 -0.0041590120537851605 0 -7.8122853548040849e-05 -0.0041517827654706883 0 -0.00010917492335645631 -0.0041590120537851605 0 -7.8122853548040849e-05 -0.0041517827654706883 0 -4.57753278475641e-05 -0.0042120703685287839 0 -5.8878133102898442e-05 -0.0041558967558504656 0 -7.8122853548040849e-05 -0.0041517827654706883 0 -4.57753278475641e-05 -0.0042120703685287839 0 -9.3664267396565735e-05 -0.0042940764167873693 0 -4.57753278475641e-05 -0.0042120703685287839 0 1.2264676259974417e-05 -0.0043246422316376041 0 -9.3664267396565735e-05 -0.0042940764167873693 0 -0.00010917492335645631 -0.0041590120537851605 0 -4.57753278475641e-05 -0.0042120703685287839 0 -4.57753278475641e-05 -0.0042120703685287839 0 2.0252737528224574e-05 -0.0042437456382769263 0 1.2264676259974417e-05 -0.0043246422316376041 0 -4.57753278475641e-05 -0.0042120703685287839 0 -1.9216633280818878e-05 -0.0041954837527215776 0 2.0252737528224574e-05 -0.0042437456382769263 0 -5.8878133102898442e-05 -0.0041558967558504656 0 -4.57753278475641e-05 -0.0042120703685287839 0 -1.9216633280818878e-05 -0.0041954837527215776 0 8.7233638459566536e-06 -0.0041983772704197678 0 6.6637436040153223e-05 -0.0042370205812938735 0 2.0252737528224574e-05 -0.0042437456382769263 0 8.7233638459566536e-06 -0.0041983772704197678 0 -1.9216633280818878e-05 -0.0041954837527215776 0 2.0252737528224574e-05 -0.0042437456382769263 0 6.6637436040153223e-05 -0.0042370205812938735 0 2.0252737528224574e-05 -0.0042437456382769263 0 7.1255449204794653e-05 -0.0042778584122732119 0 0.00011912623048848074 -0.0042353528142662893 0 6.6637436040153223e-05 -0.0042370205812938735 0 0.0001248073480324336 -0.0042797244307448308 0 6.6637436040153223e-05 -0.0042370205812938735 0 0.0001248073480324336 -0.0042797244307448308 0 7.1255449204794653e-05 -0.0042778584122732119 0 0.00019258850126390635 -0.0043171602757464018 0 0.0001248073480324336 -0.0042797244307448308 0 0.00010063236474805758 -0.004338048252662147 0 0.0001248073480324336 -0.0042797244307448308 0 7.1255449204794653e-05 -0.0042778584122732119 0 0.00010063236474805758 -0.004338048252662147 0 2.0252737528224574e-05 -0.0042437456382769263 0 5.1124494593474311e-05 -0.0042959625180232089 0 1.2264676259974417e-05 -0.0043246422316376041 0 5.1124494593474311e-05 -0.0042959625180232089 0 0.00010063236474805758 -0.004338048252662147 0 1.2264676259974417e-05 -0.0043246422316376041 0 2.0252737528224574e-05 -0.0042437456382769263 0 7.1255449204794653e-05 -0.0042778584122732119 0 5.1124494593474311e-05 -0.0042959625180232089 0 7.1255449204794653e-05 -0.0042778584122732119 0 5.1124494593474311e-05 -0.0042959625180232089 0 0.00010063236474805758 -0.004338048252662147 0 0.00010063236474805758 -0.004338048252662147 0 9.0444355998999245e-05 -0.0044747816223993193 0 1.2264676259974417e-05 -0.0043246422316376041 0 0.00021815068319154762 -0.0044440304311078567 0 0.00022216801320491854 -0.0046470538228974029 0 9.0444355998999245e-05 -0.0044747816223993193 0 0.00019258850126390635 -0.0043171602757464018 0 0.00021815068319154762 -0.0044440304311078567 0 0.00010063236474805758 -0.004338048252662147 0 0.00021815068319154762 -0.0044440304311078567 0 0.00010063236474805758 -0.004338048252662147 0 9.0444355998999245e-05 -0.0044747816223993193 0 9.0444355998999245e-05 -0.0044747816223993193 0 -2.5803215084471409e-05 -0.0044540552639755924 0 1.2264676259974417e-05 -0.0043246422316376041 0 -0.0001127196376488402 -0.0044265421885882738 0 -9.3664267396565735e-05 -0.0042940764167873693 0 -2.5803215084471409e-05 -0.0044540552639755924 0 -9.3664267396565735e-05 -0.0042940764167873693 0 -2.5803215084471409e-05 -0.0044540552639755924 0 1.2264676259974417e-05 -0.0043246422316376041 0 
</DataArray>
</PointData>
<CellData Scalars="region_id,cross_section_updated," Vectors="" Tensors="stress,">
<DataArray type="Float64" Name="region_id" format="ascii">
5 5 5 5 5 5 6 5 5 5 5 5 6 5 5 5 6 5 5 5 6 5 5 5 5 5 6 6 5 5 5 5 6 5 5 5 6 5 5 5 5 5 5 5 5 5 5 5 5 5 5 5 5 5 5 5 5 5 5 5 5 5 6 5 5 5 5 5 5 5 5 6 5 5 5 5 5 6 5 5 5 5 5 5 5 5 5 5 5 5 5 5 5 5 5 5 5 5 5 5 5 5 5 5 5 5 5 5 6 6 5 5 6 5 5 5 5 5 5 5 6 5 5 5 5 5 5 5 5 5 5 5 5 5 5 6 5 5 6 5 5 5 5 5 5 5 5 5 5 5 5 5 5 5 5 5 6 5 6 5 5 5 5 5 5 5 5 5 5 5 5 5 5 5 5 5 6 5 5 5 5 5 5 5 5 5 5 5 5 5 5 5 5 5 6 5 5 6 5 5 5 6 5 5 5 5 5 5 5 5 5 5 5 5 6 5 5 6 5 6 5 6 5 5 5 5 5 5 5 5 6 6 5 5 6 5 5 5 6 5 6 6 6 5 5 5 5 5 5 5 5 5 5 5 5 5 5 5 6 5 5 5 5 6 5 5 5 5 5 5 5 5 5 5 5 5 5 5 6 5 5 5 5 5 5 5 5 6 5 5 5 5 6 5 6 5 6 5 5 5 5 5 5 5 5 5 5 5 5 5 5 5 5 5 5 5 5 5 5 5 5 5 5 6 5 5 5 5 5 6 5 5 5 5 5 5 5 5 5 6 5 5 5 6 6 6 5 5 5 6 6 6 5 5 5 5 5 5 5 5 5 5 5 5 6 5 5 5 5 5 5 5 5 5 5 5 5 5 5 5 5 5 5 5 5 5 5 5 5 5 5 5 5 5 5 5 5 5 5 5 5 5 5 6 5 5 6 5 5 5 6 5 5 6 5 5 5 6 5 5 6 5 6 5 5 5 5 5 5 6 5 5 5 5 6 5 5 6 5 5 5 5 5 5 5 6 5 5 5 5 5 5 6 5 5 5 5 5 6 5 5 5 5 5 5 5 5 5 5 5 5 5 5 5 6 5 6 5 5 5 5 5 5 5 5 5 5 5 5 5 5 6 5 5 5 5 5 5 5 5 5 5 5 5 5 5 5 5 5 5 6 5 5 5 5 5 5 5 5 5 5 5 5 5 5 5 5 5 5 5 5 5 5 5 6 5 5 5 5 6 5 5 5 5 5 5 5 5 5 6 5 5 5 5 6 5 5 5 5 5 5 5 5 5 5 5 5 5 5 5 5 5 5 5 5 5 5 5 5 5 6 5 5 5 5 5 5 5 5 5 5 5 5 5 5 5 5 5 5 6 5 5 6 5 5 5 5 5 5 6 5 5 5 5 5 5 5 5 5 5 5 5 5 6 5 5 6 5 5 5 5 6 5 5 5 5 5 5 5 5 5 5 5 5 5 6 6 5 5 5 5 5 5 5 5 6 5 5 5 6 5 5 5 5 5 5 6 5 5 5 5 6 6 5 5 5 5 5 5 5 5 5 5 5 5 5 5 5 5 5 5 5 5 6 5 5 5 5 5 5 6 5 6 5 5 5 5 5 5 6 5 5 5 5 5 5 5 5 5 5 5 5 5 5 6 5 5 5 6 5 5 5 5 5 5 6 5 5 5 5 5 5 6 5 5 5 6 6 5 5 6 5 5 5 5 5 5 6 5 5 5 6 5 5 6 5 5 5 6 5 5 5 6 5 5 5 5 6 5 5 5 6 5 5 5 5 5 6 5 5 5 5 5 5 5 5 5 6 5 5 5 5 5 5 5 5 5 5 5 6 6 5 5 5 5 5 5 5 5 5 5 5 5 5 5 5 6 5 6 5 6 5 5 5 5 5 5 5 5 6 5 5 5 5 5 5 5 5 5 5 6 5 5 5 5 6 5 5 5 5 5 5 5 5 5 5 5 5 6 5 5 5 5 5 5 5 5 5 5 5 5 5 5 5 6 5 5 5 5 5 5 5 5 5 5 5 5 5 5 5 5 5 5 5 5 6 6 5 5 5 6 5 5 5 5 5 5 5 5 5 5 5 5 5 5 5 5 5 5 5 5 5 5 5 5 5 5 5 5 5 5 5 5 5 5 5 5 5 5 5 5 5 5 5 5 6 5 5 5 5 5 5 5 5 5 6 5 5 5 5 5 5 5 5 5 6 5 5 5 5 5 5 5 6 6 5 5 5 6 6 5 5 6 5 5 5 6 5 5 5 5 5 5 5 5 5 6 5 5 5 5 5 5 5 6 5 5 5 6 5 5 5 5 5 5 5 5 5 5 5 5 5 5 5 5 5 5 5 5 5 5 5 6 5 6 5 5 5 5 5 6 5 5 5 5 5 6 5 5 5 5 5 6 6 5 6 5 5 5 5 5 5 5 5 5 5 5 5 5 5 5 5 6 5 5 5 5 5 6 5 5 6 5 5 5 5 5 5 5 5 5 5 5 5 5 6 5 5 5 6 5 6 5 5 5 5 5 5 5 5 5 5 5 5 5 5 5 5 5 5 6 5 5 5 5 5 5 5 5 5 5 6 5 5 5 5 5 5 5 5 5 5 5 5 5 5 5 5 5 5 5 6 5 5 5 5 5 5 5 5 5 5 5 5 6 5 5 5 5 5 5 5 5 5 5 5 6 5 5 5 5 6 5 5 6 5 6 5 6 5 5 5 5 5 5 5 5 5 6 6 5 5 5 6 5 5 5 5 5 6 5 5 5 5 6 5 5 5 5 5 5 5 5 5 5 5 5 5 5 5 5 5 6 5 5 6 5 5 5 5 5 6 5 5 6 5 5 5 5 5 5 5 5 5 5 6 5 5 5 5 5 5 5 6 5 6 5 6 5 6 5 5 6 5 5 5 6 5 5 5 5 5 5 6 5 5 5 5 5 5 5 5 6 5 5 5 6 5 5 5 6 5 5 6 5 5 6 5 5 6 6 5 5 5 6 5 5 5 5 5 5 6 6 5 5 6 5 5 5 5 6 5 5 5 5 6 5 6 6 5 5 5 5 5 5 6 5 5 6 5 5 5 5 5 6 5 5 5 5 6 6 5 5 5 5 5 5 5 6 5 5 5 5 5 5 5 5 5 5 5 5 6 5 5 5 5 5 5 6 5 5 5 5 5 5 5 6 5 5 5 5 6 5 5 5 6 5 5 5 5 5 5 6 5 5 6 5 5 5 6 5 6 5 6 5 5 5 6 5 5 5 5 5 6 5 5 5 5 5 5 6 5 5 5 5 5 5 5 5 6 5 5 5 6 5 5 5 5 5 5 5 5 5 5 6 5 6 5 5 5 5 6 5 5 5 5 5 5 5 5 5 5 5 5 5 6 5 5 6 5 5 6 5 5 5 5 5 5 5 5 5 5 5 5 5 5 5 5 5 5 5 5 5 5 5 5 5 5 5 5 5 5 6 5 5 5 5 5 5 5 5 5 5 5 5 5 5 5 5 5 5 5 5 6 5 5 5 5 5 5 5 5 5 5 5 6 5 5 5 5 5 5 5 5 5 5 5 5 5 5 5 5 5 5 5 5 5 5 5 5 6 5 5 5 6 5 5 6 5 5 5 5 5 5 6 5 6 5 5 5 6 5 5 5 5 5 6 6 5 5 6 5 5 5 5 5 5 5 5 5 5 5 5 5 5 6 5 6 5 5 6 6 5 5 6 5 5 5 6 5 5 5 5 6 5 6 5 6 5 5 5 5 5 5 5 5 5 5 5 5 5 5 6 6 5 5 5 5 5 5 5 5 5 5 5 5 6 5 6 5 5 5 5 5 5 5 6 6 5 5 5 5 5 5 5 5 5 5 5 5 5 5 6 5 5 5 5 5 5 5 5 5 5 5 6 5 5 5 5 5 5 5 5 6 5 5 5 5 5 6 5 5 5 5 6 5 5 5 5 5 5 6 5 5 5 5 5 5 5 5 5 5 5 5 5 5 5 6 5 6 5 5 5 5 5 5 5 5 5 6 5 5 5 5 6 5 5 5 5 5 5 6 5 5 6 5 6 5 5 6 5 5 5 5 5 5 6 5 5 6 5 5 5 6 5 5 5 5 6 6 5 5 6 5 5 5 5 5 5 5 5 5 5 5 5 5 5 5 5 5 6 5 5 5 5 5 5 5 5 5 5 5 6 5 5 5 6 5 5 5 5 5 5 5 5 6 5 5 5 5 5 5 5 5 5 5 5 5 5 5 5 5 5 5 5 5 5 5 5 5 5 5 5 5 5 5 5 5 5 5 5 5 5 5 5 5 5 5 5 5 5 5 5 5 5 5 5 5 5 5 5 5 5 5 5 5 5 5 5 5 5 5 5 5 5 5 5 5 5 5 5 5 5 5 5 5 5 5 5 5 5 5 5 5 5 6 5 5 5 5 6 5 5 6 5 5 5 5 5 5 5 5 5 5 6 5 5 5 5 5 5 5 5 5 5 5 5 5 5 5 5 5 6 5 5 6 5 5 6 5 6 5 5 5 5 5 5 5 6 5 6 5 5 5 5 5 5 5 5 5 5 5 5 5 5 5 5 5 6 5 5 5 6 5 5 6 5 5 5 6 5 5 5 5 5 5 6 5 5 5 6 5 6 5 6 5 5 5 6 5 5 6 5 5 6 5 6 5 5 5 5 6 5 5 5 5 5 5 5 5 5 6 5 5 5 5 5 5 6 5 5 6 5 5 5 5 5 5 5 5 5 5 5 5 5 5 5 5 5 5 5 6 5 5 5 5 5 5 5 5 5 5 5 5 6 5 5 6 5 5 6 5 6 5 6 5 5 5 5 5 5 5 5 5 5 5 5 5 5 5 5 5 5 5 5 5 5 5 5 5 5 5 5 6 5 5 5 5 6 5 5 5 5 5 5 5 5 5 5 5 5 5 5 5 5 5 5 5 6 5 5 5 5 6 5 5 5 5 5 6 5 5 5 5 5 5 5 5 5 5 5 6 5 5 5 6 5 6 5 5 5 5 5 6 6 5 5 5 5 6 5 5 6 5 6 5 5 6 5 6 5 5 5 5 6 5 5 5 5 5 5 5 5 5 5 5 5 5 5 5 5 5 5 6 5 5 5 5 5 5 5 5 5 5 6 5 5 5 5 5 6 5 5 5 5 5 5 6 5 5 5 5 6 5 6 5 5 5 5 5 5 5 6 5 5 5 6 5 5 5 5 5 5 5 6 5 6 5 5 5 5 6 5 5 5 5 5 6 5 5 5 5 5 5 5 5 5 5 5 5 5 5 5 5 5 5 5 5 5 5 5 5 5 5 6 5 5 5 5 5 6 5 5 5 5 5 5 5 5 5 5 5 5 6 5 5 5 5 5 5 5 5 5 5 5 5 5 5 5 5 5 5 5 5 5 5 5 5 5 5 5 5 5 5 6 5 6 5 6 5 5 5 5 6 5 5 5 5 5 5 6 5 5 6 5 5 6 6 5 5 5 5 6 6 5 5 5 5 6 6 5 5 5 5 5 5 5 6 5 6 5 5 5 5 5 5 5 5 5 6 5 5 6 5 5 6 5 6 5 6 6 5 6 5 5 5 5 5 5 5 6 6 6 5 5 5 5 5 5 5 5 6 5 5 6 6 6 5 6 5 5 5 5 5 5 5 6 5 5 5 6 5 5 6 5 5 5 5 5 5 6 5 5 5 5 5 6 5 5 5 5 6 5 6 5 5 5 6 6 5 5 5 6 5 5 5 5 5 5 5 5 5 5 6 5 5 5 5 5 5 5 6 5 5 5 6 5 5 5 5 5 5 6 5 5 5 5 5 5 5 5 5 5 5 5 6 5 5 5 5 6 5 5 5 5 5 5 5 5 5 5 5 5 5 5 5 5 5 5 6 5 5 5 6 5 6 5 5 5 5 6 5 5 5 5 6 6 5 5 6 5 5 6 5 5 5 6 5 5 6 5 5 5 5 5 5 5 5 6 5 6 5 5 6 5 5 5 5 5 5 6 6 5 5 5 5 5 5 5 5 5 5 5 5 5 5 6 5 5 5 5 5 5 5 5 5 5 5 5 5 5 5 5 5 5 5 5 5 5 5 5 5 5 5 5 5 5 5 5 5 5 5 5 5 5 5 5 5 5 5 5 5 5 5 5 5 5 5 5 5 5 5 5 5 5 5 5 5 5 5 5 5 5 5 5 5 5 5 5 5 5 5 5 5 5 5 5 5 5 5 5 5 5 5 5 5 5 5 5 5 5 5 5 5 5 5 6 6 5 5 5 5 5 5 5 5 5 5 5 5 5 5 5 5 5 5 5 5 5 5 5 5 5 5 5 5 5 5 5 5 5 5 5 5 5 5 5 5 5 5 5 5 5 5 5 5 5 5 5 5 5 5 5 5 5 5 5 5 5 5 5 5 5 5 5 5 5 5 5 5 5 5 5 5 5 5 5 5 5 5 5 5 5 5 5 6 5 5 5 5 5 5 6 5 5 6 5 5 6 5 5 5 5 6 6 5 5 6 5 5 5 6 5 6 5 5 5 5 5 5 6 5 5 5 6 6 5 5 5 5 5 6 5 6 5 6 5 5 5 6 5 5 5 5 6 5 6 5 6 5 5 5 5 5 5 5 6 5 5 5 5 5 5 5 5 5 5 5 5 5 5 5 5 5 5 5 5 5 5 5 5 5 5 5 5 5 5 5 5 5 5 5 5 5 5 5 5 5 6 5 5 5 5 5 5 5 5 6 5 6 5 5 5 5 6 6 5 5 5 5 5 5 5 5 5 5 5 5 5 5 5 5 5 5 6 5 6 5 5 5 5 5 5 5 5 6 5 5 5 5 5 6 5 6 5 6 5 6 5 5 5 5 5 6 5 5 5 5 5 5 5 5 5 5 5 5 5 6 5 6 5 5 6 5 6 5 5 5 5 5 5 5 5 5 5 5 5 5 5 5 5 5 5 5 5 6 5 5 6 5 5 5 6 6 6 6 5 5 5 6 5 5 5 6 6 5 6 5 5 6 5 5 5 6 6 5 5 6 5 5 5 6 5 5 5 6 5 5 5 6 5 5 5 5 6 5 5 6 5 5 5 6 6 5 5 5 5 5 5 5 5 5 5 5 5 6 5 5 6 5 5 5 5 5 6 5 5 6 5 5 5 5 5 5 5 5 5 5 5 5 5 5 5 5 6 5 5 5 6 5 6 5 5 5 5 5 5 5 6 5 5 5 5 5 6 5 6 5 5 5 5 5 5 5 5 5 5 5 6 5 6 6 5 5 6 5 5 5 5 6 5 5 5 5 6 5 5 5 6 5 5 6 5 5 6 5 6 5 5 6 5 5 5 5 6 5 5 5 5 5 5 6 5 5 5 5 6 5 5 5 5 5 6 5 5 5 5 5 5 5 5 5 5 5 5 5 5 5 5 5 5 5 5 5 5 5 5 6 5 5 5 6 5 5 6 5 5 5 5 5 5 6 5 5 5 5 5 5 5 5 5 6 5 5 5 5 5 6 5 5 5 5 5 5 5 5 5 5 6 5 5 5 5 5 5 5 5 6 5 5 5 5 5 5 5 5 5 6 6 5 5 5 5 5 5 5 5 5 6 5 5 6 5 5 5 5 5 5 6 5 5 5 5 5 5 5 5 6 5 5 5 5 5 5 5 6 5 6 5 5 5 5 5 5 5 5 5 5 5 5 5 5 5 5 5 5 5 5 5 5 5 5 5 5 5 5 5 5 5 5 5 5 5 5 5 5 5 5 5 5 5 5 5 5 6 5 5 6 5 5 5 6 5 5 6 5 5 5 5 5 5 5 5 5 5 5 5 5 5 5 5 6 5 5 6 5 5 5 6 5 5 6 6 5 5 6 5 5 5 5 5 5 5 5 5 5 5 5 5 5 5 5 5 5 5 5 5 5 5 6 5 5 5 5 5 5 5 5 5 5 5 5 5 5 5 5 5 5 5 5 5 5 5 5 5 5 6 5 5 5 5 5 5 6 5 5 5 5 5 5 6 6 5 5 5 5 5 6 5 6 5 5 5 5 5 5 6 5 5 5 5 6 5 5 5 5 5 5 5 6 5 5 5 6 5 5 5 6 5 5 5 5 5 5 5 5 5 5 6 5 5 6 6 5 5 5 5 6 5 5 5 6 5 5 5 6 5 5 5 5 5 5 5 5 5 5 5 5 5 5 5 5 6 5 5 5 5 5 5 5 5 6 5 6 5 5 6 5 5 6 5 5 5 5 5 5 5 5 5 6 5 5 5 5 5 5 5 5 5 5 5 5 5 5 5 5 6 5 5 6 6 5 5 5 6 5 5 5 5 6 5 5 6 5 5 5 5 5 5 5 6 5 5 5 5 5 5 5 5 6 6 5 5 5 6 5 5 5 5 5 5 6 5 5 5 5 5 5 5 5 5 6 5 5 5 5 5 6 5 5 5 5 5 5 5 5 5 5 5 5 5 6 5 5 5 5 5 5 5 5 6 5 5 5 5 5 5 6 5 6 5 6 5 5 5 5 5 5 5 5 5 6 5 5 5 5 5 5 5 5 5 5 5 6 5 5 5 5 5 5 6 5 5 5 5 5 5 5 5 5 5 5 5 5 5 5 6 5 5 5 5 5 5 5 5 5 5 5 5 5 5 5 6 5 5 5 5 5 5 5 5 5 5 6 5 5 5 5 5 6 5 5 5 5 5 5 5 5 5 5 5 5 5 5 5 5 5 5 6 5 5 5 5 5 5 5 6 5 5 5 5 5 5 6 5 5 5 5 5 5 5 5 5 5 5 5 5 5 5 5 5 5 5 5 5 5 5 6 5 5 5 5 5 5 5 5 5 5 5 5 5 5 5 5 5 5 5 5 5 5 5 5 5 5 5 5 5 5 6 5 5 5 5 6 5 5 5 6 5 5 6 5 6 5 6 5 5 6 5 6 5 5 5 5 6 6 5 5 5 6 6 5 5 5 5 5 5 5 5 5 5 5 5 5 5 5 5 6 5 5 5 5 6 5 6 5 5 5 5 5 5 5 5 5 5 5 5 5 5 6 5 5 5 6 5 5 5 5 5 5 5 5 5 5 5 5 5 5 5 5 5 5 5 5 5 5 5 5 5 5 5 5 5 5 5 5 5 6 5 5 5 5 5 5 5 5 5 5 6 5 5 5 5 5 5 5 5 5 5 5 5 5 5 5 5 5 5 5 5 5 5 5 5 5 5 5 5 5 5 5 5 5 5 5 5 5 5 5 5 6 5 5 5 6 5 5 6 5 5 5 5 6 6 6 5 5 5 5 5 6 5 5 5 6 6 5 6 5 5 5 5 5 5 5 5 5 6 5 5 5 5 5 5 5 5 5 5 6 5 5 5 5 5 5 5 5 5 5 5 5 5 6 5 5 5 6 5 6 5 5 6 5 5 5 5 5 5 5 5 5 6 5 5 5 5 5 5 5 5 5 5 5 5 5 5 5 5 5 5 5 5 5 5 5 6 5 6 5 5 5 6 6 5 5 5 5 5 5 6 5 5 5 5 6 5 5 5 5 6 5 5 5 5 5 5 5 5 5 5 5 5 6 5 6 5 6 5 5 5 5 5 5 6 5 5 5 5 5 5 5 6 5 5 5 6 5 6 5 5 5 6 5 5 5 5 5 5 5 5 5 5 5 5 6 5 6 5 5 5 5 5 5 5 6 5 5 5 5 5 5 5 5 5 5 5 5 5 6 5 5 5 5 6 5 5 5 5 5 6 5 6 5 5 6 5 5 5 5 6 6 5 5 5 6 5 5 5 5 6 5 6 5 5 5 6 5 5 6 5 5 5 5 6 5 6 5 5 5 5 5 5 5 5 5 5 5 5 5 5 5 5 5 5 5 5 5 5 5 5 6 5 6 5 5 5 5 5 5 6 5 5 5 5 6 6 5 5 5 5 5 5 5 5 5 5 5 5 5 5 5 5 5 5 5 5 5 5 5 5 5 5 5 5 5 5 5 5 5 5 5 5 5 6 6 5 5 5 5 5 5 5 5 5 5 5 5 5 5 6 5 5 6 5 5 5 5 5 5 5 5 5 5 5 5 5 5 5 5 5 5 5 5 5 5 5 6 5 5 5 5 5 5 5 5 5 5 5 5 5 5 5 5 5 5 5 5 5 6 5 5 5 5 6 5 5 5 5 5 5 5 5 5 5 6 5 5 5 5 5 5 5 5 5 5 5 5 5 5 5 5 5 5 5 5 5 6 5 6 5 5 5 5 5 5 5 5 5 5 6 5 5 5 5 5 5 5 5 5 5 5 5 5 5 5 5 5 5 5 5 5 5 5 5 5 5 5 5 5 5 6 5 5 5 5 5 6 5 5 5 5 6 6 6 5 5 5 5 5 5 5 5 5 6 5 6 5 5 6 5 5 5 5 6 5 5 5 5 5 5 5 5 5 5 6 6 6 5 5 5 5 5 5 6 5 5 5 5 5 5 5 5 5 5 5 6 6 5 5 5 5 5 6 5 5 5 5 5 5 5 5 5 5 5 5 5 5 5 6 5 5 5 5 6 5 5 5 5 5 5 5 5 5 5 5 5 5 5 5 5 6 5 5 5 5 5 5 5 5 5 5 5 5 5 5 5 5 5 6 5 5 5 5 5 5 5 6 5 5 5 5 6 5 5 5 5 6 5 6 5 5 5 5 6 6 5 6 5 5 6 5 5 5 5 5 5 5 5 5 5 5 5 5 5 5 5 5 5 5 5 5 5 5 6 5 5 5 5 6 5 5 6 5 5 5 5 5 5 5 6 5 5 5 5 6 6 5 5 5 6 6 6 6 6 5 5 5 5 5 5 5 5 5 5 6 5 5 6 5 5 5 6 5 5 5 5 5 5 5 5 5 6 6 5 5 5 5 5 5 6 6 5 5 6 5 6 5 6 5 5 5 5 5 6 5 6 5 6 5 5 5 5 5 5 5 5 6 5 5 5 5 6 5 6 5 5 5 5 5 5 5 5 5 6 5 5 5 5 5 6 5 5 5 6 5 5 6 6 5 5 5 5 6 5 6 5 5 5 5 5 5 5 5 5 5 5 5 5 5 5 6 5 6 5 5 6 6 5 6 6 5 5 6 5 5 5 5 6 5 5 6 5 6 5 6 5 6 5 5 5 6 5 6 5 6 5 5 5 6 5 5 6 5 5 5 5 5 5 5 5 5 5 5 5 5 5 5 6 6 5 5 5 5 5 5 5 5 6 5 5 5 5 5 5 5 5 5 5 5 5 5 5 5 6 5 5 5 5 6 5 5 5 5 5 5 6 5 5 5 5 6 5 5 6 5 5 5 5 5 6 5 5 5 5 5 5 5 6 5 5 5 5 6 5 5 5 5 5 5 5 5 6 5 6 5 5 5 6 5 5 5 5 5 6 5 6 5 6 5 5 5 5 5 5 5 5 5 5 5 5 5 5 5 5 5 5 5 5 5 5 5 5 5 5 5 5 5 6 5 6 5 5 5 5 5 6 5 5 5 5 5 5 5 5 5 5 5 5 5 5 5 5 5 5 5 5 5 5 5 5 5 5 5 5 5 5 5 5 5 5 5 5 6 5 5 5 5 5 5 5 5 5 5 5 5 5 5 5 5 5 5 5 5 5 5 5 5 5 5 5 5 5 5 5 5 5 5 5 5 5 5 5 5 5 5 5 5 5 5 5 5 5 5 5 5 5 5 5 5 5 5 5 5 5 5 5 6 6 5 5 5 5 5 5 5 5 5 5 5 5 5 5 5 5 5 5 5 5 5 5 6 5 5 5 5 5 5 5 6 5 5 5 6 5 5 5 5 5 6 6 6 5 5 5 5 5 5 5 5 6 5 5 6 6 5 5 5 6 5 5 6 5 5 5 5 5 5 5 6 5 6 5 5 5 6 5 5 5 5 5 5 5 5 5 5 5 5 5 5 5 6 5 6 5 5 5 5 5 5 5 5 5 5 5 5 5 5 5 5 5 5 5 6 5 5 5 6 5 5 5 5 5 5 5 5 5 5 5 5 5 5 5 5 5 5 5 5 5 5 5 5 5 5 5 5 5 5 5 5 5 5 6 5 5 5 5 5 5 5 5 5 5 5 6 5 5 5 5 5 5 5 5 5 5 5 5 5 5 5 5 6 5 6 5 5 5 5 5 5 5 5 5 5 5 5 5 6 5 5 5 5 5 5 6 5 5 5 5 5 5 5 6 5 5 5 5 6 5 6 5 5 5 5 5 5 5 6 5 5 6 5 6 5 5 5 6 5 5 5 5 5 5 5 5 5 5 6 6 6 5 5 6 5 5 6 5 5 5 5 5 6 5 5 5 6 5 5 6 5 6 5 5 5 5 5 5 5 5 5 5 5 5 5 5 5 5 5 5 5 5 6 5 6 5 6 6 5 5 5 5 5 5 5 5 5 5 5 5 5 5 5 5 5 5 5 5 5 5 5 5 5 5 5 5 5 6 5 5 5 5 5 5 5 5 5 5 5 5 5 5 6 5 5 5 5 5 6 5 5 5 5 5 5 5 5 5 6 5 5 5 5 6 5 5 5 5 5 5 6 6 5 5 6 5 5 5 5 5 5 5 5 5 5 5 5 5 5 5 5 5 5 5 5 5 6 5 5 5 5 6 5 5 5 5 5 5 6 5 5 5 5 5 5 5 5 5 5 5 5 5 5 5 5 5 5 5 5 5 5 5 5 5 5 5 5 5 5 5 5 5 5 5 5 5 5 5 5 5 5 5 5 5 5 5 5 5 5 5 5 5 5 5 5 5 5 5 6 5 5 5 5 5 5 5 5 6 5 6 5 5 5 5 5 5 5 6 5 5 5 5 5 5 5 5 5 5 6 5 5 5 5 5 5 5 5 5 5 5 5 5 5 5 5 5 5 5 5 6 5 5 5 5 6 5 5 5 5 6 5 5 5 5 5 5 5 5 6 5 5 5 5 5 5 5 5 5 5 5 5 6 5 5 5 6 5 5 5 5 5 6 5 5 5 5 6 5 5 5 6 5 5 5 5 5 5 5 5 6 5 5 5 5 5 6 5 5 5 6 5 5 6 5 5 6 5 5 5 5 5 6 5 5 5 5 5 5 5 5 5 5 5 5 5 5 5 5 6 5 6 5 5 5 5 5 6 5 5 5 5 5 5 6 5 5 5 5 5 5 5 5 6 6 5 5 5 6 5 5 5 5 6 5 5 6 5 6 5 5 5 6 5 6 6 5 5 6 5 5 6 5 5 5 5 6 5 5 6 5 6 6 5 5 5 5 5 5 5 5 5 5 5 5 5 5 5 5 5 6 5 6 5 5 5 6 5 5 6 5 6 6 5 5 6 5 5 6 6 5 6 6 5 5 5 5 5 5 5 5 5 5 6 5 5 5 5 5 5 5 5 5 6 5 5 5 5 5 5 5 5 5 5 5 5 5 5 5 5 5 5 5 5 5 5 5 5 5 5 5 5 5 5 5 5 5 5 5 5 5 5 5 5 5 5 5 5 5 5 6 5 5 5 5 6 5 5 5 5 5 5 6 5 5 5 5 6 5 5 5 6 6 5 5 5 5 5 5 5 5 5 6 5 6 5 5 5 5 5 5 5 5 5 5 5 5 5 5 5 5 5 5 5 5 5 5 5 5 5 5 5 5 5 5 5 5 5 5 5 5 5 6 5 5 6 5 5 5 5 5 5 5 5 5 5 5 5 5 6 6 6 5 5 5 6 6 6 5 5 5 5 5 5 5 5 5 5 5 5 5 5 5 5 6 5 5 6 5 5 5 5 5 5 5 6 5 5 5 5 5 5 5 5 5 5 5 5 5 5 5 5 5 5 5 5 5 5 5 5 5 5 5 5 5 5 5 5 6 5 5 5 5 5 5 5 5 5 5 6 5 5 5 6 5 5 5 5 5 5 6 6 5 5 5 5 6 5 6 5 5 5 5 5 5 5 5 5 5 5 5 6 5 5 5 5 5 5 5 5 5 5 5 5 6 5 5 5 5 5 5 5 5 5 5 5 5 5 5 6 5 5 5 6 6 5 5 5 5 5 5 6 5 5 5 5 5 5 5 5 5 5 5 5 5 5 5 5 5 5 5 6 5 5 5 5 5 5 5 5 5 5 5 5 5 5 5 5 5 5 5 5 5 5 6 5 5 5 5 5 5 5 5 6 5 5 5 5 5 5 5 5 5 5 5 5 5 5 5 5 5 5 5 5 5 6 5 5 6 5 5 5 5 5 5 5 5 5 5 5 5 5 5 5 5 5 5 5 5 5 5 5 5 5 5 5 5 5 6 5 5 5 5 5 5 5 5 6 5 5 5 6 5 5 5 6 5 5 5 5 5 6 5 5 5 5 5 5 6 6 5 6 6 5 5 6 5 5 5 5 5 5 5 5 5 5 5 5 5 5 5 5 5 5 5 5 5 5 5 5 5 5 5 5 5 5 5 5 5 5 5 5 5 5 5 5 5 5 5 5 5 5 5 5 5 5 5 5 5 5 5 5 5 5 5 5 5 5 5 5 5 5 5 5 5 5 5 5 5 5 5 5 5 5 5 5 5 5 5 5 5 5 5 5 5 5 5 5 5 5 6 5 5 5 5 5 5 5 5 5 5 5 5 5 5 5 5 5 5 5 5 5 5 5 5 5 5 5 5 5 5 5 5 5 5 5 5 5 5 6 5 5 5 5 5 5 5 5 5 5 5 5 5 5 5 5 6 5 5 5 5 5 5 6 6 5 5 6 5 5 6 5 5 5 5 6 5 5 5 5 5 5 5 5 5 5 5 5 5 5 5 5 5 5 5 5 5 5 5 5 5 5 5 5 5 5 5 5 5 6 5 5 5 5 6 5 5 5 6 5 5 5 5 5 5 6 5 5 5 5 5 5 5 5 5 6 5 5 5 5 5 5 5 5 5 5 6 5 5 5 6 5 6 5 5 6 6 6 5 5 5 5 6 5 5 5 5 5 5 5 5 5 5 5 5 5 5 6 5 5 5 5 5 6 5 6 5 5 6 5 5 5 5 5 5 6 5 5 5 5 6 5 5 5 5 5 6 6 5 5 6 5 5 5 5 5 5 5 6 6 5 6 5 5 5 6 5 5 5 6 5 5 5 6 5 5 5 5 5 5 6 6 5 5 5 5 5 6 5 6 5 5 6 6 5 5 6 5 6 6 5 5 6 5 6 5 5 6 6 5 5 5 5 5 5 5 6 5 6 5 6 5 5 5 5 6 5 5 5 5 5 5 5 5 5 6 5 5 5 5 5 5 5 6 5 5 5 6 5 6 5 5 5 5 6 5 6 5 6 5 6 5 5 5 6 5 5 5 5 6 5 5 5 5 5 5 6 5 6 5 5 6 5 5 5 5 5 5 6 5 5 5 5 5 5 5 5 5 5 5 6 5 6 5 5 6 6 5 5 5 5 6 5 6 6 5 6 5 5 6 5 5 5 5 6 5 5 5 5 5 5 6 5 5 5 5 5 5 5 5 5 6 5 5 5 6 5 5 5 5 5 5 5 5 5 5 5 5 5 5 5 5 5 5 6 5 5 5 5 5 6 6 5 5 5 6 5 5 5 6 5 5 5 5 5 5 5 5 5 5 5 5 5 5 5 5 5 5 5 5 5 5 5 5 5 5 5 5 5 5 5 6 5 5 5 5 5 6 5 5 5 5 5 5 5 5 5 5 5 5 5 5 5 6 5 5 5 6 5 5 5 5 5 5 5 5 5 5 5 5 5 5 5 5 5 5 5 5 5 5 5 5 5 5 5 6 5 5 5 5 5 5 6 5 5 6 5 5 5 5 6 5 5 6 6 5 5 5 6 5 5 5 6 5 5 5 5 5 5 5 5 5 5 5 5 5 6 5 5 5 5 5 5 5 5 5 5 5 5 5 5 5 5 5 5 5 5 6 5 5 5 5 5 5 5 5 6 5 5 5 6 5 5 5 5 5 5 5 5 5 5 6 5 5 5 5 5 5 5 5 5 6 5 5 6 5 6 5 5 5 5 5 5 5 5 5 6 6 5 5 5 5 5 6 5 5 6 6 6 5 5 5 5 5 5 6 5 6 5 5 6 6 5 5 6 5 5 5 5 5 6 5 5 5 5 5 5 5 5 5 5 5 6 5 5 5 6 6 5 5 5 5 5 5 5 5 5 5 6 5 5 6 5 6 6 5 6 5 6 5 6 5 5 5 5 5 5 6 6 5 5 5 5 5 5 5 6 5 6 5 5 5 5 5 5 5 6 5 5 5 5 5 5 6 5 5 5 5 5 5 5 5 5 6 5 5 5 5 6 5 5 5 5 5 5 5 5 5 5 5 5 5 5 5 5 5 5 5 5 5 5 5 5 5 5 5 5 5 5 5 5 6 5 5 5 5 5 5 5 5 5 5 6 5 6 5 5 6 5 5 5 5 5 5 5 5 5 5 5 5 6 5 6 5 5 5 5 5 5 5 5 5 5 5 5 5 5 5 6 5 5 5 5 5 6 6 5 5 6 5 5 5 5 5 5 5 5 5 5 5 6 5 5 5 5 6 5 5 5 5 5 5 6 6 6 5 6 5 6 6 5 6 6 6 5 5 5 6 5 6 5 5 6 5 5 5 5 5 5 6 5 6 5 5 5 5 5 5 6 5 5 5 6 5 5 5 6 5 6 5 5 5 6 5 5 5 5 5 6 5 5 5 5 5 5 5 5 5 5 5 5 6 6 5 5 5 5 5 5 6 5 6 5 5 6 5 5 5 5 5 5 5 5 5 5 5 5 6 5 5 5 5 5 5 5 5 6 5 6 5 6 5 5 6 5 5 5 5 5 5 5 5 5 5 5 5 6 5 5 5 5 5 6 5 5 5 5 5 5 6 5 5 5 5 5 5 5 5 5 5 5 5 5 6 5 6 5 5 5 6 5 5 5 5 5 6 5 5 5 5 6 5 6 5 5 5 5 6 5 5 5 5 6 5 5 5 5 5 5 6 5 6 6 6 5 5 6 6 5 5 5 5 6 5 6 5 5 5 6 5 5 5 5 5 5 5 5 5 5 5 5 5 5 5 5 5 5 5 5 5 5 5 5 5 5 5 5 5 6 5 5 6 6 5 5 5 5 6 6 6 5 5 5 5 6 5 6 5 5 6 6 5 5 5 5 6 5 6 6 5 5 5 5 5 5 5 5 5 5 6 5 5 6 5 5 5 5 5 6 5 5 5 5 5 5 5 6 5 6 5 5 6 5 5 5 5 5 5 5 5 5 5 6 5 5 5 5 5 5 5 5 5 6 5 6 5 5 5 5 5 5 5 5 5 5 5 5 5 5 5 6 5 5 5 5 5 5 5 5 5 5 5 5 5 5 6 5 5 5 6 5 5 5 5 5 5 5 6 5 5 5 5 5 5 5 5 5 5 6 5 5 5 5 5 5 5 5 5 5 5 5 5 5 6 5 5 5 6 5 5 5 5 5 6 5 5 5 5 5 5 5 5 5 5 5 5 5 5 5 5 5 5 6 5 5 5 5 5 5 5 5 5 5 5 5 5 5 5 6 5 5 5 5 5 5 5 5 6 5 5 5 6 5 5 5 5 6 5 5 5 5 5 5 5 5 5 5 6 6 5 5 5 6 5 5 5 6 5 5 5 5 5 6 5 5 5 5 5 5 5 5 5 6 5 5 6 5 5 5 5 5 5 5 6 5 6 5 5 6 5 6 5 6 5 5 5 5 5 5 6 5 5 5 5 5 5 6 5 5 6 5 5 5 6 5 6 5 6 5 6 5 5 6 5 6 5 5 6 6 6 5 5 5 5 5 5 6 5 5 6 5 5 6 5 6 5 5 5 5 5 5 5 5 6 5 5 6 5 6 5 5 5 5 5 5 5 5 5 5 5 5 5 5 5 5 6 5 6 5 5 5 5 6 5 6 5 5 5 5 5 6 5 6 5 5 5 5 5 5 5 6 5 5 5 5 5 5 6 5 6 5 6 5 5 5 5 6 5 5 5 5 5 5 5 6 5 6 5 6 5 5 5 6 5 5 5 5 5 5 5 5 5 5 5 5 5 6 5 5 5 5 5 5 5 5 5 6 5 5 6 5 5 5 6 5 5 6 5 5 6 5 6 5 5 5 5 5 5 5 5 5 5 5 5 5 6 5 6 5 5 5 5 5 6 5 5 6 5 5 5 5 6 5 5 5 5 5 6 5 5 6 5 6 5 6 6 5 5 5 6 5 5 5 5 6 5 6 5 5 5 5 5 5 5 5 5 5 5 5 5 5 5 5 5 5 5 5 6 5 5 5 6 5 5 5 5 5 5 5 5 5 5 5 5 5 5 6 5 5 5 5 5 5 5 5 5 5 5 5 5 5 5 5 5 5 5 5 5 5 5 5 5 6 5 5 5 5 5 5 5 5 5 5 5 5 5 5 5 5 5 5 5 5 5 5 6 6 5 5 5 5 6 5 5 5 5 5 5 5 5 5 5 5 5 5 5 5 5 6 6 5 5 6 6 5 6 5 5 5 6 5 5 6 5 5 5 6 5 5 5 6 5 5 5 5 6 5 6 5 5 5 5 6 6 5 5 5 5 5 5 6 5 5 5 6 5 5 5 5 5 5 5 5 6 5 5 5 6 6 5 5 6 5 5 5 6 5 5 5 5 5 5 5 6 5 5 5 5 6 5 5 5 6 6 5 5 6 6 5 5 5 5 5 5 5 5 5 5 5 5 5 5 5 5 5 5 5 5 6 5 5 6 5 5 5 6 5 5 5 5 6 5 6 5 6 6 5 5 6 5 5 6 6 5 5 5 5 5 5 5 5 5 5 5 6 5 5 6 5 6 5 5 6 5 5 6 5 5 5 5 6 5 5 5 6 5 5 5 6 5 5 5 5 5 5 5 5 6 5 5 5 5 5 5 5 5 5 5 6 5 5 5 5 5 5 5 5 6 5 5 5 5 5 5 6 5 5 5 5 5 5 5 6 5 5 5 5 5 5 5 5 5 5 5 5 5 6 5 5 5 5 5 6 5 5 5 5 5 5 5 5 5 5 5 5 5 5 5 5 5 5 5 5 5 5 5 5 5 6 5 5 5 5 5 5 5 5 5 6 5 5 5 5 5 5 6 5 5 5 5 5 5 5 5 5 5 5 5 5 5 5 5 5 5 5 5 5 5 5 5 6 6 5 5 5 6 5 5 5 6 5 5 5 5 5 5 5 5 5 5 5 5 5 5 5 5 5 5 6 5 5 5 5 5 5 5 5 5 5 5 5 5 5 5 5 6 5 5 5 5 5 5 5 5 5 5 5 5 5 6 6 5 5 5 5 5 5 5 5 5 6 5 5 5 5 5 5 6 5 5 5 5 6 5 5 5 5 5 5 6 5 5 5 5 5 5 5 5 5 5 5 5 5 5 5 5 5 6 5 5 6 5 5 5 5 6 6 5 5 5 5 5 5 6 6 5 5 5 6 5 6 5 5 5 6 5 5 5 5 5 5 5 5 5 5 6 5 6 5 5 5 6 5 5 5 5 5 5 5 5 5 5 5 5 5 5 5 5 5 5 5 5 5 5 5 5 5 5 5 5 5 5 5 5 5 6 6 5 5 6 5 5 5 5 5 5 6 6 5 5 5 5 5 5 5 5 5 5 5 5 5 6 5 5 5 5 5 5 5 5 5 5 5 5 5 5 5 5 5 5 5 5 5 5 5 5 5 5 5 5 5 5 5 5 5 5 5 5 5 5 5 5 5 5 5 5 5 5 5 5 5 5 5 5 5 5 5 5 5 5 5 5 5 5 5 5 5 5 5 5 5 5 6 5 5 5 6 5 5 5 5 5 5 5 5 5 5 5 5 5 5 5 5 6 5 5 5 5 5 5 5 5 5 5 5 5 5 5 5 5 5 5 5 5 6 5 5 5 5 5 5 5 6 5 5 6 5 5 5 5 5 5 6 5 5 5 5 5 5 5 5 5 5 5 6 5 5 5 5 5 5 5 6 5 5 5 5 6 5 5 6 5 5 5 5 5 5 5 5 5 5 5 5 6 5 5 5 6 5 5 5 5 5 5 5 5 5 5 6 5 5 5 5 5 5 5 5 5 6 5 5 5 5 5 5 5 5 5 5 5 5 5 5 5 6 5 5 6 6 5 5 5 5 6 5 5 5 5 5 6 5 5 6 5 5 5 5 5 5 5 5 5 5 5 5 5 5 5 5 5 5 5 5 6 5 5 5 5 5 5 5 5 5 5 6 5 5 6 5 5 5 6 5 5 6 5 5 5 5 5 6 5 5 5 6 5 5 5 6 5 6 5 5 5 5 5 5 5 6 5 5 5 5 6 5 5 6 5 5 5 5 5 6 5 5 5 6 6 5 5 5 5 5 6 5 5 5 5 5 5 6 5 5 5 5 5 5 5 5 5 5 5 5 6 5 6 5 5 5 5 6 5 5 5 5 6 5 5 6 5 5 5 6 5 5 5 5 5 5 5 5 6 5 5 5 5 5 5 5 5 5 5 5 5 5 5 5 5 5 5 5 6 5 5 5 5 5 5 6 5 5 5 5 5 5 5 5 5 5 5 6 5 5 5 5 5 5 5 5 5 5 5 6 5 5 5 5 5 6 5 5 5 5 6 6 5 5 6 5 6 5 6 6 6 6 5 5 5 5 5 5 6 6 5 5 5 5 6 5 5 5 5 5 6 5 5 5 5 5 6 5 5 5 5 6 5 5 6 5 5 5 6 5 6 5 5 6 5 5 5 5 5 5 5 5 5 5 5 5 5 5 5 5 5 5 5 5 5 6 5 5 5 5 5 5 5 6 5 5 5 6 5 5 5 5 6 5 5 5 5 5 6 5 5 5 5 5 5 5 5 5 5 5 5 5 5 5 5 5 5 5 5 5 5 6 5 5 5 5 5 6 5 5 5 6 5 6 5 5 5 6 5 6 5 5 5 5 5 5 5 5 5 5 5 5 5 5 5 5 5 5 6 5 5 5 5 6 5 5 6 5 5 5 5 5 5 5 5 5 5 5 5 5 6 5 5 5 5 5 6 5 5 5 5 5 6 5 5 5 6 5 6 6 5 5 5 5 5 5 5 5 5 5 5 5 5 5 5 5 6 5 5 6 5 6 5 5 5 5 5 5 5 5 5 5 5 5 5 5 6 5 5 5 6 5 5 6 5 5 6 5 6 5 5 5 5 5 5 5 5 5 5 5 5 5 5 6 5 5 6 5 5 5 5 6 5 5 5 5 5 5 5 5 5 5 5 5 5 5 5 5 5 5 5 5 5 5 5 6 5 6 5 5 6 5 5 5 5 5 6 5 5 5 5 5 5 5 5 5 5 5 5 5 5 6 5 5 5 5 5 6 5 5 5 5 5 5 5 5 5 5 5 5 5 5 5 5 5 5 5 5 5 5 5 5 6 6 6 5 6 5 5 5 5 5 5 6 5 5 6 6 5 5 5 5 5 5 5 5 5 5 5 6 5 5 5 5 6 6 5 5 5 5 5 5 6 5 5 5 5 5 6 5 5 6 6 6 5 5 6 5 5 5 5 5 6 6 5 6 5 5 5 5 5 5 5 6 5 5 5 5 5 5 5 5 5 5 5 5 5 5 5 5 5 5 5 5 5 5 5 5 5 5 5 5 6 5 5 5 5 5 5 6 6 5 5 5 5 5 5 5 5 5 6 5 5 5 5 5 5 5 5 6 5 5 5 6 5 5 5 6 5 5 6 5 5 5 5 5 6 5 5 5 5 6 6 5 5 5 5 5 6 5 5 5 5 5 5 5 5 5 5 5 5 5 6 5 5 5 5 5 5 5 5 5 5 5 5 5 5 5 5 5 5 5 5 5 5 5 5 5 5 5 5 5 5 5 5 5 5 5 5 5 5 5 5 5 5 5 5 5 5 5 5 5 5 5 5 5 5 5 6 6 5 5 5 5 5 5 5 5 5 5 5 5 6 5 5 5 5 5 5 5 5 5 6 5 5 5 5 5 5 5 5 5 5 5 5 5 5 6 5 5 5 6 5 5 5 6 6 6 5 5 6 5 5 6 5 5 6 5 5 6 6 5 5 5 6 5 5 5 5 6 5 6 5 6 5 6 5 5 5 5 5 6 5 5 5 5 5 5 5 5 5 5 5 5 5 5 5 5 5 5 5 5 5 5 5 5 5 5 5 5 5 5 5 5 5 5 6 5 6 5 5 5 6 5 5 5 5 5 5 5 5 5 5 5 5 5 5 6 5 5 6 5 6 5 5 5 5 5 5 5 5 5 5 6 5 5 5 5 5 5 5 6 5 5 5 6 5 5 5 5 5 5 5 5 5 5 5 5 5 5 5 5 5 5 5 5 6 5 5 5 5 5 5 6 5 6 5 5 5 5 6 5 5 5 5 6 5 5 6 5 5 5 5 6 5 5 5 5 5 5 5 5 5 5 5 5 5 5 5 5 5 5 5 5 6 5 5 5 5 5 5 5 6 5 5 5 5 5 5 5 5 5 5 5 5 6 5 6 5 5 5 5 5 5 5 5 5 5 5 5 5 5 6 5 5 5 5 5 5 5 5 6 5 5 5 6 5 5 5 5 5 5 5 5 5 5 5 5 5 5 5 5 5 5 5 5 5 5 5 5 5 5 5 5 5 5 5 5 5 5 5 5 5 5 6 5 5 5 5 6 5 6 5 5 5 5 5 5 6 5 5 5 5 5 5 5 5 5 5 5 5 5 5 5 5 5 5 5 5 5 5 5 5 5 5 5 5 5 5 6 5 5 5 5 5 5 5 5 5 5 5 5 5 5 5 6 5 5 5 5 5 5 6 5 5 5 5 6 5 5 5 5 5 6 5 5 5 5 5 5 6 5 5 5 5 5 5 5 5 6 5 5 5 6 5 5 5 5 5 5 5 5 5 5 5 5 5 5 5 5 5 5 5 6 5 5 5 5 6 5 5 5 5 6 6 5 5 5 5 5 5 5 5 5 5 5 5 5 5 6 6 5 5 5 5 5 5 5 5 5 6 5 5 5 5 5 5 5 5 5 5 5 5 5 6 5 5 5 5 5 5 5 5 5 5 5 5 5 5 5 5 5 5 5 5 5 5 5 5 5 6 5 5 5 5 5 5 6 5 5 6 5 5 5 5 5 5 5 6 5 6 5 5 5 6 5 5 5 5 5 5 5 5 5 5 5 6 5 5 5 5 5 5 5 5 5 5 5 5 6 6 5 6 5 6 6 5 5 5 6 5 5 6 5 5 6 5 6 5 6 5 5 5 5 5 5 5 5 5 5 5 5 5 5 5 5 5 6 5 5 5 5 5 6 5 5 5 5 5 5 5 5 5 5 5 5 5 5 5 5 6 5 5 5 5 6 5 5 5 5 5 5 5 5 5 5 6 5 5 5 5 5 5 5 6 6 5 5 5 5 5 5 5 5 5 5 5 6 5 5 6 5 5 5 5 5 5 5 5 5 6 5 5 5 6 5 5 5 5 5 5 5 5 5 5 5 5 6 5 5 5 5 5 5 5 6 5 5 5 5 6 5 5 5 5 5 5 5 5 5 5 5 5 5 5 5 5 5 5 5 5 5 5 5 5 5 5 5 6 5 5 5 5 5 5 5 5 5 5 5 6 5 5 6 5 5 5 6 5 6 5 5 5 5 5 5 5 5 5 5 5 5 5 5 5 5 5 5 6 5 5 6 5 5 5 5 5 5 5 5 5 5 5 6 5 6 5 5 5 5 5 5 5 5 5 5 5 5 5 5 5 5 5 5 6 5 5 5 5 6 5 5 5 5 5 5 5 5 6 5 5 5 5 5 5 5 5 5 5 5 5 5 5 5 5 5 5 6 5 5 6 5 5 5 5 5 5 5 6 5 5 5 6 5 5 5 5 5 5 5 5 5 5 5 5 5 5 5 5 5 5 5 5 5 5 6 5 5 5 5 5 5 5 5 5 5 5 5 6 6 5 6 5 5 6 5 5 5 5 6 5 5 5 5 5 5 5 5 5 5 5 5 5 5 5 5 5 5 5 5 5 5 5 5 5 5 5 5 5 5 5 5 5 5 5 5 6 5 5 5 5 5 5 5 5 6 5 5 6 5 6 5 5 5 5 5 5 5 5 5 5 5 5 5 5 5 5 5 5 5 5 5 5 5 5 5 5 5 5 5 5 5 5 5 5 5 6 5 5 5 6 5 5 5 5 5 5 5 6 6 5 6 5 5 5 5 5 5 5 5 5 5 5 5 5 5 5 5 5 5 5 5 5 5 5 5 5 5 6 6 5 5 5 5 5 5 5 5 5 5 5 5 5 5 5 5 5 5 5 5 5 5 5 5 5 5 5 5 5 5 5 5 5 5 6 5 5 5 5 5 6 5 5 5 5 5 6 5 5 5 5 5 5 5 5 5 5 6 5 5 5 6 5 6 5 5 5 6 5 5 6 5 6 5 5 5 5 5 5 5 5 6 5 6 5 5 5 5 6 5 6 5 5 6 5 5 5 5 5 5 5 5 5 5 6 5 5 5 6 5 6 5 6 6 5 5 5 5 5 5 5 5 5 5 6 5 6 5 6 5 5 5 5 5 5 5 5 5 6 5 5 5 5 5 5 5 5 6 5 6 5 5 5 5 5 5 5 5 5 5 5 5 5 5 5 6 5 5 5 5 5 5 5 5 5 5 5 5 5 5 5 5 5 5 5 5 5 5 5 5 5 5 5 5 5 5 5 5 
</DataArray>
<DataArray type="Float64" Name="stress" NumberOfComponents="9" format="ascii">
-157.22401870511095 -651.78424517706299 0 -651.78424517706299 4078.2443346421933 0 0 0 0 -125.90402512721593 -173.49864880426867 0 -173.49864880426867 3407.7718768223131 0 0 0 0 -0.36620730601351004 8.2214618189282191 0 8.2214618189282191 2400.0189750950376 0 0 0 0 474.75595498183009 -934.39484164090391 0 -934.39484164090391 1354.3349074752623 0 0 0 0 775.38418827423357 -684.34032098237003 0 -684.34032098237003 2343.1967768041068 0 0 0 0 -310.39566698121138 -1070.5362902874913 0 -1070.5362902874913 2206.6081259908606 0 0 0 0 -0.72295376131746869 0.79498183736757255 0 0.79498183736757255 7.4494345556153689 0 0 0 0 -0.6976802412825136 -746.12470251290506 0 -746.12470251290506 3030.4296671806514 0 0 0 0 176.91497006106448 -1474.3681813427502 0 -1474.3681813427502 3181.4262955646409 0 0 0 0 2.0909701041955366 -110.49953542707954 0 -110.49953542707954 2225.535117266656 0 0 0 0 -298.11834844757038 -314.73765985554201 0 -314.73765985554201 -183.54877672009752 0 0 0 0 -285.75850362473614 -165.26212857934297 0 -165.26212857934297 -463.24942761701823 0 0 0 0 -2.405669034205129 -6.9143692579372669 0 -6.9143692579372669 4.0909311636127583 0 0 0 0 188.21695746710975 -750.69204787033232 0 -750.69204787033232 -1786.0737284629286 0 0 0 0 -317.56351441001789 -1354.116108672657 0 -1354.116108672657 -229.2466309248266 0 0 0 0 257.87342524829387 -1089.9447943462255 0 -1089.9447943462255 3448.8715977202373 0 0 0 0 1.8539127605255599 5.5525815620856349 0 5.5525815620856349 11.474231807984907 0 0 0 0 -418.09813629210521 -237.90620959871012 0 -237.90620959871012 5629.522028351028 0 0 0 0 738.25443263599664 -17.113773278353619 0 -17.113773278353619 1783.4753244898093 0 0 0 0 132.29290448495601 -791.36289749896605 0 -791.36289749896605 2605.6795361402037 0 0 0 0 3.3247349520499059 3.159439483241357 0 3.159439483241357 7.1222670705717519 0 0 0 0 603.32018021396846 82.320361884147133 0 82.320361884147133 3499.0677950886857 0 0 0 0 277.92372129008487 -319.45003862637532 0 -319.45003862637532 2147.1177682487978 0 0 0 0 498.58964267813951 344.58978423773078 0 344.58978423773078 3807.3879467577281 0 0 0 0 771.43544181472964 1900.2487984061117 0 1900.2487984061117 3541.6974407761882 0 0 0 0 652.48686959257111 1492.705851191291 0 1492.705851191291 4314.5543863321654 0 0 0 0 5.9621622715097677 -3.4506767520790191 0 -3.4506767520790191 -0.24107851097846833 0 0 0 0 12.589275559245293 4.2651265152427413 0 4.2651265152427413 14.000372467882446 0 0 0 0 346.26356418193291 1565.4393554584203 0 1565.4393554584203 4753.5109671930768 0 0 0 0 586.88007630450284 564.21424600937462 0 564.21424600937462 3560.2710613977397 0 0 0 0 504.0636946921602 116.30384942847013 0 116.30384942847013 2758.9570963106671 0 0 0 0 406.38261054406621 720.23931758181425 0 720.23931758181425 3437.9894945156193 0 0 0 0 -6.0276560043618783 -24.321495818153295 0 -24.321495818153295 21.471609257331266 0 0 0 0 140.86208134517693 -619.88253355510642 0 -619.88253355510642 2887.6237525565521 0 0 0 0 -129.36432752684129 -107.37282378964301 0 -107.37282378964301 53.388057700953141 0 0 0 0 -48.242580452884837 -188.44117849003669 0 -188.44117849003669 -197.90430929599097 0 0 0 0 -5.5338734897975641 -21.54019330322123 0 -21.54019330322123 6.6075052470002689 0 0 0 0 -93.428919598466848 -310.04981128606596 0 -310.04981128606596 -416.93657602528947 0 0 0 0 27.741211133951083 -228.62377581822875 0 -228.62377581822875 4059.5251236222539 0 0 0 0 -194.42767371989297 -276.30045148341014 0 -276.30045148341014 7.1363926151825581 0 0 0 0 -143.90661229000162 -261.50776714379754 0 -261.50776714379754 -29.090394047525479 0 0 0 0 -174.44453823466583 -304.06843292555277 0 -304.06843292555277 -87.505903794823098 0 0 0 0 -57.166260552168801 -111.52777652163149 0 -111.52777652163149 -33.228769946261309 0 0 0 0 -148.73847452294149 -196.16482670115511 0 -196.16482670115511 -17.397719288943335 0 0 0 0 -181.93652203062538 -227.50675212773785 0 -227.50675212773785 -35.458019597855582 0 0 0 0 -184.47809289929438 -244.92375954075396 0 -244.92375954075396 -99.966930799302645 0 0 0 0 -250.36425790293083 -273.77992394326429 0 -273.77992394326429 -98.609614354587393 0 0 0 0 -246.75659875448491 -215.91843773996516 0 -215.91843773996516 -2.6348215183897992 0 0 0 0 -266.21874930370313 -345.41785789518326 0 -345.41785789518326 -294.3945242746413 0 0 0 0 -231.05791488367913 -197.14121949241962 0 -197.14121949241962 -170.64457026394666 0 0 0 0 -170.41028066303045 -106.9833017722558 0 -106.9833017722558 -267.74237592812278 0 0 0 0 -232.79584646976303 -252.01331826752107 0 -252.01331826752107 -100.77824337597121 0 0 0 0 -170.02562752575625 -116.62563391943695 0 -116.62563391943695 -39.536290869407821 0 0 0 0 -159.17561258974786 -152.83179871681932 0 -152.83179871681932 20.368278923298931 0 0 0 0 -161.88107638787244 -206.81079399265946 0 -206.81079399265946 49.282748924393672 0 0 0 0 -140.30739564622115 -259.51731781942362 0 -259.51731781942362 -5.0323967568692751 0 0 0 0 -194.66251197640821 -247.19983007804331 0 -247.19983007804331 -26.878350634127855 0 0 0 0 -168.83027891853681 -236.43995535295107 0 -236.43995535295107 -71.443425194735028 0 0 0 0 566.72220678013014 667.24023553247707 0 667.24023553247707 389.69474157140939 0 0 0 0 -239.63498961596127 -94.040101808932377 0 -94.040101808932377 120.6751870354492 0 0 0 0 -49.123292410872239 -61.00124171333664 0 -61.00124171333664 24.06317872236832 0 0 0 0 -100.32586872834963 122.3996341895363 0 122.3996341895363 5.0833487055670048 0 0 0 0 -11.352922767238248 -4.4687132200993602 0 -4.4687132200993602 98.281626085342225 0 0 0 0 -164.57684762752967 -116.25230571244174 0 -116.25230571244174 -50.902142561390065 0 0 0 0 -279.07615801538486 -235.56513811818149 0 -235.56513811818149 64.242191183657269 0 0 0 0 -249.13717332738727 -175.4998711477873 0 -175.4998711477873 -81.012725025502732 0 0 0 0 -262.24875441927088 -281.32357419322216 0 -281.32357419322216 -178.07215314725181 0 0 0 0 -333.43554602052154 -267.56363556663564 0 -267.56363556663564 -80.224616460640846 0 0 0 0 -656.88686073057033 -426.77286206556892 0 -426.77286206556892 380.61425698312814 0 0 0 0 -219.37328478766295 120.60468692977702 0 120.60468692977702 202.95524920040043 0 0 0 0 -12.640324173438785 -445.97521757996583 0 -445.97521757996583 148.41053861207729 0 0 0 0 -13.018348445554539 -10.919906302969203 0 -10.919906302969203 119.12525332538067 0 0 0 0 -7.1801944413168712 -23.010088685294249 0 -23.010088685294249 62.686085104804079 0 0 0 0 -561.93840920605544 -338.23379127430962 0 -338.23379127430962 204.27185103477677 0 0 0 0 -319.33308260626518 -338.04846035022638 0 -338.04846035022638 129.15828862163471 0 0 0 0 -14.68930518443176 -77.24370819847536 0 -77.24370819847536 -47.637219643394928 0 0 0 0 -310.53702703087129 22.178735736422823 0 22.178735736422823 109.08855886859237 0 0 0 0 -5.7322803536714018 -29.681731539167913 0 -29.681731539167913 48.09226055097497 0 0 0 0 -614.88135523763231 -227.26675003609853 0 -227.26675003609853 171.49866399571329 0 0 0 0 -179.37946121656583 -142.85018905451579 0 -142.85018905451579 573.02433859950179 0 0 0 0 -395.62476466880651 -746.02043571620015 0 -746.02043571620015 -543.23874613753287 0 0 0 0 -969.7021026998591 -643.21381539659342 0 -643.21381539659342 48.404328533448279 0 0 0 0 -1039.5619465799045 -300.30804794450523 0 -300.30804794450523 164.54671604180476 0 0 0 0 -699.60502831101076 -718.87633444019593 0 -718.87633444019593 22.598195242579095 0 0 0 0 -695.2403392820861 -623.99382994245389 0 -623.99382994245389 -22.882792686868925 0 0 0 0 -701.8230122275254 -596.33606632763986 0 -596.33606632763986 -54.152079603169113 0 0 0 0 -577.36310809397492 -487.9358321230975 0 -487.9358321230975 -5.282788530777907 0 0 0 0 -682.72062937502415 -452.00909583832254 0 -452.00909583832254 21.961434151104186 0 0 0 0 -706.52219241464513 -518.64056760073436 0 -518.64056760073436 100.71455736539792 0 0 0 0 -838.22963699422598 -470.24619377800263 0 -470.24619377800263 104.86216088058427 0 0 0 0 -567.92721598673415 -316.95112053037155 0 -316.95112053037155 158.01618147405679 0 0 0 0 -590.22650636516209 -274.82208020577673 0 -274.82208020577673 215.80844702854665 0 0 0 0 -417.39616712729094 -91.595022370340303 0 -91.595022370340303 119.03989687652211 0 0 0 0 -423.99778644897742 -260.21720296345302 0 -260.21720296345302 63.905604088271502 0 0 0 0 -643.65556768185706 -629.46264621065347 0 -629.46264621065347 -163.60636600208818 0 0 0 0 -528.49715670894159 -497.38485540900001 0 -497.38485540900001 -230.4115975718305 0 0 0 0 -335.89116131084484 -312.98815533920424 0 -312.98815533920424 -152.92415257004905 0 0 0 0 -324.47573667353527 -163.77825079784088 0 -163.77825079784088 453.71159270871431 0 0 0 0 -84.246085034600355 -209.15710352611495 0 -209.15710352611495 391.11028143265867 0 0 0 0 -260.94253027978357 76.562286967266118 0 76.562286967266118 335.56777497023904 0 0 0 0 -287.65255842818169 -71.46193671655783 0 -71.46193671655783 165.99293078866503 0 0 0 0 -623.36924943115991 -260.02918388125545 0 -260.02918388125545 186.88419755588984 0 0 0 0 -971.87069624397691 -87.735327664777287 0 -87.735327664777287 199.3617724221258 0 0 0 0 -367.93770200966219 -29.83355080486217 0 -29.83355080486217 110.36318325228058 0 0 0 0 -434.19212837429495 -363.09299489893601 0 -363.09299489893601 468.91387995067635 0 0 0 0 -420.53791534430354 -67.285634420438328 0 -67.285634420438328 -897.26692839013413 0 0 0 0 -682.09522281328645 -903.76513196702581 0 -903.76513196702581 -328.04657383990707 0 0 0 0 -436.57433280422356 -187.9512088121628 0 -187.9512088121628 90.688114616481471 0 0 0 0 0.63798193412391235 -9.117107215168069 0 -9.117107215168069 12.797631415516719 0 0 0 0 -5.1606683348815352 -2.785155168868215 0 -2.785155168868215 12.595575630925246 0 0 0 0 -754.51840380985539 -605.99650025091614 0 -605.99650025091614 -434.57566326009692 0 0 0 0 -1089.8721285451004 2.6058865195445833 0 2.6058865195445833 306.73981455247849 0 0 0 0 -0.19774294133928 -4.7522681150497021 0 -4.7522681150497021 3.6705404744678276 0 0 0 0 220.84368033159257 85.075288259104127 0 85.075288259104127 81.060754962143619 0 0 0 0 112.94838242242794 129.68041371549771 0 129.68041371549771 92.975106023382978 0 0 0 0 88.606507481360481 121.30719421117828 0 121.30719421117828 217.204027099011 0 0 0 0 148.40943907936955 163.53961632111896 0 163.53961632111896 136.38147113576997 0 0 0 0 24.338458743576666 -116.21871982049197 0 -116.21871982049197 459.91697249677964 0 0 0 0 -157.08464431965311 -400.24990406218058 0 -400.24990406218058 -627.26643947113189 0 0 0 0 -188.20708912498094 -529.00795975330402 0 -529.00795975330402 -631.54346578932018 0 0 0 0 0.04181789596768315 -2.7363710146179585 0 -2.7363710146179585 1.5672923977467406 0 0 0 0 -118.65269430296144 -166.02618727523077 0 -166.02618727523077 -483.36058067559497 0 0 0 0 227.72056738450863 -103.12414964522759 0 -103.12414964522759 347.74239126678003 0 0 0 0 70.898731651520166 -108.66707310909987 0 -108.66707310909987 404.71675558498828 0 0 0 0 -11.122220024433545 0.16386830009287223 0 0.16386830009287223 307.07050943779177 0 0 0 0 331.73827250365548 -76.015436412402778 0 -76.015436412402778 354.79778386229009 0 0 0 0 142.8754916313369 3.6168977311754134 0 3.6168977311754134 463.29203718982899 0 0 0 0 106.36206162102727 116.06414763622524 0 116.06414763622524 379.28542606713017 0 0 0 0 98.374619192180035 127.66871202811672 0 127.66871202811672 343.1503230362141 0 0 0 0 165.09234001158518 75.848507406844874 0 75.848507406844874 227.59857918514899 0 0 0 0 217.73660620537783 102.81352208876342 0 102.81352208876342 340.07343253843101 0 0 0 0 102.0986848136977 152.1722248412666 0 152.1722248412666 264.96810342776007 0 0 0 0 94.938438414903487 55.70317405674723 0 55.70317405674723 211.161886197282 0 0 0 0 136.76390454071128 38.740462571498938 0 38.740462571498938 19.886193907484994 0 0 0 0 -117.45254762517879 35.594626850928762 0 35.594626850928762 295.85780466702272 0 0 0 0 -0.015028838675939515 0.11593518407997294 0 0.11593518407997294 0.23505232266816733 0 0 0 0 -40.265885049486371 33.113241313927574 0 33.113241313927574 219.7529705746274 0 0 0 0 29.569566453254993 91.521003156936786 0 91.521003156936786 210.81576886769471 0 0 0 0 0.14113880178191696 0.6598453586055939 0 0.6598453586055939 0.20549370596178562 0 0 0 0 -9.3639622493194565 131.17673118929088 0 131.17673118929088 264.56821109313751 0 0 0 0 -2.4857268170411118 97.217714445167076 0 97.217714445167076 300.2646037110826 0 0 0 0 19.257863498115114 137.08637148857815 0 137.08637148857815 322.83803397866723 0 0 0 0 -6.2516288353594973 107.24915251882339 0 107.24915251882339 389.83864224831632 0 0 0 0 -26.213136047963346 122.49026601635342 0 122.49026601635342 428.61765502068738 0 0 0 0 -22.798748877941648 97.560665674514894 0 97.560665674514894 350.96905221987254 0 0 0 0 -21.046475600876903 86.077205494562804 0 86.077205494562804 350.13860006251343 0 0 0 0 -1.1709116288153041 73.350872570117644 0 73.350872570117644 333.98059210077918 0 0 0 0 3.7586784859274966 73.284511765341449 0 73.284511765341449 318.93371261400898 0 0 0 0 0.052143326886874543 72.176467872457579 0 72.176467872457579 327.6835788525932 0 0 0 0 3.6773787032659584 74.141492735609063 0 74.141492735609063 280.63563280623202 0 0 0 0 3.1827256319663775 77.331868610708625 0 77.331868610708625 325.46073132450692 0 0 0 0 7.9820339946832277 126.68949173968031 0 126.68949173968031 321.18477412487846 0 0 0 0 2.1105730976059647 35.292346807078502 0 35.292346807078502 168.71731844972237 0 0 0 0 5.479445241826415 35.891942320609814 0 35.891942320609814 117.11239296229905 0 0 0 0 7.5517815544923792 43.526160867229919 0 43.526160867229919 101.47611925051024 0 0 0 0 0.10639556505116338 56.223120599039248 0 56.223120599039248 112.9397761714572 0 0 0 0 0.10297134526934959 0.42651139337098698 0 0.42651139337098698 0.30569970758661213 0 0 0 0 -2.5076362278040176 51.457745795261872 0 51.457745795261872 125.96415542786417 0 0 0 0 0.002128649827557727 -1.5845907784369615 0 -1.5845907784369615 3.0192331072388185 0 0 0 0 553.67183233457854 -516.63310082016687 0 -516.63310082016687 1675.5836194545409 0 0 0 0 170.34196937984188 71.772263863298576 0 71.772263863298576 1656.7242263913067 0 0 0 0 39.616765869548829 17.220565025425458 0 17.220565025425458 1123.1352671674686 0 0 0 0 115.12682958865149 327.01498323077794 0 327.01498323077794 476.9529772450478 0 0 0 0 -131.36171579844461 -179.86617461168498 0 -179.86617461168498 914.48507789021824 0 0 0 0 -143.91249202394664 1.6700402889400721 0 1.6700402889400721 296.81277590309037 0 0 0 0 -378.41451755686626 -12.151918347473838 0 -12.151918347473838 421.83482337972964 0 0 0 0 -479.52073697759886 -124.78596897142415 0 -124.78596897142415 518.0812497211009 0 0 0 0 -328.22567228395178 -211.0314071723551 0 -211.0314071723551 167.5853026600962 0 0 0 0 -371.3278837930967 -468.06976919571389 0 -468.06976919571389 -179.58278342612903 0 0 0 0 -170.29965548999496 -326.58738711661135 0 -326.58738711661135 -183.71922066853017 0 0 0 0 -81.121386720710689 -156.56347595411353 0 -156.56347595411353 81.250206470256671 0 0 0 0 112.80651468102894 -91.899095678018057 0 -91.899095678018057 44.019269530166639 0 0 0 0 2.5598344690127988 159.99527036539803 0 159.99527036539803 249.75595618267835 0 0 0 0 -205.56986052445529 -150.24493831458676 0 -150.24493831458676 129.40991466322157 0 0 0 0 -101.46299155012343 -203.70970384776592 0 -203.70970384776592 14.117840491002426 0 0 0 0 112.0069449557067 81.049586308152357 0 81.049586308152357 113.33217014103138 0 0 0 0 -0.26428328375838683 -3.8991253989260599 0 -3.8991253989260599 3.7341830536583132 0 0 0 0 31.36161133298549 67.883894371683709 0 67.883894371683709 181.04277676995116 0 0 0 0 -120.39928489761377 152.93420715224784 0 152.93420715224784 386.35554498263082 0 0 0 0 61.990588475560116 37.13217988339602 0 37.13217988339602 113.598124146185 0 0 0 0 -136.84910778625539 -335.30965971280966 0 -335.30965971280966 2075.7502054382385 0 0 0 0 -162.47419795162273 -115.80898291708581 0 -115.80898291708581 1600.3871110262935 0 0 0 0 -306.70633255736175 367.89341179513485 0 367.89341179513485 2201.0820740924501 0 0 0 0 -333.65831803629726 522.7451638232169 0 522.7451638232169 1321.1795227766852 0 0 0 0 -290.63310002516266 1239.9385745724649 0 1239.9385745724649 3489.5308183334455 0 0 0 0 -113.99972340791356 1311.48050876244 0 1311.48050876244 -56.745711114243022 0 0 0 0 -166.72310246501252 -26.868193166571473 0 -26.868193166571473 985.97568448591483 0 0 0 0 -198.26496112322479 40.999431018066389 0 40.999431018066389 1769.3530978295712 0 0 0 0 -159.93562334345805 -87.399136653673395 0 -87.399136653673395 1505.9186225347512 0 0 0 0 -770.69911285531316 -820.76976764339634 0 -820.76976764339634 3497.2633476792093 0 0 0 0 -328.85212515091331 -42.319347494041722 0 -42.319347494041722 883.78463671715872 0 0 0 0 -509.14003474671142 -332.84405202635753 0 -332.84405202635753 1689.1679957259403 0 0 0 0 -256.50194126720407 -566.18409255727602 0 -566.18409255727602 1787.6082405018096 0 0 0 0 -954.10608786017201 235.55996894971031 0 235.55996894971031 927.34520640248229 0 0 0 0 0.19205030538881296 14.19122088254236 0 14.19122088254236 34.8698548712226 0 0 0 0 705.74721047834726 -1920.9986799260587 0 -1920.9986799260587 1811.6388025404158 0 0 0 0 -451.90092639974227 -344.92407543040827 0 -344.92407543040827 636.6725719384558 0 0 0 0 0.52482474177774896 5.9469006434858471 0 5.9469006434858471 17.345778380830581 0 0 0 0 -1409.9322336708274 308.78135700851635 0 308.78135700851635 1797.9392300088512 0 0 0 0 130.8764504813397 -127.69311133742667 0 -127.69311133742667 2139.2410434400845 0 0 0 0 -838.55684204196621 -768.79023759783649 0 -768.79023759783649 1723.8776325763683 0 0 0 0 1.4651109900448835 7.6885925320152921 0 7.6885925320152921 17.354166363044158 0 0 0 0 -231.09591874350178 -886.45938446843866 0 -886.45938446843866 4176.3618841800126 0 0 0 0 -436.54446098636504 1870.4722734222996 0 1870.4722734222996 -40.094870644055845 0 0 0 0 -119.4915698358152 840.18473288903442 0 840.18473288903442 3114.2302495271724 0 0 0 0 924.9615706174302 395.65185510289302 0 395.65185510289302 1055.8660660147143 0 0 0 0 451.24041490442653 1398.2111689828298 0 1398.2111689828298 2586.297616936994 0 0 0 0 514.42205840398776 1520.6079833488611 0 1520.6079833488611 2780.3724992501011 0 0 0 0 -22.136273194152636 458.56844413074577 0 458.56844413074577 1549.9292829629412 0 0 0 0 325.01947947496075 764.38515650395766 0 764.38515650395766 1148.5875415942428 0 0 0 0 596.05417190458024 121.94869988983919 0 121.94869988983919 340.55251269075234 0 0 0 0 209.85651665227579 376.55778540989559 0 376.55778540989559 1115.7719285652529 0 0 0 0 649.8125861363053 140.10176051673989 0 140.10176051673989 51.680568799158209 0 0 0 0 -207.04971681600887 -50.289741769822285 0 -50.289741769822285 461.05364622632624 0 0 0 0 -12.337809784476086 -29.045381099265214 0 -29.045381099265214 40.969960421759083 0 0 0 0 221.70323649576216 -333.36287974482912 0 -333.36287974482912 -342.32240491213452 0 0 0 0 8.4371030598913421 -42.633765631704591 0 -42.633765631704591 39.101540887721058 0 0 0 0 -11.525324400725083 -23.223475988489071 0 -23.223475988489071 17.703308097310178 0 0 0 0 -1.4530316481141199 -13.713531275076093 0 -13.713531275076093 64.181019435534836 0 0 0 0 -3.0065795999366554 -23.800639812431797 0 -23.800639812431797 23.316706171600401 0 0 0 0 -6.7190970926374121 -9.2179121563949593 0 -9.2179121563949593 79.212573265933315 0 0 0 0 -11.100292862301034 -34.980760945651355 0 -34.980760945651355 15.837026713627196 0 0 0 0 -27.591725047860564 -28.039050033316016 0 -28.039050033316016 123.83903079407537 0 0 0 0 130.591394568586 418.59798164608219 0 418.59798164608219 214.30840756713587 0 0 0 0 248.82479937912308 -4.4932793797415798 0 -4.4932793797415798 -319.82746364355626 0 0 0 0 21.641583642373917 173.38754397880257 0 173.38754397880257 618.5071945906675 0 0 0 0 96.332998189211821 413.6149860892474 0 413.6149860892474 605.71590841183297 0 0 0 0 -147.32198014064898 -125.76700510139926 0 -125.76700510139926 551.01285503406689 0 0 0 0 -25.737928834070772 -114.51350732633728 0 -114.51350732633728 -282.28048867196048 0 0 0 0 -72.057194496103875 88.46704434714411 0 88.46704434714411 -195.9161610333831 0 0 0 0 0.04868644267831268 -1.2379487729482008 0 -1.2379487729482008 -5.4167534702002627 0 0 0 0 -24.938608307231675 -43.513318888827996 0 -43.513318888827996 22.038931962494019 0 0 0 0 -44.058930152453854 -54.18165167315783 0 -54.18165167315783 -43.010661853710189 0 0 0 0 -43.272356669608598 -55.709340568471816 0 -55.709340568471816 -45.803838666484808 0 0 0 0 -20.552184983475357 -64.964722003888966 0 -64.964722003888966 61.175561554552658 0 0 0 0 98.682454145045085 139.01152403778542 0 139.01152403778542 133.76341468803002 0 0 0 0 -56.931241332105628 -107.27724896425934 0 -107.27724896425934 -22.250870161209605 0 0 0 0 27.395502222218283 -63.927908217621734 0 -63.927908217621734 -116.084051506783 0 0 0 0 -33.053425284077086 -5.8910520408094271 0 -5.8910520408094271 28.162132451547627 0 0 0 0 -17.372257621011158 -15.44422598023084 0 -15.44422598023084 47.661870758580335 0 0 0 0 -20.469341877778561 -20.245360516846247 0 -20.245360516846247 13.20080516638032 0 0 0 0 -11.033632217625552 -2.4662341198564803 0 -2.4662341198564803 33.999057056087622 0 0 0 0 -1.5187491091543128 -1.3367653672887627 0 -1.3367653672887627 5.9074801357962201 0 0 0 0 -72.805016112481724 -15.078171618464694 0 -15.078171618464694 854.68793998477486 0 0 0 0 -242.56593469198617 201.49556234807096 0 201.49556234807096 1713.7302019180497 0 0 0 0 -103.30843752751093 380.67979991268294 0 380.67979991268294 999.35227969304287 0 0 0 0 -9.1907212986666309 714.01473623057973 0 714.01473623057973 1598.2609000760203 0 0 0 0 -147.27203266549009 297.94604032630923 0 297.94604032630923 1263.2277620532986 0 0 0 0 -544.37636225002177 343.7007276539307 0 343.7007276539307 2664.9242437051871 0 0 0 0 -615.00164292282375 76.021617667183818 0 76.021617667183818 1681.080838009424 0 0 0 0 -400.78528229818949 -87.066650612476224 0 -87.066650612476224 1778.5736831147551 0 0 0 0 -263.60041034609731 -53.489181596827621 0 -53.489181596827621 1620.2903466227945 0 0 0 0 -254.58017950911454 -92.840486908716684 0 -92.840486908716684 1446.9624998684449 0 0 0 0 -133.64746013714375 -181.97746000572442 0 -181.97746000572442 1509.3374282591326 0 0 0 0 -2.9881384489081029 -58.699440407930524 0 -58.699440407930524 1426.0386037089775 0 0 0 0 -277.01491447130638 67.835394282997186 0 67.835394282997186 1467.6247283452467 0 0 0 0 -140.75104337706625 -150.3835382530815 0 -150.3835382530815 1065.3921156384604 0 0 0 0 27.325891101385082 315.87886567040459 0 315.87886567040459 452.90539921414165 0 0 0 0 -8.7674540678573578 7.9409219597209244 0 7.9409219597209244 9.3329861659836411 0 0 0 0 -32.41710101628405 45.768457524201949 0 45.768457524201949 396.03460654060473 0 0 0 0 -102.1943473165519 39.863163784839344 0 39.863163784839344 46.242097336420557 0 0 0 0 -41.024770056693797 -28.079163458380208 0 -28.079163458380208 45.082718850057063 0 0 0 0 -140.42330274911725 -177.08596845090688 0 -177.08596845090688 1632.9285143378584 0 0 0 0 2.0169061850537484 1.2226051990663649 0 1.2226051990663649 2.332168431371997 0 0 0 0 -177.32349334454466 208.06991055424805 0 208.06991055424805 -74.501603038544999 0 0 0 0 -147.5419135628639 383.99469646257057 0 383.99469646257057 625.75680025255861 0 0 0 0 -308.80027269235535 384.114542412015 0 384.114542412015 961.72358342521329 0 0 0 0 -547.63478653200445 -171.54480841163604 0 -171.54480841163604 177.81434847275887 0 0 0 0 -134.40644134000161 -190.32920264938002 0 -190.32920264938002 -134.07617541470245 0 0 0 0 459.18650633009639 220.93162187230155 0 220.93162187230155 1023.1020894513276 0 0 0 0 456.97550943840815 -48.870644525319221 0 -48.870644525319221 -400.24898611912067 0 0 0 0 -432.63249703659193 580.00727526341643 0 580.00727526341643 443.4018877902563 0 0 0 0 503.80895966249449 241.74853832664303 0 241.74853832664303 507.239030480574 0 0 0 0 206.13575039374859 -59.433077429770492 0 -59.433077429770492 1151.8901760018834 0 0 0 0 -2.8790533443368531 -60.394714998437848 0 -60.394714998437848 1223.2216554283368 0 0 0 0 -128.94583185619013 -216.32285593136112 0 -216.32285593136112 1606.1692992257085 0 0 0 0 95.453220165523021 -225.57873542592279 0 -225.57873542592279 1295.361485025016 0 0 0 0 104.5416105946959 -270.95619724147946 0 -270.95619724147946 1472.8594879639422 0 0 0 0 3.1108640422986653 -0.66096928529142929 0 -0.66096928529142929 14.109940001807487 0 0 0 0 -2.8547383138775331 -28.350606521707959 0 -28.350606521707959 78.821328537167574 0 0 0 0 773.94701290954436 493.93773497245274 0 493.93773497245274 -632.47463627440447 0 0 0 0 800.3801517419613 -928.86450907115795 0 -928.86450907115795 869.93474814770161 0 0 0 0 -172.05566807214382 -977.26599612436985 0 -977.26599612436985 993.00162802121486 0 0 0 0 319.78700095062004 644.54341727917199 0 644.54341727917199 103.9601572782849 0 0 0 0 -17.23283882174519 -25.62247442505759 0 -25.62247442505759 78.325744037312688 0 0 0 0 671.53308233055191 -1054.0904607197808 0 -1054.0904607197808 577.16121307035064 0 0 0 0 56.195773841233859 6.5277775418653619 0 6.5277775418653619 113.91887073896214 0 0 0 0 3.4246682788245053 1.5923771977915209 0 1.5923771977915209 0.25401518170978932 0 0 0 0 840.27767675383302 -757.14349756556476 0 -757.14349756556476 987.07298529086347 0 0 0 0 423.72705148631076 -1335.2747612839303 0 -1335.2747612839303 1051.8393673988394 0 0 0 0 -49.736787819415895 7.5375997313385596 0 7.5375997313385596 74.174542635352736 0 0 0 0 507.60000567038469 -1063.6720579563407 0 -1063.6720579563407 1235.4198091893631 0 0 0 0 9.1851799780144034 17.059457021734076 0 17.059457021734076 30.487043182605277 0 0 0 0 -96.268005126796368 17.777365517021281 0 17.777365517021281 74.948348756544874 0 0 0 0 -6.4916484445755005 -4.0095465591934669 0 -4.0095465591934669 15.307318140933461 0 0 0 0 337.2592869779395 381.35580107278656 0 381.35580107278656 -1504.2831057430012 0 0 0 0 3.280022304728599 0.23654280135428962 0 0.23654280135428962 6.5351153386261558 0 0 0 0 2838.7882472517213 -1708.9850116253656 0 -1708.9850116253656 943.4581484325754 0 0 0 0 407.05551577169945 -837.12294722009392 0 -837.12294722009392 2960.8156055658765 0 0 0 0 1574.5370622631067 -1594.6718293322629 0 -1594.6718293322629 1219.7162444462592 0 0 0 0 916.41047169828653 440.80872787296903 0 440.80872787296903 -50.828517003392335 0 0 0 0 1349.3470719409943 -382.58739221611177 0 -382.58739221611177 396.82857188011258 0 0 0 0 1237.8021719756471 -1342.7298002469324 0 -1342.7298002469324 2595.5014036964276 0 0 0 0 1837.4173803701851 128.28488197127444 0 128.28488197127444 907.58058963887743 0 0 0 0 1100.5231812942984 -818.54449706539162 0 -818.54449706539162 524.06732679987908 0 0 0 0 1018.8034838064323 -710.28973738053173 0 -710.28973738053173 783.91575103148352 0 0 0 0 1496.268230862278 -1616.2504149202578 0 -1616.2504149202578 1330.7114452251044 0 0 0 0 1755.4505666622008 -1305.1478439269995 0 -1305.1478439269995 957.295147785474 0 0 0 0 683.69669412424935 -221.85160638176603 0 -221.85160638176603 -1435.1525427145407 0 0 0 0 1270.240362672781 -1322.7970881473157 0 -1322.7970881473157 19.210978558432544 0 0 0 0 -142.00440535064649 -4.6239169792461325 0 -4.6239169792461325 -775.44101571961073 0 0 0 0 329.08148611321883 -773.3908992500219 0 -773.3908992500219 229.066153126274 0 0 0 0 254.49286272599284 -476.75184962620551 0 -476.75184962620551 435.51460032499017 0 0 0 0 2.8628897650064573 -584.66036886792426 0 -584.66036886792426 516.51477171151782 0 0 0 0 270.82194971593583 -481.15042319067288 0 -481.15042319067288 293.01526087511229 0 0 0 0 9.8432035107643969 -230.49374573236128 0 -230.49374573236128 444.83304981453693 0 0 0 0 110.27398642196977 -261.01009474761304 0 -261.01009474761304 892.55782270149211 0 0 0 0 1719.4381048761497 -103.04380792775191 0 -103.04380792775191 433.38197401253274 0 0 0 0 1444.0321686570014 -659.78399846932371 0 -659.78399846932371 378.80454599270888 0 0 0 0 1108.5660339206645 -966.85158363904338 0 -966.85158363904338 866.0833378229363 0 0 0 0 96.066495103393663 -373.78948421325913 0 -373.78948421325913 594.91898814785236 0 0 0 0 162.85475041284553 -365.37983731451459 0 -365.37983731451459 182.46718011445773 0 0 0 0 -387.19645657479305 412.9008767457417 0 412.9008767457417 -471.0218574731407 0 0 0 0 -10.244213827088068 0.71989976058472394 0 0.71989976058472394 -1.3380617832735453 0 0 0 0 -975.8705013777485 459.95741551998071 0 459.95741551998071 85.604129394661868 0 0 0 0 -905.67708766681881 -426.44594440205401 0 -426.44594440205401 301.4828366892034 0 0 0 0 -641.51025684758861 -115.79024144606956 0 -115.79024144606956 499.70878673937113 0 0 0 0 -380.16228567451617 26.710902830483974 0 26.710902830483974 162.3943731374784 0 0 0 0 -428.35816654690279 83.738644460161595 0 83.738644460161595 124.50892982700316 0 0 0 0 3.1322773570356768 -28.408158537756847 0 -28.408158537756847 39.59110596535983 0 0 0 0 -88.283600931217734 -397.49336622268675 0 -397.49336622268675 -73.595380971310078 0 0 0 0 -268.66177941439491 -169.18610472171349 0 -169.18610472171349 -50.824861971676 0 0 0 0 -140.35621881475618 -6.8548240528543829 0 -6.8548240528543829 148.4832044965151 0 0 0 0 -205.69016051100243 -337.69642085273517 0 -337.69642085273517 384.78146145064966 0 0 0 0 -99.718306238577497 -358.5987671338371 0 -358.5987671338371 372.12847575647902 0 0 0 0 -12.50772889306063 -448.68561135653727 0 -448.68561135653727 -30.466314124321798 0 0 0 0 -91.158693344427775 -402.07741849389731 0 -402.07741849389731 -49.187436014268314 0 0 0 0 -147.62891703898413 29.025907614628977 0 29.025907614628977 57.527553243497096 0 0 0 0 68.793450557420783 -109.02456688186066 0 -109.02456688186066 31.046756254293541 0 0 0 0 29.551250848590211 -32.771794668126702 0 -32.771794668126702 34.701113749218791 0 0 0 0 -14.219929619609047 -62.086245094353217 0 -62.086245094353217 34.06256513569997 0 0 0 0 -35.767454006339904 -9.4490106763387303 0 -9.4490106763387303 64.51879203687713 0 0 0 0 -124.42841767262689 200.83558021289355 0 200.83558021289355 -66.756280430243351 0 0 0 0 2.3829990812181521 9.6229694070045468 0 9.6229694070045468 18.786732426946728 0 0 0 0 0.29807189448061067 0.26853569202083349 0 0.26853569202083349 -3.4810574002288206 0 0 0 0 -46.899944688265187 11.927505369824601 0 11.927505369824601 3.0046261599333377 0 0 0 0 -71.731916910866858 26.661603613829357 0 26.661603613829357 -4.1381520248287416 0 0 0 0 -86.177344779709529 35.136053322472435 0 35.136053322472435 -4.4539107762102503 0 0 0 0 -168.30190561478958 154.14979470928665 0 154.14979470928665 -25.034962104866281 0 0 0 0 117.75659464455836 157.31345536784139 0 157.31345536784139 -221.68973007437452 0 0 0 0 -19.048952270043742 -117.8133687852183 0 -117.8133687852183 133.3326047511618 0 0 0 0 -63.147486168886431 -4.8443758105841539 0 -4.8443758105841539 53.888393580563388 0 0 0 0 93.257847015184325 -135.96082457805096 0 -135.96082457805096 25.378930499093258 0 0 0 0 122.20252460274551 -48.742244572350501 0 -48.742244572350501 -57.165764296085399 0 0 0 0 193.8984299892486 -19.31631959151855 0 -19.31631959151855 117.17471994127845 0 0 0 0 297.90890644460137 -85.734343510779581 0 -85.734343510779581 155.98405510105658 0 0 0 0 190.45383746957941 -180.70179882748198 0 -180.70179882748198 300.92058944836026 0 0 0 0 99.846917620843669 -106.70239613376179 0 -106.70239613376179 66.18444531946443 0 0 0 0 89.729767805742995 -103.91170732647879 0 -103.91170732647879 242.60046275341301 0 0 0 0 25.235714816269137 -132.1951586743744 0 -132.1951586743744 96.494028836823418 0 0 0 0 -23.03954793405569 -55.703396764907666 0 -55.703396764907666 80.841744906036183 0 0 0 0 -115.48503230791675 -48.108394664959633 0 -48.108394664959633 83.402324706388754 0 0 0 0 -73.834276637707717 29.645311765227234 0 29.645311765227234 -163.6050832937326 0 0 0 0 -116.90294359205291 -57.769194053662432 0 -57.769194053662432 295.79029564509983 0 0 0 0 8.0977164183088561 13.553260479336373 0 13.553260479336373 16.576037656445124 0 0 0 0 703.79425419174231 -678.3874489864611 0 -678.3874489864611 896.22106407923275 0 0 0 0 -345.51195088851046 510.84346134727821 0 510.84346134727821 54.065348168496712 0 0 0 0 872.94251026707752 -554.44373269010975 0 -554.44373269010975 810.88531748045352 0 0 0 0 -677.81171595540309 379.02220843193936 0 379.02220843193936 655.01017450499057 0 0 0 0 -691.14093763309393 49.481504474431858 0 49.481504474431858 985.12092767006834 0 0 0 0 -82.080024072792185 676.72137581601419 0 676.72137581601419 -977.9742538970313 0 0 0 0 102.99016268826426 -40.158234681039175 0 -40.158234681039175 1107.5899276349228 0 0 0 0 363.79666310955872 120.03858464099903 0 120.03858464099903 421.90034071997798 0 0 0 0 -41.013004259703848 63.909624811276444 0 63.909624811276444 108.08788432637812 0 0 0 0 142.41831653184772 -313.04570281902852 0 -313.04570281902852 490.99231881747255 0 0 0 0 167.38602293911481 -461.28638690050866 0 -461.28638690050866 1023.1338831414578 0 0 0 0 149.39664928868592 -121.14097630416654 0 -121.14097630416654 334.55339071332128 0 0 0 0 139.03360746860665 -60.857097348663956 0 -60.857097348663956 559.50775791733759 0 0 0 0 194.79903224694499 -142.84007138578454 0 -142.84007138578454 440.5799149959239 0 0 0 0 153.52421805144104 -51.933252305199858 0 -51.933252305199858 632.32746469241101 0 0 0 0 134.25036051091547 -271.57236142049078 0 -271.57236142049078 905.89839005316026 0 0 0 0 294.14323968792451 -437.91060806356836 0 -437.91060806356836 738.4129468864412 0 0 0 0 166.73379262669823 -263.03950009401888 0 -263.03950009401888 657.46351000777213 0 0 0 0 197.47683011300956 -198.00361199369945 0 -198.00361199369945 590.67034658696502 0 0 0 0 185.07560645308195 -227.04476650990546 0 -227.04476650990546 552.81296887982171 0 0 0 0 111.14935008757266 -206.01874626721838 0 -206.01874626721838 599.84302558880881 0 0 0 0 203.8658028125119 -222.66134434135165 0 -222.66134434135165 544.21663317695493 0 0 0 0 125.33069398787075 -152.45686763982303 0 -152.45686763982303 507.53987068182323 0 0 0 0 92.296106192261959 -185.06613320960605 0 -185.06613320960605 475.52345229516504 0 0 0 0 58.290371943971195 -134.06289821099199 0 -134.06289821099199 448.77664470850141 0 0 0 0 72.118644031614167 -155.77906327841629 0 -155.77906327841629 365.7816628626606 0 0 0 0 40.25196885378864 -167.94943950609013 0 -167.94943950609013 417.02586576563772 0 0 0 0 48.500321243624057 -91.050309317768551 0 -91.050309317768551 379.87917485299477 0 0 0 0 75.444632946468118 -67.230021889714408 0 -67.230021889714408 441.80369914331095 0 0 0 0 93.244199052301155 -89.256248966943531 0 -89.256248966943531 270.30946799798403 0 0 0 0 119.3062958300668 -18.68242392702814 0 -18.68242392702814 81.766693167199264 0 0 0 0 5.3757217043391847 70.996419377734128 0 70.996419377734128 127.14829512083816 0 0 0 0 59.195887492246356 4.4275126742904831 0 4.4275126742904831 183.37657538978965 0 0 0 0 40.967962111087218 -48.264448351168539 0 -48.264448351168539 288.50347933133526 0 0 0 0 1.6899620079450415 -44.614852242259076 0 -44.614852242259076 151.07586389140488 0 0 0 0 86.206677982117526 -9.7122351828875253 0 -9.7122351828875253 323.66745919048572 0 0 0 0 183.1639792778717 -77.240279505669605 0 -77.240279505669605 156.89264739651117 0 0 0 0 180.96475149398975 -10.319827411411097 0 -10.319827411411097 397.41835548020026 0 0 0 0 51.970902193461498 -16.504166981237745 0 -16.504166981237745 2.2953559493124374 0 0 0 0 207.50426614934986 -66.033793450063968 0 -66.033793450063968 216.19086821208475 0 0 0 0 164.86185956650729 -137.05284485383891 0 -137.05284485383891 22.425417748294421 0 0 0 0 -21.794358530720572 -9.5514744460985384 0 -9.5514744460985384 27.888017827167843 0 0 0 0 -9.8167370681840112 16.946814778813859 0 16.946814778813859 88.19033529603621 0 0 0 0 69.513072359650323 -140.81467894289381 0 -140.81467894289381 249.05897760280277 0 0 0 0 57.757837236385967 -189.71363323082915 0 -189.71363323082915 160.20795075478964 0 0 0 0 -0.48139495189220582 -5.2834773348681665 0 -5.2834773348681665 9.5215525862226968 0 0 0 0 -58.753754102061976 28.460575635290297 0 28.460575635290297 50.511382672848413 0 0 0 0 -27.901728233402537 -3.6744355150585761 0 -3.6744355150585761 46.403879686906294 0 0 0 0 -31.476099562203849 -18.045810948458453 0 -18.045810948458453 18.492818576315528 0 0 0 0 1.766294005869895 3.346944169854396 0 3.346944169854396 112.19486373605832 0 0 0 0 -65.280143306506488 -67.53413748236926 0 -67.53413748236926 93.982018010123284 0 0 0 0 -77.893628874289789 -9.9855174721888034 0 -9.9855174721888034 152.05233787719044 0 0 0 0 -18.52839462916517 2.016027325515509 0 2.016027325515509 68.056896354817837 0 0 0 0 106.25545175456591 76.418147889318789 0 76.418147889318789 -89.085101150893024 0 0 0 0 109.45041350100928 -152.46588109458389 0 -152.46588109458389 112.96717390645063 0 0 0 0 33.364925413277085 -12.80812774975206 0 -12.80812774975206 -8.5872910359567243 0 0 0 0 -156.29608779842238 -98.735791030660039 0 -98.735791030660039 223.78681077445799 0 0 0 0 -6.4160505501547611 13.100343338296923 0 13.100343338296923 64.914932959697239 0 0 0 0 -424.77348052189245 87.300190236477647 0 87.300190236477647 295.96993809550622 0 0 0 0 -670.62666860289573 421.43190712841169 0 421.43190712841169 -98.663301289081573 0 0 0 0 -4.3731758077219638 -68.143840590542823 0 -68.143840590542823 63.834783747806796 0 0 0 0 -4.3210397802340594 -71.586713158829298 0 -71.586713158829298 42.376247958280146 0 0 0 0 -8.4246171087077073 -46.953513690872569 0 -46.953513690872569 44.912638875830453 0 0 0 0 377.36339111675261 -287.08911133881338 0 -287.08911133881338 132.76484313646506 0 0 0 0 0.22900757518325676 -1.2062634989830272 0 -1.2062634989830272 6.2817501256322998 0 0 0 0 -387.40251015291778 -189.28688453516224 0 -189.28688453516224 534.04263941926183 0 0 0 0 -71.406866424871623 489.12127834029525 0 489.12127834029525 -59.698361194594327 0 0 0 0 13.758349587012447 -101.90680701458859 0 -101.90680701458859 93.80731163744349 0 0 0 0 0.81288420757209678 -83.335728865655256 0 -83.335728865655256 82.386121530602395 0 0 0 0 9.1150392294114102 10.247273944813813 0 10.247273944813813 36.137041978576633 0 0 0 0 -370.53815406824378 217.71844529906957 0 217.71844529906957 -44.176213198457845 0 0 0 0 -49.002773235436848 41.036271116726311 0 41.036271116726311 156.34768246013846 0 0 0 0 -2.8553382434556163 0.55301166502883348 0 0.55301166502883348 11.891935693996615 0 0 0 0 88.186544284888782 -70.325872948453252 0 -70.325872948453252 77.069481576152612 0 0 0 0 72.585876222198522 -120.20627569138014 0 -120.20627569138014 209.46653488976881 0 0 0 0 59.373967426678064 -133.35326066234848 0 -133.35326066234848 317.500537898537 0 0 0 0 29.048173451739785 -130.20941203032999 0 -130.20941203032999 331.82086360243557 0 0 0 0 113.95326025362601 -200.81821640975977 0 -200.81821640975977 273.73596068896586 0 0 0 0 107.88615186692209 -188.61223763728412 0 -188.61223763728412 300.91943282559805 0 0 0 0 179.7131879758208 -250.10459311772138 0 -250.10459311772138 310.43326730327681 0 0 0 0 4.1726008758262463 10.481088485055793 0 10.481088485055793 20.144252217771339 0 0 0 0 42.690702759273563 -223.34691223064146 0 -223.34691223064146 405.92638882501342 0 0 0 0 76.517582653939826 -213.28412003337871 0 -213.28412003337871 341.17040743145481 0 0 0 0 109.30247383022925 -249.59403304152511 0 -249.59403304152511 388.98780866969173 0 0 0 0 86.744852493911367 -261.15806523823267 0 -261.15806523823267 419.98712952312053 0 0 0 0 74.848495655254055 19.506267321337873 0 19.506267321337873 -59.390290399489459 0 0 0 0 43.429559354210141 -59.667150733293965 0 -59.667150733293965 425.71425207311063 0 0 0 0 -1.3619138680161855 -1.1037439537865055 0 -1.1037439537865055 -0.54280163613060495 0 0 0 0 136.77026200595628 80.595009363936697 0 80.595009363936697 -33.253039001589059 0 0 0 0 -90.777666888457588 26.230178932200943 0 26.230178932200943 186.36257103570097 0 0 0 0 2.5930455227207858 -87.395620491610316 0 -87.395620491610316 181.43334660267283 0 0 0 0 -91.567486223099493 124.59933460827762 0 124.59933460827762 85.409623306361027 0 0 0 0 117.25395698743738 -267.38366163321734 0 -267.38366163321734 -58.719364918812062 0 0 0 0 3.859961275065229 10.464407611775542 0 10.464407611775542 23.881604031952747 0 0 0 0 -4.9507263208672612 -106.32980589730141 0 -106.32980589730141 102.64927743267981 0 0 0 0 162.29697688507866 -154.76811569384517 0 -154.76811569384517 -222.04285534397059 0 0 0 0 160.55452731341893 -109.61318752704028 0 -109.61318752704028 96.821704990774379 0 0 0 0 310.02633315468836 -170.86301621720122 0 -170.86301621720122 26.512503429948993 0 0 0 0 243.42711024101163 -163.79783697092353 0 -163.79783697092353 26.382708205452218 0 0 0 0 113.57771372648227 -262.92857826424188 0 -262.92857826424188 40.832744744955562 0 0 0 0 167.92232891614049 -101.63583510468015 0 -101.63583510468015 70.344531056809501 0 0 0 0 333.4644433620158 -136.43981756499488 0 -136.43981756499488 10.022254342708038 0 0 0 0 -521.87054501188959 364.20316333754454 0 364.20316333754454 563.03902114657103 0 0 0 0 338.34754462071442 -189.08759545423527 0 -189.08759545423527 401.63894300768152 0 0 0 0 386.72066978653129 -145.78003311897919 0 -145.78003311897919 438.2755521443105 0 0 0 0 422.0528687946379 64.68824172411405 0 64.68824172411405 331.25498484174022 0 0 0 0 23.488851163319911 136.76004539177529 0 136.76004539177529 -116.1545091279113 0 0 0 0 -0.61700014167502104 -37.367277669778559 0 -37.367277669778559 421.11962206821772 0 0 0 0 -69.291893139357853 -18.402592116148298 0 -18.402592116148298 85.086166014472838 0 0 0 0 4.7907603409166404 11.702788642143787 0 11.702788642143787 23.126751624121141 0 0 0 0 101.67176984337266 -296.3808228198468 0 -296.3808228198468 512.40569659692119 0 0 0 0 -3.6174755470105433 -3.2616468484273042 0 -3.2616468484273042 0.64930623210324256 0 0 0 0 98.610574094802985 -316.73930220974034 0 -316.73930220974034 475.13961090825615 0 0 0 0 66.555710226398332 -242.17182296230749 0 -242.17182296230749 455.90648043832334 0 0 0 0 68.044073922172117 -248.48193504257324 0 -248.48193504257324 447.11132980842376 0 0 0 0 65.776286132553651 -217.09958585884306 0 -217.09958585884306 479.79055941997649 0 0 0 0 60.045933710823192 -183.47352458458045 0 -183.47352458458045 397.87850265284942 0 0 0 0 107.49427303257471 -255.63135721732397 0 -255.63135721732397 543.10111722990405 0 0 0 0 107.49427303260472 -255.63135721726576 0 -255.63135721726576 543.10111723007867 0 0 0 0 107.49427303261837 -255.63135721726576 0 -255.63135721726576 543.10111722990405 0 0 0 0 92.865054102237082 -278.77417840290582 0 -278.77417840290582 506.72756978677353 0 0 0 0 89.24499270344586 -204.266072892191 0 -204.266072892191 485.8603119222098 0 0 0 0 145.95807308570511 -217.55738962098258 0 -217.55738962098258 556.50206360040465 0 0 0 0 114.33773583612947 -249.81451123271836 0 -249.81451123271836 529.56633287550358 0 0 0 0 164.79001792730287 -267.22262567968573 0 -267.22262567968573 580.7119221604662 0 0 0 0 194.05323022349148 -259.59332648152485 0 -259.59332648152485 525.17934147489723 0 0 0 0 3.2749896586244724 4.0674051485030986 0 4.0674051485030986 6.2561684148611505 0 0 0 0 218.33668691751336 -248.27618491349858 0 -248.27618491349858 547.03859264950734 0 0 0 0 216.41535432960302 -268.06807613907949 0 -268.06807613907949 595.39692544459831 0 0 0 0 188.22995833722507 -258.31862428638851 0 -258.31862428638851 524.7473930643464 0 0 0 0 219.96730850967651 -259.53510313370498 0 -259.53510313370498 557.93516888073646 0 0 0 0 191.38360423796075 -275.85907474835403 0 -275.85907474835403 585.38154623642913 0 0 0 0 314.49300359526387 -257.21487066079862 0 -257.21487066079862 525.21977828031595 0 0 0 0 451.27641700688491 -353.39730376013904 0 -353.39730376013904 517.24723041360267 0 0 0 0 316.88624201156563 -298.95796361559769 0 -298.95796361559769 526.94339902048523 0 0 0 0 322.31042057149534 -281.97231612930773 0 -281.97231612930773 554.38523218524642 0 0 0 0 459.12814953107772 -324.63247565983329 0 -324.63247565983329 525.38579784403555 0 0 0 0 267.79185723092723 -326.20560929534258 0 -326.20560929534258 604.57677442487329 0 0 0 0 280.6726449186599 -320.03127230505925 0 -320.03127230505925 590.42907737079076 0 0 0 0 429.15685069663141 -365.2218103321502 0 -365.2218103321502 557.93025764625054 0 0 0 0 371.8499059419737 -443.86437462049071 0 -443.86437462049071 637.09653792891186 0 0 0 0 63.587818475118866 393.06905115719564 0 393.06905115719564 -1413.3039214463643 0 0 0 0 -646.73489374175597 -211.91372084400427 0 -211.91372084400427 1476.7274182381225 0 0 0 0 4.4642656038577115 611.49034077147371 0 611.49034077147371 -1308.9214168452891 0 0 0 0 388.78843798654378 -641.17788976653537 0 -641.17788976653537 1134.5197654715066 0 0 0 0 4.3693587206016478 5.1411864108043517 0 5.1411864108043517 5.7455130202293958 0 0 0 0 -7.059216333463155 431.0155807959236 0 431.0155807959236 -1138.6359033082554 0 0 0 0 474.451960911181 -517.36064687774342 0 -517.36064687774342 604.30811546828772 0 0 0 0 460.32097220245782 -636.54818600260478 0 -636.54818600260478 904.1733575764265 0 0 0 0 405.20784313397144 -13.59292828296384 0 -13.59292828296384 68.688584309595171 0 0 0 0 814.07253927205488 -520.97582098381463 0 -520.97582098381463 258.84649761735636 0 0 0 0 534.99949480798637 -471.07472725557454 0 -471.07472725557454 796.33568812783233 0 0 0 0 455.45896476178291 -344.39673868953105 0 -344.39673868953105 728.99513365056919 0 0 0 0 599.77723283456226 -233.98113963807191 0 -233.98113963807191 175.26224987079331 0 0 0 0 330.78852106344652 -41.514873162759613 0 -41.514873162759613 113.55071853997651 0 0 0 0 318.98428824822304 -24.098497889237478 0 -24.098497889237478 280.16078257390109 0 0 0 0 398.95313943895849 -139.50621160255105 0 -139.50621160255105 307.05292560643147 0 0 0 0 500.69675647199051 -218.59205814197776 0 -218.59205814197776 302.81596364761936 0 0 0 0 293.46848092200946 -100.10516037193156 0 -100.10516037193156 1062.7208799222899 0 0 0 0 310.75770160636944 -178.80400654739788 0 -178.80400654739788 56.819069499422767 0 0 0 0 494.09847845645879 -115.53107131397701 0 -115.53107131397701 30.50140201333852 0 0 0 0 377.74787356671334 -89.958912216388853 0 -89.958912216388853 1.6112296506762505 0 0 0 0 221.69463085850066 -114.40375601415872 0 -114.40375601415872 19.671447028602415 0 0 0 0 225.0071364906097 8.1261850280207 0 8.1261850280207 142.31150963285472 0 0 0 0 307.13486015834815 -130.16889301111223 0 -130.16889301111223 63.093858257365355 0 0 0 0 456.23658396343103 -65.806210606075183 0 -65.806210606075183 88.415737869276199 0 0 0 0 66.496268848736236 42.054995272257656 0 42.054995272257656 129.95755227051268 0 0 0 0 150.96778855635375 -59.495107435810496 0 -59.495107435810496 118.69925521556434 0 0 0 0 224.34366642887267 -83.419034826074494 0 -83.419034826074494 -96.278540177074319 0 0 0 0 1.2753097444508805 0.39766479072893901 0 0.39766479072893901 -1.2062611915843036 0 0 0 0 19.509518463990844 -20.111689863282663 0 -20.111689863282663 140.20354964806029 0 0 0 0 27.449015155718769 62.664994644595936 0 62.664994644595936 73.355874953937018 0 0 0 0 -1.51828091952666 9.9580963745538611 0 9.9580963745538611 21.303278683692042 0 0 0 0 -10.717863038007295 38.719299935900381 0 38.719299935900381 73.104627921777137 0 0 0 0 -1.0449330218416275 1.60202142563503 0 1.60202142563503 4.9229706736297487 0 0 0 0 -4.7170493823343804 31.193862908501615 0 31.193862908501615 70.699780543931411 0 0 0 0 -7.590879545055941 19.225669145103893 0 19.225669145103893 130.67182206039433 0 0 0 0 7.1444726356734236 -17.577509711969469 0 -17.577509711969469 166.593031377226 0 0 0 0 4.1043873800003894 -44.244153930222637 0 -44.244153930222637 73.739758732284827 0 0 0 0 2.6080881479189202 5.2591160943602517 0 5.2591160943602517 66.296745506842854 0 0 0 0 83.144270186926406 -51.913293386729492 0 -51.913293386729492 98.580576809079503 0 0 0 0 101.36273479209831 8.033168357280374 0 8.033168357280374 227.84637713407574 0 0 0 0 81.859520529226302 -0.55892210332967807 0 -0.55892210332967807 54.50447965413332 0 0 0 0 119.64406611061077 49.344552857248345 0 49.344552857248345 89.246192628503195 0 0 0 0 -2.5157003122598969 0.052246553197505818 0 0.052246553197505818 0.48889068226131371 0 0 0 0 16.726583195367311 -18.335870974951831 0 -18.335870974951831 81.653056039736839 0 0 0 0 -1.3642420673932065 -46.016997121849272 0 -46.016997121849272 79.676947730549728 0 0 0 0 -8.79828297201888 -89.844786475993715 0 -89.844786475993715 226.33133431141323 0 0 0 0 5.1928589602778743 -153.14204301459904 0 -153.14204301459904 400.81488253278076 0 0 0 0 1.3026868337289044 2.9614930559897132 0 2.9614930559897132 8.0248234948077766 0 0 0 0 -129.23349691940803 48.098652806955215 0 48.098652806955215 95.048705808068917 0 0 0 0 42.771405939249689 189.04007973577245 0 189.04007973577245 -21.292525348369963 0 0 0 0 23.817614796300859 -9.0166055255322135 0 -9.0166055255322135 -70.513530631142203 0 0 0 0 6.6689190995705232 10.875512799349963 0 10.875512799349963 38.574950169568183 0 0 0 0 14.622973112899857 -42.909935704323289 0 -42.909935704323289 151.10811835523054 0 0 0 0 -0.015501633150875938 22.313186939449224 0 22.313186939449224 212.07277647757655 0 0 0 0 -41.942186113473603 7.0831268366091535 0 7.0831268366091535 329.26329627729137 0 0 0 0 -43.769958113706465 -22.986487292162792 0 -22.986487292162792 338.73419071067474 0 0 0 0 -39.5795663422589 26.247340625057404 0 26.247340625057404 335.84596912217012 0 0 0 0 -0.097371313333849907 61.840716122178222 0 61.840716122178222 367.8718979145051 0 0 0 0 -40.802008577698302 49.065617174181398 0 49.065617174181398 455.52541408730031 0 0 0 0 -53.752913598500868 81.285457370635413 0 81.285457370635413 412.27823676718981 0 0 0 0 -36.330710238454941 134.60055303280751 0 134.60055303280751 575.33620541161508 0 0 0 0 -56.947152725411655 -31.028604547296709 0 -31.028604547296709 503.08061920016189 0 0 0 0 -30.724551734502256 -18.805247770433198 0 -18.805247770433198 347.49833181703434 0 0 0 0 -0.54662778193187478 103.40613771090284 0 103.40613771090284 747.68796115722216 0 0 0 0 322.09462576554745 57.059450835171447 0 57.059450835171447 473.51896621717606 0 0 0 0 101.56593866459241 141.07315378256317 0 141.07315378256317 400.36579984741547 0 0 0 0 67.087031694051404 116.71649289864217 0 116.71649289864217 558.22099559020717 0 0 0 0 212.28957233314958 -116.61195276487706 0 -116.61195276487706 722.46011393479421 0 0 0 0 298.62557076747976 168.88111045435653 0 168.88111045435653 613.30854754203756 0 0 0 0 -115.50683491956352 392.66492234369434 0 392.66492234369434 699.52159407941508 0 0 0 0 -4.4009375299713156 -210.71602317827274 0 -210.71602317827274 648.44511200019042 0 0 0 0 340.61454583067251 323.18986273436167 0 323.18986273436167 145.11602220064378 0 0 0 0 -529.72294179203618 -176.4808381223047 0 -176.4808381223047 1079.9905794138976 0 0 0 0 0.52966941411894053 3.108393922496667 0 3.108393922496667 5.3090459795550373 0 0 0 0 -228.49497743540769 135.13869760084344 0 135.13869760084344 191.87556089820828 0 0 0 0 -559.22902011798237 -223.26916880659701 0 -223.26916880659701 228.4743071609264 0 0 0 0 -160.40807910117564 174.20976822653029 0 174.20976822653029 308.18117325294224 0 0 0 0 -269.80661214535837 132.30955493007059 0 132.30955493007059 300.8135715781973 0 0 0 0 -327.91067690812724 131.55425086902324 0 131.55425086902324 359.44829067854153 0 0 0 0 -183.83476861808504 -33.331219354120549 0 -33.331219354120549 417.91321113620143 0 0 0 0 -71.245145028271509 56.249345684227592 0 56.249345684227592 164.47922470699905 0 0 0 0 -225.96185994729922 70.452455880778871 0 70.452455880778871 163.51024804264307 0 0 0 0 11.73326243890557 191.10530672856112 0 191.10530672856112 86.935662712603516 0 0 0 0 -3.7737028042988641 78.478791746492789 0 78.478791746492789 -45.840330897666718 0 0 0 0 -43.499013262224082 67.594148052448872 0 67.594148052448872 -37.411316250363598 0 0 0 0 -11.108389315353179 45.773021347813483 0 45.773021347813483 -141.08348175993888 0 0 0 0 -180.60181737470975 198.03517629286216 0 198.03517629286216 -94.292139122939261 0 0 0 0 641.89117895730533 125.65801381242636 0 125.65801381242636 -395.0054442784749 0 0 0 0 -30.194128379921608 61.550580042239744 0 61.550580042239744 -17.452631820851821 0 0 0 0 -207.1987938110334 133.91149428093559 0 133.91149428093559 23.034822267029085 0 0 0 0 -34.923879525561574 132.46806906752681 0 132.46806906752681 -60.424078173855378 0 0 0 0 -190.58252043076294 183.40450812827476 0 183.40450812827476 126.99754141002632 0 0 0 0 0.92108516613822855 5.6441341922319559 0 5.6441341922319559 8.7070214487732756 0 0 0 0 -391.47875536654607 81.914017779832648 0 81.914017779832648 222.44543308728316 0 0 0 0 366.24087033669849 215.04084264262474 0 215.04084264262474 -135.72398933791555 0 0 0 0 0.7557496878316412 3.537383723047121 0 3.537383723047121 3.1260581921007429 0 0 0 0 -257.76560139260039 2.8786634989737649 0 2.8786634989737649 73.523411940012011 0 0 0 0 -137.13829493260505 99.777941578562604 0 99.777941578562604 125.03645856069852 0 0 0 0 -275.74372843700348 208.46277321566595 0 208.46277321566595 360.35670299052435 0 0 0 0 -65.846840112896189 64.370397604283426 0 64.370397604283426 -21.779518479619583 0 0 0 0 98.849173636033811 226.18421407286223 0 226.18421407286223 -48.470903346617888 0 0 0 0 -112.83352549645133 219.91112950657043 0 219.91112950657043 619.98109226820816 0 0 0 0 1.9873041255772508 3.1414610020303542 0 3.1414610020303542 7.4366836638114933 0 0 0 0 -42.231306082982314 -319.00990935951995 0 -319.00990935951995 931.7547091707529 0 0 0 0 513.88986929592693 -606.46707189469089 0 -606.46707189469089 633.64073125892901 0 0 0 0 514.87727894968521 335.59177716015256 0 335.59177716015256 335.17380902967852 0 0 0 0 202.65751224723462 -370.74557217770416 0 -370.74557217770416 556.29841998688062 0 0 0 0 174.069743036202 -270.52319987693045 0 -270.52319987693045 -29.632855438467232 0 0 0 0 101.81263239030795 31.401237308426062 0 31.401237308426062 168.52203268747689 0 0 0 0 154.06517034903527 187.31042043639172 0 187.31042043639172 -98.355372320686001 0 0 0 0 -34.617272508934718 81.129180792144325 0 81.129180792144325 416.37746412724664 0 0 0 0 -86.01095091017487 -50.290099995800119 0 -50.290099995800119 224.31043709284859 0 0 0 0 -88.805105969808437 -112.71714799997426 0 -112.71714799997426 149.69036215635424 0 0 0 0 40.740663812715297 -58.135414583397505 0 -58.135414583397505 -1.4497165059656254 0 0 0 0 -241.21325938859468 -23.245010893791914 0 -23.245010893791914 70.453110283589922 0 0 0 0 -43.283417571394921 -112.41187684518081 0 -112.41187684518081 43.637990203904337 0 0 0 0 2.6498590860637425 10.558729000612999 0 10.558729000612999 49.835394768188053 0 0 0 0 -30.19704601086125 27.729189468765981 0 27.729189468765981 43.944523272446531 0 0 0 0 33.589108522322931 -12.051730587965721 0 -12.051730587965721 21.3586539263124 0 0 0 0 1.8888778697559161 10.185790755299983 0 10.185790755299983 39.885377124412059 0 0 0 0 -423.37336352452644 110.76194053667859 0 110.76194053667859 367.83850697461457 0 0 0 0 -3.6029906472546571 41.075968062476022 0 41.075968062476022 11.809227793190075 0 0 0 0 -61.813120965722057 38.065185806452973 0 38.065185806452973 35.400458810836426 0 0 0 0 -44.705087779301138 -3.4676570083720435 0 -3.4676570083720435 38.324366001921589 0 0 0 0 2.0143190140695326 7.8419388084923796 0 7.8419388084923796 25.027694584383937 0 0 0 0 0.045842796283953324 30.532722464187827 0 30.532722464187827 58.447841522625822 0 0 0 0 -5.0273130802376826 15.206382431904785 0 15.206382431904785 41.815586162862019 0 0 0 0 -0.0067341494893984714 27.789800128226489 0 27.789800128226489 27.626844374859502 0 0 0 0 -10.249921282368142 29.322040256723994 0 29.322040256723994 34.324913647415087 0 0 0 0 -10.436076870953071 27.765885266980604 0 27.765885266980604 34.37415272720682 0 0 0 0 -9.1033734369225261 22.021689707036785 0 22.021689707036785 48.199701199235278 0 0 0 0 -0.0056174356328636092 21.516144797522429 0 21.516144797522429 37.694202929153107 0 0 0 0 -9.3877134475371076 17.287842438422103 0 17.287842438422103 49.183407231597812 0 0 0 0 -12.090899400084567 19.906915662635583 0 19.906915662635583 54.436246761222719 0 0 0 0 -9.3965189043142416 12.664148793952336 0 12.664148793952336 66.487151941430056 0 0 0 0 -10.619284613821995 15.969607743983943 0 15.969607743983943 61.630112205923069 0 0 0 0 -5.7594887047665928 16.564383540513518 0 16.564383540513518 48.785723744418647 0 0 0 0 -3.9649147016466486 -25.64615057977062 0 -25.64615057977062 36.865671949643001 0 0 0 0 -22.975476192478276 -5.9090865612166965 0 -5.9090865612166965 9.2768959376896447 0 0 0 0 -2.1747133759210686 14.006945253621993 0 14.006945253621993 56.399068637905259 0 0 0 0 -92.424456307312767 -22.709370982811379 0 -22.709370982811379 92.76479021034902 0 0 0 0 -8.4174583421718125 28.19479526435498 0 28.19479526435498 5.7910583495540777 0 0 0 0 -37.734012786976564 23.868354925747553 0 23.868354925747553 24.566625720748561 0 0 0 0 -28.676820676991156 36.821519634009746 0 36.821519634009746 25.336953261072722 0 0 0 0 13.907614266568089 65.337297343026876 0 65.337297343026876 44.127885408583097 0 0 0 0 12.339864944910353 19.337416475291661 0 19.337416475291661 8.6340065828844672 0 0 0 0 -0.016170475614279738 13.45046949771131 0 13.45046949771131 48.346266542415833 0 0 0 0 -2.7906494217288031 8.7703112381059327 0 8.7703112381059327 41.102010232949397 0 0 0 0 1.0638836487892986 -3.4722349329106805 0 -3.4722349329106805 10.075933868433026 0 0 0 0 -4.020615089893532 6.3277563247975195 0 6.3277563247975195 57.693112385568384 0 0 0 0 -8.6528029158996418 6.5717926308570895 0 6.5717926308570895 68.84946422093708 0 0 0 0 -38.078842521952652 22.169464397724823 0 22.169464397724823 46.4826157810312 0 0 0 0 -19.133516098382675 20.591749911386756 0 20.591749911386756 33.699869283731061 0 0 0 0 -64.615800636165659 27.834247379068984 0 27.834247379068984 45.561334021709627 0 0 0 0 -71.086126130569482 30.670553692645626 0 30.670553692645626 56.771737969000242 0 0 0 0 -37.519158163412158 46.105045357446215 0 46.105045357446215 56.205903957103146 0 0 0 0 -71.658095467677413 36.174925689658266 0 36.174925689658266 63.351597598593798 0 0 0 0 -68.974202123954456 27.208746973141388 0 27.208746973141388 48.890052050584927 0 0 0 0 1.5335094198665176 -16.856741121097002 0 -16.856741121097002 28.483478090609424 0 0 0 0 -7.1603020095976442 -4.9487553306869358 0 -4.9487553306869358 54.298966262241436 0 0 0 0 -18.285544656374622 -18.467592186832917 0 -18.467592186832917 65.003550500870915 0 0 0 0 0.031963318778376756 -5.3015149065940932 0 -5.3015149065940932 92.500774397165515 0 0 0 0 -113.87397949562978 -1.2166892714103597 0 -1.2166892714103597 78.700393525417894 0 0 0 0 -46.972443846404083 9.6855455755649018 0 9.6855455755649018 102.59499101596884 0 0 0 0 -1.4034622136682557 -12.293082874730597 0 -12.293082874730597 50.08426450511746 0 0 0 0 -4.9616179263597484 3.2435816061701104 0 3.2435816061701104 5.0289547154343381 0 0 0 0 -0.0034753458478569256 -4.0768528545813751 0 -4.0768528545813751 16.049746673699701 0 0 0 0 0.61556205865113278 -13.376645107789955 0 -13.376645107789955 36.113937453454128 0 0 0 0 -125.93353430247134 -27.629670670285122 0 -27.629670670285122 48.382605598693772 0 0 0 0 -131.00842706321635 15.361320727642578 0 15.361320727642578 128.48235341144027 0 0 0 0 -92.454810714972609 27.995147033921967 0 27.995147033921967 85.96414287557127 0 0 0 0 -99.633006062349523 0.10874531126319198 0 0.10874531126319198 52.411376021016622 0 0 0 0 -56.484120959340544 37.986881215743779 0 37.986881215743779 58.833444600721123 0 0 0 0 -52.891269705302761 58.214880327775973 0 58.214880327775973 95.472978743448039 0 0 0 0 -68.220654537687551 33.813122491636022 0 33.813122491636022 90.786743419084814 0 0 0 0 -5.4659724325367733 38.278700462135021 0 38.278700462135021 183.31216705057886 0 0 0 0 -15.23217624228937 76.258797671073808 0 76.258797671073808 115.7427647105651 0 0 0 0 -68.460741464385137 34.886525148926012 0 34.886525148926012 86.008437769662123 0 0 0 0 -77.372537488774697 44.295554565487691 0 44.295554565487691 81.392717617869494 0 0 0 0 -27.62788509106349 -29.8542822703821 0 -29.8542822703821 136.75311958915609 0 0 0 0 -133.08004792099018 -33.06816103374149 0 -33.06816103374149 85.750306634363369 0 0 0 0 -14.620733891430973 9.0771934026633971 0 9.0771934026633971 251.59002009686083 0 0 0 0 61.330896595611193 -169.13559880838147 0 -169.13559880838147 195.92480123125279 0 0 0 0 183.96969154963244 -141.34601485685562 0 -141.34601485685562 92.489483029981784 0 0 0 0 -235.84332374828136 -84.083922843630717 0 -84.083922843630717 157.50244466966615 0 0 0 0 43.158784656948228 -22.471450054501474 0 -22.471450054501474 -58.007034707305138 0 0 0 0 10.387747316140988 -19.222353287289636 0 -19.222353287289636 33.281914275338238 0 0 0 0 -250.8124935907108 -181.11082351749064 0 -181.11082351749064 -3.7779501468758099 0 0 0 0 -106.56044896671267 -123.40901455374478 0 -123.40901455374478 15.370165908563649 0 0 0 0 131.06099523265709 39.584133171600115 0 39.584133171600115 -0.26789043865574058 0 0 0 0 193.74414440329559 4.4703262859839015 0 4.4703262859839015 -71.611516928329365 0 0 0 0 0.0039190685965178268 -1.2513051102687314 0 -1.2513051102687314 -2.399002038539038 0 0 0 0 -36.960162091499456 -6.2759645716650994 0 -6.2759645716650994 86.544488040402939 0 0 0 0 7.9853972579225605 -19.704257813616437 0 -19.704257813616437 41.785443769994345 0 0 0 0 58.668063578662952 -79.829849992644085 0 -79.829849992644085 -7.566063825841411 0 0 0 0 2.2658654543014789 -4.1511786852336563 0 -4.1511786852336563 -0.31017729474257294 0 0 0 0 1.4557754845496775 -4.8694546333354083 0 -4.8694546333354083 5.5243976254714653 0 0 0 0 -192.78242333934395 -64.890617869634298 0 -64.890617869634298 78.409504694649513 0 0 0 0 -157.95463688773998 -10.618961846535967 0 -10.618961846535967 78.043002939972212 0 0 0 0 464.61988756998943 -429.80205927614588 0 -429.80205927614588 559.45943333185278 0 0 0 0 454.60454891367067 -115.16192534230504 0 -115.16192534230504 650.59566401875054 0 0 0 0 40.850975977584142 -347.08283693544945 0 -347.08283693544945 948.58785291299137 0 0 0 0 5.5662724643828998 -1.5108866679420885 0 -1.5108866679420885 0.81130263828781324 0 0 0 0 -151.86369728887621 -53.099752089554386 0 -53.099752089554386 274.7214950164489 0 0 0 0 405.35497520016861 -34.205560565689666 0 -34.205560565689666 -148.75460581107473 0 0 0 0 585.31766950662745 -356.58611591140652 0 -356.58611591140652 292.71480006651836 0 0 0 0 362.4633994371477 -388.9638900569189 0 -388.9638900569189 319.08068340877799 0 0 0 0 441.61178852464627 -340.96411699792952 0 -340.96411699792952 282.12463074010884 0 0 0 0 352.28381037845065 -336.94633737455297 0 -336.94633737455297 148.06968978314399 0 0 0 0 186.64107716004764 -264.78120250935899 0 -264.78120250935899 315.65080302477145 0 0 0 0 218.17494796943129 -206.29677109565091 0 -206.29677109565091 234.42829259810242 0 0 0 0 235.05573111315098 -299.898749197906 0 -299.898749197906 508.05111873405986 0 0 0 0 417.02322401597075 -255.84588654682011 0 -255.84588654682011 384.50680318745435 0 0 0 0 191.05474190835434 159.56507898907148 0 159.56507898907148 215.22667694967095 0 0 0 0 113.20337279190653 -209.99425455183518 0 -209.99425455183518 481.34739256100147 0 0 0 0 37.620446803153982 1.9491897289990447 0 1.9491897289990447 143.43589298982988 0 0 0 0 -32.839155254445359 -65.220542803923308 0 -65.220542803923308 448.20456957988063 0 0 0 0 -0.28662010760625578 -0.62137225110468108 0 -0.62137225110468108 -0.78473460366149084 0 0 0 0 -174.89956517938504 -12.380954060550721 0 -12.380954060550721 158.63533889976679 0 0 0 0 119.01235228465339 91.455271855305909 0 91.455271855305909 55.014883576914144 0 0 0 0 295.21943760098668 -140.95366769906104 0 -140.95366769906104 39.150203862329363 0 0 0 0 0.27321570995268818 0.30941347151005516 0 0.30941347151005516 3.2994104723401279 0 0 0 0 669.19833162119107 -451.73071179578437 0 -451.73071179578437 491.32838121753593 0 0 0 0 433.12018201893443 -258.08178178726666 0 -258.08178178726666 499.0335257632396 0 0 0 0 759.87668820448562 -197.28384026677668 0 -197.28384026677668 510.33808321604738 0 0 0 0 418.27060777319804 -459.86057322013062 0 -459.86057322013062 501.33750697107462 0 0 0 0 317.41831516761818 -297.47354069281937 0 -297.47354069281937 245.17742170415295 0 0 0 0 286.65205203298092 -251.7417965550485 0 -251.7417965550485 220.6150558105146 0 0 0 0 1.153879998574959 2.4391462832156208 0 2.4391462832156208 7.8136795165979152 0 0 0 0 96.948146305805949 -40.959934535312641 0 -40.959934535312641 93.967293509420415 0 0 0 0 195.42574986161924 -113.19191628311091 0 -113.19191628311091 10.238550068621407 0 0 0 0 56.712796690381538 -31.115998339235375 0 -31.115998339235375 62.643392501118797 0 0 0 0 151.32810198954826 -5.017091716908908 0 -5.017091716908908 -76.670781932392856 0 0 0 0 -95.955497062432642 31.41471957052272 0 31.41471957052272 26.189957590213453 0 0 0 0 78.301430656021694 12.617267876332335 0 12.617267876332335 -40.325314402281947 0 0 0 0 -0.19905105654292221 -0.90482268183512105 0 -0.90482268183512105 -4.2922590564043048 0 0 0 0 -22.098016559468135 1.1444071899259143 0 1.1444071899259143 -1.4954074347988353 0 0 0 0 10.59119394700565 19.937186481431127 0 19.937186481431127 8.5208418279689795 0 0 0 0 -1.7868427112812242 8.4790488291873771 0 8.4790488291873771 -18.203048561255855 0 0 0 0 -9.985916889396325 0.54159333439261559 0 0.54159333439261559 -0.084188646800981815 0 0 0 0 -0.98477694585279796 -0.98708404850830078 0 -0.98708404850830078 -9.8285492558463261 0 0 0 0 -42.127386269638635 23.517509227785922 0 23.517509227785922 -3.4862884851172566 0 0 0 0 -39.725772878050293 -73.002822273610036 0 -73.002822273610036 -165.51871066141757 0 0 0 0 -1.312610148837448 1.3607819698223445 0 1.3607819698223445 -1.3786973445941726 0 0 0 0 -18.18499589022607 -68.453980701837281 0 -68.453980701837281 61.127228662589914 0 0 0 0 72.699654944645147 -51.17755793055403 0 -51.17755793055403 0.046670091554915416 0 0 0 0 143.81426054459206 -89.848531705807545 0 -89.848531705807545 -20.131783141448977 0 0 0 0 122.74859415624815 -9.3820941758322078 0 -9.3820941758322078 -20.59325743545196 0 0 0 0 1.0723858674321036 -37.931633752603375 0 -37.931633752603375 -17.636542588188604 0 0 0 0 26.799624857650997 17.226530030628055 0 17.226530030628055 -37.405437625973718 0 0 0 0 -1.778023214821153 -0.96643930258107957 0 -0.96643930258107957 -2.4956462135147746 0 0 0 0 139.55044787077634 6.2520380418554851 0 6.2520380418554851 -26.285633694555145 0 0 0 0 118.70582944662283 -53.532714333236072 0 -53.532714333236072 -196.99029357575637 0 0 0 0 67.869682193817425 67.540691410271393 0 67.540691410271393 -35.726333068016174 0 0 0 0 2.2011746606896443 5.0525917875847455 0 5.0525917875847455 12.707719496204106 0 0 0 0 237.13341039399563 -183.00692415589219 0 -183.00692415589219 157.91387535303511 0 0 0 0 195.30508804338788 -146.14008002313494 0 -146.14008002313494 126.99160319667681 0 0 0 0 3.3732470808838118 8.0870435008869066 0 8.0870435008869066 18.45523961481851 0 0 0 0 162.26419705149252 -125.11337725067278 0 -125.11337725067278 134.65638978662173 0 0 0 0 141.94216199656682 -135.52458041610043 0 -135.52458041610043 143.50229943126033 0 0 0 0 198.23528085452904 -84.390933360235067 0 -84.390933360235067 183.27752913198492 0 0 0 0 -0.44778722317492736 0.043055504977331793 0 0.043055504977331793 1.3301784529793963 0 0 0 0 144.61304788228142 -147.74445695621125 0 -147.74445695621125 201.93600953309942 0 0 0 0 152.49442146838095 -155.57981292827208 0 -155.57981292827208 171.6868247181701 0 0 0 0 190.88506355067938 -169.76252995463074 0 -169.76252995463074 174.77561026214971 0 0 0 0 -0.4969217123359253 0.0051621940806967359 0 0.0051621940806967359 1.7133996543314822 0 0 0 0 113.04622355125186 -149.06170209529887 0 -149.06170209529887 239.14444795963936 0 0 0 0 183.05709211653482 -116.75371024293418 0 -116.75371024293418 176.37580219568918 0 0 0 0 110.70959343530934 -170.56702489316308 0 -170.56702489316308 272.57407879045786 0 0 0 0 165.22183567855723 -210.11936001271533 0 -210.11936001271533 262.74256724061524 0 0 0 0 2.9768529374252655 4.4531580517067084 0 4.4531580517067084 6.7904881266182144 0 0 0 0 109.25704332545456 -167.16647456064675 0 -167.16647456064675 236.99046534625359 0 0 0 0 127.18910899249397 -160.83637501678822 0 -160.83637501678822 208.24348168828874 0 0 0 0 262.32898223791045 -204.45439877339595 0 -204.45439877339595 187.57709194147537 0 0 0 0 -0.54604984028692771 -0.18885132598241228 0 -0.18885132598241228 1.3534594358454513 0 0 0 0 190.93614426492391 -170.00300672886078 0 -170.00300672886078 171.27464107898049 0 0 0 0 -28.281898867097425 -92.468266548617976 0 -92.468266548617976 -10.165113049755746 0 0 0 0 -153.80277227210604 -85.710935430102836 0 -85.710935430102836 191.39722014794825 0 0 0 0 -98.112322677663542 -21.596633940054744 0 -21.596633940054744 14.80402783419413 0 0 0 0 7.0881824608768511 -44.921835247074341 0 -44.921835247074341 -31.748387716317666 0 0 0 0 -1.7707018339590466 -3.7545218072066859 0 -3.7545218072066859 5.4601751585606451 0 0 0 0 -71.623291930293476 -97.604734957661094 0 -97.604734957661094 14.530494593520416 0 0 0 0 244.67209997452755 -118.13384655908885 0 -118.13384655908885 -79.528731144946505 0 0 0 0 -40.606268891893251 70.227864691216382 0 70.227864691216382 71.034712945107458 0 0 0 0 71.948980852038176 -123.93379002538495 0 -123.93379002538495 391.94764356440282 0 0 0 0 377.79296060605839 23.221325730468379 0 23.221325730468379 67.053697312210716 0 0 0 0 174.36772842517536 -50.742130079483104 0 -50.742130079483104 89.340594388268073 0 0 0 0 313.98965194002062 -101.71116733256349 0 -101.71116733256349 75.453026959265117 0 0 0 0 315.07890239177266 -103.62982304791876 0 -103.62982304791876 -16.139436992496485 0 0 0 0 182.06673149403224 -120.16840431862374 0 -120.16840431862374 478.29951328247262 0 0 0 0 1.0473532885210446 1.4833389813186102 0 1.4833389813186102 2.6040060387986728 0 0 0 0 15.141512443177362 -72.18098864179774 0 -72.18098864179774 77.570267144878017 0 0 0 0 22.770241048590577 -3.7976636685134508 0 -3.7976636685134508 -44.847994021518389 0 0 0 0 102.14590248594038 205.52419649203694 0 205.52419649203694 339.71910661330912 0 0 0 0 164.63536437368157 70.343068720598239 0 70.343068720598239 26.832563563593794 0 0 0 0 6.8508394688506087 79.700931974843115 0 79.700931974843115 181.05368937182357 0 0 0 0 3.1463192172323033 38.598598690390645 0 38.598598690390645 177.19326506646712 0 0 0 0 -60.219809008581706 46.670310470130062 0 46.670310470130062 237.50117887969827 0 0 0 0 -16.848689803257457 94.869182836733671 0 94.869182836733671 217.71371910686139 0 0 0 0 -34.254890876404716 84.787800507936481 0 84.787800507936481 237.49798590008868 0 0 0 0 -30.693708322327439 -74.276176944287727 0 -74.276176944287727 62.986401200967521 0 0 0 0 16.530131194337173 13.697817149150069 0 13.697817149150069 185.79932481114156 0 0 0 0 -6.0195942150828863 53.700751254149765 0 53.700751254149765 43.312457979076648 0 0 0 0 -1.6109989820447748 2.7418151492478557 0 2.7418151492478557 38.775909910239221 0 0 0 0 -18.263086547246758 -11.450753772624012 0 -11.450753772624012 212.73626248986693 0 0 0 0 -19.267452791551705 20.962135616049636 0 20.962135616049636 210.84845239158312 0 0 0 0 7.3899943793189777 -15.245653991398285 0 -15.245653991398285 155.91537890829204 0 0 0 0 2.2265475865237931 -17.374734558998171 0 -17.374734558998171 168.12731727059872 0 0 0 0 0.33094102925042534 -3.9335643404556322 0 -3.9335643404556322 166.61002023254969 0 0 0 0 9.9517011165680742 -29.62533557446659 0 -29.62533557446659 184.45170633064117 0 0 0 0 -0.28250101090407043 -3.8806155288257287 0 -3.8806155288257287 199.68184850179023 0 0 0 0 51.218988952688505 10.103395182552049 0 10.103395182552049 166.28617949600448 0 0 0 0 39.219429458616673 -26.133834432362164 0 -26.133834432362164 137.62067059804394 0 0 0 0 -17.123103844218349 -61.638648092150106 0 -61.638648092150106 151.32949530067526 0 0 0 0 32.783610014171245 76.942296893626917 0 76.942296893626917 240.45494052147114 0 0 0 0 -62.211856467555435 -68.427162913449138 0 -68.427162913449138 391.35929350375955 0 0 0 0 18.183306773294362 -36.896508007837838 0 -36.896508007837838 215.33281938028085 0 0 0 0 0.09329196003409379 -17.003664652922453 0 -17.003664652922453 207.59406064710129 0 0 0 0 19.290196628115382 54.903710576132653 0 54.903710576132653 229.81854665990977 0 0 0 0 9.8374415378759643 -4.1169760889578981 0 -4.1169760889578981 25.502158016738321 0 0 0 0 -61.053050645424719 -90.734810831658251 0 -90.734810831658251 78.445711061642214 0 0 0 0 8.834373850633364 -54.055767952716252 0 -54.055767952716252 114.4147835633012 0 0 0 0 13.749006511080893 34.741586834665213 0 34.741586834665213 157.74703555957967 0 0 0 0 -0.71895479670376794 50.048123938482703 0 50.048123938482703 55.036019222068127 0 0 0 0 0.21108614377311596 -4.2610789357868271 0 -4.2610789357868271 239.10873266294948 0 0 0 0 24.817951777195049 -43.816529404002722 0 -43.816529404002722 144.62821863920544 0 0 0 0 -7.4325913105208201 -13.624840061260329 0 -13.624840061260329 228.51296145437314 0 0 0 0 -1.6585226250767846 -52.059737199579104 0 -52.059737199579104 228.78818935252042 0 0 0 0 -6.1230750389920559 9.0024626085687487 0 9.0024626085687487 231.30742067605024 0 0 0 0 -3.204565069468174 22.29459888787278 0 22.29459888787278 268.46259554861172 0 0 0 0 -14.545762892621127 -16.206948756667771 0 -16.206948756667771 259.42750297715247 0 0 0 0 135.6997061120646 -165.23613665159064 0 -165.23613665159064 142.8098562968371 0 0 0 0 0.7885475984275212 2.724375173049765 0 2.724375173049765 5.9461978052141546 0 0 0 0 87.307212705770695 32.38187278409896 0 32.38187278409896 171.36798473718773 0 0 0 0 -28.224427025217686 -564.64267978822318 0 -564.64267978822318 565.53054687981785 0 0 0 0 95.013123251969887 -138.01743693419849 0 -138.01743693419849 291.84316978917195 0 0 0 0 87.755697946815218 19.748615778880776 0 19.748615778880776 489.92002109590248 0 0 0 0 151.69138752347607 -311.55401464590977 0 -311.55401464590977 635.19288447426607 0 0 0 0 155.7381098052968 -179.35805286936738 0 -179.35805286936738 216.50832620364963 0 0 0 0 120.54773414589141 -149.86414332080312 0 -149.86414332080312 295.12320846495277 0 0 0 0 150.12845594908489 -245.1168802927059 0 -245.1168802927059 287.88367062558245 0 0 0 0 861.4164088737889 574.23254626622656 0 574.23254626622656 1061.8073926481884 0 0 0 0 69.803834823212696 -182.65046330886253 0 -182.65046330886253 231.6345608025149 0 0 0 0 3.5255120846014725 5.7341009153521156 0 5.7341009153521156 9.2209211045512234 0 0 0 0 77.850914495660959 -125.38094229489798 0 -125.38094229489798 206.07386289931219 0 0 0 0 -177.99451109771599 -126.00411179573894 0 -126.00411179573894 777.27983354277967 0 0 0 0 -27.922045656645423 -212.54463335838227 0 -212.54463335838227 91.465887097037921 0 0 0 0 121.77500179585877 357.82930742213648 0 357.82930742213648 710.11602816857339 0 0 0 0 6.0073365425186918 -4.0055145643467398 0 -4.0055145643467398 1.2587785994006992 0 0 0 0 149.7789480079864 -1170.623123639918 0 -1170.623123639918 -987.35588785712025 0 0 0 0 544.5852158844416 -372.13872422348504 0 -372.13872422348504 -39.965514233103022 0 0 0 0 371.45371380318738 -29.638864039508917 0 -29.638864039508917 21.072717012284556 0 0 0 0 -76.041191695911039 -346.78426646892694 0 -346.78426646892694 97.239963888190687 0 0 0 0 -54.64111850926929 -162.23799893878459 0 -162.23799893878459 281.31736876249488 0 0 0 0 14.194992720828395 -72.437877355736418 0 -72.437877355736418 46.000456468347693 0 0 0 0 -30.369738584049628 -68.212684662212268 0 -68.212684662212268 -3.9510177812044276 0 0 0 0 -38.763886534221456 8.7580693553463789 0 8.7580693553463789 16.63468914529949 0 0 0 0 -159.9862120331909 47.921589271412813 0 47.921589271412813 113.71027901498019 0 0 0 0 -55.75555273532882 12.819333315186668 0 12.819333315186668 66.353117654405651 0 0 0 0 -57.790731565479291 -0.18224745655606966 0 -0.18224745655606966 20.429997093013526 0 0 0 0 -97.455031302736643 -48.281188075809041 0 -48.281188075809041 96.799276268160611 0 0 0 0 -4.1642522174169727 -5.8175332192642202 0 -5.8175332192642202 27.33152789684226 0 0 0 0 103.44850213021255 -55.624819783588464 0 -55.624819783588464 -177.79333210941695 0 0 0 0 -313.82962644776831 188.65321456046149 0 188.65321456046149 -414.55305466469144 0 0 0 0 -75.50600923994466 -112.50970272232007 0 -112.50970272232007 -140.13313053856837 0 0 0 0 40.333093497494701 -133.53954521819833 0 -133.53954521819833 347.77359399897978 0 0 0 0 20.451745400825985 -105.18414762986868 0 -105.18414762986868 337.32945473771542 0 0 0 0 37.647052630317376 -57.910115957078233 0 -57.910115957078233 251.38576561270747 0 0 0 0 18.504211963876514 -15.804503861436388 0 -15.804503861436388 260.67112916798214 0 0 0 0 163.7399861287995 -47.622342883289093 0 -47.622342883289093 205.97231245721923 0 0 0 0 143.10032210782811 -131.356421308883 0 -131.356421308883 283.53189764628769 0 0 0 0 112.97893732854209 -845.73164044692385 0 -845.73164044692385 680.60014936386142 0 0 0 0 185.58787684902882 17.722573913721135 0 17.722573913721135 263.45286556507926 0 0 0 0 5.9201760833893786 -18.2912858875643 0 -18.2912858875643 127.02817050873273 0 0 0 0 147.94257547511734 -331.67354293144308 0 -331.67354293144308 -77.923154894189793 0 0 0 0 9.1597300756020559 -36.125120457378216 0 -36.125120457378216 223.52772609371459 0 0 0 0 -118.36660883981494 75.765757408647914 0 75.765757408647914 316.80783832559973 0 0 0 0 5.6073505036202178 -0.67999443335759224 0 -0.67999443335759224 -0.0094096816782069936 0 0 0 0 -97.873724836543261 -13.165157814073609 0 -13.165157814073609 394.21651027818734 0 0 0 0 23.071617670090745 -14.332322064117761 0 -14.332322064117761 -310.51100765934098 0 0 0 0 -2.8136594816760407 157.20313672591874 0 157.20313672591874 -256.67330204273458 0 0 0 0 -23.975768245589279 -41.193295164877782 0 -41.193295164877782 263.11773218965391 0 0 0 0 -25.259544985954562 -47.745909472927451 0 -47.745909472927451 230.98776703426847 0 0 0 0 -77.956546974473895 -36.306581916869618 0 -36.306581916869618 286.67519306179747 0 0 0 0 264.30767174698303 -106.29618212424248 0 -106.29618212424248 50.24127161353681 0 0 0 0 -123.64588032994834 103.79821499543323 0 103.79821499543323 194.37115433949657 0 0 0 0 -72.818332263249431 139.37982993385231 0 139.37982993385231 177.84222878262517 0 0 0 0 -189.42552200654524 -362.79060180316083 0 -362.79060180316083 782.75731717579765 0 0 0 0 -135.39038117022048 -142.33766787831155 0 -142.33766787831155 372.72253603997524 0 0 0 0 -368.1117467517679 234.17140352368733 0 234.17140352368733 267.66315081572975 0 0 0 0 273.40724205134666 -336.00212926384484 0 -336.00212926384484 -49.686479344760301 0 0 0 0 -126.70098869951437 176.77298725483706 0 176.77298725483706 697.9535822563048 0 0 0 0 -60.276537736504281 107.99336870846309 0 107.99336870846309 439.07220649393275 0 0 0 0 -173.34665273116559 -40.158368014708685 0 -40.158368014708685 583.81583277113532 0 0 0 0 642.88147271974583 -213.99267771073937 0 -213.99267771073937 -31.31025662329921 0 0 0 0 -38.179581060614851 88.484285115759121 0 88.484285115759121 85.150761917335331 0 0 0 0 -108.11771997810956 -214.30359321046853 0 -214.30359321046853 257.70152470782341 0 0 0 0 19.623457550220337 -201.46065444549458 0 -201.46065444549458 249.69529230277112 0 0 0 0 10.518723598270121 -3.4472672601503405 0 -3.4472672601503405 1.0150837102788728 0 0 0 0 -0.37173012346448786 0.432117904861542 0 0.432117904861542 2.667111117796253 0 0 0 0 -22.885237743914331 -6.5553292420954676 0 -6.5553292420954676 -11.919964620836254 0 0 0 0 -9.9094101088076059 -22.976299450012448 0 -22.976299450012448 -3.8954850400041323 0 0 0 0 -29.600393468586844 -4.1445081370275147 0 -4.1445081370275147 17.652815946785267 0 0 0 0 0.057326878580694185 -2.5813682952443742 0 -2.5813682952443742 0.42779425199097343 0 0 0 0 -9.8646574142730969 -44.667788449820364 0 -44.667788449820364 -47.007516609781305 0 0 0 0 -14.283887151776526 -34.759203569818055 0 -34.759203569818055 -23.248784957948374 0 0 0 0 -44.06421389467323 -56.033382312190952 0 -56.033382312190952 -23.704468940388324 0 0 0 0 -21.925596926880644 -35.016553132612898 0 -35.016553132612898 20.300640912042581 0 0 0 0 -14.914512481114798 -54.260321484936867 0 -54.260321484936867 -23.602138271846343 0 0 0 0 -43.615312370793617 -38.812786111579044 0 -38.812786111579044 88.283467550761998 0 0 0 0 -42.852543737943051 49.440253914493951 0 49.440253914493951 24.921203576173866 0 0 0 0 -17.461393191296338 -32.141667026415234 0 -32.141667026415234 19.087731096311472 0 0 0 0 -27.877303339728314 4.3578408042376395 0 4.3578408042376395 58.413610742005403 0 0 0 0 -52.653033135036821 -0.96060168244002853 0 -0.96060168244002853 129.51230913493782 0 0 0 0 -53.388417228348771 60.839041535495198 0 60.839041535495198 187.89769858512591 0 0 0 0 -73.018845948141461 17.89088326820638 0 17.89088326820638 123.97806257547927 0 0 0 0 -34.372113162640744 -28.305825690331403 0 -28.305825690331403 130.31590278982185 0 0 0 0 -73.076671376477861 7.9474727812921628 0 7.9474727812921628 241.83947408897802 0 0 0 0 -37.296438944929832 -45.577498065744294 0 -45.577498065744294 231.17251429470889 0 0 0 0 23.291686022635986 -85.141287689504679 0 -85.141287689504679 238.0525140305399 0 0 0 0 8.0102069017611939 -61.844474660087144 0 -61.844474660087144 137.91095013040103 0 0 0 0 -22.226523888276461 -31.192824561592715 0 -31.192824561592715 192.73804453830235 0 0 0 0 0.86124122871660802 -63.409929117915453 0 -63.409929117915453 138.24888596509481 0 0 0 0 -26.051865642530174 -63.802268145693233 0 -63.802268145693233 73.948631718056276 0 0 0 0 -16.118082234554095 -24.68575111454993 0 -24.68575111454993 79.092291588807711 0 0 0 0 -37.278663636721831 -60.792887970659649 0 -60.792887970659649 137.93748919378413 0 0 0 0 -34.435581784524857 -24.793958981310425 0 -24.793958981310425 60.934433556161821 0 0 0 0 70.882184140205936 -17.295520180778112 0 -17.295520180778112 154.03194518745295 0 0 0 0 26.186036239652822 -4.5361783391417703 0 -4.5361783391417703 160.2893189457609 0 0 0 0 42.168185982634895 -38.009993042505812 0 -38.009993042505812 205.90786565726398 0 0 0 0 69.099760725364831 -43.679679586784914 0 -43.679679586784914 170.82793287793174 0 0 0 0 29.906378018386022 -22.015034219599329 0 -22.015034219599329 165.43281701710657 0 0 0 0 -9.652694343578105 -18.731323267855259 0 -18.731323267855259 122.4408730515861 0 0 0 0 36.901872669024669 -44.182872137389495 0 -44.182872137389495 132.59280658437638 0 0 0 0 16.448470414790791 -53.335192600818118 0 -53.335192600818118 81.320450834318763 0 0 0 0 24.096039701633345 -18.149531175353331 0 -18.149531175353331 127.1530880407372 0 0 0 0 31.359603019816859 -43.416108237128356 0 -43.416108237128356 132.58823610085892 0 0 0 0 124.26596146008887 -137.56849184376915 0 -137.56849184376915 -296.88318567871465 0 0 0 0 28.279704418810979 -40.40532754862943 0 -40.40532754862943 167.27168992592487 0 0 0 0 48.654062296489428 -82.832007376899128 0 -82.832007376899128 77.258776707632933 0 0 0 0 26.509321976365754 -56.763112598331645 0 -56.763112598331645 2.777394996053772 0 0 0 0 32.095652735879412 -27.097725484418334 0 -27.097725484418334 80.112133847607765 0 0 0 0 27.601194124828908 -91.176842837259755 0 -91.176842837259755 86.668980523332721 0 0 0 0 13.662888723583819 -28.492822558051557 0 -28.492822558051557 37.291285572544439 0 0 0 0 -14.158522064200952 -70.42919870033802 0 -70.42919870033802 35.257907985069323 0 0 0 0 11.173980652034516 -170.39034043450374 0 -170.39034043450374 -18.315661074266245 0 0 0 0 35.389138295224257 -109.58533137266932 0 -109.58533137266932 88.205903671972919 0 0 0 0 60.140641867377781 -308.81722570798593 0 -308.81722570798593 -4.0570427132915938 0 0 0 0 0.42058549592769623 -0.50389872147141546 0 -0.50389872147141546 0.50428890901393641 0 0 0 0 -35.510823029925632 -23.362782908137888 0 -23.362782908137888 -6.7990180657070596 0 0 0 0 -31.068047817296247 -70.988352937754826 0 -70.988352937754826 42.075560581855825 0 0 0 0 -34.185258563778916 -23.707828479338787 0 -23.707828479338787 21.673554202570813 0 0 0 0 9.9872577085079683 -76.841893524564512 0 -76.841893524564512 -58.196395879174815 0 0 0 0 61.165608063923173 -34.12963669851888 0 -34.12963669851888 -228.24798316328088 0 0 0 0 -25.981542570995771 20.350877491364372 0 20.350877491364372 -107.92733204794786 0 0 0 0 -74.28701798403381 -30.283800781748141 0 -30.283800781748141 -7.9403808164206566 0 0 0 0 405.22571304446546 -194.62321471024188 0 -194.62321471024188 83.709279379087093 0 0 0 0 -122.70990228454593 -68.712638227079879 0 -68.712638227079879 1042.9015848505805 0 0 0 0 -3.0375274554127962 -3.5065358602344929 0 -3.5065358602344929 -0.026837592486316453 0 0 0 0 89.343984833036984 73.398368218317046 0 73.398368218317046 -39.889990928175393 0 0 0 0 -106.15257780493266 99.7491019089357 0 99.7491019089357 1002.8921796788081 0 0 0 0 -27.961826064260549 -148.96622501398815 0 -148.96622501398815 163.20122327462013 0 0 0 0 -99.535719456634979 -145.20977540149397 0 -145.20977540149397 278.87810288494802 0 0 0 0 -61.689665687881643 -62.902615409198916 0 -62.902615409198916 324.64669328580203 0 0 0 0 -62.946312843669148 -75.235748823179165 0 -75.235748823179165 331.06344062880453 0 0 0 0 50.607082431307845 114.53065443701053 0 114.53065443701053 183.45605940343376 0 0 0 0 -117.22442875993693 8.6848407570832933 0 8.6848407570832933 411.72913855256047 0 0 0 0 197.47665107405646 -384.70940751089074 0 -384.70940751089074 454.33452419039895 0 0 0 0 -4.4856691650714957 0.94421766171268473 0 0.94421766171268473 3.9230063866291403 0 0 0 0 97.959012810536478 -157.72007937027956 0 -157.72007937027956 282.04012922828406 0 0 0 0 -191.84902272974432 45.901789941170136 0 45.901789941170136 393.47928438125018 0 0 0 0 -156.19626237844477 -158.81608848345786 0 -158.81608848345786 529.62636375780494 0 0 0 0 -60.939932807491232 -170.11470710556023 0 -170.11470710556023 257.77494019427104 0 0 0 0 13.93205968939526 -60.840395540464669 0 -60.840395540464669 314.16118901746813 0 0 0 0 85.308486622376449 -154.58732326159225 0 -154.58732326159225 268.11302909658116 0 0 0 0 -7.374201405090389 45.819396829931065 0 45.819396829931065 -22.489487663238833 0 0 0 0 -2.2211375343307802 -2.9751863300097341 0 -2.9751863300097341 1.7979504218995985 0 0 0 0 -0.84074028265647094 0.037308037941130578 0 0.037308037941130578 0.51376360728583848 0 0 0 0 -103.91578361074153 -75.229297783182119 0 -75.229297783182119 596.6837520931731 0 0 0 0 202.00717525750952 -184.99866128842405 0 -184.99866128842405 612.27143089078163 0 0 0 0 -14.816242441661387 -59.82627903464163 0 -59.82627903464163 111.41055671451613 0 0 0 0 6.6953306567784763 -46.234168746504182 0 -46.234168746504182 69.630736207590445 0 0 0 0 -7.512045243699049 -36.221572142139621 0 -36.221572142139621 12.397061904958434 0 0 0 0 10.069511073046037 -65.452967361256015 0 -65.452967361256015 183.00822537373097 0 0 0 0 8.6618648681693102 -63.882930086271699 0 -63.882930086271699 181.91920900171681 0 0 0 0 11.676231604519351 -66.788130579332005 0 -66.788130579332005 104.31304705243953 0 0 0 0 -5.4557631582270574 -93.936120225749619 0 -93.936120225749619 151.17100756146829 0 0 0 0 16.031800733762793 -79.3730804682491 0 -79.3730804682491 173.34636415665955 0 0 0 0 -3.5227272316383278 -45.902410120295826 0 -45.902410120295826 93.656264859651856 0 0 0 0 -16.19899761632746 -15.176203785122198 0 -15.176203785122198 23.674421701649763 0 0 0 0 -52.472671563192307 -75.867365672784217 0 -75.867365672784217 177.44459944678238 0 0 0 0 38.279806616356836 -32.03313180807163 0 -32.03313180807163 112.41933951608371 0 0 0 0 21.476201459130607 -101.12668876660609 0 -101.12668876660609 74.543047936516814 0 0 0 0 30.001840485898356 -85.425078401851351 0 -85.425078401851351 166.74239677343576 0 0 0 0 -34.521378863821155 -44.555360723250487 0 -44.555360723250487 167.74327116404311 0 0 0 0 31.637450136090592 -33.255089333582873 0 -33.255089333582873 141.06509884304251 0 0 0 0 43.811782245784343 -30.967061943010776 0 -30.967061943010776 140.97911853891856 0 0 0 0 65.603385660935601 -118.30988346184313 0 -118.30988346184313 147.1463514114148 0 0 0 0 -16.086303077825505 -63.529692287920625 0 -63.529692287920625 365.64191597246827 0 0 0 0 -9.136531270798276 -6.6408344830225872 0 -6.6408344830225872 -5.5194025366851491 0 0 0 0 252.68713087469951 -522.61334825769882 0 -522.61334825769882 321.08080602015252 0 0 0 0 -18.885860681091344 -233.4939517886487 0 -233.4939517886487 427.94525751573383 0 0 0 0 29.046812091002039 0.70366640013708093 0 0.70366640013708093 214.99809399501828 0 0 0 0 53.886802172374701 -1.157465192489326 0 -1.157465192489326 47.010779304651805 0 0 0 0 -25.772380422131164 -89.833008569050435 0 -89.833008569050435 170.85346461099107 0 0 0 0 -17.044589416788767 223.56228058593115 0 223.56228058593115 -278.19123775968546 0 0 0 0 -94.657301318185091 -72.684061908639706 0 -72.684061908639706 401.44543417880777 0 0 0 0 -5.6871404765471247 1.6507448517624539 0 1.6507448517624539 0.82037689197264285 0 0 0 0 -1.580192556097245 16.464598315651529 0 16.464598315651529 286.27486541539838 0 0 0 0 9.0620789481719228 -133.36349963803582 0 -133.36349963803582 387.80719117668923 0 0 0 0 -0.16997000839523935 249.59332014760002 0 249.59332014760002 -456.33284963410915 0 0 0 0 -1.5330343024624442 0.38085538156735765 0 0.38085538156735765 0.22496480526088192 0 0 0 0 -27.109743089259496 -106.62428812426515 0 -106.62428812426515 149.45248061652819 0 0 0 0 -18.058139318775829 37.899801336352539 0 37.899801336352539 253.39660867868952 0 0 0 0 -15.188282880175151 55.306124037218069 0 55.306124037218069 -50.755326443206286 0 0 0 0 -7.913502779050873 -89.337668156891596 0 -89.337668156891596 1.9646093654446304 0 0 0 0 116.28749207228771 93.565493163456267 0 93.565493163456267 -164.49553593965902 0 0 0 0 137.80143604367925 19.401449476245034 0 19.401449476245034 -113.18975419205162 0 0 0 0 18.167727497182511 -306.57191875889112 0 -306.57191875889112 1541.7231107194966 0 0 0 0 396.92102815460703 685.12409457690592 0 685.12409457690592 1180.0234649229678 0 0 0 0 121.25441008844507 174.42893356443892 0 174.42893356443892 180.1297602817649 0 0 0 0 272.3084707656119 198.10771204810953 0 198.10771204810953 179.01360026489419 0 0 0 0 -100.85054162329061 224.61174663725615 0 224.61174663725615 185.69757655155263 0 0 0 0 -83.008288064338785 71.243315668842115 0 71.243315668842115 240.46738406950317 0 0 0 0 120.83765755315926 -267.81426100687531 0 -267.81426100687531 673.83663416441232 0 0 0 0 -5.3874944948619259 312.35028976496687 0 312.35028976496687 799.47088847737177 0 0 0 0 -375.81652234067587 -118.355042747673 0 -118.355042747673 544.14293629280337 0 0 0 0 -158.45386141210656 54.361835050724039 0 54.361835050724039 545.34245847432339 0 0 0 0 -83.853565801987259 145.23022583095189 0 145.23022583095189 177.94873329554684 0 0 0 0 -130.89968165387177 1.2475574695708929 0 1.2475574695708929 158.72093330869393 0 0 0 0 15.835006067801942 87.104889895043016 0 87.104889895043016 98.395802874510991 0 0 0 0 37.4063464257124 -447.21934322829475 0 -447.21934322829475 801.40448160884443 0 0 0 0 -165.41350271798797 -30.367072615641518 0 -30.367072615641518 710.51243838053779 0 0 0 0 139.26084312353089 -604.78507581804297 0 -604.78507581804297 92.962561022082809 0 0 0 0 -90.365980960102661 448.49067185875901 0 448.49067185875901 654.32624854185269 0 0 0 0 -1.8399930772466311 0.39734710391729777 0 0.39734710391729777 2.5018087093740178 0 0 0 0 -430.11157676269681 413.71770568852935 0 413.71770568852935 1.2115615986112971 0 0 0 0 -1.3749639459769001 0.72759481812515503 0 0.72759481812515503 4.1912824287937269 0 0 0 0 -323.35694165334741 154.40930785131059 0 154.40930785131059 -155.93403449089237 0 0 0 0 -78.258212940274234 117.92188509120024 0 117.92188509120024 -7.9522459096478997 0 0 0 0 -466.67890394856954 161.68571137197432 0 161.68571137197432 477.04153357629548 0 0 0 0 -439.03160582308351 246.26778194853864 0 246.26778194853864 440.26279136375524 0 0 0 0 -78.450444460797826 10.890592014930007 0 10.890592014930007 357.53050622562296 0 0 0 0 -1.5451008177391921 3.3741449356745647 0 3.3741449356745647 7.123382387478415 0 0 0 0 -126.23173153416363 -76.615326965426902 0 -76.615326965426902 382.56521606497699 0 0 0 0 -69.398819126700118 -172.2154372869918 0 -172.2154372869918 533.86877611929958 0 0 0 0 -176.24182150612114 -438.68522085994482 0 -438.68522085994482 625.90847322894842 0 0 0 0 382.45633385954557 -806.55940345246199 0 -806.55940345246199 501.76154854423658 0 0 0 0 399.33346570393712 604.76114856244385 0 604.76114856244385 227.96191848878334 0 0 0 0 0.71351016587025029 1.9874583659922251 0 1.9874583659922251 3.7894164520397169 0 0 0 0 -59.119101953013399 36.00949994000257 0 36.00949994000257 57.508039824853768 0 0 0 0 -8.0808502194704488 -3.459992579104437 0 -3.459992579104437 16.305374053488777 0 0 0 0 -133.69510726557155 27.95793847078312 0 27.95793847078312 22.991642360027981 0 0 0 0 -54.791085779935656 -0.19646131412446266 0 -0.19646131412446266 54.022421737550758 0 0 0 0 -110.62526260044702 58.298512827714148 0 58.298512827714148 84.897556704847375 0 0 0 0 -2.8785284820624186 6.5955477008991465 0 6.5955477008991465 19.076643568078055 0 0 0 0 -16.853786815849919 -5.6256060983209579 0 -5.6256060983209579 1.7599960216635679 0 0 0 0 -59.481552932174054 -128.78535462512446 0 -128.78535462512446 328.693068826542 0 0 0 0 -11.662194353962214 1.8907456626002102 0 1.8907456626002102 5.0884151729523523 0 0 0 0 -14.118427035672312 127.80766643559036 0 127.80766643559036 -152.44001818932156 0 0 0 0 -69.731551869905189 9.5450692469312344 0 9.5450692469312344 -5.7055346087290673 0 0 0 0 -117.95290470877285 135.8814596244265 0 135.8814596244265 64.960337550961412 0 0 0 0 -42.110855545667619 -34.442466401160345 0 -34.442466401160345 23.997519339289283 0 0 0 0 -46.581467047672504 -9.0594068645441439 0 -9.0594068645441439 137.30206599712255 0 0 0 0 -74.255513261298802 -89.690824911012896 0 -89.690824911012896 415.4269913671742 0 0 0 0 232.78671071199096 -185.62121932576702 0 -185.62121932576702 316.65674622690858 0 0 0 0 -17.924030040872822 -108.6283625664073 0 -108.6283625664073 483.16429946701101 0 0 0 0 0.95873871114214637 40.200402579789625 0 40.200402579789625 184.12913046096219 0 0 0 0 -55.742623757501633 -59.23865619184653 0 -59.23865619184653 193.25509493287245 0 0 0 0 -69.6583417672732 -36.5117193240294 0 -36.5117193240294 223.46771135467134 0 0 0 0 -76.322662366728309 85.705537882742647 0 85.705537882742647 119.87485743915022 0 0 0 0 -81.316109331884917 -96.163930909628107 0 -96.163930909628107 356.13156349016936 0 0 0 0 -62.025341383034771 -213.83627304259426 0 -213.83627304259426 300.02537801805011 0 0 0 0 74.676808590063047 -32.193569435316022 0 -32.193569435316022 411.23037818567536 0 0 0 0 -65.857474033180651 -195.87923651220626 0 -195.87923651220626 439.85088879874638 0 0 0 0 -4.0118516041178198 0.77897059433718141 0 0.77897059433718141 4.3068187054133773 0 0 0 0 211.32285475504094 -283.20672903580271 0 -283.20672903580271 412.4529508909327 0 0 0 0 16.888409803812579 -187.43014627777666 0 -187.43014627777666 -12.680882659144117 0 0 0 0 55.766169859002389 -92.817179796169512 0 -92.817179796169512 209.07536640271564 0 0 0 0 -36.144609455927025 -90.307319211955473 0 -90.307319211955473 152.31778255321115 0 0 0 0 1.3314947390266525 -158.11558801938008 0 -158.11558801938008 210.73242915775336 0 0 0 0 0.8256540298114361 3.5237707540502612 0 3.5237707540502612 13.278859112767975 0 0 0 0 -66.935789578252866 -49.142708286624838 0 -49.142708286624838 36.73902280589391 0 0 0 0 24.831046257824482 14.417584691305819 0 14.417584691305819 -35.602192829857813 0 0 0 0 0.11069428157397532 0.96173264579275042 0 0.96173264579275042 5.2607131082658611 0 0 0 0 245.80695820341555 -436.21960961904915 0 -436.21960961904915 754.85002678590536 0 0 0 0 8.9222703929234513 258.91501115282153 0 258.91501115282153 158.81838623280055 0 0 0 0 -117.70930168047562 70.510920025939413 0 70.510920025939413 246.95951772746048 0 0 0 0 -86.673458414108154 280.22105232522881 0 280.22105232522881 607.82977967416809 0 0 0 0 -112.23373667774746 9.6063415486351005 0 9.6063415486351005 312.24548590411723 0 0 0 0 -146.22799868767515 12.046647799317725 0 12.046647799317725 458.26766437389961 0 0 0 0 -131.55549197241248 -17.860941746168464 0 -17.860941746168464 328.74184557318222 0 0 0 0 -80.554338362003364 -62.292133329356147 0 -62.292133329356147 75.439924139369396 0 0 0 0 -35.258157925144815 56.810683391755447 0 56.810683391755447 249.22242824305067 0 0 0 0 -23.932344858787985 -45.421694064304575 0 -45.421694064304575 33.079697056251462 0 0 0 0 -9.299206802440267 -29.746823194647732 0 -29.746823194647732 60.795638667012099 0 0 0 0 4.0590615645267007 -33.015892119659838 0 -33.015892119659838 14.660545597493183 0 0 0 0 -7.4977867327748413 -82.840665426774649 0 -82.840665426774649 -162.55376381006499 0 0 0 0 -3.5404702412039386 -0.94785274249377949 0 -0.94785274249377949 0.0056513643559412685 0 0 0 0 -40.57484265707626 -106.36799764048919 0 -106.36799764048919 339.1115797961902 0 0 0 0 98.582413515006635 -130.40183853708731 0 -130.40183853708731 322.18662124958064 0 0 0 0 37.691228044106097 -30.768969585307786 0 -30.768969585307786 357.26607155524835 0 0 0 0 -10.252927471604625 -3.6306222053495674 0 -3.6306222053495674 -1.0308101718411393 0 0 0 0 -5.3070980835261707 -70.375821056200948 0 -70.375821056200948 340.94068471572609 0 0 0 0 -3.1054826929586801 0.43817864809163609 0 0.43817864809163609 9.200027674665364 0 0 0 0 174.67437827466256 -288.07774720079033 0 -288.07774720079033 284.77148284873692 0 0 0 0 -114.96475734444573 -330.8467120626301 0 -330.8467120626301 290.00551415875088 0 0 0 0 -223.40839654907097 -50.290787650752463 0 -50.290787650752463 471.58699536908534 0 0 0 0 -198.79545449579371 -210.32197601311054 0 -210.32197601311054 103.36097425178014 0 0 0 0 225.29997461339212 -95.820362058810133 0 -95.820362058810133 58.387364282149065 0 0 0 0 21.079631738611283 37.90936791740387 0 37.90936791740387 308.75546126852714 0 0 0 0 23.620296661569331 -27.694490129624455 0 -27.694490129624455 549.85799037232937 0 0 0 0 -126.50750985786271 -0.85360229537764098 0 -0.85360229537764098 387.25754193478497 0 0 0 0 193.43146563811695 -49.703350997791858 0 -49.703350997791858 411.95757056660659 0 0 0 0 153.46021175949352 -163.51444484365493 0 -163.51444484365493 471.63285496550088 0 0 0 0 83.090717234713225 -194.18420118174981 0 -194.18420118174981 463.04112765101308 0 0 0 0 0.054160221078329004 -156.95187977026944 0 -156.95187977026944 506.72146763960336 0 0 0 0 104.29187246223654 -140.00864246414858 0 -140.00864246414858 462.4575260919737 0 0 0 0 0.15475133756265358 -202.55406646544361 0 -202.55406646544361 430.66997558396906 0 0 0 0 149.51789140895886 -234.0024990424929 0 -234.0024990424929 405.34559428314242 0 0 0 0 1.1943207623838816 -278.78273291704681 0 -278.78273291704681 394.92518023184675 0 0 0 0 -18.782952853093889 228.80271996040392 0 228.80271996040392 -149.19590355477703 0 0 0 0 478.88670550176329 -500.41343749339649 0 -500.41343749339649 511.34281065576943 0 0 0 0 -0.44754285267904503 0.23145643401268501 0 0.23145643401268501 3.6737375315919962 0 0 0 0 74.47786388380689 -76.597562421346083 0 -76.597562421346083 414.95359146776173 0 0 0 0 451.20442038672172 -476.31364997852506 0 -476.31364997852506 259.94889623315248 0 0 0 0 152.02389146820272 -180.08417531139389 0 -180.08417531139389 106.8636560683517 0 0 0 0 218.10427193919099 -271.01578931100812 0 -271.01578931100812 -45.359484658416477 0 0 0 0 309.22504970943896 -150.97974326824624 0 -150.97974326824624 112.3745825648366 0 0 0 0 361.75800965511871 332.04252243098017 0 332.04252243098017 816.97627406136598 0 0 0 0 1342.3859900085063 -511.44674362991645 0 -511.44674362991645 202.92271093038653 0 0 0 0 85.451126531374598 -481.08877628060145 0 -481.08877628060145 619.77767070884875 0 0 0 0 -77.705808219428718 -338.58345723987441 0 -338.58345723987441 563.85583001381019 0 0 0 0 -228.1478989573659 -17.943034887597605 0 -17.943034887597605 846.40817499559489 0 0 0 0 4.4403115254895651 -6.6508465565091228 0 -6.6508465565091228 9.6679828728088069 0 0 0 0 260.1233003131922 -809.1049843504552 0 -809.1049843504552 1177.5370957330451 0 0 0 0 1207.9657474954397 -801.45314250769661 0 -801.45314250769661 321.71885045632371 0 0 0 0 758.35604389331002 -1124.9864240825555 0 -1124.9864240825555 860.16618368946365 0 0 0 0 -0.15753084150831312 -265.27458013744399 0 -265.27458013744399 427.97068664435938 0 0 0 0 62.041194033019565 -340.38907432869746 0 -340.38907432869746 456.39850113405555 0 0 0 0 -63.985077662534991 -259.88866435080126 0 -259.88866435080126 508.81413729418273 0 0 0 0 -9.9699250025519746 -284.40190372548386 0 -284.40190372548386 500.23783204382926 0 0 0 0 -88.372397608526626 -91.863699351844843 0 -91.863699351844843 528.54856161540556 0 0 0 0 -35.481357004082611 -88.525704597821459 0 -88.525704597821459 112.21076561890368 0 0 0 0 -39.958228210218657 -213.93665444693579 0 -213.93665444693579 369.99224459574907 0 0 0 0 -53.099151815728874 -153.49516435437545 0 -153.49516435437545 380.73899740908018 0 0 0 0 0.20974608470845985 -212.98536136859494 0 -212.98536136859494 125.30282884463668 0 0 0 0 64.415047848070458 -136.96712972970272 0 -136.96712972970272 -99.346246565983165 0 0 0 0 62.15978143906861 -135.11177020109062 0 -135.11177020109062 94.468112502014264 0 0 0 0 1.6783243535922878 -182.45451888153457 0 -182.45451888153457 -63.946345267657307 0 0 0 0 25.9809272613237 -34.995526621918543 0 -34.995526621918543 -49.2919894883089 0 0 0 0 25.933485646675763 -73.807658958190586 0 -73.807658958190586 -73.151037315939902 0 0 0 0 -34.834762869718247 -37.529895027266321 0 -37.529895027266321 -60.641054390973295 0 0 0 0 82.949571333930862 -89.776624904712662 0 -89.776624904712662 -67.395770153645572 0 0 0 0 -0.16060586422791273 0.47136654844082315 0 0.47136654844082315 -1.114770894498804 0 0 0 0 0.018622448902809355 -1.2165309595293365 0 -1.2165309595293365 -2.4009181139990687 0 0 0 0 209.17572564851912 -60.318587595800636 0 -60.318587595800636 -113.87839621619787 0 0 0 0 96.023958948665353 -55.840782216604566 0 -55.840782216604566 -89.27172998880269 0 0 0 0 144.67967736809948 -60.25573230082955 0 -60.25573230082955 -98.250355235068128 0 0 0 0 44.770605513603641 -7.3101074066507863 0 -7.3101074066507863 -18.308542392071104 0 0 0 0 146.22419305253402 -97.891757312754635 0 -97.891757312754635 -95.205350232079581 0 0 0 0 818.12484249466343 -156.20418719250665 0 -156.20418719250665 -258.95712842259672 0 0 0 0 116.0846423549001 152.69541676630615 0 152.69541676630615 -31.045542830932391 0 0 0 0 1136.0995455955285 -682.27667954055141 0 -682.27667954055141 -52.449715700568049 0 0 0 0 -9.8652164763354904 64.842165298956388 0 64.842165298956388 19.422950293082977 0 0 0 0 -339.24172219198226 -273.10837632156836 0 -273.10837632156836 59.421405404049437 0 0 0 0 -198.73505354971542 -182.84925035762353 0 -182.84925035762353 -14.351903134927852 0 0 0 0 7.9612378049609944 -15.046720247578605 0 -15.046720247578605 25.546792850640372 0 0 0 0 417.27132165612352 -190.03106741097872 0 -190.03106741097872 -26.539182455984701 0 0 0 0 418.96221390144376 -374.94829233501878 0 -374.94829233501878 178.10513240034925 0 0 0 0 328.44235154781086 -443.27370727255038 0 -443.27370727255038 366.72460809440236 0 0 0 0 457.04760814089985 -467.02951597117453 0 -467.02951597117453 246.97014075850893 0 0 0 0 198.41723950674782 -381.41918742361304 0 -381.41918742361304 346.8294603570248 0 0 0 0 419.06495623584169 -881.7287297069779 0 -881.7287297069779 1470.8805765315774 0 0 0 0 168.98337596660696 -223.86342797877296 0 -223.86342797877296 288.94027075101985 0 0 0 0 232.80816680678328 -322.98555170978943 0 -322.98555170978943 442.86202075998881 0 0 0 0 447.04778711028746 -392.41648281184825 0 -392.41648281184825 244.212848155963 0 0 0 0 317.54161025177524 -331.00383718599187 0 -331.00383718599187 215.98298540049291 0 0 0 0 43.939977174702449 36.12021627865397 0 36.12021627865397 12.966586139125866 0 0 0 0 -1.1010558426049226 -0.45227009665794071 0 -0.45227009665794071 2.7109450142047535 0 0 0 0 408.74369173492801 -302.2266708568568 0 -302.2266708568568 277.4834951873745 0 0 0 0 -12.437175373362152 -58.11776604012266 0 -58.11776604012266 272.85943850849617 0 0 0 0 21.837615571341985 62.172911920089973 0 62.172911920089973 97.302890425344231 0 0 0 0 -0.90309862912909011 5.9789193558681291 0 5.9789193558681291 63.270755426699907 0 0 0 0 -0.97795053238559593 1.1567376331748136 0 1.1567376331748136 7.2459231756013196 0 0 0 0 8.6625740326485356 -24.216030921808851 0 -24.216030921808851 23.246511650462708 0 0 0 0 -3.282720019100168 -10.213536213814223 0 -10.213536213814223 7.4701352170450264 0 0 0 0 -1.0910211438954969 -1.5087834110652381 0 -1.5087834110652381 6.7787591885927441 0 0 0 0 35.054537575165455 -11.946894474036526 0 -11.946894474036526 -29.283053308201488 0 0 0 0 -0.739913797502877 -2.7250947362188924 0 -2.7250947362188924 2.3832399873474071 0 0 0 0 -9.5796869876913036 40.433741675085912 0 40.433741675085912 43.288082466991909 0 0 0 0 -1.19759935606054 -0.5816822459623836 0 -0.5816822459623836 4.4976922953580356 0 0 0 0 127.28442033390913 -191.06993618299384 0 -191.06993618299384 259.72768489301234 0 0 0 0 -14.068343067371828 -82.491130773447367 0 -82.491130773447367 396.0141655155312 0 0 0 0 -49.373722761466979 -111.00892921463674 0 -111.00892921463674 417.422736234279 0 0 0 0 -19.823380728320871 49.332190558678121 0 49.332190558678121 232.7618133603828 0 0 0 0 -37.97522466518069 -106.34592413727296 0 -106.34592413727296 137.22284013025637 0 0 0 0 -277.10473993480059 417.04835274390098 0 417.04835274390098 158.45878448695294 0 0 0 0 181.56724122906508 -65.676224425566033 0 -65.676224425566033 -60.557931005951104 0 0 0 0 -235.04179811994396 -212.55243986349888 0 -212.55243986349888 376.1998944261868 0 0 0 0 366.58120423294167 -305.92832601125701 0 -305.92832601125701 -779.85185956310465 0 0 0 0 2.903906476158173 -0.077142454728118537 0 -0.077142454728118537 0.44209735164693953 0 0 0 0 -4.4379425508562029 -2.4724899597611198 0 -2.4724899597611198 10.436769773384071 0 0 0 0 -16.893160249239486 -11.549067009451392 0 -11.549067009451392 179.97916357692156 0 0 0 0 -8.4231595243915649 -40.326754629248171 0 -40.326754629248171 57.804185146829695 0 0 0 0 -274.68253922383877 -62.008566991918997 0 -62.008566991918997 5.4767346302396618 0 0 0 0 7.119746580006594 -3.370530573693884 0 -3.370530573693884 2.0954203320343145 0 0 0 0 -29.016229157627095 2.4963191677525174 0 2.4963191677525174 316.36646343525172 0 0 0 0 -87.06202752248646 -8.4248112129134824 0 -8.4248112129134824 318.09986388709513 0 0 0 0 -87.211622739313469 37.479185162419043 0 37.479185162419043 311.93663024745183 0 0 0 0 -77.844050908321151 -5.7286047007837624 0 -5.7286047007837624 120.368040383888 0 0 0 0 -77.752725940810706 83.276491412689211 0 83.276491412689211 155.45300756773486 0 0 0 0 -31.16846242002579 7.2288561520501133 0 7.2288561520501133 89.163648063100169 0 0 0 0 -4.8159548498442746 88.381926487989404 0 88.381926487989404 225.12820808664765 0 0 0 0 14.407730683073169 5.1483077396915178 0 5.1483077396915178 178.04249578863892 0 0 0 0 4.9506990846830377 -52.700913233120446 0 -52.700913233120446 -76.801629787929414 0 0 0 0 344.77305115779654 -498.29499405212118 0 -498.29499405212118 -25.475640099575685 0 0 0 0 3.0924113530503803 -2.9947414106879648 0 -2.9947414106879648 2.7922361406604352 0 0 0 0 45.392470601314926 160.85245290866715 0 160.85245290866715 830.46456189050514 0 0 0 0 88.607725634919916 128.86261323031795 0 128.86261323031795 264.60829383870805 0 0 0 0 -25.253540039939253 -69.339339472322536 0 -69.339339472322536 521.47361667283258 0 0 0 0 137.29904339802579 -117.2526130508877 0 -117.2526130508877 335.16169856484339 0 0 0 0 279.20186195180577 -346.20119864476692 0 -346.20119864476692 678.39575280742429 0 0 0 0 304.13877871147633 -60.542965308706698 0 -60.542965308706698 283.56559760752134 0 0 0 0 174.12285303162571 -164.71024964192475 0 -164.71024964192475 350.13682305565635 0 0 0 0 72.717961009184364 -89.324787244705021 0 -89.324787244705021 281.23524411564722 0 0 0 0 77.667343398315779 -73.655980842199369 0 -73.655980842199369 291.46054954402643 0 0 0 0 -53.184891584525303 7.837784326914516 0 7.837784326914516 279.11498838726402 0 0 0 0 -24.534344967469224 -77.745362619352818 0 -77.745362619352818 356.61798228915495 0 0 0 0 -58.237594725782401 1.9223407624776883 0 1.9223407624776883 345.4534031912408 0 0 0 0 -42.238097268951606 -24.179260257736132 0 -24.179260257736132 244.75459454187512 0 0 0 0 3.0218309816445981 -96.393676687672269 0 -96.393676687672269 298.46723817391103 0 0 0 0 -70.249298247599654 -86.074206027067703 0 -86.074206027067703 268.75037695820174 0 0 0 0 -118.69759460490422 -17.05309300836052 0 -17.05309300836052 234.7714100044177 0 0 0 0 -47.406411623727763 16.025365468016389 0 16.025365468016389 147.1747860091964 0 0 0 0 -2.1877420334819249 3.6355258974897282 0 3.6355258974897282 -1.3809937915434283 0 0 0 0 -62.340041274201212 -92.648741481076286 0 -92.648741481076286 363.15074292298414 0 0 0 0 43.63713441794971 -62.382184400750702 0 -62.382184400750702 235.29896747161547 0 0 0 0 -59.869685681943707 40.260724969167924 0 40.260724969167924 167.97447110291444 0 0 0 0 -59.768412209559756 -48.59592662356954 0 -48.59592662356954 259.83865469769444 0 0 0 0 -62.089851618424291 -5.8816546024936542 0 -5.8816546024936542 243.20883486318962 0 0 0 0 -95.610476315076085 -4.6635759634627902 0 -4.6635759634627902 298.11490878679615 0 0 0 0 -104.4547229859927 -31.605343150389672 0 -31.605343150389672 291.94754856568397 0 0 0 0 -54.870243975001188 33.276586575875399 0 33.276586575875399 166.8602731422834 0 0 0 0 1.133879291217923 -11.577036820652381 0 -11.577036820652381 46.636450248687645 0 0 0 0 -64.386816551343145 78.110267318206752 0 78.110267318206752 145.09111743656831 0 0 0 0 17.416716814816027 -53.946624808882916 0 -53.946624808882916 319.36616688569848 0 0 0 0 -63.667313872339221 43.60589741391184 0 43.60589741391184 160.94368017683379 0 0 0 0 -58.426320447107628 27.083991023685485 0 27.083991023685485 168.4525465779534 0 0 0 0 -25.987766348065122 13.033815541629792 0 13.033815541629792 185.32248065547174 0 0 0 0 -23.922532042561215 9.420529183933013 0 9.420529183933013 258.45859883014418 0 0 0 0 14.921110731429508 61.641941220770605 0 61.641941220770605 221.43253549902647 0 0 0 0 -45.241839551093562 55.292599629896131 0 55.292599629896131 220.83537032610184 0 0 0 0 -79.297321038853397 88.593472016968008 0 88.593472016968008 196.59079609909531 0 0 0 0 -55.658749901946877 51.615543332775303 0 51.615543332775303 260.74286605310044 0 0 0 0 -54.776044526926569 12.71982766520955 0 12.71982766520955 339.65210615291653 0 0 0 0 28.212137526509082 78.009956679880815 0 78.009956679880815 290.85103331536266 0 0 0 0 -55.661597155291474 103.56879326498165 0 103.56879326498165 487.67860431849658 0 0 0 0 -54.880094724255365 34.804426503263123 0 34.804426503263123 175.4576503709703 0 0 0 0 -104.41856446673773 139.01705502694676 0 139.01705502694676 280.72563682527471 0 0 0 0 -55.993989567609788 13.990357878731629 0 13.990357878731629 187.86813455378433 0 0 0 0 -53.308131946199865 33.760205997798039 0 33.760205997798039 310.13173702260974 0 0 0 0 -82.06277712336987 -6.5064981181008079 0 -6.5064981181008079 256.4838655054391 0 0 0 0 -96.371393378607536 20.752982856738527 0 20.752982856738527 238.24815288828904 0 0 0 0 -152.75723019753241 -35.394945635098338 0 -35.394945635098338 249.86834564922492 0 0 0 0 -130.34715749011866 41.094709828539635 0 41.094709828539635 321.81770795475131 0 0 0 0 -11.49950811835884 -21.311269473249318 0 -21.311269473249318 131.13456859120754 0 0 0 0 -94.58227772068858 -55.945030905928434 0 -55.945030905928434 179.79468569488381 0 0 0 0 -26.961040531250617 40.303153442674692 0 40.303153442674692 23.56013075788141 0 0 0 0 -29.15356880057718 6.0022420157542911 0 6.0022420157542911 112.87024687720623 0 0 0 0 -26.395340763050136 1.7818135389158734 0 1.7818135389158734 58.510979967779498 0 0 0 0 -18.921594796088357 -58.097998110672961 0 -58.097998110672961 222.66694606554302 0 0 0 0 -1.5653826841270906 -8.0089791111207695 0 -8.0089791111207695 27.28764668062972 0 0 0 0 -170.66874938172327 -84.303227257572871 0 -84.303227257572871 257.40331585963213 0 0 0 0 -182.47944877411464 -25.086382985486125 0 -25.086382985486125 108.82138904150634 0 0 0 0 -7.4997754856875574 -5.1178404106616853 0 -5.1178404106616853 20.807575391485706 0 0 0 0 4.0934888784540817 -27.873307436446339 0 -27.873307436446339 85.9023259820965 0 0 0 0 -68.506216789859536 -124.01193938178585 0 -124.01193938178585 -14.259023303606227 0 0 0 0 13.290582028681456 27.79508470770179 0 27.79508470770179 49.356169432557181 0 0 0 0 -0.28029599416132278 -18.935737404858997 0 -18.935737404858997 77.867705264706331 0 0 0 0 -7.9173062406475765 -31.18487954580587 0 -31.18487954580587 90.346585467697878 0 0 0 0 -12.315937972832216 -34.008464885442208 0 -34.008464885442208 103.63284997474329 0 0 0 0 -4.7272180585496244 -19.893407653607937 0 -19.893407653607937 80.280338882677825 0 0 0 0 -460.77534722204837 557.14672276889542 0 557.14672276889542 285.55187731057958 0 0 0 0 703.90099939007268 -377.5527785643244 0 -377.5527785643244 204.65668303052371 0 0 0 0 71.944310908485932 -194.49604377922697 0 -194.49604377922697 580.2306946239155 0 0 0 0 -3.5815152937697157 -1.8091426304736853 0 -1.8091426304736853 4.8056569442915418 0 0 0 0 -205.34733362402221 -91.784231945817737 0 -91.784231945817737 287.01485598438148 0 0 0 0 -62.99095629445992 42.041776471204685 0 42.041776471204685 332.39677437816863 0 0 0 0 -393.57096504917536 -128.07481847235431 0 -128.07481847235431 383.90914930983627 0 0 0 0 -239.76220905572791 -241.24668131423459 0 -241.24668131423459 116.15590650833656 0 0 0 0 -86.670011157682893 -559.71013562763983 0 -559.71013562763983 242.30054311120671 0 0 0 0 255.61855932187063 300.39900396549456 0 300.39900396549456 -122.0928244700408 0 0 0 0 -125.22744541118027 -499.03189861670035 0 -499.03189861670035 10.736588439682237 0 0 0 0 348.75830343999814 -319.27653413580947 0 -319.27653413580947 -153.09769241543472 0 0 0 0 -2.3001088037480351 -2.494582558168243 0 -2.494582558168243 6.2747561149162863 0 0 0 0 146.21716665689473 148.78193435652793 0 148.78193435652793 -41.077882579145808 0 0 0 0 -297.01838020363948 85.857852760818332 0 85.857852760818332 69.228480224777741 0 0 0 0 43.110505343293426 56.058374615947173 0 56.058374615947173 71.663563605066884 0 0 0 0 -5.7429373673892838 -1.7278108469055318 0 -1.7278108469055318 8.864867772672067 0 0 0 0 -105.56980861910233 21.842611209196207 0 21.842611209196207 87.785937214473961 0 0 0 0 77.748600519669708 -99.484295230312853 0 -99.484295230312853 58.15893745837036 0 0 0 0 -80.131750698935718 -91.097779531973401 0 -91.097779531973401 168.02211489606452 0 0 0 0 -3.0097319501386082 -1.9322625932126218 0 -1.9322625932126218 16.138158735964133 0 0 0 0 -64.614731942972867 -97.350869327545297 0 -97.350869327545297 55.099253398292603 0 0 0 0 80.55853304502125 -114.14445636637174 0 -114.14445636637174 36.066723245878165 0 0 0 0 -17.672814770599977 -17.299738048599515 0 -17.299738048599515 22.465023244776489 0 0 0 0 -55.101764626168006 36.323238269906142 0 36.323238269906142 183.43979029052298 0 0 0 0 -107.44623057986064 -27.373164216573059 0 -27.373164216573059 110.76650288216842 0 0 0 0 -4.1222776721335119 -18.394964343571111 0 -18.394964343571111 85.391573682105616 0 0 0 0 -250.83512552867705 -89.209530808269847 0 -89.209530808269847 94.794311571662547 0 0 0 0 3.2164624241431738 -118.53553855901328 0 -118.53553855901328 103.93156937443985 0 0 0 0 -8.6845172110727518 -9.323775115521606 0 -9.323775115521606 22.813017203942859 0 0 0 0 -1.1351215170829985 -7.3508681322006293 0 -7.3508681322006293 72.858336255846439 0 0 0 0 33.328724727771259 -225.26391932793922 0 -225.26391932793922 151.49103727037073 0 0 0 0 -3.2567831725862106 -18.953023225593142 0 -18.953023225593142 318.04299837152394 0 0 0 0 142.58209690956755 -29.30298804091035 0 -29.30298804091035 -3.0683786081135622 0 0 0 0 1.3606923826773709 -2.7692020533334833 0 -2.7692020533334833 3.6254836139045636 0 0 0 0 32.189267276485225 72.545535769557773 0 72.545535769557773 221.12151738809007 0 0 0 0 50.318444688056843 61.252417767349471 0 61.252417767349471 65.05906134783072 0 0 0 0 -11.800753537572746 20.798340712815843 0 20.798340712815843 213.20136577274025 0 0 0 0 -24.472821633207786 -27.852167030174314 0 -27.852167030174314 153.07090386270647 0 0 0 0 -14.977828186226645 -12.87514875989109 0 -12.87514875989109 69.091918934587738 0 0 0 0 -25.851949945001252 14.101977871876443 0 14.101977871876443 11.022281668687356 0 0 0 0 3.2454274263606138 -1.9049540413829007 0 -1.9049540413829007 4.2492215771686652 0 0 0 0 -21.932749713565826 -2.1677615165606952 0 -2.1677615165606952 56.23209040693709 0 0 0 0 -24.65212016759881 24.373252227383318 0 24.373252227383318 -1.3664384899857396 0 0 0 0 -19.208447159006937 14.862637943408117 0 14.862637943408117 -1.3492887391257682 0 0 0 0 -5.3851667116680915 -9.2104909703707705 0 -9.2104909703707705 31.969132794813689 0 0 0 0 -25.923398111079223 20.12418976565823 0 20.12418976565823 9.1262597731874848 0 0 0 0 5.2808716993322378 -18.34772430287876 0 -18.34772430287876 7.3135685884844861 0 0 0 0 -6.0129125706789637 -26.085127558804288 0 -26.085127558804288 91.327458619067329 0 0 0 0 0.21035081027730484 -17.360125179482566 0 -17.360125179482566 61.977683429540775 0 0 0 0 -7.5029183724071089 -8.4909102987942546 0 -8.4909102987942546 -0.28310204552906626 0 0 0 0 -4.8627088619377901 -42.555097203483456 0 -42.555097203483456 92.606331383820361 0 0 0 0 12.133956176765423 -23.018252771305924 0 -23.018252771305924 87.155964451580076 0 0 0 0 -13.348901187971023 -35.789391369351506 0 -35.789391369351506 80.966376614811452 0 0 0 0 -21.162882509459195 -19.3973422206127 0 -19.3973422206127 126.06324498731556 0 0 0 0 -25.203880674709922 13.160760594820829 0 13.160760594820829 38.216033595041068 0 0 0 0 -7.5450312467837648 -32.495936514424102 0 -32.495936514424102 116.34351813729882 0 0 0 0 -33.746658955251085 4.9250161081482062 0 4.9250161081482062 72.545432802716832 0 0 0 0 -44.551202502698402 5.1565408667266119 0 5.1565408667266119 93.470644812817966 0 0 0 0 -10.795601070147427 68.846312485760109 0 68.846312485760109 25.988284347862646 0 0 0 0 -16.833426978330067 9.3191840876631886 0 9.3191840876631886 61.916473478551779 0 0 0 0 -1.5483682358929229 -45.52601994075485 0 -45.52601994075485 117.27221239931532 0 0 0 0 -266.41449797091263 -237.61503397237175 0 -237.61503397237175 78.9438448932342 0 0 0 0 -121.57963905705401 7.8974748789551086 0 7.8974748789551086 67.059656183542074 0 0 0 0 41.144383854560147 80.614403628685977 0 80.614403628685977 125.87674317042547 0 0 0 0 7.1512491604807984 -7.5201691384258851 0 -7.5201691384258851 6.2995707415452102 0 0 0 0 -181.05331308117468 9.894171603760924 0 9.894171603760924 144.69736745227419 0 0 0 0 -185.84606111763787 -40.757574246792501 0 -40.757574246792501 78.991887969692471 0 0 0 0 -3.0524502592422564 -3.3144052530117989 0 -3.3144052530117989 23.973002697563629 0 0 0 0 -147.46285679795983 56.015773801998876 0 56.015773801998876 115.73804132185978 0 0 0 0 -108.94435462427373 67.996611286424013 0 67.996611286424013 178.22981405972678 0 0 0 0 -81.10681009815562 -62.448699238069821 0 -62.448699238069821 187.71640701605065 0 0 0 0 -131.67412143418505 33.653805609716073 0 33.653805609716073 127.06973449275392 0 0 0 0 -170.80250269448061 78.554828190550325 0 78.554828190550325 155.35925610916456 0 0 0 0 -29.033878295016365 14.032312614628189 0 14.032312614628189 53.640071795461054 0 0 0 0 -114.61494507377938 9.526604890517774 0 9.526604890517774 94.205220555219057 0 0 0 0 -120.11787781801286 61.913811585574877 0 61.913811585574877 97.982923367017065 0 0 0 0 -194.73044275214488 95.429134863850777 0 95.429134863850777 82.99255036842078 0 0 0 0 -140.85459702240769 80.412241380374326 0 80.412241380374326 57.217550381654291 0 0 0 0 2.3147046036620083 -8.2825777615840508 0 -8.2825777615840508 20.047339639415867 0 0 0 0 1.5929732150998497 -0.63265138983728519 0 -0.63265138983728519 -0.83614836865498887 0 0 0 0 -59.181588226321765 188.25857457737038 0 188.25857457737038 121.91685394762317 0 0 0 0 -165.74002636256046 120.33095301037974 0 120.33095301037974 41.622906558783143 0 0 0 0 -110.73522782018927 90.094100338720637 0 90.094100338720637 -61.163847972453368 0 0 0 0 -17.126328642703811 6.7153029311139107 0 6.7153029311139107 315.59310500456377 0 0 0 0 42.974026877358256 108.48781562836689 0 108.48781562836689 185.04483482454089 0 0 0 0 -171.26665127106389 136.47629374470125 0 136.47629374470125 90.124182647876296 0 0 0 0 -184.01100998054426 120.1848265361441 0 120.1848265361441 120.51991777923831 0 0 0 0 -37.10360687994843 27.756186080513213 0 27.756186080513213 103.24850147005299 0 0 0 0 26.682823813536743 40.205669755938288 0 40.205669755938288 -28.410901307317545 0 0 0 0 -134.48412366580919 23.568528852894815 0 23.568528852894815 108.7317725513858 0 0 0 0 -87.409395270708956 62.597199596875726 0 62.597199596875726 138.48020775461919 0 0 0 0 -42.193848116576191 -36.458928661697428 0 -36.458928661697428 194.99435576489486 0 0 0 0 47.634813263146953 -76.636127488465718 0 -76.636127488465718 186.23554635489563 0 0 0 0 -66.969091758144714 -88.350426990375126 0 -88.350426990375126 247.57437557489175 0 0 0 0 -3.2857081458278117 -73.929126570568769 0 -73.929126570568769 174.25641919367627 0 0 0 0 95.419851013986317 -166.15678606883739 0 -166.15678606883739 289.7153031578855 0 0 0 0 -29.967588477010395 -98.284831808330637 0 -98.284831808330637 285.33745602246199 0 0 0 0 99.060693456582158 -150.34845122232218 0 -150.34845122232218 342.25853309268314 0 0 0 0 225.09201453598575 36.45246106741979 0 36.45246106741979 657.42117611940193 0 0 0 0 148.20785917983272 -258.71166192300188 0 -258.71166192300188 326.66643968145218 0 0 0 0 1.1439031429484032 3.9054517940764413 0 3.9054517940764413 8.3929948948668596 0 0 0 0 706.92508312930204 16.944476936609135 0 16.944476936609135 573.2590751371099 0 0 0 0 173.04196326603324 -174.43129378304002 0 -174.43129378304002 218.06162916708126 0 0 0 0 200.84660094409097 -464.77236822477607 0 -464.77236822477607 549.38845427741035 0 0 0 0 214.55161286321459 -582.17011947399806 0 -582.17011947399806 603.5847620230852 0 0 0 0 591.62968949953267 -765.29409544932787 0 -765.29409544932787 606.29714837142819 0 0 0 0 1104.7643233800818 -693.28254178279531 0 -693.28254178279531 310.77799094762304 0 0 0 0 1.238266385770082 -5.0208517849062133 0 -5.0208517849062133 7.2822359503227005 0 0 0 0 690.1126847881776 -463.51110529573998 0 -463.51110529573998 276.33746454888023 0 0 0 0 360.47976027318367 -310.57022290841633 0 -310.57022290841633 292.59439808077559 0 0 0 0 254.43431493671005 -298.60754913162236 0 -298.60754913162236 537.6657927782237 0 0 0 0 -53.489483149032822 2.8124001836331445 0 2.8124001836331445 341.31284512549701 0 0 0 0 280.36287920180621 -380.09276462662092 0 -380.09276462662092 259.50988404819873 0 0 0 0 100.49489248718578 21.253227355947729 0 21.253227355947729 185.62395258237666 0 0 0 0 127.1224693628651 -141.49510343803922 0 -141.49510343803922 206.22160576396527 0 0 0 0 -1.1561039038730598 1.6764056642864915 0 1.6764056642864915 5.9246436033636201 0 0 0 0 243.63700023093543 749.16023684778338 0 749.16023684778338 3073.9749067938974 0 0 0 0 1216.9219669372451 -1109.6118185551604 0 -1109.6118185551604 813.43272410506324 0 0 0 0 374.48305662950179 1693.9046980953935 0 1693.9046980953935 -670.99250753095839 0 0 0 0 830.62226342079634 -522.32625731926237 0 -522.32625731926237 69.616249048616737 0 0 0 0 3.6027729502070014 9.2796242394927759 0 9.2796242394927759 25.532493994084177 0 0 0 0 633.74542581212427 -46.730432288532029 0 -46.730432288532029 15.942451271128448 0 0 0 0 626.76522616444777 -660.7631733993876 0 -660.7631733993876 2076.5268875547117 0 0 0 0 297.20454002824806 1580.2181306081038 0 1580.2181306081038 -573.7275650616466 0 0 0 0 11.761833229934224 13.466783488939257 0 13.466783488939257 16.619957804268665 0 0 0 0 300.79698844389816 1434.9343249868471 0 1434.9343249868471 -958.69447959176614 0 0 0 0 302.11925096925324 1784.9777314818675 0 1784.9777314818675 -426.77085232193349 0 0 0 0 -1187.4661315276953 -207.19125253803941 0 -207.19125253803941 1927.7291112921812 0 0 0 0 871.30472503668716 -965.1688443194289 0 -965.1688443194289 630.15204314883158 0 0 0 0 480.04161371165037 -749.41604122994613 0 -749.41604122994613 609.59348792660421 0 0 0 0 -1442.6584798685008 652.36185229683906 0 652.36185229683906 283.29140825680224 0 0 0 0 11.618526751745984 33.667426028998833 0 33.667426028998833 56.702574488287382 0 0 0 0 521.10779657795229 -271.56984589961576 0 -271.56984589961576 722.17263390217522 0 0 0 0 567.4218468390759 -322.53498167171711 0 -322.53498167171711 100.17438153038529 0 0 0 0 1.1095603563053817 1.7378451833291564 0 1.7378451833291564 4.8502072560761178 0 0 0 0 242.90690830014137 -765.38684795846939 0 -765.38684795846939 596.37948053788568 0 0 0 0 470.49511539843866 -621.65759290087226 0 -621.65759290087226 1179.13957972551 0 0 0 0 525.38074773819244 -628.03442776443262 0 -628.03442776443262 662.45437000636593 0 0 0 0 -9.4612537548414402 6.5284580954907909 0 6.5284580954907909 22.167554958358693 0 0 0 0 721.93742433637044 -873.15644478527247 0 -873.15644478527247 913.72223778670013 0 0 0 0 -14.310607686967144 -7.6172518315206332 0 -7.6172518315206332 31.365709996361375 0 0 0 0 -3.8503093562725041 78.300874538103017 0 78.300874538103017 403.41093510227802 0 0 0 0 -2.9098399989413171 -1.4406915301627521 0 -1.4406915301627521 7.9696930729038229 0 0 0 0 -33.580023410361832 -22.01820393793605 0 -22.01820393793605 46.019562773559301 0 0 0 0 268.20455255246043 -1170.8022175424121 0 -1170.8022175424121 749.22276097385475 0 0 0 0 -10.963901579272715 -22.769416792798438 0 -22.769416792798438 45.972045793881762 0 0 0 0 -25.339825192951601 -8.0345490854620891 0 -8.0345490854620891 60.59149351509609 0 0 0 0 -913.33073102572598 -714.23316784022609 0 -714.23316784022609 61.043143644637894 0 0 0 0 -898.08681750794358 -501.70437666840644 0 -501.70437666840644 584.11198100721231 0 0 0 0 427.51806233666798 -197.185979966991 0 -197.185979966991 -487.64592108501529 0 0 0 0 -150.07194766233596 -1023.169093964425 0 -1023.169093964425 -694.58358697725089 0 0 0 0 -32.240531608654237 -31.657479015742865 0 -31.657479015742865 49.779026980671915 0 0 0 0 -9.5184221774952427 -27.743817467008071 0 -27.743817467008071 62.665045935565132 0 0 0 0 -159.88204840694391 -116.66435381623887 0 -116.66435381623887 -44.00253666482422 0 0 0 0 1143.4159519125408 242.95345574063685 0 242.95345574063685 -191.28868709022572 0 0 0 0 360.54971496112 -297.88264642964714 0 -297.88264642964714 332.64107719139429 0 0 0 0 1810.6883765252405 334.16579389483741 0 334.16579389483741 445.27970231116342 0 0 0 0 -18.605023081459308 -61.527763941259764 0 -61.527763941259764 59.433883197576506 0 0 0 0 397.16533009105427 72.392643025399593 0 72.392643025399593 -403.31868544722965 0 0 0 0 2.0847209970029912 -35.003268058650391 0 -35.003268058650391 70.919072983529475 0 0 0 0 -42.711811148918883 -289.40675805688443 0 -289.40675805688443 -421.55944281343545 0 0 0 0 -7.8373611397250897 -29.577873652892777 0 -29.577873652892777 61.378482540145342 0 0 0 0 -2.5274479338486344 -35.86822683135324 0 -35.86822683135324 50.332649367832346 0 0 0 0 -13.473736191385797 -15.265077457523148 0 -15.265077457523148 50.853226667793933 0 0 0 0 -24.366661059926628 -19.537893238837569 0 -19.537893238837569 49.436815813722205 0 0 0 0 -9.4384213357725457 -27.055329215269012 0 -27.055329215269012 60.324264852271881 0 0 0 0 11.548752282799029 -21.211484262476802 0 -21.211484262476802 60.792661188585043 0 0 0 0 172.8451780274595 -40.75400625027396 0 -40.75400625027396 88.00735424069353 0 0 0 0 19.936792769103526 -26.369199093996045 0 -26.369199093996045 -7.8534128278028987 0 0 0 0 8.25261800743192 -40.312240743056464 0 -40.312240743056464 86.305566977156559 0 0 0 0 14.13213442114602 -50.157806962724862 0 -50.157806962724862 67.534937533298034 0 0 0 0 -4.5656705353933091 -44.424322789640428 0 -44.424322789640428 114.37106793018756 0 0 0 0 6.2974865464586607 -27.906457982856153 0 -27.906457982856153 -17.037393043888294 0 0 0 0 11.176369605006471 -64.910290211595566 0 -64.910290211595566 219.83922958137009 0 0 0 0 8.129889980870189 -49.32412243496583 0 -49.32412243496583 62.853519660131496 0 0 0 0 238.2707004069207 -347.33745560757961 0 -347.33745560757961 223.25274272520051 0 0 0 0 246.69627716525818 -333.6124658697089 0 -333.6124658697089 245.28972315559804 0 0 0 0 225.24793408056439 -412.15167350824777 0 -412.15167350824777 812.40830707600981 0 0 0 0 357.35375775363786 -321.92301651178968 0 -321.92301651178968 221.24806210147653 0 0 0 0 134.76044977452301 -224.54969003740916 0 -224.54969003740916 216.20279853760985 0 0 0 0 392.73033126166916 -313.35637228490305 0 -313.35637228490305 156.73258312651888 0 0 0 0 -13.318072466101071 -56.969383894042039 0 -56.969383894042039 40.178922109320411 0 0 0 0 209.46332124044795 -96.34078365140158 0 -96.34078365140158 -22.982617743946321 0 0 0 0 -4.511039753491227 -13.586905194920547 0 -13.586905194920547 43.741772951951191 0 0 0 0 -122.70948514857059 -24.933356010209536 0 -24.933356010209536 177.27663698048127 0 0 0 0 -2.4839493885614412 -14.433094293435211 0 -14.433094293435211 51.513440527491156 0 0 0 0 242.37250925339333 -201.05814039282365 0 -201.05814039282365 126.83266287615697 0 0 0 0 26.510040332459994 -63.795343110567046 0 -63.795343110567046 267.2548704285382 0 0 0 0 47.035474420464823 -60.753084520308221 0 -60.753084520308221 17.582587903867534 0 0 0 0 -107.04438361595794 32.691542366887006 0 32.691542366887006 119.09638228191216 0 0 0 0 -1.3397791440664548 -15.988186271899606 0 -15.988186271899606 57.353740575984972 0 0 0 0 35.158552401814632 40.711485984200408 0 40.711485984200408 -19.802684952905111 0 0 0 0 -27.886056826221193 6.4505522406871023 0 6.4505522406871023 201.72022928916931 0 0 0 0 302.33682647462024 -73.017467079128437 0 -73.017467079128437 -31.851472265258053 0 0 0 0 168.60222911463302 -163.74369695012138 0 -163.74369695012138 163.47016320299736 0 0 0 0 231.85398777556929 -24.170803753087966 0 -24.170803753087966 404.92324372422263 0 0 0 0 234.5653659005975 -6.5377252977305034 0 -6.5377252977305034 446.6702758912179 0 0 0 0 535.11305258415132 -194.13909042885916 0 -194.13909042885916 216.40378863150545 0 0 0 0 299.60323822527062 -34.690189935670787 0 -34.690189935670787 206.55724225041843 0 0 0 0 97.722103683747036 -135.57272725496387 0 -135.57272725496387 330.8089665397747 0 0 0 0 341.57372005877187 -21.681636148861799 0 -21.681636148861799 375.93566474383624 0 0 0 0 -8.0776717781277512 -108.45361841087652 0 -108.45361841087652 558.94393841726924 0 0 0 0 -97.41538517736376 -42.002119359642165 0 -42.002119359642165 596.89219745113951 0 0 0 0 -5.045171287775247 30.044583874157979 0 30.044583874157979 612.73086247895117 0 0 0 0 0.37629669036165936 3.9411169137040076 0 3.9411169137040076 0.97873595587356021 0 0 0 0 42.25638138416025 -135.70647037678282 0 -135.70647037678282 368.39309011538535 0 0 0 0 276.50643330629941 172.04547306100721 0 172.04547306100721 240.79394831939135 0 0 0 0 2.1007304800494047 1.4004886790008584 0 1.4004886790008584 9.640394109325797 0 0 0 0 467.27755758293461 377.74257695982146 0 377.74257695982146 926.81749111050885 0 0 0 0 -169.24848861288774 -1.6031577670582919 0 -1.6031577670582919 -264.29025920756976 0 0 0 0 3.9033003558794075 -10.732452368105829 0 -10.732452368105829 0.39887858093649697 0 0 0 0 -431.26624862700919 -593.67422451344464 0 -593.67422451344464 523.15511360648088 0 0 0 0 -382.62091062717718 -377.76581972480108 0 -377.76581972480108 -44.469592398119858 0 0 0 0 -420.02095033733622 64.374968440817611 0 64.374968440817611 544.84425859218754 0 0 0 0 541.93968458711834 -395.84845036364186 0 -395.84845036364186 718.43348433078791 0 0 0 0 -319.72581677579456 -494.27710638480494 0 -494.27710638480494 1381.689658204974 0 0 0 0 -229.59327870224661 -184.79206861147395 0 -184.79206861147395 1048.3944433562137 0 0 0 0 153.53720303950922 -233.24098755925661 0 -233.24098755925661 -63.2208072341964 0 0 0 0 154.28521783365696 -270.50478756665689 0 -270.50478756665689 114.48781295855588 0 0 0 0 43.799438515721192 -133.67689303376028 0 -133.67689303376028 299.78048443206353 0 0 0 0 11.562315134983692 15.681609216473589 0 15.681609216473589 226.20815166851389 0 0 0 0 20.577529220520773 -29.513877707555366 0 -29.513877707555366 13.267280433517953 0 0 0 0 23.113945633557762 -296.19767646976834 0 -296.19767646976834 696.09030527511823 0 0 0 0 -7.7399983372854422 -159.67680017380371 0 -159.67680017380371 348.31447288479103 0 0 0 0 14.692902658867524 -101.39466428836386 0 -101.39466428836386 382.60117656407238 0 0 0 0 67.487675385002149 -44.081033100479544 0 -44.081033100479544 236.64967820133825 0 0 0 0 50.467945648639102 -77.210098553758144 0 -77.210098553758144 236.82417951142997 0 0 0 0 -0.53595291763667774 -75.363160989538301 0 -75.363160989538301 257.12925942664151 0 0 0 0 -31.22311354055455 -67.80941135307512 0 -67.80941135307512 287.57347528584069 0 0 0 0 -25.595642958191547 -58.896624445538691 0 -58.896624445538691 235.08750546748342 0 0 0 0 -31.139774706144294 -66.255227592280789 0 -66.255227592280789 256.1979958955053 0 0 0 0 9.0173013385540344 -39.606156264599122 0 -39.606156264599122 273.84965315658701 0 0 0 0 -8.6052730863741544 -29.97481485746539 0 -29.97481485746539 236.99978036939501 0 0 0 0 -16.140011179424619 -56.088301452011365 0 -56.088301452011365 187.79715497540019 0 0 0 0 -1.5246928161159303 -61.750674980445183 0 -61.750674980445183 150.07334475199787 0 0 0 0 -28.771748374451818 -46.405480090867059 0 -46.405480090867059 231.03914891458408 0 0 0 0 -3.2512039937062127 -34.098551031585885 0 -34.098551031585885 94.087354596456862 0 0 0 0 -25.869558568923821 -13.53495266279424 0 -13.53495266279424 141.4882131015911 0 0 0 0 -11.868882523528555 -6.7370514539506985 0 -6.7370514539506985 187.46845941704413 0 0 0 0 10.423700962476488 -13.947749018336253 0 -13.947749018336253 114.31242185343581 0 0 0 0 -20.58126700300636 -7.1792776269867318 0 -7.1792776269867318 125.84482298924922 0 0 0 0 -5.6299134545460223 2.8524360299601597 0 2.8524360299601597 18.7928267231474 0 0 0 0 7.9770979269369491 9.6254346306832304 0 9.6254346306832304 -5.8450533859104326 0 0 0 0 -17.117827396426492 28.761209599801077 0 28.761209599801077 97.550213021973605 0 0 0 0 -7.5554371422203985 -2.5724250596831553 0 -2.5724250596831553 199.59654091530683 0 0 0 0 -29.472928681089343 -39.850295645548613 0 -39.850295645548613 115.13895710415454 0 0 0 0 10.198487513148962 -81.75683518423466 0 -81.75683518423466 211.89002877799794 0 0 0 0 22.953839885640718 -9.6824252861006244 0 -9.6824252861006244 131.2008725319356 0 0 0 0 51.060670537819988 -71.103041612303059 0 -71.103041612303059 187.17996499573928 0 0 0 0 51.419979561788296 -51.242939785983253 0 -51.242939785983253 227.50466947845052 0 0 0 0 76.055513037983246 -137.24427252094529 0 -137.24427252094529 274.44814051811409 0 0 0 0 116.38707344836166 -106.29538759945171 0 -106.29538759945171 293.38119455761262 0 0 0 0 41.724218739434718 -110.3635937045874 0 -110.3635937045874 307.77240162155795 0 0 0 0 147.82466652245796 -53.40231143964229 0 -53.40231143964229 337.25287789901631 0 0 0 0 -21.131584836512616 4.9466516070624493 0 4.9466516070624493 295.3583598909463 0 0 0 0 -12.682932157465103 27.231153362376062 0 27.231153362376062 310.97290067232097 0 0 0 0 3.520517141094416 -81.835498642700259 0 -81.835498642700259 263.26073840192112 0 0 0 0 -8.3805125257485713 -0.89247888129830244 0 -0.89247888129830244 293.66119174445339 0 0 0 0 -9.7706005635213842 -126.56795227176553 0 -126.56795227176553 338.2766021165844 0 0 0 0 7.8824705288205905 69.81257793286386 0 69.81257793286386 435.29087664024701 0 0 0 0 -2.6498561082098604 29.0068618014393 0 29.0068618014393 559.02698659737507 0 0 0 0 -25.644991652416138 -59.48820494357642 0 -59.48820494357642 115.54263355403964 0 0 0 0 4.0711033671445325 -8.7592971298001174 0 -8.7592971298001174 2.3993412388836219 0 0 0 0 -624.61118140739313 -451.38084095603563 0 -451.38084095603563 1677.3956671223277 0 0 0 0 171.44778323721812 -20.583588522269565 0 -20.583588522269565 496.35045128870115 0 0 0 0 -43.719200688178034 -44.346739667981637 0 -44.346739667981637 484.56957274046727 0 0 0 0 61.179968236416471 50.805968199105337 0 50.805968199105337 328.47957335782121 0 0 0 0 68.929355106864023 -118.34791287885309 0 -118.34791287885309 531.01074559471454 0 0 0 0 52.88432024013531 -11.69720851972761 0 -11.69720851972761 659.44770852735383 0 0 0 0 150.13630972679721 -93.13974944887741 0 -93.13974944887741 405.070483474512 0 0 0 0 -96.734328114051777 -235.97663008414747 0 -235.97663008414747 376.62106583644345 0 0 0 0 -3.167485842016049 -56.665164203401218 0 -56.665164203401218 861.06668561925471 0 0 0 0 -27.877878218694605 -261.70926362947648 0 -261.70926362947648 373.3136167973953 0 0 0 0 466.82085879331134 1004.9159977432864 0 1004.9159977432864 -503.12308526013294 0 0 0 0 7.3073989716823045 -2.9763274480553292 0 -2.9763274480553292 2.389734167471957 0 0 0 0 -341.74241908302974 102.41913056773774 0 102.41913056773774 1589.5362868942575 0 0 0 0 314.2887847458278 54.292707966444141 0 54.292707966444141 -448.60202073736582 0 0 0 0 267.67145256327512 80.434858314452867 0 80.434858314452867 564.44674642803511 0 0 0 0 205.70068277519476 300.10280295240227 0 300.10280295240227 866.28455854664355 0 0 0 0 506.79707140984829 2063.9194194074953 0 2063.9194194074953 55.309611396514811 0 0 0 0 -101.06499609447201 759.71185676116147 0 759.71185676116147 743.50790580105968 0 0 0 0 -351.83511768030439 1310.3362117790675 0 1310.3362117790675 2209.4960884599714 0 0 0 0 146.65401313216717 2593.1462453670683 0 2593.1462453670683 1192.4362156997959 0 0 0 0 -95.269546809795429 152.01323144530761 0 152.01323144530761 1490.5354856799022 0 0 0 0 -128.70660206373395 0.33910413982084719 0 0.33910413982084719 531.23617316923628 0 0 0 0 -32.747793523492874 16.617328312837344 0 16.617328312837344 230.63868807809195 0 0 0 0 63.617855352626066 264.21607420814689 0 264.21607420814689 -213.58253871897978 0 0 0 0 -104.75133482118326 28.62096024479979 0 28.62096024479979 445.63807856570929 0 0 0 0 -83.887491342124122 50.690371646269341 0 50.690371646269341 244.3176917815872 0 0 0 0 -5.3771796979690407 56.388751343234617 0 56.388751343234617 241.95272271914291 0 0 0 0 -29.059372513271228 624.64762573789631 0 624.64762573789631 916.51125876227161 0 0 0 0 47.369998483422933 -79.467790867973235 0 -79.467790867973235 222.17198206121975 0 0 0 0 -5.7726746454100066 -64.923482284666534 0 -64.923482284666534 210.17897094173532 0 0 0 0 33.268264746493514 -129.79132683976422 0 -129.79132683976422 305.66275455719733 0 0 0 0 20.130466957943099 -122.40208407824684 0 -122.40208407824684 607.50583724364697 0 0 0 0 45.197646630636882 -74.973322757283313 0 -74.973322757283313 128.53084687337105 0 0 0 0 -12.999687666278987 -64.848386693567591 0 -64.848386693567591 210.17862397134013 0 0 0 0 -20.183458111722757 -24.262861836145021 0 -24.262861836145021 105.28760319115099 0 0 0 0 -25.625616478022152 31.104662089146586 0 31.104662089146586 42.82793052373745 0 0 0 0 -26.258434463528094 19.511325479777554 0 19.511325479777554 42.253725761802507 0 0 0 0 -33.495929084372619 17.873439167211473 0 17.873439167211473 71.185262734543358 0 0 0 0 31.060808522853222 55.88530284499393 0 55.88530284499393 -44.79167954789591 0 0 0 0 44.144179790074489 -10.924215514025036 0 -10.924215514025036 17.394471367326332 0 0 0 0 -16.679833681667411 44.070586211652994 0 44.070586211652994 56.543139906516004 0 0 0 0 53.931847283775937 90.356227912464419 0 90.356227912464419 58.003956806882343 0 0 0 0 82.063304333541055 150.24899926734543 0 150.24899926734543 150.55729407277249 0 0 0 0 -5.4132299341436152 4.8730607655862093 0 4.8730607655862093 26.340962424040256 0 0 0 0 -15.390139556468853 14.855643173636054 0 14.855643173636054 177.35268155706581 0 0 0 0 -70.159773346623297 215.45618180984457 0 215.45618180984457 3.7553671566492994 0 0 0 0 -90.524182533436488 307.87418012553462 0 307.87418012553462 503.81581431554514 0 0 0 0 123.97087249733204 -236.46758183937345 0 -236.46758183937345 306.61295656839502 0 0 0 0 385.20670102828126 -120.34365487768082 0 -120.34365487768082 -101.71061328043288 0 0 0 0 -62.298328295802321 12.72518631105595 0 12.72518631105595 114.00116870290367 0 0 0 0 -11.912576288528598 -1.3524886248324322 0 -1.3524886248324322 27.925807486304222 0 0 0 0 219.02632013610128 112.87171957257669 0 112.87171957257669 -233.62489019616623 0 0 0 0 1.7719427371732497 57.892921625870699 0 57.892921625870699 41.069651518144703 0 0 0 0 -32.801053729232535 58.926294604505529 0 58.926294604505529 194.23950921885262 0 0 0 0 17.399238926556336 24.761771695972129 0 24.761771695972129 -1.5472332854842534 0 0 0 0 -75.698697967641692 57.074442722849199 0 57.074442722849199 532.45596719003515 0 0 0 0 0.31902627226157398 0.646263514496626 0 0.646263514496626 6.9143195039101215 0 0 0 0 43.393047688483819 171.46639305062286 0 171.46639305062286 236.27018383418908 0 0 0 0 388.93614229265063 -221.70916834126228 0 -221.70916834126228 71.686671163173742 0 0 0 0 -2.3715033017615497 -219.93309271565522 0 -219.93309271565522 525.31487752138264 0 0 0 0 -115.13063081518658 24.464040695176664 0 24.464040695176664 116.32241246080957 0 0 0 0 65.622124863764384 -33.769371647409571 0 -33.769371647409571 29.158484187086287 0 0 0 0 -5.5557804484710136 -12.411237821957045 0 -12.411237821957045 26.548214715760551 0 0 0 0 0.66104057675075278 -19.740140332239154 0 -19.740140332239154 62.306040835102777 0 0 0 0 -142.94390523351376 -208.97862973300289 0 -208.97862973300289 110.69767687839339 0 0 0 0 -17.42193027649239 -13.607374587154482 0 -13.607374587154482 55.625058021745645 0 0 0 0 -12.277460080903131 2.692195587722864 0 2.692195587722864 93.371893105919582 0 0 0 0 -299.49749757729933 -5.9350912847294239 0 -5.9350912847294239 273.42975463442417 0 0 0 0 -47.681737419774663 2.0655291051334643 0 2.0655291051334643 75.262871751197963 0 0 0 0 -8.7452937148963201 16.398510169624387 0 16.398510169624387 88.784561317697808 0 0 0 0 -6.8408394249217963 14.957401781357476 0 14.957401781357476 62.096177946601529 0 0 0 0 -21.026647760324522 -0.85050828070598072 0 -0.85050828070598072 66.173786963277962 0 0 0 0 10.535846000013066 19.806785631216144 0 19.806785631216144 46.581709523867175 0 0 0 0 6.8609500718457639 -5.3122398394880292 0 -5.3122398394880292 47.721866061361652 0 0 0 0 -7.0078097633140715 -3.690274921332275 0 -3.690274921332275 160.83317813256144 0 0 0 0 -3.3973843568584243 2.8630813071522425 0 2.8630813071522425 91.63766642765404 0 0 0 0 104.37832456778233 -113.65440718130412 0 -113.65440718130412 188.86883891357502 0 0 0 0 9.5651575042072636 6.8063028778487933 0 6.8063028778487933 255.44772778899642 0 0 0 0 49.966152329098804 45.055422281075153 0 45.055422281075153 82.162009010557085 0 0 0 0 8.8658652049107332 -6.3353938624677539 0 -6.3353938624677539 128.31210349308094 0 0 0 0 44.71507713183928 51.163492830073665 0 51.163492830073665 142.57735134266113 0 0 0 0 1.03295885285057 -9.2874106005570098 0 -9.2874106005570098 -1.0177594797304721 0 0 0 0 27.979641931184005 -78.93757069680214 0 -78.93757069680214 2.6877833465441654 0 0 0 0 -2.4386278487764557 -30.447941747024061 0 -30.447941747024061 64.901485902185925 0 0 0 0 92.225038218809914 -150.45762276670484 0 -150.45762276670484 28.193261612599599 0 0 0 0 -208.96551282911059 -26.183220104703651 0 -26.183220104703651 237.94014073917424 0 0 0 0 -3.1131675152148337 -15.774708666089866 0 -15.774708666089866 67.598002299561273 0 0 0 0 -0.97686223407306194 -15.483551252251971 0 -15.483551252251971 37.690172390646595 0 0 0 0 -16.009815638768487 -6.7001459496095777 0 -6.7001459496095777 57.728707260474039 0 0 0 0 -8.1308402130731565 -29.259926238177286 0 -29.259926238177286 30.027949422874372 0 0 0 0 -0.42752694741040531 -11.071141901682157 0 -11.071141901682157 18.766533184521961 0 0 0 0 -72.174169464573652 -55.795945016179758 0 -55.795945016179758 87.969355560009717 0 0 0 0 -23.041641739386762 -69.248709499741381 0 -69.248709499741381 26.086873445703532 0 0 0 0 -12.215193436804988 18.129439651821642 0 18.129439651821642 62.192776634026814 0 0 0 0 -4.2169845389325182 26.104597296011576 0 26.104597296011576 20.78184487254466 0 0 0 0 47.046878953959549 -21.362584821838027 0 -21.362584821838027 92.458211732220661 0 0 0 0 11.73356538530561 -14.364746788291086 0 -14.364746788291086 194.88286593763405 0 0 0 0 -22.804673480048677 -8.031870700962827 0 -8.031870700962827 179.81536511216109 0 0 0 0 3.5543146990673335 17.670737457349787 0 17.670737457349787 101.0590191753472 0 0 0 0 -16.948877839648059 21.148147542422706 0 21.148147542422706 22.992661194397286 0 0 0 0 -21.494107166517097 27.430872212324175 0 27.430872212324175 44.273444744598237 0 0 0 0 -16.58233077524563 -4.0478376476577438 0 -4.0478376476577438 27.316921944004633 0 0 0 0 -12.165223655354566 1.3970952963900345 0 1.3970952963900345 41.900913676858181 0 0 0 0 -10.732613820566781 31.827954453766218 0 31.827954453766218 26.336681312175315 0 0 0 0 -14.620760060634439 24.855013050855632 0 24.855013050855632 78.562422462156974 0 0 0 0 -5.5780137662650304 19.699371291026182 0 19.699371291026182 46.530143660400427 0 0 0 0 -12.170388884245313 12.763427732617856 0 12.763427732617856 63.807582809593441 0 0 0 0 -15.017517076632657 17.253882449049343 0 17.253882449049343 68.161022775384481 0 0 0 0 -5.9512837565034715 2.004762698255945 0 2.004762698255945 91.515249784570187 0 0 0 0 -15.257673344323393 0.55550819139352825 0 0.55550819139352825 107.10352784972565 0 0 0 0 -10.276268346742654 -7.9353039703601098 0 -7.9353039703601098 82.240484163869041 0 0 0 0 -9.3572520910920503 2.2680950742505956 0 2.2680950742505956 43.585615749670978 0 0 0 0 -5.1070414870855529 9.9965544848346326 0 9.9965544848346326 56.96272438982578 0 0 0 0 1.2770118438356803 17.090654136620287 0 17.090654136620287 58.54454764264392 0 0 0 0 -1.8212358608516297 0.21283846992446342 0 0.21283846992446342 34.129660891291678 0 0 0 0 7.1220091821505775 11.007920110374471 0 11.007920110374471 32.938207108149072 0 0 0 0 387.35466401430676 -148.51925257973198 0 -148.51925257973198 -57.579209042837647 0 0 0 0 -38.002167888163058 -156.65353216199946 0 -156.65353216199946 -47.129700493909695 0 0 0 0 0.34661715210322619 -3.4955651395700045 0 -3.4955651395700045 19.819812032356651 0 0 0 0 -2.4625061629243561 6.6167615192141582 0 6.6167615192141582 16.018384343907144 0 0 0 0 7.124008415003118 19.616520950115955 0 19.616520950115955 52.16245467254339 0 0 0 0 7.6173885194493778 17.188897151521815 0 17.188897151521815 63.072547292846139 0 0 0 0 6.4321507158238092 8.7486558837445045 0 8.7486558837445045 58.461574430019027 0 0 0 0 5.4348377587402865 10.668986070762912 0 10.668986070762912 66.038622585707344 0 0 0 0 -33.307213602900447 160.36511920929115 0 160.36511920929115 40.852454327674423 0 0 0 0 26.089518623568438 134.73510137471749 0 134.73510137471749 -121.68711888801045 0 0 0 0 -62.280899236490768 28.238099452773895 0 28.238099452773895 161.08012219672673 0 0 0 0 -16.956276690602863 -5.6400935514502635 0 -5.6400935514502635 22.787808282901096 0 0 0 0 52.493739084062327 221.08817006404934 0 221.08817006404934 317.22528654949201 0 0 0 0 150.55641304962251 162.64916007875672 0 162.64916007875672 -204.97685136047221 0 0 0 0 32.34053893188684 7.285550419066567 0 7.285550419066567 75.698451514916087 0 0 0 0 133.27223986550661 64.882311332959603 0 64.882311332959603 104.30467710468292 0 0 0 0 17.244175823439242 22.915603308519209 0 22.915603308519209 20.881384642407134 0 0 0 0 124.17226264433702 -223.04860558012479 0 -223.04860558012479 286.76109622689364 0 0 0 0 22.170405366591172 26.215997154016044 0 26.215997154016044 16.292766537801661 0 0 0 0 152.68027423901731 -73.3372164433531 0 -73.3372164433531 140.78838216940676 0 0 0 0 394.64253822917635 -495.77845415344018 0 -495.77845415344018 529.18519754301087 0 0 0 0 174.99715315524105 -133.1555093538272 0 -133.1555093538272 381.31001290866334 0 0 0 0 454.9019936415425 -97.803142140961427 0 -97.803142140961427 267.52637632711776 0 0 0 0 63.803792830485691 -188.76246585025729 0 -188.76246585025729 276.07626128634365 0 0 0 0 83.202182649793031 -25.406473803444896 0 -25.406473803444896 488.15878246564171 0 0 0 0 52.314098806198672 -304.17700572439571 0 -304.17700572439571 1158.7011960569544 0 0 0 0 5.094813809440069 0.18105215773252326 0 0.18105215773252326 0.84534648637009147 0 0 0 0 6.8357623735382909 30.33618256456117 0 30.33618256456117 22.730107259965052 0 0 0 0 66.242276319779194 -32.480842781606043 0 -32.480842781606043 110.36979355076437 0 0 0 0 57.411983445390433 72.144105016486719 0 72.144105016486719 90.321045624201361 0 0 0 0 -24.470588224245148 -34.334140773687977 0 -34.334140773687977 32.318162415383995 0 0 0 0 -10.218387649487795 91.702484491640917 0 91.702484491640917 227.29838037674926 0 0 0 0 60.774907343100494 -227.06969897221279 0 -227.06969897221279 511.6142205878175 0 0 0 0 45.095060357096372 -115.87952532810596 0 -115.87952532810596 365.07758665619804 0 0 0 0 18.0693630318342 -117.96057587596624 0 -117.96057587596624 296.18984859942793 0 0 0 0 112.48280879018421 -115.95315485227547 0 -115.95315485227547 249.94573869044325 0 0 0 0 159.83051217433331 -193.50551810388606 0 -193.50551810388606 296.44953574151077 0 0 0 0 140.10934719134002 -218.07022512800359 0 -218.07022512800359 299.0106016712889 0 0 0 0 259.89616230432193 -302.60473515889043 0 -302.60473515889043 358.29441310771654 0 0 0 0 286.30188251914569 -286.92485708817458 0 -286.92485708817458 318.31626856130242 0 0 0 0 91.162403222739158 -3.1969600382026329 0 -3.1969600382026329 -3.2737445101229241 0 0 0 0 148.6355060447604 -73.060770613752538 0 -73.060770613752538 21.630319433049635 0 0 0 0 0.58985352917630962 1.8677296387102373 0 1.8677296387102373 0.43419638393938165 0 0 0 0 27.770945391835994 -68.090535398478096 0 -68.090535398478096 220.95175318299061 0 0 0 0 -17.977274666052836 -66.171629789963845 0 -66.171629789963845 222.06889014023182 0 0 0 0 -26.996027713830699 -96.802425032345127 0 -96.802425032345127 253.20838503329287 0 0 0 0 -6.7819845368730967 -66.083882713734056 0 -66.083882713734056 243.92297485387826 0 0 0 0 87.891069415248012 -101.62859343262517 0 -101.62859343262517 227.91492984990327 0 0 0 0 92.023202062399776 -141.6256118291667 0 -141.6256118291667 324.91469954196509 0 0 0 0 193.23805773395998 -151.27014697778941 0 -151.27014697778941 337.26087148748047 0 0 0 0 205.84695090963714 -140.470671275938 0 -140.470671275938 228.78811887011761 0 0 0 0 222.52594301948466 -222.11973086552007 0 -222.11973086552007 280.12859810991358 0 0 0 0 34.020247807362466 -54.313710856009493 0 -54.313710856009493 180.01513280895233 0 0 0 0 -2.8455701371167379 5.2856786580317703 0 5.2856786580317703 155.01383424088999 0 0 0 0 -41.127704476990843 33.724204630655734 0 33.724204630655734 112.84421373478386 0 0 0 0 -6.3477617204898706 -26.141369829068935 0 -26.141369829068935 209.83480839971162 0 0 0 0 1.815659899268212 -19.188246242554669 0 -19.188246242554669 184.4089271365865 0 0 0 0 -1.6917783047006196 -30.22211073049175 0 -30.22211073049175 192.46878473057586 0 0 0 0 -49.448711334312975 -34.228343165475962 0 -34.228343165475962 221.01446202129591 0 0 0 0 -41.119857988885087 -70.422051217994522 0 -70.422051217994522 229.70423969526746 0 0 0 0 -39.114785033256339 -61.571552844034159 0 -61.571552844034159 244.81359876439001 0 0 0 0 -15.85667718953664 -68.830812033220354 0 -68.830812033220354 226.22979943590326 0 0 0 0 -0.4733331154766347 -39.898773892015015 0 -39.898773892015015 221.09867787386355 0 0 0 0 0.88375769045425301 1.8148532793513823 0 1.8148532793513823 0.51704302008314151 0 0 0 0 -12.625232468904642 -81.721679301968607 0 -81.721679301968607 203.60431598825016 0 0 0 0 11.380246997645372 -59.677194311861967 0 -59.677194311861967 143.11215416565392 0 0 0 0 15.184764411821561 -41.903947048842383 0 -41.903947048842383 67.435015506682248 0 0 0 0 26.617475905572064 -27.874929976072963 0 -27.874929976072963 62.27951481655964 0 0 0 0 22.707989266466029 -46.89463277176219 0 -46.89463277176219 129.34011872426709 0 0 0 0 0.13682207359114784 1.9892107445377079 0 1.9892107445377079 0.45254571023361478 0 0 0 0 -8.3712132488280986 -53.826746402481149 0 -53.826746402481149 311.47702827743342 0 0 0 0 22.196412460185456 -28.06582182608372 0 -28.06582182608372 190.09397287197498 0 0 0 0 24.025284409317464 -35.740017874620207 0 -35.740017874620207 187.46935143241717 0 0 0 0 52.693368439454389 16.044633558429268 0 16.044633558429268 298.76498886720583 0 0 0 0 24.078862729434867 -2.3229153076609492 0 -2.3229153076609492 0.58938229308325063 0 0 0 0 73.335240204505681 -12.576705963087079 0 -12.576705963087079 330.2479142433408 0 0 0 0 61.680565283540972 -22.718229394021591 0 -22.718229394021591 321.43084380195796 0 0 0 0 169.81808202660613 -109.48669873825929 0 -109.48669873825929 350.48736905515034 0 0 0 0 44.565631663092063 20.170143833929615 0 20.170143833929615 298.0543537559106 0 0 0 0 120.88341712056808 -7.2531802460453036 0 -7.2531802460453036 175.70256362489454 0 0 0 0 64.181862852132326 -163.26366075496844 0 -163.26366075496844 512.04378159112093 0 0 0 0 14.975372226760669 -1.6421323735365263 0 -1.6421323735365263 0.61575567659437613 0 0 0 0 63.063686761623103 -148.85734345340825 0 -148.85734345340825 536.77618163406487 0 0 0 0 64.426774954232371 -115.91887266251035 0 -115.91887266251035 483.71866633257741 0 0 0 0 168.17990104904311 -205.99816754272615 0 -205.99816754272615 403.56072578900421 0 0 0 0 96.014667373094198 -173.20003862385602 0 -173.20003862385602 390.68384563982181 0 0 0 0 105.51089529868113 -210.81307739555996 0 -210.81307739555996 534.54850077403171 0 0 0 0 185.05332018369319 -311.23820785341871 0 -311.23820785341871 415.39866568340221 0 0 0 0 147.25759591915994 -204.36035972992249 0 -204.36035972992249 342.96428369075147 0 0 0 0 42.115495603276941 -208.00334674205442 0 -208.00334674205442 358.83079274066768 0 0 0 0 156.07795701156647 -242.05833904282918 0 -242.05833904282918 296.0634115599496 0 0 0 0 158.36693505369703 -232.52104900508448 0 -232.52104900508448 370.45464732533219 0 0 0 0 219.80372074743718 -168.82692217353906 0 -168.82692217353906 355.60372584531979 0 0 0 0 162.04314895722132 -215.67003209471545 0 -215.67003209471545 532.83766894662404 0 0 0 0 53.275780366748222 42.621239785621583 0 42.621239785621583 317.61423824947997 0 0 0 0 194.66780896929595 -242.08355650867725 0 -242.08355650867725 458.61155554022116 0 0 0 0 226.25530369004082 -302.76261342144426 0 -302.76261342144426 563.0622940125977 0 0 0 0 11.344773272809864 1.3384612591982137 0 1.3384612591982137 -8.9448632427625796 0 0 0 0 -7.1411226311920473 69.535077889198874 0 69.535077889198874 25.477884000480117 0 0 0 0 23.778150498886834 26.02837637770029 0 26.02837637770029 23.503584723257227 0 0 0 0 -39.165398180498414 33.475748585624387 0 33.475748585624387 40.234440024338255 0 0 0 0 -23.103069652343038 70.585594612864952 0 70.585594612864952 73.842611286483589 0 0 0 0 288.0942648670607 -166.07005078524435 0 -166.07005078524435 208.11707781115911 0 0 0 0 178.81105673993989 -216.41937961283202 0 -216.41937961283202 313.57048920030866 0 0 0 0 142.27925082032061 -131.18783225216021 0 -131.18783225216021 334.09552567093851 0 0 0 0 174.51460617570774 -221.35864241186209 0 -221.35864241186209 360.93387215871462 0 0 0 0 157.95183124507616 -185.89732318206188 0 -185.89732318206188 496.75573750602052 0 0 0 0 186.8566440315517 -416.4775384854438 0 -416.4775384854438 333.29662142669622 0 0 0 0 75.744670023892468 -265.00761438618247 0 -265.00761438618247 506.18098327970802 0 0 0 0 15.331127761726492 2.5725409125618519 0 2.5725409125618519 8.6210517552919796 0 0 0 0 -7.6052577513473807 -361.34815512902787 0 -361.34815512902787 536.81201259832596 0 0 0 0 10.889297195109975 -424.4407044673826 0 -424.4407044673826 672.33621474786923 0 0 0 0 326.72542077443359 -595.75907475775603 0 -595.75907475775603 571.48380173842452 0 0 0 0 285.48148443307582 -517.50102183212584 0 -517.50102183212584 427.1383033946986 0 0 0 0 11.843261126013154 1.5739699729799916 0 1.5739699729799916 0.33479748222980632 0 0 0 0 -61.170804717879946 -54.2303441873064 0 -54.2303441873064 155.56862699085286 0 0 0 0 859.65655121051168 -40.891753673186031 0 -40.891753673186031 947.47786235735111 0 0 0 0 123.81868326353288 -556.59048022453862 0 -556.59048022453862 814.90867081620672 0 0 0 0 11.535428538842098 -44.749410343247291 0 -44.749410343247291 82.844086142118613 0 0 0 0 -41.524142852827936 -51.2239276367618 0 -51.2239276367618 82.063623172220105 0 0 0 0 -7.7795995198321179 -26.471656509675086 0 -26.471656509675086 119.81687029258683 0 0 0 0 7.1893428867328275 20.694931918064761 0 20.694931918064761 44.212219008213069 0 0 0 0 27.353961964134214 8.0533201859780092 0 8.0533201859780092 72.553296138006772 0 0 0 0 28.273298115364014 -13.957468768127001 0 -13.957468768127001 68.111115307823638 0 0 0 0 -2.195843887046852 9.3894902478675775 0 9.3894902478675775 12.721609423887443 0 0 0 0 18.263412716979246 -2.7075638811675162 0 -2.7075638811675162 36.256304525086307 0 0 0 0 5.2453390539283395 -8.9557979749732937 0 -8.9557979749732937 34.858845868582392 0 0 0 0 -1.8550097201132303 4.4517939110919542 0 4.4517939110919542 61.875888859955012 0 0 0 0 -189.39635931782868 87.900355628478792 0 87.900355628478792 72.055788519895941 0 0 0 0 8.3074544122259866 13.188110478423566 0 13.188110478423566 27.247726538717266 0 0 0 0 -235.1678577365833 -50.989216981544359 0 -50.989216981544359 132.56081519194049 0 0 0 0 -33.262915174602313 -107.09769399447396 0 -107.09769399447396 138.44702516583493 0 0 0 0 -141.89744078231524 -24.363357884762081 0 -24.363357884762081 145.87271851421247 0 0 0 0 -70.484871267519338 33.346105388543947 0 33.346105388543947 24.981224782013669 0 0 0 0 26.131849399363318 -2.347641154802659 0 -2.347641154802659 36.259591270772944 0 0 0 0 18.749392906194316 -3.815873084064151 0 -3.815873084064151 43.5400332358425 0 0 0 0 24.542672738282103 -7.565181905387135 0 -7.565181905387135 8.3770602837807537 0 0 0 0 30.031657780558817 13.328141127431081 0 13.328141127431081 288.36487193368708 0 0 0 0 26.93566931489886 -3.4061213948461955 0 -3.4061213948461955 37.597779825548059 0 0 0 0 26.017949916253485 -4.6258096067637027 0 -4.6258096067637027 1.1476288162053425 0 0 0 0 130.99431614841384 -63.71751437203875 0 -63.71751437203875 202.19666441458867 0 0 0 0 46.644784104200539 -55.723314705033317 0 -55.723314705033317 66.564175653664279 0 0 0 0 61.189728111409295 -54.034647020397642 0 -54.034647020397642 57.951084493215603 0 0 0 0 8.5837234656611088 3.3987624389459015 0 3.3987624389459015 23.085696719967743 0 0 0 0 -223.38569371232916 109.28501493857402 0 109.28501493857402 92.712697234317602 0 0 0 0 -160.8583258841245 20.381314639955235 0 20.381314639955235 24.093507393270556 0 0 0 0 35.621941592807161 -11.566317805787548 0 -11.566317805787548 11.683022433397383 0 0 0 0 55.315172284860637 -62.48021542249262 0 -62.48021542249262 88.930125474289525 0 0 0 0 21.173550430739049 -21.192255797342433 0 -21.192255797342433 54.680440900847927 0 0 0 0 0.12930880423513003 -8.4382811617679891 0 -8.4382811617679891 12.144771700818263 0 0 0 0 16.572518938520261 -40.8593493851331 0 -40.8593493851331 51.684676699849661 0 0 0 0 29.394491137511068 -18.306455151745467 0 -18.306455151745467 30.547310043570178 0 0 0 0 9.5845525118974422 -15.545801171214514 0 -15.545801171214514 30.806306008860219 0 0 0 0 29.373194203513659 -21.857316005425758 0 -21.857316005425758 71.785783315295703 0 0 0 0 62.244722335774895 -46.76108815558473 0 -46.76108815558473 89.623942003468983 0 0 0 0 -2.8653752007248841 -7.3653896554205858 0 -7.3653896554205858 101.43171765760781 0 0 0 0 -3.4928391535904666 -3.5810310841479804 0 -3.5810310841479804 111.13544689687114 0 0 0 0 -1.5243230216883603 7.7867074438399868 0 7.7867074438399868 81.804073184146546 0 0 0 0 -2.6258952272810347 9.5700447185699886 0 9.5700447185699886 79.072729441977572 0 0 0 0 5.1210280984763301 28.95379705333869 0 28.95379705333869 63.791103023002506 0 0 0 0 5.1940174785941053 21.190479008000693 0 21.190479008000693 67.929769217997091 0 0 0 0 -5.4150968703979743 29.892687351093628 0 29.892687351093628 87.258001050591702 0 0 0 0 4.0220717744932699 33.248509398697934 0 33.248509398697934 52.199810445723415 0 0 0 0 -23.603454008773042 31.993160190431809 0 31.993160190431809 99.451455170159534 0 0 0 0 -10.755844419185451 41.000486271455884 0 41.000486271455884 65.458064829224895 0 0 0 0 -11.593044298732366 17.707743305058102 0 17.707743305058102 99.641042818635469 0 0 0 0 -35.051317117857252 15.034823623665943 0 15.034823623665943 160.06683012787835 0 0 0 0 5.1661729390825712 1.1141518276381248 0 1.1141518276381248 135.14408196034128 0 0 0 0 -49.971864560895483 -10.312877388212655 0 -10.312877388212655 283.91573997671367 0 0 0 0 146.71870895242637 -247.21285523932488 0 -247.21285523932488 338.05374176178157 0 0 0 0 2.7360454678771191 2.9138621201152191 0 2.9138621201152191 3.9746601582513392 0 0 0 0 182.53181104159376 112.49201683084539 0 112.49201683084539 -285.76000165547157 0 0 0 0 27.84883701776721 -145.35320780623806 0 -145.35320780623806 445.21273543483403 0 0 0 0 162.27194055710788 -135.43573870718319 0 -135.43573870718319 170.06108520998532 0 0 0 0 106.86765235180701 -56.353753823772422 0 -56.353753823772422 -298.90098597671295 0 0 0 0 62.873545354370435 -74.148025529724691 0 -74.148025529724691 117.21987142551461 0 0 0 0 49.424632367416052 -58.022740960383089 0 -58.022740960383089 120.06394743111741 0 0 0 0 40.055539079578011 -55.604894846452225 0 -55.604894846452225 151.41939405385165 0 0 0 0 -46.328862253736588 194.21370409240626 0 194.21370409240626 151.52299765914722 0 0 0 0 -175.7713332286171 3.9860354184270363 0 3.9860354184270363 261.44748223441275 0 0 0 0 188.65741933899528 140.83351354453453 0 140.83351354453453 -182.76978559361305 0 0 0 0 138.43803728799685 13.839391105455434 0 13.839391105455434 -156.30721509061277 0 0 0 0 3.722564584768552 1.0743328411829935 0 1.0743328411829935 0.31624875543947439 0 0 0 0 -7.8228387634345609 -6.5193335115009177 0 -6.5193335115009177 198.29629739009397 0 0 0 0 250.67800778612127 64.167661735995353 0 64.167661735995353 178.52598214569844 0 0 0 0 26.820916255282555 -128.6891746595461 0 -128.6891746595461 277.52542600527522 0 0 0 0 2.0695575480429884 0.10870928243055289 0 0.10870928243055289 0.20002849082787577 0 0 0 0 94.749260200497247 73.184546174841671 0 73.184546174841671 186.53249085244897 0 0 0 0 203.4533146228905 67.015232770394505 0 67.015232770394505 167.05912542631268 0 0 0 0 111.7167659665547 58.354541225467983 0 58.354541225467983 193.62470592465252 0 0 0 0 109.63613275545595 64.563013145620062 0 64.563013145620062 185.84509723974588 0 0 0 0 0.77395010063537484 33.633427819633653 0 33.633427819633653 194.56427763606189 0 0 0 0 77.363330817538099 11.874305672086848 0 11.874305672086848 152.72657899533078 0 0 0 0 -17.119681768571525 -54.976510386478367 0 -54.976510386478367 135.0470720677331 0 0 0 0 -109.74152005848578 374.45966694039271 0 374.45966694039271 -97.104798344938899 0 0 0 0 4.3360063823920703 8.4519931650177682 0 8.4519931650177682 10.072012629367748 0 0 0 0 -206.03606404915013 187.56744403127959 0 187.56744403127959 434.52002131784684 0 0 0 0 243.17228937969321 113.52208177858847 0 113.52208177858847 -24.116967101253977 0 0 0 0 18.301021286740252 -108.97436773085064 0 -108.97436773085064 193.36473679680785 0 0 0 0 242.67679368381187 -40.979485453324742 0 -40.979485453324742 111.88510041133122 0 0 0 0 -66.674922848023925 -82.163018628780264 0 -82.163018628780264 139.12269912871852 0 0 0 0 20.212213107281187 9.8030436507989975 0 9.8030436507989975 86.375162338663358 0 0 0 0 -201.67056022936413 -124.57058835475254 0 -124.57058835475254 40.105802730533469 0 0 0 0 -126.45338402171728 66.667580675393765 0 66.667580675393765 85.054455099452753 0 0 0 0 -6.4991784973321955 -153.80353499853663 0 -153.80353499853663 245.92534788573539 0 0 0 0 56.885208805971615 -21.027144365136337 0 -21.027144365136337 -94.170645620775758 0 0 0 0 50.893267413963258 -137.14367802645575 0 -137.14367802645575 237.61414242343744 0 0 0 0 21.952393290696818 -205.00790594735008 0 -205.00790594735008 432.74198160741071 0 0 0 0 82.656183224490633 -98.721312312809459 0 -98.721312312809459 59.565336085848685 0 0 0 0 89.581934450163772 -100.77412572904723 0 -100.77412572904723 153.64966573570564 0 0 0 0 68.149742898475779 -99.56868340629444 0 -99.56868340629444 236.65629679702397 0 0 0 0 120.43545572613993 -7.6225626237901452 0 -7.6225626237901452 281.71625831289566 0 0 0 0 96.057981308108538 -57.702220995168318 0 -57.702220995168318 212.61563361340086 0 0 0 0 13.450832098715182 -55.381273986349697 0 -55.381273986349697 418.5583678157127 0 0 0 0 2.8699967344123252 -16.811159670716734 0 -16.811159670716734 281.23104482739291 0 0 0 0 41.743340317385446 -115.0704978320864 0 -115.0704978320864 229.42390860152591 0 0 0 0 43.601300697234365 -101.78578264036332 0 -101.78578264036332 324.15968873038219 0 0 0 0 -60.217622878998554 -113.86145793613105 0 -113.86145793613105 571.29727051786904 0 0 0 0 -74.389336876101879 -46.584357872670807 0 -46.584357872670807 417.69815602191375 0 0 0 0 -160.43260996739082 -28.642286217051151 0 -28.642286217051151 573.14256739766279 0 0 0 0 -67.229439761684262 4.4479870726136141 0 4.4479870726136141 506.80885066352494 0 0 0 0 -69.820114286845921 51.618051722179644 0 51.618051722179644 394.34520309028449 0 0 0 0 -161.06842940022761 98.419535087712575 0 98.419535087712575 563.83276779195603 0 0 0 0 -126.70263057715601 144.30085299311031 0 144.30085299311031 445.6528906492058 0 0 0 0 -163.69196570028407 83.128957162381994 0 83.128957162381994 602.80020508496091 0 0 0 0 -107.2752453849298 -6.4728821130483993 0 -6.4728821130483993 554.47694765549386 0 0 0 0 -50.542652125184759 46.473464463644632 0 46.473464463644632 717.88407170554274 0 0 0 0 -213.26060157558641 103.45646385586588 0 103.45646385586588 800.26954556301689 0 0 0 0 -140.22557173884161 -155.01625474513276 0 -155.01625474513276 808.32148971946344 0 0 0 0 -171.34579173297061 -368.95767226463067 0 -368.95767226463067 1222.6230576666908 0 0 0 0 132.79942644768653 364.71358111926384 0 364.71358111926384 1254.9141800532989 0 0 0 0 3351.6013668672081 -2582.9971929219537 0 -2582.9971929219537 1333.5891965030751 0 0 0 0 6.08439550150797 -491.08581839956605 0 -491.08581839956605 771.28573465146474 0 0 0 0 111.62726271583415 -390.54367246275797 0 -390.54367246275797 301.45146007977019 0 0 0 0 -56.277804897044916 -232.12751859525451 0 -232.12751859525451 786.46818970481399 0 0 0 0 -32.65855808779088 -148.2604718413786 0 -148.2604718413786 443.31962433802437 0 0 0 0 -56.361409869510233 -218.97025510220118 0 -218.97025510220118 610.79444439019426 0 0 0 0 108.24424560264106 71.481965330352978 0 71.481965330352978 195.12130872487614 0 0 0 0 29.036514665122013 35.151231446223392 0 35.151231446223392 195.50917660889536 0 0 0 0 68.275598685878322 67.608686683528504 0 67.608686683528504 215.83555205670564 0 0 0 0 65.751149967647507 102.88976710455609 0 102.88976710455609 269.56816334586074 0 0 0 0 73.937531299914554 68.305103717641032 0 68.305103717641032 257.46459620659698 0 0 0 0 103.11592234896307 29.32677104366303 0 29.32677104366303 206.79642685920408 0 0 0 0 73.183645341169267 69.657495820401891 0 69.657495820401891 277.93069736956386 0 0 0 0 24.277145635786837 62.71870718341961 0 62.71870718341961 290.880196997452 0 0 0 0 -28.617513425693232 118.62391955652492 0 118.62391955652492 373.15426734802895 0 0 0 0 28.258065127035479 42.207158194440126 0 42.207158194440126 390.4184832664032 0 0 0 0 51.764284785235759 113.18536105486419 0 113.18536105486419 370.40680264982802 0 0 0 0 -27.267612884118535 107.85945350766997 0 107.85945350766997 458.53004561991838 0 0 0 0 20.109432835300424 160.168044844002 0 160.168044844002 377.8260497043957 0 0 0 0 19.7560552004079 163.24818060696998 0 163.24818060696998 413.62379877788771 0 0 0 0 113.64636324457206 166.22149049640575 0 166.22149049640575 308.59822787638404 0 0 0 0 80.700103751189545 124.30355607578895 0 124.30355607578895 299.98892548833101 0 0 0 0 86.198822827786898 216.41504186849488 0 216.41504186849488 424.75348172992381 0 0 0 0 126.32932314394566 188.52538046047994 0 188.52538046047994 346.13488718234476 0 0 0 0 141.36943286316637 197.68113808082126 0 197.68113808082126 344.29002429990214 0 0 0 0 232.72588327404173 206.11064083271049 0 206.11064083271049 278.38674994636676 0 0 0 0 153.35787631543997 127.14590621479419 0 127.14590621479419 248.67782146458921 0 0 0 0 129.42988148687164 214.03063894180377 0 214.03063894180377 448.58047631756926 0 0 0 0 145.10616557290814 92.396876199331018 0 92.396876199331018 195.4631424065883 0 0 0 0 153.73220865243729 132.34474659981788 0 132.34474659981788 242.69622834632901 0 0 0 0 84.082570930763268 -43.96430493893422 0 -43.96430493893422 1177.841168892759 0 0 0 0 102.86763397595314 -49.961600776412524 0 -49.961600776412524 503.34722330712248 0 0 0 0 100.99938702183135 1.1283638723543845 0 1.1283638723543845 659.53079185372917 0 0 0 0 207.08215986173241 209.34540316123002 0 209.34540316123002 463.07318993273657 0 0 0 0 240.24406124443431 251.26429771154653 0 251.26429771154653 390.32253071936429 0 0 0 0 205.19709816489515 273.60419745253307 0 273.60419745253307 475.95137951309152 0 0 0 0 61.686377157524475 182.50980656393949 0 182.50980656393949 758.21721284088562 0 0 0 0 31.103509463240698 156.82168717103195 0 156.82168717103195 471.57867083558813 0 0 0 0 62.361210611185925 184.00706761437323 0 184.00706761437323 492.1676845591428 0 0 0 0 35.193834048644931 56.574325702640635 0 56.574325702640635 620.04124591688742 0 0 0 0 81.282901102983487 51.278575711254234 0 51.278575711254234 532.01544235702022 0 0 0 0 -25.226784193956519 108.88439528211893 0 108.88439528211893 474.30802323482203 0 0 0 0 33.35158049113852 78.813866091630189 0 78.813866091630189 412.01778876726166 0 0 0 0 10.960648035025315 184.87074620854401 0 184.87074620854401 436.26992358299321 0 0 0 0 -61.255037662793256 152.69203210739215 0 152.69203210739215 435.35165952449461 0 0 0 0 -58.563252244438672 144.71765555763068 0 144.71765555763068 426.80508536071284 0 0 0 0 -39.531166544592452 167.57637006963341 0 167.57637006963341 329.74876333991415 0 0 0 0 -1.6816763084004833 27.080367711999315 0 27.080367711999315 273.81583091572975 0 0 0 0 -22.894665762010845 28.09355247374333 0 28.09355247374333 277.8577878051874 0 0 0 0 64.050404180872647 -30.622772160560999 0 -30.622772160560999 27.981054267133004 0 0 0 0 47.571658155849036 -79.164081157505279 0 -79.164081157505279 160.10337210280704 0 0 0 0 56.485338021885809 -25.32347469821525 0 -25.32347469821525 231.73052105876559 0 0 0 0 0.89616148244715532 48.994193639564401 0 48.994193639564401 453.65031091116543 0 0 0 0 136.44021725066978 -75.979115143294621 0 -75.979115143294621 262.50084944660193 0 0 0 0 1.3369000129669377 0.8262138892801687 0 0.8262138892801687 4.8806125045976785 0 0 0 0 303.18770524291995 -327.01338958659107 0 -327.01338958659107 545.22391007437545 0 0 0 0 322.71013703595509 -310.60483326196118 0 -310.60483326196118 116.73974826654012 0 0 0 0 153.9781285498193 -137.20526475855149 0 -137.20526475855149 476.16254782638316 0 0 0 0 124.19238216299527 -140.45766956522129 0 -140.45766956522129 759.39427960728062 0 0 0 0 1.293271246905948 1.4640261297778707 0 1.4640261297778707 0.54848557366975115 0 0 0 0 397.75034937017062 -112.08482828252454 0 -112.08482828252454 89.343868197509437 0 0 0 0 -148.97394734079313 -861.49298596552035 0 -861.49298596552035 883.42750314009027 0 0 0 0 9.2779502477689011 -28.233099733962284 0 -28.233099733962284 75.590557911973988 0 0 0 0 -325.35721351823395 448.20638041235725 0 448.20638041235725 470.60024491583317 0 0 0 0 -211.76916000785423 110.94287345312478 0 110.94287345312478 764.8992416285364 0 0 0 0 -45.916274453961705 402.60902778563468 0 402.60902778563468 -30.186465983508242 0 0 0 0 -253.58502026429335 288.69458330250745 0 288.69458330250745 534.8778464817733 0 0 0 0 -121.49594196660291 162.83543174880469 0 162.83543174880469 421.60475168372432 0 0 0 0 -104.61492164622268 144.94156986185408 0 144.94156986185408 294.7863909718435 0 0 0 0 -31.751397350696266 -74.576648417638808 0 -74.576648417638808 -192.7907721136944 0 0 0 0 -134.07858729597046 -190.49390549608506 0 -190.49390549608506 -30.642662716152699 0 0 0 0 -4.8944895394856758 40.146161385255255 0 40.146161385255255 164.61365648717037 0 0 0 0 -86.961242667336137 -10.236243585003649 0 -10.236243585003649 131.25356319929779 0 0 0 0 11.384817317188507 -32.052091706896292 0 -32.052091706896292 78.889807398443025 0 0 0 0 -31.405026352559616 47.833565206145067 0 47.833565206145067 158.09954974189895 0 0 0 0 6.2372198189191295 21.770205536055073 0 21.770205536055073 164.74590674301726 0 0 0 0 6.2372198189332266 21.77020553600596 0 21.77020553600596 164.74590674295177 0 0 0 0 6.2372198189204937 21.77020553606053 0 21.77020553606053 164.74590674293358 0 0 0 0 -23.664110441423873 -8.108698466907299 0 -8.108698466907299 58.193994680550531 0 0 0 0 -36.189155424251396 73.23525243186009 0 73.23525243186009 182.10800143593224 0 0 0 0 -41.506841222848379 -24.624657911970644 0 -24.624657911970644 55.806443161338393 0 0 0 0 -132.14694889331554 45.021655948498164 0 45.021655948498164 90.882526646673796 0 0 0 0 -224.75134970712634 -142.53366235800786 0 -142.53366235800786 90.41589716725457 0 0 0 0 -219.03851098459563 -15.087306411717691 0 -15.087306411717691 159.36340873550398 0 0 0 0 26.891770832871771 15.45889230440298 0 15.45889230440298 166.68358401461046 0 0 0 0 -31.728032359486861 -29.126944742565684 0 -29.126944742565684 54.350707550376683 0 0 0 0 -131.71296965775628 38.875784468858001 0 38.875784468858001 165.82060652189102 0 0 0 0 2.220752193813496 31.108008333938415 0 31.108008333938415 113.50980046629775 0 0 0 0 3.7174943128501425 94.753306364258862 0 94.753306364258862 202.04754606846836 0 0 0 0 89.144722551141967 78.590181711553669 0 78.590181711553669 168.41813887695935 0 0 0 0 49.225653789862463 139.77533583447621 0 139.77533583447621 212.87957323305091 0 0 0 0 5.1298934483633367 -4.8626534630726184 0 -4.8626534630726184 7.5304518680798971 0 0 0 0 -14.846656817659095 -9.4930973396794798 0 -9.4930973396794798 11.779240585831758 0 0 0 0 89.309855638032786 75.511301435715723 0 75.511301435715723 116.70189624624618 0 0 0 0 7.3531234840505171 -6.1532265912573649 0 -6.1532265912573649 4.4521125486722113 0 0 0 0 24.248487165427377 -20.251168974934444 0 -20.251168974934444 -17.610401895231917 0 0 0 0 -150.02601481301463 -102.01078540208073 0 -102.01078540208073 -50.696330704842239 0 0 0 0 6.8979449838072426 -3.2505876904201596 0 -3.2505876904201596 -0.96281421810670054 0 0 0 0 -125.15791353800432 -122.53045360645956 0 -122.53045360645956 -57.313173443200867 0 0 0 0 11.743624796779443 -5.9410666641790986 0 -5.9410666641790986 4.4551444476121489 0 0 0 0 -184.06179670008351 -195.16878800322411 0 -195.16878800322411 -56.635095438687131 0 0 0 0 -161.47678545614872 -140.37841947795368 0 -140.37841947795368 57.44871829420299 0 0 0 0 -106.94280816341052 -135.43780649753808 0 -135.43780649753808 -74.983278235726175 0 0 0 0 27.225526507101677 -6.8035552188212023 0 -6.8035552188212023 -23.044939765863091 0 0 0 0 113.39770677933893 170.7230733687411 0 170.7230733687411 370.58044449894805 0 0 0 0 105.75322549419681 198.4290336147169 0 198.4290336147169 492.79532202745395 0 0 0 0 4.0977655749093174 32.287376679625595 0 32.287376679625595 19.061049594220094 0 0 0 0 6.6067137882661777 -4.1836338891053018 0 -4.1836338891053018 3.7649277800327283 0 0 0 0 74.675135358253101 89.193342051996297 0 89.193342051996297 250.19687468085522 0 0 0 0 6.658315511909878 -5.4991738869633302 0 -5.4991738869633302 5.8695793486486849 0 0 0 0 105.99602599681248 154.08703478771167 0 154.08703478771167 260.0109498415768 0 0 0 0 57.386596979219576 78.866963482381834 0 78.866963482381834 290.99400243398486 0 0 0 0 -31.003233074137825 -23.904637630899742 0 -23.904637630899742 431.08505900731325 0 0 0 0 18.391499705630849 -22.893460207167664 0 -22.893460207167664 276.15395840115889 0 0 0 0 0.70411269762439588 19.380365333739974 0 19.380365333739974 420.97629381095976 0 0 0 0 15.605901961834661 7.3287375920972408 0 7.3287375920972408 365.30887474325573 0 0 0 0 54.478660086509763 142.26279156855344 0 142.26279156855344 469.49099950479285 0 0 0 0 36.696748071972252 100.01779233747766 0 100.01779233747766 589.43497746214052 0 0 0 0 -46.546058665533167 -22.553472321626714 0 -22.553472321626714 452.01941253374389 0 0 0 0 82.640948788584637 -106.56673496187068 0 -106.56673496187068 506.5651151474076 0 0 0 0 -37.88791652206595 -77.844214173988803 0 -77.844214173988803 471.96226036928056 0 0 0 0 -99.176958313711111 -131.17696467160931 0 -131.17696467160931 425.55461506192296 0 0 0 0 100.82044688787391 213.9668923582758 0 213.9668923582758 582.20111902804274 0 0 0 0 -123.32624803031831 -313.04716288766576 0 -313.04716288766576 -114.95411457336741 0 0 0 0 -121.2207602293247 -119.06705680477535 0 -119.06705680477535 652.65770692674641 0 0 0 0 -172.21609645881199 -294.41307654946831 0 -294.41307654946831 322.52411142737401 0 0 0 0 32.772865674181503 -35.442608946159453 0 -35.442608946159453 77.614290547106066 0 0 0 0 1.9667581138979449 -13.043902191050826 0 -13.043902191050826 20.044304180156487 0 0 0 0 825.36521947533765 5651.7402710073511 0 5651.7402710073511 10750.644750706677 0 0 0 0 -2556.0116549150271 889.60541522442145 0 889.60541522442145 8303.8089900407576 0 0 0 0 1918.6105215929533 959.02841195688961 0 959.02841195688961 979.8860994464776 0 0 0 0 1.2444177021944514 -8.9342943060090612 0 -8.9342943060090612 39.607723053193993 0 0 0 0 -116.99934618573934 -273.59214967883236 0 -273.59214967883236 85.056792546463839 0 0 0 0 -204.85931261527185 -37.322541077133792 0 -37.322541077133792 52.284242570611241 0 0 0 0 6.982684123829884 -19.565722376596781 0 -19.565722376596781 55.875371681373224 0 0 0 0 -197.40287344483568 -13.987811706298089 0 -13.987811706298089 101.57208902419734 0 0 0 0 18.431777112811574 -428.96607565929389 0 -428.96607565929389 222.48168656039343 0 0 0 0 604.82347950928761 4500.593832900151 0 4500.593832900151 125.6867761782778 0 0 0 0 -0.52649234941640355 -4.2542248718982947 0 -4.2542248718982947 22.362510047182298 0 0 0 0 -78.009145123252438 -105.47614590840749 0 -105.47614590840749 -114.09985070460789 0 0 0 0 -92.536133448135843 -107.71166443977745 0 -107.71166443977745 205.83985326046968 0 0 0 0 -22.499573595419861 -80.133355115720406 0 -80.133355115720406 205.11862667812784 0 0 0 0 -29.713545656530982 -5.9814360456628037 0 -5.9814360456628037 255.68906928998331 0 0 0 0 -23.242473648616397 -52.469031985507172 0 -52.469031985507172 360.94340606105106 0 0 0 0 -69.144429942663919 -70.841921477467622 0 -70.841921477467622 256.08343330296339 0 0 0 0 -5.6320973930374656 -5.2723184121170306 0 -5.2723184121170306 14.655335167142283 0 0 0 0 -7.183532069566354 -1.2848531425952388 0 -1.2848531425952388 56.637452231487259 0 0 0 0 -28.580083059119715 -27.61621672757974 0 -27.61621672757974 71.047013611329021 0 0 0 0 -3.5492929493630072 -19.255336163958418 0 -19.255336163958418 69.303977730494807 0 0 0 0 0.2438973050932054 -4.3161898514647383 0 -4.3161898514647383 54.964053316502202 0 0 0 0 0.35993813993422918 -4.2209234191154792 0 -4.2209234191154792 51.903844437125372 0 0 0 0 -0.47284897967043804 -11.242605465579686 0 -11.242605465579686 40.02451898615368 0 0 0 0 0.47783094349597377 -3.1031287613586755 0 -3.1031287613586755 51.417128289754146 0 0 0 0 -0.98450776096584747 -11.280865624164363 0 -11.280865624164363 43.220792458766624 0 0 0 0 8.5711965866266837 -3.2627174643421313 0 -3.2627174643421313 51.313564579322701 0 0 0 0 -0.7541134508437608 5.1617832402080239 0 5.1617832402080239 56.690944103887887 0 0 0 0 14.51301681862742 6.3444766329230333 0 6.3444766329230333 58.247102863955661 0 0 0 0 0.3979725991953238 15.155744957416239 0 15.155744957416239 38.911979233076508 0 0 0 0 8.9348642569888739 -4.8466691540818374 0 -4.8466691540818374 61.626190482813399 0 0 0 0 8.7438394048867849 -2.3304141441985848 0 -2.3304141441985848 51.547984156433813 0 0 0 0 -0.76875950150642258 3.018877110161359 0 3.018877110161359 59.37283354410323 0 0 0 0 -52.679428115362498 14.565380731961341 0 14.565380731961341 104.14866375249403 0 0 0 0 -11.373366433729757 3.7523936747782045 0 3.7523936747782045 56.481366168998647 0 0 0 0 -5.2931637676482541 9.2246495001763265 0 9.2246495001763265 48.35021097618997 0 0 0 0 -12.589741569383477 -5.9310899658194103 0 -5.9310899658194103 57.889334828912979 0 0 0 0 -0.71971320861867216 9.9537790680411486 0 9.9537790680411486 63.921267324393227 0 0 0 0 -97.018941744717836 54.91051490394932 0 54.91051490394932 96.243264299817383 0 0 0 0 105.5051204126803 84.75557163225676 0 84.75557163225676 64.568641435864265 0 0 0 0 -32.982923480247337 69.599706015742413 0 69.599706015742413 75.556832943599147 0 0 0 0 12.677138968590953 4.7114411227939854 0 4.7114411227939854 65.044755631286534 0 0 0 0 -2.2319550499545251 9.7470124982224391 0 9.7470124982224391 52.351267959490912 0 0 0 0 -34.408406837568691 79.734646334356512 0 79.734646334356512 1.8653628921128984 0 0 0 0 -81.626663399437348 20.338281674048631 0 20.338281674048631 126.42286658892499 0 0 0 0 37.887187061657642 -57.870145084369142 0 -57.870145084369142 119.00648517002264 0 0 0 0 -14.452740706015447 -18.6487957477093 0 -18.6487957477093 102.01726816887094 0 0 0 0 50.901254045261339 -45.634294446517742 0 -45.634294446517742 103.96177737746621 0 0 0 0 41.001103464564892 -33.11604237208735 0 -33.11604237208735 121.4065324298499 0 0 0 0 4.5457708673488924 -40.394486319903081 0 -40.394486319903081 120.01640582338587 0 0 0 0 37.011115168817014 -68.35238544557069 0 -68.35238544557069 143.11037687308908 0 0 0 0 2.2734919627710042 -52.765123624025364 0 -52.765123624025364 115.7451438095668 0 0 0 0 1.1009052756796152 0.22978218055872901 0 0.22978218055872901 0.27115211647693371 0 0 0 0 70.799229012468004 -28.524332873341336 0 -28.524332873341336 0.59888438530470012 0 0 0 0 -12.15680274825354 38.737287396033935 0 38.737287396033935 39.216272675769687 0 0 0 0 41.429240509334704 -8.03929934437474 0 -8.03929934437474 30.380519853775695 0 0 0 0 -31.718350610024572 45.573831280918967 0 45.573831280918967 -4.9879080968239577 0 0 0 0 -130.70711969557306 39.06659627755289 0 39.06659627755289 41.241527998558013 0 0 0 0 -13.746171919774497 49.771690627625503 0 49.771690627625503 -21.143748654365481 0 0 0 0 -3.9310743976141023 6.7306188183750635 0 6.7306188183750635 9.4928082454618163 0 0 0 0 -145.79612861286478 6.2931030827894574 0 6.2931030827894574 36.283186924352776 0 0 0 0 -87.648312213355894 8.1219709880897426 0 8.1219709880897426 32.818862882952089 0 0 0 0 -5.5361121919626477 -3.5534091406916559 0 -3.5534091406916559 11.0832362507835 0 0 0 0 -30.619100427436933 17.356593857773987 0 17.356593857773987 44.099572068669659 0 0 0 0 -111.53950380159949 45.522005555845681 0 45.522005555845681 41.662760605249787 0 0 0 0 -42.771014670469413 17.459715513679839 0 17.459715513679839 56.034544007343356 0 0 0 0 -36.863419530459396 -13.507858622622734 0 -13.507858622622734 49.843063806256396 0 0 0 0 -12.389503826312648 -19.977509651136643 0 -19.977509651136643 47.157019469639636 0 0 0 0 -8.1309052868218714 -8.0261830296149128 0 -8.0261830296149128 50.479680460677628 0 0 0 0 -23.798403300104837 10.798369289714174 0 10.798369289714174 52.189014697578386 0 0 0 0 -14.57194578248891 9.9817545303449151 0 9.9817545303449151 50.826414060098614 0 0 0 0 -10.163519479403931 31.680598493054276 0 31.680598493054276 57.402767542458605 0 0 0 0 -7.0158904262589203 29.347479096471943 0 29.347479096471943 48.60744938152493 0 0 0 0 8.4981297615395306 23.700742282500869 0 23.700742282500869 45.544038578467735 0 0 0 0 -33.802742240331099 22.942069029484628 0 22.942069029484628 50.82767243188573 0 0 0 0 4.2379274382656149 3.2999961922541843 0 3.2999961922541843 88.166015600938408 0 0 0 0 -24.059624033571708 22.246946176383062 0 22.246946176383062 76.34366162238075 0 0 0 0 -2.9803568067577544 12.914070441722288 0 12.914070441722288 80.8530511407007 0 0 0 0 0.3205508292921877 -24.45861877689822 0 -24.45861877689822 98.375002328109986 0 0 0 0 -23.645470399303122 -16.068944922608352 0 -16.068944922608352 108.80018701977679 0 0 0 0 1.8277623224898889 -30.994403462209448 0 -30.994403462209448 106.84419472055015 0 0 0 0 -3.495205799697942 -29.819576764817612 0 -29.819576764817612 113.10452451090532 0 0 0 0 3.2261278214349929 0.53345453927316555 0 0.53345453927316555 0.30154336915195756 0 0 0 0 14.786834394424659 2.6838211266585859 0 2.6838211266585859 75.266796258780232 0 0 0 0 19.898945674188326 -5.1702469026058679 0 -5.1702469026058679 79.663724430545699 0 0 0 0 2.5791175896306413 -6.8577899487190734 0 -6.8577899487190734 97.215588113365811 0 0 0 0 -11.794846490162854 -25.689209371583274 0 -25.689209371583274 130.24377667765293 0 0 0 0 -34.247455565531709 -36.841263010883267 0 -36.841263010883267 148.73874118867388 0 0 0 0 -11.593248595794648 -72.543738757376559 0 -72.543738757376559 136.26354037525016 0 0 0 0 3.8102656997064059 -46.431627556931744 0 -46.431627556931744 94.640057361764775 0 0 0 0 -8.9225881968907288 -81.832779168359593 0 -81.832779168359593 167.39073470193398 0 0 0 0 121.82289224086071 42.10441114947389 0 42.10441114947389 99.927373235917912 0 0 0 0 -28.459647331609631 -52.654448778834194 0 -52.654448778834194 191.66063697466598 0 0 0 0 29.42326046301423 24.884063671110198 0 24.884063671110198 287.82285604293065 0 0 0 0 -63.220504578647706 -100.25179011477667 0 -100.25179011477667 241.04382155378153 0 0 0 0 1.5165917127099426 0.73271555586600101 0 0.73271555586600101 2.486831671417022 0 0 0 0 77.518761259442272 -39.236213064852564 0 -39.236213064852564 30.126211122282257 0 0 0 0 -2.1191114631583332 3.6731018803293409 0 3.6731018803293409 41.853320449123203 0 0 0 0 -0.95643087487784584 0.0042036902037949631 0 0.0042036902037949631 2.453386918587924 0 0 0 0 -158.03201282258465 -35.877006721264934 0 -35.877006721264934 12.79319402926194 0 0 0 0 -95.059225946265087 99.163638637966869 0 99.163638637966869 -33.824522061615426 0 0 0 0 -5.2068086290978197 -3.2553827672436171 0 -3.2553827672436171 10.991461052922475 0 0 0 0 -32.545355406118688 -51.071706858325342 0 -51.071706858325342 212.63953476541428 0 0 0 0 8.29120822097806 5.197560927111482 0 5.197560927111482 3.6860564115945849 0 0 0 0 20.667044934820296 -39.270233160961652 0 -39.270233160961652 97.91767525094474 0 0 0 0 4.1430337723414539 0.52862997720058047 0 0.52862997720058047 0.25092872443281777 0 0 0 0 32.046750005455579 -36.771643349995429 0 -36.771643349995429 65.223094504022811 0 0 0 0 -3.613080608063683 -24.08731296678161 0 -24.08731296678161 107.78543394767621 0 0 0 0 2.9977472345876777 -37.582622455676756 0 -37.582622455676756 111.24545712125109 0 0 0 0 23.826653039125631 -25.834567217531003 0 -25.834567217531003 109.73169611495769 0 0 0 0 54.442748097820186 35.486708601842111 0 35.486708601842111 177.58562769196942 0 0 0 0 108.61753478411424 10.856664761787215 0 10.856664761787215 130.10870750263712 0 0 0 0 13.95408867232527 -26.876429582909623 0 -26.876429582909623 151.48091898834537 0 0 0 0 -14.051859050418898 -43.449193896532961 0 -43.449193896532961 124.03369957234827 0 0 0 0 -53.298796429881804 1.7998853827884886 0 1.7998853827884886 124.60457434509277 0 0 0 0 -36.329041519447856 -12.576119504652524 0 -12.576119504652524 -101.62165455879585 0 0 0 0 36.146775197134502 -27.204112983148661 0 -27.204112983148661 83.663831040510559 0 0 0 0 -27.500596238762228 79.953153493413993 0 79.953153493413993 131.84258817305454 0 0 0 0 116.87837101444438 22.072792264441887 0 22.072792264441887 58.641603343101451 0 0 0 0 161.24675161477262 17.607522726320894 0 17.607522726320894 145.82969371422223 0 0 0 0 190.45832569435788 157.97413660313032 0 157.97413660313032 199.47409830771358 0 0 0 0 261.7661495860641 87.180703317127154 0 87.180703317127154 268.10963380453177 0 0 0 0 421.09023607125891 300.85680828737532 0 300.85680828737532 371.34491821235133 0 0 0 0 -34.520299546896922 419.50025516682763 0 419.50025516682763 261.82684725274157 0 0 0 0 36.926062867911469 122.40136544026063 0 122.40136544026063 1015.0174342874961 0 0 0 0 307.13202875379648 440.86226390925003 0 440.86226390925003 759.46066859376151 0 0 0 0 -89.636023477443132 201.6889381044557 0 201.6889381044557 384.28665796310815 0 0 0 0 -25.74973869092446 -16.555612644660869 0 -16.555612644660869 1067.7509093635272 0 0 0 0 247.65101363279905 263.20024643835131 0 263.20024643835131 520.17210783839255 0 0 0 0 34.019474008333816 204.7742242910972 0 204.7742242910972 529.34277062355977 0 0 0 0 59.216296709761963 41.361321201146438 0 41.361321201146438 0.80287943314760923 0 0 0 0 96.452968250363938 -203.18765206392709 0 -203.18765206392709 670.37324744934449 0 0 0 0 -136.57877205937348 56.455149166606134 0 56.455149166606134 1557.950035116548 0 0 0 0 83.772265470700859 311.02623100411074 0 311.02623100411074 -286.31618482014164 0 0 0 0 1.6681412903701052 2.6382067633726081 0 2.6382067633726081 2.2192875238543337 0 0 0 0 78.228404147882245 62.387734433116293 0 62.387734433116293 546.06334140973922 0 0 0 0 -40.959894916187295 79.964560170268669 0 79.964560170268669 141.36690225003986 0 0 0 0 -56.723904589200629 -90.698742672986555 0 -90.698742672986555 413.95454519824489 0 0 0 0 -108.41153573836209 -28.607588317498085 0 -28.607588317498085 614.80111081906944 0 0 0 0 5.928143082756641 8.0658885510894862 0 8.0658885510894862 5.2124552362507259 0 0 0 0 -161.65427637868993 -72.054472787553095 0 -72.054472787553095 838.11851997447957 0 0 0 0 -50.052568280715604 -1.1584309291465615 0 -1.1584309291465615 34.137894478215458 0 0 0 0 -119.50385605441079 20.277975115635854 0 20.277975115635854 58.478020819202357 0 0 0 0 -61.574748527775228 74.727483111979382 0 74.727483111979382 -51.989404208879932 0 0 0 0 -42.076989516178173 15.482599752997885 0 15.482599752997885 54.431921827512269 0 0 0 0 -36.608572278485781 -1.2804838338479385 0 -1.2804838338479385 97.671082829743682 0 0 0 0 -65.670072287301991 -2.5087493413484481 0 -2.5087493413484481 101.61286171451502 0 0 0 0 -22.94014911206159 28.662670856796467 0 28.662670856796467 81.753879120878992 0 0 0 0 -17.506278416744522 60.208051054446059 0 60.208051054446059 60.282424714619992 0 0 0 0 -58.030929312999888 50.485473301830552 0 50.485473301830552 68.57431078209629 0 0 0 0 13.346612683067178 40.850813008008117 0 40.850813008008117 49.872563643464673 0 0 0 0 68.262507714055573 47.690009435787942 0 47.690009435787942 31.265263049059286 0 0 0 0 39.973270346456957 86.373593011299818 0 86.373593011299818 71.973642465520243 0 0 0 0 3.6705937851475028 30.130540238769754 0 30.130540238769754 38.143923606883618 0 0 0 0 13.151045416574561 9.4746644031110918 0 9.4746644031110918 43.130896811155253 0 0 0 0 37.396295353705682 12.420983102270839 0 12.420983102270839 15.051410368108918 0 0 0 0 -12.538774479264248 -6.4895870206455584 0 -6.4895870206455584 51.079890148555933 0 0 0 0 -21.177307244129224 -2.2940000167036487 0 -2.2940000167036487 52.976489109583781 0 0 0 0 -7.5876705413566015 -6.1942099428270012 0 -6.1942099428270012 31.534012501215329 0 0 0 0 1.1141088709695843 0.11939492739509205 0 0.11939492739509205 -0.29197216042797436 0 0 0 0 -118.60099236438191 -172.9668264158754 0 -172.9668264158754 130.08656750932278 0 0 0 0 245.6851357062983 -253.64433752415425 0 -253.64433752415425 -0.75464612865471281 0 0 0 0 -172.89795920436211 189.77553064497624 0 189.77553064497624 392.19468058066559 0 0 0 0 147.04801881374806 103.65827593902941 0 103.65827593902941 133.51260537409689 0 0 0 0 11.329758919395495 11.350741448282676 0 11.350741448282676 4.621244594182599 0 0 0 0 -67.830559783092554 51.416567551745175 0 51.416567551745175 148.72721008630469 0 0 0 0 129.86710898181673 280.94550759762205 0 280.94550759762205 215.92514400882646 0 0 0 0 -93.724292889867684 53.028880962920084 0 53.028880962920084 354.09971272899566 0 0 0 0 -115.53967711417681 -189.88973516182159 0 -189.88973516182159 497.20322927564484 0 0 0 0 -121.72814203034748 -225.46605844222722 0 -225.46605844222722 951.6572883471963 0 0 0 0 0.75255183873127751 2.854825451631811 0 2.854825451631811 6.3235461796543007 0 0 0 0 25.409858404388046 632.47554751844837 0 632.47554751844837 185.56145335904876 0 0 0 0 -69.365060474289606 236.35780137294387 0 236.35780137294387 987.69911456756381 0 0 0 0 514.99831954872275 405.33305008946627 0 405.33305008946627 395.08544250724663 0 0 0 0 193.90218077063889 -162.5682105827691 0 -162.5682105827691 581.02607743431145 0 0 0 0 96.135044993676274 63.312219002393249 0 63.312219002393249 297.58527266004967 0 0 0 0 -49.022661997979412 -210.62760312781757 0 -210.62760312781757 174.05110999733097 0 0 0 0 151.22886093829925 -49.598520807314344 0 -49.598520807314344 83.859710163029376 0 0 0 0 50.397219391643944 253.90503757298666 0 253.90503757298666 922.69706954871799 0 0 0 0 130.28211772822789 408.73229519664528 0 408.73229519664528 654.68376832184049 0 0 0 0 1743.876680850613 -1057.2177583268931 0 -1057.2177583268931 333.20844882776873 0 0 0 0 186.74388724073196 416.78442419484782 0 416.78442419484782 291.53797672705696 0 0 0 0 0.97979988362420012 -2.1858347962419096 0 -2.1858347962419096 12.715670126365467 0 0 0 0 1954.3948632930098 -982.2545630231316 0 -982.2545630231316 300.80836145115609 0 0 0 0 0.95274808608155581 29.465562659923307 0 29.465562659923307 326.23629991596079 0 0 0 0 1363.694530873521 -805.64071276802679 0 -805.64071276802679 262.3252958888479 0 0 0 0 4.5970685543982706 -8.882954633778148 0 -8.882954633778148 31.304478335463529 0 0 0 0 1244.6761805024594 -702.92493591350512 0 -702.92493591350512 -45.210850578252575 0 0 0 0 6.4913019913174841 -4.745874760310862 0 -4.745874760310862 11.095633782288729 0 0 0 0 1055.2205835669829 -851.52598772538113 0 -851.52598772538113 493.64957648765994 0 0 0 0 -235.5482775764157 -92.391038425621446 0 -92.391038425621446 166.28229173739965 0 0 0 0 355.65632128316247 52.650444147373491 0 52.650444147373491 -210.03447382006561 0 0 0 0 -1767.4797641868463 639.58724919595988 0 639.58724919595988 -46.945000889703806 0 0 0 0 -103.82737450186778 -62.299184714567673 0 -62.299184714567673 -45.903275143016799 0 0 0 0 2.956288897478891 -11.31673048042129 0 -11.31673048042129 37.076288854477212 0 0 0 0 6.9245809220011818 -5.5616230748647411 0 -5.5616230748647411 35.923056619575391 0 0 0 0 -60.990592969448926 -43.228501565135957 0 -43.228501565135957 -39.078295909042936 0 0 0 0 -17.104575306119841 -123.77885889034951 0 -123.77885889034951 108.75793837857418 0 0 0 0 221.71409458669245 -74.9890011023017 0 -74.9890011023017 -195.55655052139628 0 0 0 0 106.1334997380352 4.6450473136792425 0 4.6450473136792425 -208.38891979763685 0 0 0 0 13.000908507118513 8.0975989871574825 0 8.0975989871574825 14.517659566915022 0 0 0 0 68.73140609704592 15.974818510880141 0 15.974818510880141 104.45319330538041 0 0 0 0 2.8904515724125304 -30.543886294639378 0 -30.543886294639378 105.02598140545888 0 0 0 0 4.019353424541551 -8.3173485742392614 0 -8.3173485742392614 42.699052640854745 0 0 0 0 -10.278319392321009 -2.8437938142342318 0 -2.8437938142342318 53.232547895146126 0 0 0 0 2.1425334121861255 -1.2043275550198587 0 -1.2043275550198587 13.475351461097503 0 0 0 0 1.3405354897568031 1.7658461860064563 0 1.7658461860064563 50.686118816171074 0 0 0 0 -2.7643899415443229 -7.8928092851347174 0 -7.8928092851347174 44.192837313981727 0 0 0 0 -0.9234763051907906 -9.6365659301947613 0 -9.6365659301947613 44.357058219727037 0 0 0 0 -2.6924308308589389 -6.9712164272204973 0 -6.9712164272204973 47.606079060191405 0 0 0 0 -0.44230402384166823 -8.178779066991865 0 -8.178779066991865 45.134974419466189 0 0 0 0 15.972509863369851 -23.522815271622676 0 -23.522815271622676 70.234099848297774 0 0 0 0 1.5914766997066181 -112.31565912251244 0 -112.31565912251244 -342.72768528958841 0 0 0 0 1.8983242028152745 -3.0558119638590142 0 -3.0558119638590142 43.658197432014276 0 0 0 0 -9.008929204066817 -5.7158558548680958 0 -5.7158558548680958 24.589055803720839 0 0 0 0 -1.5206373560093578 -15.55517884468938 0 -15.55517884468938 69.145428144225392 0 0 0 0 1.6626420183438313 -5.5749028829886811 0 -5.5749028829886811 29.78860164564685 0 0 0 0 282.30106625624524 -332.61587130392945 0 -332.61587130392945 1008.6874152671212 0 0 0 0 263.71996636695712 -331.90353219120516 0 -331.90353219120516 1209.1436983551757 0 0 0 0 407.53517803432754 -321.93777810426218 0 -321.93777810426218 640.77685825270601 0 0 0 0 255.70850861852097 -521.92871437957365 0 -521.92871437957365 982.95390818789019 0 0 0 0 231.02736003097684 29.972584189974441 0 29.972584189974441 703.21105868180894 0 0 0 0 422.207466498705 -244.6459406012691 0 -244.6459406012691 1022.2755823491952 0 0 0 0 754.31859072144061 -9.5626516001866548 0 -9.5626516001866548 614.44501176764243 0 0 0 0 1443.6007092676659 247.34406308964753 0 247.34406308964753 370.07534063088679 0 0 0 0 502.92373054217853 210.91682660485014 0 210.91682660485014 445.06020010716747 0 0 0 0 955.77068386559881 -612.5470499676303 0 -612.5470499676303 872.58898285898181 0 0 0 0 346.55061467462031 -166.41320127273502 0 -166.41320127273502 608.28729295222729 0 0 0 0 365.34592362931505 -336.71150082356326 0 -336.71150082356326 635.80086006480997 0 0 0 0 693.77934256432297 -342.52951607480509 0 -342.52951607480509 458.07039392839215 0 0 0 0 374.42645182146708 -351.59248387517437 0 -351.59248387517437 341.33596482164648 0 0 0 0 -44.7713028690371 -254.29636472197672 0 -254.29636472197672 457.39288247142395 0 0 0 0 340.68349311029192 -227.76451218277361 0 -227.76451218277361 102.14104139248639 0 0 0 0 -240.02921392417647 153.17524347602193 0 153.17524347602193 181.55889685463626 0 0 0 0 1.5739958587354197 6.1370226108925152 0 6.1370226108925152 13.122343706154169 0 0 0 0 -192.37232020193233 184.11683470953722 0 184.11683470953722 9.0110289708536584 0 0 0 0 174.42044065482091 -349.84275200030697 0 -349.84275200030697 323.06532400508149 0 0 0 0 60.849812393661182 -368.37153920954006 0 -368.37153920954006 649.55607163268905 0 0 0 0 282.02183578564092 -445.41908958805652 0 -445.41908958805652 682.47221160511617 0 0 0 0 107.5433854524309 -474.11239241856583 0 -474.11239241856583 685.56375590742391 0 0 0 0 216.81254062842694 -647.73123361793841 0 -647.73123361793841 1148.3275539252209 0 0 0 0 287.67858449327747 -458.59263970476241 0 -458.59263970476241 517.9449244369207 0 0 0 0 264.04083232968821 -688.67986495397599 0 -688.67986495397599 1094.3826465110615 0 0 0 0 466.83708186225545 -541.0740473960941 0 -541.0740473960941 432.04093679988 0 0 0 0 349.09597051379546 -368.72964175807647 0 -368.72964175807647 250.56556080088194 0 0 0 0 0.058731600949112561 1.6247368960501163 0 1.6247368960501163 5.1057194234894041 0 0 0 0 144.60396992757978 -210.54534500804584 0 -210.54534500804584 400.57889566660015 0 0 0 0 1.07500199305764 142.43003500221312 0 142.43003500221312 -65.204995870371931 0 0 0 0 87.574976293420264 -51.798368101088272 0 -51.798368101088272 109.04900905651448 0 0 0 0 171.23484111760536 -357.98664258577264 0 -357.98664258577264 575.26494369729699 0 0 0 0 -131.73225523482893 179.02981321274819 0 179.02981321274819 -70.662665995259886 0 0 0 0 1.2842947985677267 5.0409066792572617 0 5.0409066792572617 11.529629763077281 0 0 0 0 -15.60736711699451 14.457904453878655 0 14.457904453878655 -54.76281098122854 0 0 0 0 40.247227075094543 164.05549217222142 0 164.05549217222142 194.58681046251513 0 0 0 0 -1.4622266122444216 10.841361070746643 0 10.841361070746643 -45.181397087471851 0 0 0 0 3.3230635296695255 24.570925016716501 0 24.570925016716501 -18.660543722733564 0 0 0 0 113.79329232448026 -20.104829508905823 0 -20.104829508905823 -2.0842747324713855 0 0 0 0 85.655268437686573 279.72567042776427 0 279.72567042776427 412.06634829685208 0 0 0 0 -0.26008040822728162 0.26635472275210503 0 0.26635472275210503 -0.30067251117850446 0 0 0 0 10.577729463384912 -13.525965244974941 0 -13.525965244974941 -120.98559431780632 0 0 0 0 21.295266960787103 -88.543718547232857 0 -88.543718547232857 195.49573633552427 0 0 0 0 60.21415266803092 -119.72532460942784 0 -119.72532460942784 -94.037133165897103 0 0 0 0 130.68139752388925 -7.382300125213078 0 -7.382300125213078 -123.06733969003835 0 0 0 0 0.40019014392871455 -3.7108426079079919 0 -3.7108426079079919 3.2635567850844183 0 0 0 0 12.136096379795617 4.7623178422145429 0 4.7623178422145429 12.853045593386923 0 0 0 0 3.9736702788061868 -12.204234747881468 0 -12.204234747881468 28.001053098753204 0 0 0 0 -52.27744639676439 28.187308511080118 0 28.187308511080118 4.5719952127292345 0 0 0 0 -38.270732361949058 73.445465228002831 0 73.445465228002831 70.663077798213635 0 0 0 0 -106.77185430413283 -91.721482491280767 0 -91.721482491280767 69.808758684941694 0 0 0 0 -30.251052232745224 110.07966061346815 0 110.07966061346815 210.69655142727424 0 0 0 0 -106.50484408385091 -46.497489555615175 0 -46.497489555615175 385.15767361649341 0 0 0 0 -58.152359824801522 -1595.3382917488307 0 -1595.3382917488307 3495.5314073018262 0 0 0 0 -16.87210113097251 -17.989290327031995 0 -17.989290327031995 45.929790080081148 0 0 0 0 2.4759014329393789 -13.164124209811547 0 -13.164124209811547 34.554592681829106 0 0 0 0 -104.0784061435138 -104.34600992407286 0 -104.34600992407286 85.934531538809097 0 0 0 0 -5.7765602457036493 -20.654799681797158 0 -20.654799681797158 45.276616478851793 0 0 0 0 666.98200319399234 -461.50531319412039 0 -461.50531319412039 580.52289801354345 0 0 0 0 2.9811875274172692 -5.3789350268151566 0 -5.3789350268151566 2.1563050486249011 0 0 0 0 23.742763264124051 -55.471449512322579 0 -55.471449512322579 -243.50428195497807 0 0 0 0 137.79335410839667 -360.10004571360332 0 -360.10004571360332 117.47094465730333 0 0 0 0 641.52434391932445 -809.4754775338115 0 -809.4754775338115 933.51640359130397 0 0 0 0 107.5849276836525 -292.0349970804964 0 -292.0349970804964 529.50442597312122 0 0 0 0 574.53949279069138 -998.92307433955648 0 -998.92307433955648 588.08637099473367 0 0 0 0 556.44498150857135 -4.4470799739428912 0 -4.4470799739428912 188.90489438256918 0 0 0 0 295.70608458187689 70.858552843672442 0 70.858552843672442 18.065261858137092 0 0 0 0 -17.583994025321537 2.3350648252971666 0 2.3350648252971666 25.273394084747935 0 0 0 0 -254.16189290067314 -357.2857217728324 0 -357.2857217728324 276.76488669047831 0 0 0 0 -0.10620623487065384 0.47786294761165848 0 0.47786294761165848 -0.29249253489373928 0 0 0 0 2997.390724699675 -395.81081304736654 0 -395.81081304736654 -336.02562439042413 0 0 0 0 103.11161875115386 -314.13449082465741 0 -314.13449082465741 226.16041959363065 0 0 0 0 159.76375166492653 -125.15834516698305 0 -125.15834516698305 810.37665965256747 0 0 0 0 1427.1118695489274 1815.4025621329438 0 1815.4025621329438 2116.1212541757777 0 0 0 0 9.608743703450827 -9.1090502332389924 0 -9.1090502332389924 21.465247204169046 0 0 0 0 2280.3473489626722 -2233.8953017950853 0 -2233.8953017950853 1068.8838836937139 0 0 0 0 457.59856774539895 -1170.2938483979669 0 -1170.2938483979669 2024.0138667313795 0 0 0 0 1017.712073119557 -2421.6880355169451 0 -2421.6880355169451 2434.7306092110193 0 0 0 0 245.73050227732574 -713.82618165762688 0 -713.82618165762688 1292.6069032245714 0 0 0 0 924.10409206647955 -1375.849433722703 0 -1375.849433722703 1216.3164298743068 0 0 0 0 2.0918199025255095 -0.98557667735734356 0 -0.98557667735734356 0.0050096323359980488 0 0 0 0 144.55623812946322 349.01877798832686 0 349.01877798832686 -167.52038269078184 0 0 0 0 723.86733598270553 -1086.1685921056633 0 -1086.1685921056633 1574.5949769870749 0 0 0 0 813.79681159736515 -941.09003331680287 0 -941.09003331680287 1089.2227429039413 0 0 0 0 -558.71598199739049 -306.48870324178824 0 -306.48870324178824 3500.1994497501792 0 0 0 0 176.05721218985346 -796.01569746411587 0 -796.01569746411587 1724.026330532728 0 0 0 0 464.99991824243654 -1142.5971119380879 0 -1142.5971119380879 1748.5009500684282 0 0 0 0 185.29046613593206 -618.94369144670418 0 -618.94369144670418 1182.5242935982533 0 0 0 0 -246.14415250901845 -774.40304697779811 0 -774.40304697779811 2571.6581483389673 0 0 0 0 -295.20590268478475 -601.90125798916597 0 -601.90125798916597 2113.5912394068691 0 0 0 0 34.7040458241039 -359.99150506234946 0 -359.99150506234946 2004.4054378717974 0 0 0 0 150.96222484026498 -696.1591769955885 0 -696.1591769955885 1460.7687810233401 0 0 0 0 84.163631200937743 -433.68696765260211 0 -433.68696765260211 1528.6738730843645 0 0 0 0 -94.943806850733381 -94.90841495070481 0 -94.90841495070481 -53.295053098871904 0 0 0 0 -112.31462663205775 -142.55771609354713 0 -142.55771609354713 -20.33193204181589 0 0 0 0 -82.588452260399208 -103.97661573890855 0 -103.97661573890855 -115.63285691903866 0 0 0 0 -109.56234950881117 -130.60313855450931 0 -130.60313855450931 -12.623697787226774 0 0 0 0 -56.587115467256808 -150.14835538425541 0 -150.14835538425541 -8.8213505639469076 0 0 0 0 -40.471741075143655 -88.060113683340205 0 -88.060113683340205 -24.287653686371982 0 0 0 0 -80.601514481104459 -116.08831518193347 0 -116.08831518193347 -11.210817019955357 0 0 0 0 -28.352152225366808 -13.622434728184089 0 -13.622434728184089 0.91570611434508464 0 0 0 0 -87.668546208611588 -58.776678560119763 0 -58.776678560119763 17.35801304599363 0 0 0 0 -95.671675571862579 -111.49779976199034 0 -111.49779976199034 -22.329907216058075 0 0 0 0 -115.00785882568198 -78.511189598857527 0 -78.511189598857527 10.234392909831968 0 0 0 0 -102.02249654094794 -91.729444914427859 0 -91.729444914427859 -154.9435827275679 0 0 0 0 -151.21614268747453 -108.91221962713325 0 -108.91221962713325 22.255239564070507 0 0 0 0 -119.34615998697154 -193.83465643264367 0 -193.83465643264367 -140.44618254824309 0 0 0 0 6.0765646832934799 -8.7997604802561167 0 -8.7997604802561167 9.2028708037748537 0 0 0 0 -29.871064893244238 -205.34219280452498 0 -205.34219280452498 44.3093990473335 0 0 0 0 -167.039076555463 -143.19162545588301 0 -143.19162545588301 -54.861799991432044 0 0 0 0 57.736852396401218 76.170169038868806 0 76.170169038868806 -136.16074521847133 0 0 0 0 102.07855351216494 221.28048622379856 0 221.28048622379856 -340.32866711750535 0 0 0 0 122.15870457431811 -105.52827402098433 0 -105.52827402098433 -509.94985815316312 0 0 0 0 3.577069059326865 -0.98925124265085351 0 -0.98925124265085351 -2.8699931238366156 0 0 0 0 -216.51338973542624 -333.31660986943211 0 -333.31660986943211 -218.56244614328625 0 0 0 0 -4.5255430698380223 -73.764041176277487 0 -73.764041176277487 -127.21902117863088 0 0 0 0 -69.868712435929865 31.976935391591951 0 31.976935391591951 104.05367388816057 0 0 0 0 -65.13903873208983 -36.912698037721611 0 -36.912698037721611 29.920742803499991 0 0 0 0 -9.4801929240238678 -288.12713688523627 0 -288.12713688523627 -362.12549573694037 0 0 0 0 -84.884109011600231 -145.89382250929839 0 -145.89382250929839 -88.848721845311275 0 0 0 0 -241.81581553465003 -94.152162575310868 0 -94.152162575310868 -58.966650037968662 0 0 0 0 -21.962485984662635 -95.115070379767985 0 -95.115070379767985 54.100256369171802 0 0 0 0 -450.36270453306861 -2.8075841755367037 0 -2.8075841755367037 -94.683116878356941 0 0 0 0 -47.916966843411501 13.762077031633908 0 13.762077031633908 -350.13454421146253 0 0 0 0 -145.75500425343489 -115.01667752635512 0 -115.01667752635512 131.94534958333679 0 0 0 0 6.5653984237324039 -130.70037628970931 0 -130.70037628970931 111.89371638079319 0 0 0 0 4.3539881734400545 -6.9909398130580858 0 -6.9909398130580858 8.0707625485394985 0 0 0 0 -119.33561838156129 -50.666118387503047 0 -50.666118387503047 102.2943361995749 0 0 0 0 -81.807121753945466 -70.343132354469162 0 -70.343132354469162 7.5930976259533054 0 0 0 0 -124.04205951418771 -98.482321885454439 0 -98.482321885454439 76.354038642804881 0 0 0 0 -121.65042375330722 -149.38741936582187 0 -149.38741936582187 31.412173757847995 0 0 0 0 -154.40251050821826 -134.07859543626 0 -134.07859543626 41.008480539032007 0 0 0 0 -179.06056888162857 -200.67500332606778 0 -200.67500332606778 2.3642470052691351 0 0 0 0 -158.30883847396763 -175.79294608465534 0 -175.79294608465534 30.012650549709576 0 0 0 0 -99.478762996750447 -187.96427532348753 0 -187.96427532348753 -9.6843106456344685 0 0 0 0 -197.87469616691305 -147.16964741380525 0 -147.16964741380525 72.997884344655517 0 0 0 0 -168.03980503564708 -162.12963809077701 0 -162.12963809077701 -29.451474200970551 0 0 0 0 -118.4932274024668 -166.63296797600469 0 -166.63296797600469 -90.776720809178187 0 0 0 0 -109.75320726111022 -136.78180084681026 0 -136.78180084681026 -5.8559955898235785 0 0 0 0 -67.190043183125908 -100.14276853238016 0 -100.14276853238016 -44.863615677197231 0 0 0 0 157.96921379663877 -59.84278847058664 0 -59.84278847058664 44.018720639855019 0 0 0 0 179.00554966463545 251.42269070207533 0 251.42269070207533 108.81396189449879 0 0 0 0 -206.86373780211943 -130.51117204860475 0 -130.51117204860475 157.08173895628261 0 0 0 0 -79.810349755785865 33.464792278735331 0 33.464792278735331 109.67164129745288 0 0 0 0 -575.60544429625224 -20.208543302527687 0 -20.208543302527687 139.85382225296689 0 0 0 0 -361.59426560940665 -381.60036049275914 0 -381.60036049275914 -104.72725012874616 0 0 0 0 -256.47710522735179 188.31686629116302 0 188.31686629116302 254.82481516543339 0 0 0 0 -78.727019185147583 -58.752106508097313 0 -58.752106508097313 20.968974007241741 0 0 0 0 -143.78964613667358 -48.120963567551371 0 -48.120963567551371 168.83247840622062 0 0 0 0 -83.703698618621274 88.421074917483566 0 88.421074917483566 81.176673294401553 0 0 0 0 -150.26193405908089 -385.03062795910591 0 -385.03062795910591 -349.01386842638772 0 0 0 0 -218.7312862720828 134.40928529973053 0 134.40928529973053 -272.6809148289758 0 0 0 0 -499.02315734459444 -242.33149308410975 0 -242.33149308410975 46.780321423229907 0 0 0 0 -83.199751288242624 -197.13947124306924 0 -197.13947124306924 -545.50156763649557 0 0 0 0 12.294031214974154 -41.875321452029112 0 -41.875321452029112 45.190569455371588 0 0 0 0 -243.02727819508164 9.9560521088947098 0 9.9560521088947098 189.27797545458907 0 0 0 0 10.472714479214119 -3.181921957484974 0 -3.181921957484974 -19.437951054900623 0 0 0 0 -4.0959023864752346 1.1529917065845812 0 1.1529917065845812 0.12026820409934336 0 0 0 0 10.965721914481037 -3.5635889823061007 0 -3.5635889823061007 10.698757639649557 0 0 0 0 8.5123462865053625 -10.808565882124192 0 -10.808565882124192 14.913756014065793 0 0 0 0 -6.6372753216419369 -5.2049212989550142 0 -5.2049212989550142 -280.06619714459646 0 0 0 0 -11.678231830235784 -0.9698896436877007 0 -0.9698896436877007 11.519663901785687 0 0 0 0 -88.804059574264102 317.07416107988138 0 317.07416107988138 210.71697692028647 0 0 0 0 -100.98957994689226 -157.30836868099232 0 -157.30836868099232 33.053984221387509 0 0 0 0 -17.504258490203938 -214.4724230382617 0 -214.4724230382617 69.297440439598176 0 0 0 0 -125.42651185553365 -259.49376058772987 0 -259.49376058772987 488.77971955507746 0 0 0 0 -4.5233275077843178 -15.492827503415846 0 -15.492827503415846 41.193092831866977 0 0 0 0 50.479423073738872 -130.53923591546845 0 -130.53923591546845 -23.247784729755949 0 0 0 0 -15.506502879459731 -113.16425247308143 0 -113.16425247308143 -11.106552485477209 0 0 0 0 -85.906500043260166 -154.29993442264276 0 -154.29993442264276 -7.4829044114858334 0 0 0 0 -16.889537485312758 -181.94909864958208 0 -181.94909864958208 -8.9405598282737628 0 0 0 0 -13.018209011348517 -50.882509397122703 0 -50.882509397122703 2.069989499714211 0 0 0 0 17.187459782151564 75.225625305065478 0 75.225625305065478 9.0744480299254064 0 0 0 0 1.310206734726691 0.30485153197847659 0 0.30485153197847659 9.4381999667513483 0 0 0 0 -20.653618967215152 -1.894436847705947 0 -1.894436847705947 82.126241265519639 0 0 0 0 -12.356430378215009 -48.033740036227755 0 -48.033740036227755 49.391040839291236 0 0 0 0 3.0156929472306686 -20.851285533870904 0 -20.851285533870904 37.525043104377822 0 0 0 0 22.679753417614847 -15.787064277054014 0 -15.787064277054014 40.884641874115914 0 0 0 0 19.529526512154916 -32.568006214918569 0 -32.568006214918569 76.123438545047975 0 0 0 0 -1.8142945544291855 0.2017715850300057 0 0.2017715850300057 4.3375463507406664 0 0 0 0 2.6892664049294019 3.7497678224528705 0 3.7497678224528705 10.897045920733158 0 0 0 0 -8.0662460950134118 -4.1017286906026129 0 -4.1017286906026129 81.57221958602895 0 0 0 0 5.0230575284431325 -8.5040288241252711 0 -8.5040288241252711 21.777780210844867 0 0 0 0 -0.19177018662594492 20.871874187530921 0 20.871874187530921 160.74464580780477 0 0 0 0 -22.567890624595748 80.871242054065078 0 80.871242054065078 173.55671454245703 0 0 0 0 6.3808955332034358 -7.5924607657516248 0 -7.5924607657516248 10.268320502955362 0 0 0 0 -0.94056018781893691 -3.6767031543757227 0 -3.6767031543757227 21.678022278598487 0 0 0 0 13.594683844839892 -31.990082071428333 0 -31.990082071428333 102.41545029803819 0 0 0 0 3.093069994058169 -9.3424062562589825 0 -9.3424062562589825 110.63287951108032 0 0 0 0 11.13129777023164 -1.6561149816438956 0 -1.6561149816438956 104.06003832543684 0 0 0 0 -73.788764200084643 -161.30794308275108 0 -161.30794308275108 -122.46885533422756 0 0 0 0 -1.2403486167169113 -5.9610768472057316 0 -5.9610768472057316 26.502484934225276 0 0 0 0 6.4077872351560643 -26.166190893020886 0 -26.166190893020886 72.54814239740071 0 0 0 0 20.076156342629019 -10.485544095893601 0 -10.485544095893601 77.629737042891065 0 0 0 0 -56.18489550831373 -25.004623401913705 0 -25.004623401913705 122.68818128475687 0 0 0 0 1.160547134004446 -13.159281800762983 0 -13.159281800762983 78.046283488638892 0 0 0 0 3.9120245683279791 -14.137374029527564 0 -14.137374029527564 61.96491919397522 0 0 0 0 20.891895359817937 1.0337247232680511 0 1.0337247232680511 88.19540874845552 0 0 0 0 17.285232492500654 -16.799234129368415 0 -16.799234129368415 62.438639906489698 0 0 0 0 8.817924670449429 -15.395248718952644 0 -15.395248718952644 99.043974720982078 0 0 0 0 3.5896057575765696 -7.6808916581587638 0 -7.6808916581587638 12.723380995906638 0 0 0 0 -51.127048578675385 -100.42588221372353 0 -100.42588221372353 -83.82642552156176 0 0 0 0 1.3339265062968026 0.57627641114607897 0 0.57627641114607897 0.98017077264108821 0 0 0 0 222.90400757566613 -177.51692072634251 0 -177.51692072634251 -27.903555081677041 0 0 0 0 216.64252338190545 -139.08130935360532 0 -139.08130935360532 -112.3019682623426 0 0 0 0 129.52909206555341 -78.153328114698525 0 -78.153328114698525 93.1293025701234 0 0 0 0 96.826708424904609 -2.0724785161637556 0 -2.0724785161637556 -69.460905935062328 0 0 0 0 -121.5659784191721 -172.88028405304431 0 -172.88028405304431 78.465442053115112 0 0 0 0 35.452834735074248 -112.63789918970724 0 -112.63789918970724 73.715333710923005 0 0 0 0 -74.354173295572991 -49.977259627143212 0 -49.977259627143212 103.15226559221628 0 0 0 0 14.792583045034519 -7.5306557499552582 0 -7.5306557499552582 10.791975799460488 0 0 0 0 19.935274690557435 -26.484452258751844 0 -26.484452258751844 15.755108185077916 0 0 0 0 -1.5254031484983979 -6.3696109106360481 0 -6.3696109106360481 5.7523903169671797 0 0 0 0 -5.6259536033489894 -23.464446511211463 0 -23.464446511211463 35.693606218323112 0 0 0 0 8.8547003423450406 -24.487004504306242 0 -24.487004504306242 27.987177724717185 0 0 0 0 1.5721612467530797 -10.292526160410588 0 -10.292526160410588 -1.7161451901012157 0 0 0 0 19.159873661956681 -28.08479440181236 0 -28.08479440181236 33.218633022595895 0 0 0 0 8.6325097966948761 -24.762287802794162 0 -24.762287802794162 39.898704050134256 0 0 0 0 3.8710537501534708 -5.0675011178653122 0 -5.0675011178653122 9.2442704373115419 0 0 0 0 30.096885350780212 -30.75718342300388 0 -30.75718342300388 26.776395935361506 0 0 0 0 8.3950477629026068 -14.535628602122429 0 -14.535628602122429 10.14041737103318 0 0 0 0 -1.0307042431181799 -10.709617865271866 0 -10.709617865271866 15.470522433897713 0 0 0 0 0.64819586909174554 -11.159033415537635 0 -11.159033415537635 35.977308980918309 0 0 0 0 15.007568061182658 -15.132763768851252 0 -15.132763768851252 12.126953569806602 0 0 0 0 86.2392002226984 -129.93253429602737 0 -129.93253429602737 6.6634577287331922 0 0 0 0 11.815788189714606 -21.681347299897276 0 -21.681347299897276 38.231340797910917 0 0 0 0 -29.703960077999454 -55.066117379183197 0 -55.066117379183197 27.514426284718866 0 0 0 0 13.546784941392616 -16.737959139642044 0 -16.737959139642044 31.254038062153995 0 0 0 0 -4.4591387355651477 -9.0411585358597222 0 -9.0411585358597222 28.237664064625164 0 0 0 0 6.2800976838225324 -22.634869924524537 0 -22.634869924524537 43.702558290169691 0 0 0 0 15.507416278259825 -21.875999131785647 0 -21.875999131785647 46.161502875598671 0 0 0 0 -16.24781208816421 -36.030995190227259 0 -36.030995190227259 48.398012826495687 0 0 0 0 -18.229711651903926 -38.29517467081314 0 -38.29517467081314 13.44012972402561 0 0 0 0 6.5437306465756411 -14.366668057159179 0 -14.366668057159179 20.049541292238267 0 0 0 0 2.6653021787065434 -13.75912024232807 0 -13.75912024232807 37.379512595148206 0 0 0 0 6.9609224808061709 -20.463687523194157 0 -20.463687523194157 61.732498435506187 0 0 0 0 30.855673798366524 -17.413754118659199 0 -17.413754118659199 51.249066994747409 0 0 0 0 28.383986467602426 -22.92459550003241 0 -22.92459550003241 24.720875222581526 0 0 0 0 31.444886398287053 -4.3354894041840453 0 -4.3354894041840453 57.05264335967513 0 0 0 0 27.173053691995165 -31.939597729355228 0 -31.939597729355228 66.364237662222877 0 0 0 0 24.623919661951732 -30.641491932343342 0 -30.641491932343342 66.253160114691127 0 0 0 0 5.4703764835203401 -3.2724446489155525 0 -3.2724446489155525 43.394966883952293 0 0 0 0 41.81623241302168 -1.3746457464621926 0 -1.3746457464621926 10.95951769705789 0 0 0 0 10.123705635084889 -42.960475171786129 0 -42.960475171786129 28.198088070363156 0 0 0 0 7.3014492227132131 -18.579974702929199 0 -18.579974702929199 25.939046787244457 0 0 0 0 -1.2488374760650913 -22.374979078878823 0 -22.374979078878823 10.062112484694808 0 0 0 0 29.22408255483424 -20.383409938564 0 -20.383409938564 20.606594537181081 0 0 0 0 12.20703491171502 -12.945641437410025 0 -12.945641437410025 3.3987578314388003 0 0 0 0 -0.48754747763773876 -1.1791966681375357 0 -1.1791966681375357 3.9863263254396344 0 0 0 0 12.314697673943794 -27.567930608406854 0 -27.567930608406854 45.005822482151025 0 0 0 0 -6.1061725002800813 -27.85614008891207 0 -27.85614008891207 19.612632243544795 0 0 0 0 7.2473444292354259 -18.224745398381742 0 -18.224745398381742 34.85517609964397 0 0 0 0 9.3342178852120696 48.675339192813652 0 48.675339192813652 -2.6759732406362673 0 0 0 0 0.44854867723552161 -65.14079418800884 0 -65.14079418800884 -75.278608805150725 0 0 0 0 -132.07589123534854 -168.24865881151072 0 -168.24865881151072 -67.208209835916932 0 0 0 0 -277.78775381552623 -90.361931443811045 0 -90.361931443811045 -85.696836723861452 0 0 0 0 -60.313202044064383 -261.49179688360505 0 -261.49179688360505 -16.340166165089784 0 0 0 0 -68.757868025895732 -122.32328024402341 0 -122.32328024402341 -397.87529679549016 0 0 0 0 -95.900987074970772 8.1920056160964236 0 8.1920056160964236 -62.552462540555098 0 0 0 0 2.4136432101026486 -13.794338309965713 0 -13.794338309965713 13.92888385101889 0 0 0 0 32.573495039581758 -106.18794121364908 0 -106.18794121364908 35.769177618529966 0 0 0 0 29.951605729479525 -102.20228026851248 0 -102.20228026851248 -13.073501923770891 0 0 0 0 21.85968773836521 -149.48937377920447 0 -149.48937377920447 180.74807235951994 0 0 0 0 -1.7322978041561594 -0.19423897027278514 0 -0.19423897027278514 4.9137828033053239 0 0 0 0 -3.8356599114763412 40.24682030216627 0 40.24682030216627 54.058997517717216 0 0 0 0 5.8833704816706813 -54.650715168385204 0 -54.650715168385204 26.347430366729895 0 0 0 0 22.916030934952708 -33.395481353893089 0 -33.395481353893089 49.749582980739063 0 0 0 0 -59.273247422759596 -134.38435216773667 0 -134.38435216773667 17.563917903079641 0 0 0 0 51.505049731353211 -174.33031367053275 0 -174.33031367053275 -182.03157703437046 0 0 0 0 -225.79096438248416 -63.012489114131483 0 -63.012489114131483 150.58048187646847 0 0 0 0 -62.231463657508925 -86.979387584990846 0 -86.979387584990846 52.591905354312075 0 0 0 0 -381.59979909605681 -292.72153768195994 0 -292.72153768195994 1167.8870772805349 0 0 0 0 -215.56513594907483 -363.73205528077034 0 -363.73205528077034 -26.320442857739664 0 0 0 0 2.6275844013235492 -2.8985132099457207 0 -2.8985132099457207 2.8570630437333024 0 0 0 0 -64.269854237969412 366.0165512695886 0 366.0165512695886 659.70270243057246 0 0 0 0 101.14168774188329 230.14432930143016 0 230.14432930143016 412.36880992062447 0 0 0 0 -81.903352595996694 -460.37014691663251 0 -460.37014691663251 -345.17300129053314 0 0 0 0 -0.12690171347162504 -13.47432304996255 0 -13.47432304996255 39.955071616137502 0 0 0 0 -98.045976512920333 -28.750663497143108 0 -28.750663497143108 64.062249899223389 0 0 0 0 6.4323200298803558 -20.406531625487766 0 -20.406531625487766 42.470223448568277 0 0 0 0 -97.164752983568178 50.47172860491446 0 50.47172860491446 125.15683619108313 0 0 0 0 19.565993159813843 19.989497860700794 0 19.989497860700794 -19.470308438281791 0 0 0 0 -55.249088092554302 104.00506882406262 0 104.00506882406262 183.87926491990947 0 0 0 0 128.9294371226124 97.151518318638409 0 97.151518318638409 33.417121871651034 0 0 0 0 -35.21202976780549 21.795797213354213 0 21.795797213354213 30.696969576034554 0 0 0 0 -11.096088303936995 -30.598797134262639 0 -30.598797134262639 111.851665349418 0 0 0 0 14.146063650114355 -35.01738106524251 0 -35.01738106524251 57.425654631855437 0 0 0 0 -9.7951424657048847 -12.858209561007243 0 -12.858209561007243 -4.8137415239325492 0 0 0 0 -8.0579106173015305 -8.5341311480915465 0 -8.5341311480915465 17.505210733386775 0 0 0 0 -10.644760847790465 -43.091438252084174 0 -43.091438252084174 41.562524069820938 0 0 0 0 -5.9943784397840814 -19.441727131641297 0 -19.441727131641297 41.154942887758942 0 0 0 0 6.6397407113891811 -26.322411758701431 0 -26.322411758701431 56.627409171584311 0 0 0 0 31.177784886426394 -154.0014457778725 0 -154.0014457778725 271.44582602632727 0 0 0 0 529.50614570358493 465.92412750679796 0 465.92412750679796 120.21991680160045 0 0 0 0 -26.424681891922319 -74.658905473721461 0 -74.658905473721461 890.57598264177068 0 0 0 0 -7.1938719025413516 3.2691551161203627 0 3.2691551161203627 7.4067443470795951 0 0 0 0 11.864042441090191 613.77362778086899 0 613.77362778086899 807.30877296000563 0 0 0 0 -85.005965983376683 80.008275375781523 0 80.008275375781523 1401.5288870588956 0 0 0 0 50.970774225663149 53.442115666148311 0 53.442115666148311 587.33559944154331 0 0 0 0 -110.81307748369892 614.76900916203158 0 614.76900916203158 1953.0102842113665 0 0 0 0 -779.02958768215012 133.31391744649591 0 133.31391744649591 3500.8129238878446 0 0 0 0 -372.62778812865548 549.85437088642357 0 549.85437088642357 1985.5874718089617 0 0 0 0 29.81447394092757 1356.7892121908371 0 1356.7892121908371 3494.9812276247476 0 0 0 0 -369.70863856349615 582.4546250907631 0 582.4546250907631 2301.2750864371701 0 0 0 0 330.02834592583815 1340.9430018933199 0 1340.9430018933199 1899.4344997616281 0 0 0 0 12.206307783217198 142.69929240902374 0 142.69929240902374 433.86926219495024 0 0 0 0 -33.233460799067124 26.775958205264509 0 26.775958205264509 23.068217673908325 0 0 0 0 212.66580339058851 -537.13032009604103 0 -537.13032009604103 472.03449122151233 0 0 0 0 -142.89364414788452 -10.904048354350039 0 -10.904048354350039 434.33344084741657 0 0 0 0 285.80162703010137 -826.40447645916629 0 -826.40447645916629 1020.9290514490229 0 0 0 0 -327.27170735709637 -518.7552369156283 0 -518.7552369156283 2103.6338272127814 0 0 0 0 -718.00866194464925 -300.90503432199057 0 -300.90503432199057 2234.4942626483917 0 0 0 0 -620.04895224848576 -1160.0739698324724 0 -1160.0739698324724 3493.4623363199626 0 0 0 0 469.19059854856414 -1553.4085124274889 0 -1553.4085124274889 2251.4432720246768 0 0 0 0 5.3244393212619219 -8.1589899430024246 0 -8.1589899430024246 13.458600502350848 0 0 0 0 668.38261515742317 -127.55733247511768 0 -127.55733247511768 77.205533870965155 0 0 0 0 96.941495324346093 887.9543697974259 0 887.9543697974259 3498.8883223914327 0 0 0 0 -51.280539446624132 231.38851850263416 0 231.38851850263416 2355.4830903934835 0 0 0 0 -4.9639816899681257 2.6835313560704428 0 2.6835313560704428 4.2758794543633734 0 0 0 0 -38.171584684153459 -5.4682478078959207 0 -5.4682478078959207 -2.4588556190597046 0 0 0 0 -59.313365749957029 2.0702351357547855 0 2.0702351357547855 61.622843394854954 0 0 0 0 13.379807764460566 85.090092290696248 0 85.090092290696248 78.53954313203684 0 0 0 0 -32.569212767622957 30.275104529136797 0 30.275104529136797 17.502274854072311 0 0 0 0 -15.536112028987191 98.785546030990758 0 98.785546030990758 20.372854088932058 0 0 0 0 -8.6160652117760037 2.9504512923040238 0 2.9504512923040238 92.402543717297476 0 0 0 0 -41.759489541617349 23.222320859424475 0 23.222320859424475 20.607917496686721 0 0 0 0 -90.186442988459021 232.04452528739398 0 232.04452528739398 471.9748572404543 0 0 0 0 -0.25710835232530371 272.01681774418057 0 272.01681774418057 393.82638014146744 0 0 0 0 -65.091691663349138 174.27168856200177 0 174.27168856200177 285.71687897522315 0 0 0 0 21.798126580957614 194.907830036532 0 194.907830036532 240.08925007713719 0 0 0 0 61.042494144181546 268.45977945566892 0 268.45977945566892 247.40556339607406 0 0 0 0 -16.198753239038524 92.88818872791137 0 92.88818872791137 95.941475254993748 0 0 0 0 30.847530816328799 172.78288855317288 0 172.78288855317288 9.0091478809586079 0 0 0 0 294.11329561115417 375.589036290693 0 375.589036290693 621.40994446726336 0 0 0 0 -15.914547867210331 204.18073649173408 0 204.18073649173408 476.56545110422576 0 0 0 0 161.47413924941065 63.866119424833414 0 63.866119424833414 447.4786451731934 0 0 0 0 -38.291521095950884 -234.57774388271855 0 -234.57774388271855 881.64626682996277 0 0 0 0 -146.47051760907925 -210.54182303355446 0 -210.54182303355446 652.79396516471979 0 0 0 0 1.6871066911589132 -0.81922738175533638 0 -0.81922738175533638 -0.043068123893108101 0 0 0 0 105.17116395179983 168.68158434675183 0 168.68158434675183 -143.68695791021378 0 0 0 0 4.4252219260051788 -107.95103736894589 0 -107.95103736894589 549.74442772325517 0 0 0 0 -11.134863747264717 -134.3499506592409 0 -134.3499506592409 142.80102466761252 0 0 0 0 -40.198125297843944 -200.82953810601953 0 -200.82953810601953 529.02980462183189 0 0 0 0 5.2426378238448592 -7.7410411250983771 0 -7.7410411250983771 8.0811700516759544 0 0 0 0 -220.63866864619786 -285.55236371984961 0 -285.55236371984961 -201.70400286702625 0 0 0 0 134.42641270484341 327.53695318180274 0 327.53695318180274 951.58093289855879 0 0 0 0 -92.524978000152259 53.715573302043595 0 53.715573302043595 694.25223937546707 0 0 0 0 -13.884724094399644 75.601179813132148 0 75.601179813132148 391.64353074964174 0 0 0 0 -56.490774523919754 67.070038303970591 0 67.070038303970591 389.9356439497069 0 0 0 0 -12.766362816330002 108.41959556573636 0 108.41959556573636 199.88368709008319 0 0 0 0 64.594848380285839 145.2774568038767 0 145.2774568038767 5.9664865462270882 0 0 0 0 124.23019835699233 276.83387784022261 0 276.83387784022261 332.81690072466245 0 0 0 0 -37.238330255195251 96.954278689510147 0 96.954278689510147 230.16949292035952 0 0 0 0 -197.39528899798097 262.05266045228655 0 262.05266045228655 135.60232644877306 0 0 0 0 41.900431311758439 -83.618455909499517 0 -83.618455909499517 493.70793686084016 0 0 0 0 -279.79065618191908 8.9118919845128062 0 8.9118919845128062 529.80422303765135 0 0 0 0 -42.00121031289018 -309.79326674957247 0 -309.79326674957247 857.69164437791187 0 0 0 0 -131.09282732030988 -96.782831062914738 0 -96.782831062914738 1072.1786271274104 0 0 0 0 -140.23041082157943 -134.72484031929889 0 -134.72484031929889 919.41525487608851 0 0 0 0 -83.858812512778968 -47.97876429401731 0 -47.97876429401731 568.55588104769822 0 0 0 0 346.78168867058412 -354.53891507503795 0 -354.53891507503795 786.75574967153261 0 0 0 0 -10.012279790118555 38.093144812239188 0 38.093144812239188 919.67562398547261 0 0 0 0 1.6112671233773952 3.7891992142966955 0 3.7891992142966955 1.0970236988981268 0 0 0 0 56.709401146348682 261.2285274398414 0 261.2285274398414 1549.3176304702147 0 0 0 0 -92.846182426372252 27.004778071809596 0 27.004778071809596 899.32940696087712 0 0 0 0 14.652262998313745 94.665473198051586 0 94.665473198051586 -107.18749298866692 0 0 0 0 -2.7363406522821001 1.9327987868105083 0 1.9327987868105083 2.1261742095604106 0 0 0 0 -27.335227068739187 -8.8791819615807981 0 -8.8791819615807981 856.12755830133392 0 0 0 0 -8.6922810420989816 15.53148518288328 0 15.53148518288328 3.1247278337878637 0 0 0 0 -51.802881814053762 18.825922886682747 0 18.825922886682747 -32.844668487595413 0 0 0 0 -39.399383447773289 -118.31213229717559 0 -118.31213229717559 624.57475162213041 0 0 0 0 -73.501209970823766 -5.2736883178222342 0 -5.2736883178222342 7.4209023832222556 0 0 0 0 11.576780644125392 13.074133136711225 0 13.074133136711225 10.736923270781745 0 0 0 0 -16.014810909263812 6.0941884761929215 0 6.0941884761929215 4.2023532701207627 0 0 0 0 115.39894451213075 -432.20465459716308 0 -432.20465459716308 946.40415795470017 0 0 0 0 -27.842624303024422 14.269287596685103 0 14.269287596685103 34.74056416768758 0 0 0 0 -36.978897753026558 18.959734084267438 0 18.959734084267438 5.2097539566520936 0 0 0 0 -74.785527697317548 -22.980589472297538 0 -22.980589472297538 17.305640267490617 0 0 0 0 1.8119699414821433 2.8212209019953463 0 2.8212209019953463 3.6833500948096409 0 0 0 0 -29.19451342434996 22.901043453221732 0 22.901043453221732 -6.9911679941407119 0 0 0 0 -14.35928153929251 20.725424018504327 0 20.725424018504327 7.2381279231349254 0 0 0 0 -43.381310708145975 47.113456252059109 0 47.113456252059109 -8.702561967901147 0 0 0 0 -4.6602637569119816 -4.5658312962185743 0 -4.5658312962185743 29.551628189596848 0 0 0 0 440.2287002321018 -777.35792113306593 0 -777.35792113306593 1328.2802191602887 0 0 0 0 -1131.6135539167769 292.25234054270709 0 292.25234054270709 3494.5617864012065 0 0 0 0 -9.2113563984299205 8.6499751631298487 0 8.6499751631298487 -0.76794161314676312 0 0 0 0 56.402740274514052 970.82514589433549 0 970.82514589433549 3498.161323531036 0 0 0 0 -20.566978328849927 6.3942263546509821 0 6.3942263546509821 42.951436185414877 0 0 0 0 1.5106186833905468 112.65308469571266 0 112.65308469571266 1561.4509935779711 0 0 0 0 -7.117757785217198 3.416175423682247 0 3.416175423682247 4.3977893520770932 0 0 0 0 -45.977954949483056 -524.42581789450082 0 -524.42581789450082 3493.7694046631814 0 0 0 0 -2.4061639646661206 -68.300198601402826 0 -68.300198601402826 58.3684178557819 0 0 0 0 -2.8885282693864491 -1.1308222771601506 0 -1.1308222771601506 4.9092241333149973 0 0 0 0 -1.6858260977931536 36.693385793384039 0 36.693385793384039 30.309137865298226 0 0 0 0 47.626903346836116 35.787689090275762 0 35.787689090275762 29.100266242382986 0 0 0 0 -57.834168409317044 38.535598457326614 0 38.535598457326614 82.992851409621835 0 0 0 0 -94.230480577683764 419.35177229726105 0 419.35177229726105 3495.4751087154209 0 0 0 0 75.948385574983618 -379.05197681124082 0 -379.05197681124082 2286.0799392086501 0 0 0 0 1005.2270443132991 259.20238065485864 0 259.20238065485864 740.97753846560772 0 0 0 0 1064.7670650733135 -36.599625922941414 0 -36.599625922941414 2074.0732663431272 0 0 0 0 234.57437153711234 733.27321245406256 0 733.27321245406256 162.27232416451807 0 0 0 0 0.37241427029312513 3.6917564193574233 0 3.6917564193574233 11.539485328898087 0 0 0 0 196.35872847555902 1023.525522156986 0 1023.525522156986 2135.675734092114 0 0 0 0 -6.87875437070252 -9.1802669010056981 0 -9.1802669010056981 11.659813411852237 0 0 0 0 -10.443332270962856 14.780011615270723 0 14.780011615270723 44.366011796920247 0 0 0 0 253.81444895967434 -754.04075539894711 0 -754.04075539894711 -373.95697543473943 0 0 0 0 2.4738926040289977 10.287647744895747 0 10.287647744895747 5.2639670905329901 0 0 0 0 -490.8991006745278 -163.03066017451783 0 -163.03066017451783 1390.3447392740345 0 0 0 0 395.51181197904532 -558.70884795089296 0 -558.70884795089296 1759.0244990800838 0 0 0 0 1499.5756758562561 180.50316160739749 0 180.50316160739749 -1494.794784096739 0 0 0 0 750.4628969612063 -753.81783021544106 0 -753.81783021544106 -2414.5578455913492 0 0 0 0 -753.50497050049307 -897.14395195087127 0 -897.14395195087127 -1033.4361527645815 0 0 0 0 1957.2670856527584 -1128.1085221268968 0 -1128.1085221268968 -2569.4304307961756 0 0 0 0 2.7400633560460914 0.26369844465931536 0 0.26369844465931536 3.3896775302312854 0 0 0 0 -0.96497899285932487 0.50382849264535423 0 0.50382849264535423 2.0900243427062337 0 0 0 0 1316.9231104495052 -838.71973565585176 0 -838.71973565585176 506.58524055629459 0 0 0 0 908.57712014016761 -196.08386124224853 0 -196.08386124224853 -360.02026699495445 0 0 0 0 1518.683663347977 35.120569147967672 0 35.120569147967672 -449.83115522762455 0 0 0 0 460.10140056502973 -103.40595279131321 0 -103.40595279131321 168.65487461648763 0 0 0 0 552.14225598810299 12.252045828454243 0 12.252045828454243 80.13577892799367 0 0 0 0 1149.3121668920514 -490.20571192115403 0 -490.20571192115403 141.96268454927031 0 0 0 0 6.814689769346387 -597.77316249620799 0 -597.77316249620799 1611.8714335765662 0 0 0 0 645.73837536741587 -289.77715610751181 0 -289.77715610751181 313.19947296736973 0 0 0 0 284.38645352496974 -249.98558762771108 0 -249.98558762771108 610.92239393804539 0 0 0 0 155.49990274449436 -215.30853484853611 0 -215.30853484853611 601.68842556390246 0 0 0 0 246.24648997435594 -135.20361422018817 0 -135.20361422018817 366.29502488086138 0 0 0 0 342.99784687455849 4.1766327437348707 0 4.1766327437348707 213.93054770770328 0 0 0 0 450.57294571669445 -45.342485028550755 0 -45.342485028550755 198.58595772450053 0 0 0 0 -26.566613321499062 -44.090522173250065 0 -44.090522173250065 612.54984745233844 0 0 0 0 -6.2416779491452772 7.3560076157186778 0 7.3560076157186778 2.8332780026445539 0 0 0 0 130.15402599942172 37.389066055313378 0 37.389066055313378 65.039855330250248 0 0 0 0 3.7709306350980114 -88.665374627976689 0 -88.665374627976689 638.03977818212434 0 0 0 0 88.891145884319869 -59.809891363005448 0 -59.809891363005448 447.48507163457543 0 0 0 0 88.907819373395114 -48.006846469272205 0 -48.006846469272205 403.79269853698906 0 0 0 0 42.961930386139102 11.959304070848134 0 11.959304070848134 420.98586644978701 0 0 0 0 48.489789785396169 30.376662960638669 0 30.376662960638669 230.05741514997067 0 0 0 0 -70.055051276136965 102.7135471718766 0 102.7135471718766 549.92783748275815 0 0 0 0 -25.588350520125459 5.5500996316770852 0 5.5500996316770852 443.96297152451007 0 0 0 0 13.72906929278048 91.463761190155537 0 91.463761190155537 179.33520438328696 0 0 0 0 3.8066049726367055 0.80517959744190648 0 0.80517959744190648 114.74918372938134 0 0 0 0 138.89898001793199 26.390514805612668 0 26.390514805612668 -27.220778078428566 0 0 0 0 42.453557502403783 3.6367439518999163 0 3.6367439518999163 -85.506928446382631 0 0 0 0 -170.74532169668691 11.830839504483265 0 11.830839504483265 -63.954934373028209 0 0 0 0 34.100372921280723 -31.468977619957741 0 -31.468977619957741 109.19984701779089 0 0 0 0 61.936128868432206 -57.158529534234731 0 -57.158529534234731 -215.3557472957209 0 0 0 0 -8.3307817688619252 -76.812310534900462 0 -76.812310534900462 -164.42530469061967 0 0 0 0 77.532529535727917 -17.557214972308429 0 -17.557214972308429 -122.34763321723858 0 0 0 0 108.13430527356741 -77.271448488770773 0 -77.271448488770773 -11.496781149048957 0 0 0 0 97.090007414204592 -137.95007873800932 0 -137.95007873800932 -139.89525866916892 0 0 0 0 133.25440471208458 -110.76415541351071 0 -110.76415541351071 -124.69581652567649 0 0 0 0 131.68175801732627 -111.71960946986064 0 -111.71960946986064 -44.019443011771727 0 0 0 0 171.90576993961804 -141.76382659369165 0 -141.76382659369165 -69.35353859112638 0 0 0 0 105.24906250823005 -154.3423368401609 0 -154.3423368401609 -22.201690636375133 0 0 0 0 102.71915157632066 -176.77454295754706 0 -176.77454295754706 -88.738189615322881 0 0 0 0 84.865947641104867 -166.05931042224802 0 -166.05931042224802 -73.200697285018578 0 0 0 0 46.605742520347121 -212.4287301986169 0 -212.4287301986169 -153.31030287766407 0 0 0 0 42.1270492235235 -213.85391649091434 0 -213.85391649091434 -82.540515021830288 0 0 0 0 26.994432808021884 -163.3667654050314 0 -163.3667654050314 -255.4757244505322 0 0 0 0 85.911569744857843 -172.09573034260825 0 -172.09573034260825 -178.6080189106724 0 0 0 0 62.812216966067353 -107.74035149513293 0 -107.74035149513293 -269.41374725763217 0 0 0 0 66.556497061974369 -131.21367025124346 0 -131.21367025124346 -122.95519832169703 0 0 0 0 249.19752481115574 -102.44704147167567 0 -102.44704147167567 5.2040952964198368 0 0 0 0 217.2834837977698 -135.48199089950049 0 -135.48199089950049 -24.78670597498467 0 0 0 0 188.90393704920643 -111.99057350908424 0 -111.99057350908424 -22.404683426297197 0 0 0 0 201.19046694217741 -69.011129818269296 0 -69.011129818269296 -0.96201104708376306 0 0 0 0 196.36214458324139 -92.357328755040498 0 -92.357328755040498 -82.165512952929021 0 0 0 0 265.01928144295204 -118.02202866243354 0 -118.02202866243354 33.676571308476014 0 0 0 0 147.34268211158434 -24.639483053865064 0 -24.639483053865064 157.38678045182212 0 0 0 0 186.16467892503846 -21.729011454899592 0 -21.729011454899592 153.04488061139904 0 0 0 0 321.01591014684573 79.198386184992401 0 79.198386184992401 72.275236627140202 0 0 0 0 381.11344817604459 -94.000066016388701 0 -94.000066016388701 95.850126231276136 0 0 0 0 252.67407319191398 -53.941869916662654 0 -53.941869916662654 33.721961385436771 0 0 0 0 283.92202673407826 -27.388721542375208 0 -27.388721542375208 33.279399403332718 0 0 0 0 273.44776954107397 11.601124332289316 0 11.601124332289316 49.188915485657162 0 0 0 0 290.26468180855903 -25.371446193307065 0 -25.371446193307065 45.497125237526689 0 0 0 0 314.34630065436801 -70.706653517813947 0 -70.706653517813947 0.5581046764009443 0 0 0 0 244.40718582705176 -95.889421453850446 0 -95.889421453850446 17.36144588111847 0 0 0 0 239.18316392709363 -95.798269493764792 0 -95.798269493764792 19.162645736525519 0 0 0 0 260.21759258679299 -59.080819032273439 0 -59.080819032273439 35.063360295715029 0 0 0 0 211.53718896518001 -54.265066424018187 0 -54.265066424018187 35.981964860155585 0 0 0 0 236.57922090852668 -44.240683396503755 0 -44.240683396503755 7.0611707463249331 0 0 0 0 217.20754840876987 -68.033262228501371 0 -68.033262228501371 62.47753027460567 0 0 0 0 224.00037217254135 1.2107835213972749 0 1.2107835213972749 47.976222969276023 0 0 0 0 238.05594906924216 -42.888541066849939 0 -42.888541066849939 28.056537843775914 0 0 0 0 232.87479441261439 -38.170603550785927 0 -38.170603550785927 24.045316236701183 0 0 0 0 211.72994321303167 -73.100596754493381 0 -73.100596754493381 3.9583025048341369 0 0 0 0 228.23463036537305 -52.43282035010543 0 -52.43282035010543 17.425699292330592 0 0 0 0 234.45291692911303 -56.781136021081238 0 -56.781136021081238 0.41790384249725321 0 0 0 0 192.5226733583138 -36.392757951389285 0 -36.392757951389285 28.636961925775722 0 0 0 0 258.88742545965806 -52.786281910862272 0 -52.786281910862272 -8.0965593711107431 0 0 0 0 197.04056791037044 -22.443619903682702 0 -22.443619903682702 29.669812457264925 0 0 0 0 233.82275483826584 -8.9517797397074901 0 -8.9517797397074901 -82.764588226069463 0 0 0 0 202.52327088596326 -29.763538865649934 0 -29.763538865649934 -12.396460082807607 0 0 0 0 220.56257686839388 -0.1294472013532868 0 -0.1294472013532868 -74.382454846043402 0 0 0 0 192.26737601833702 2.5900501892228931 0 2.5900501892228931 72.816786698953365 0 0 0 0 190.46674002326199 -26.417319256266637 0 -26.417319256266637 70.588529642097456 0 0 0 0 189.03241226749503 -49.102974024183482 0 -49.102974024183482 114.65375530305391 0 0 0 0 388.66872671354577 43.308429391694517 0 43.308429391694517 110.2562025285697 0 0 0 0 285.38308857623269 -9.6270531027512334 0 -9.6270531027512334 163.09195914528755 0 0 0 0 189.70119796126983 -25.221128617964496 0 -25.221128617964496 160.24050667132724 0 0 0 0 252.68909942501523 27.755493904194736 0 27.755493904194736 73.63964185794066 0 0 0 0 213.68700812952238 -27.488222511327422 0 -27.488222511327422 8.4040223700612842 0 0 0 0 277.35226416641308 -21.728598838142716 0 -21.728598838142716 0.70049172472681676 0 0 0 0 264.77726725620369 -49.509425690675243 0 -49.509425690675243 40.96573465477195 0 0 0 0 185.647017627899 -101.9449787365993 0 -101.9449787365993 -62.189804005620317 0 0 0 0 174.32952790703166 -3.2775727024272783 0 -3.2775727024272783 -3.8109952333497858 0 0 0 0 217.98113466736095 -99.68154751648126 0 -99.68154751648126 -100.91312936223949 0 0 0 0 141.11374572192835 -105.08998790512669 0 -105.08998790512669 -51.970946600602474 0 0 0 0 92.45336773744566 -266.37751140480214 0 -266.37751140480214 -68.796351712488104 0 0 0 0 71.18623009714247 -238.70977938953729 0 -238.70977938953729 -97.183142450645391 0 0 0 0 -104.28167584209632 -235.72398493715627 0 -235.72398493715627 -32.98522432793834 0 0 0 0 110.4510964453093 -290.00003997555905 0 -290.00003997555905 -94.776025544366348 0 0 0 0 150.57951402050867 -154.2298722898604 0 -154.2298722898604 -15.351664247067674 0 0 0 0 -36.768077621203702 11.632006835379798 0 11.632006835379798 6.9870536140833792 0 0 0 0 271.02127431108534 -152.43998558178748 0 -152.43998558178748 -60.624732144147856 0 0 0 0 244.27671806759645 -245.34097716587166 0 -245.34097716587166 64.282655039478414 0 0 0 0 271.5935089698869 -87.032073533322546 0 -87.032073533322546 21.510269970262016 0 0 0 0 312.91009668254992 -172.72117586006789 0 -172.72117586006789 54.562400110739873 0 0 0 0 454.73900690111986 -107.32308938256938 0 -107.32308938256938 65.333559236300061 0 0 0 0 318.7324828901983 -213.40408248843414 0 -213.40408248843414 231.12883829789644 0 0 0 0 319.54062405609693 -67.449941106645383 0 -67.449941106645383 129.02355181247549 0 0 0 0 559.58897196106045 -209.18677965501774 0 -209.18677965501774 155.27611723775772 0 0 0 0 398.63672702258918 -146.82756924761634 0 -146.82756924761634 49.515929096221953 0 0 0 0 504.16579902502053 8.6304104982682475 0 8.6304104982682475 147.90804985059731 0 0 0 0 1.5025126199398073 -251.51788066867812 0 -251.51788066867812 -90.358527326043259 0 0 0 0 15.531924223382248 23.890369886842308 0 23.890369886842308 -78.795665108013964 0 0 0 0 -18.513211842870078 290.95354618016245 0 290.95354618016245 428.73480167241905 0 0 0 0 584.13131531602448 -42.22051230609577 0 -42.22051230609577 179.78702188118041 0 0 0 0 104.52272706654549 -127.48954186343872 0 -127.48954186343872 647.41559673643087 0 0 0 0 3.3121274682925606 -4.707506792605578 0 -4.707506792605578 6.123056842795247 0 0 0 0 2.5348897102898729 1.9309646197780079 0 1.9309646197780079 -7.6995159735550338 0 0 0 0 619.68597662701723 210.22273421124737 0 210.22273421124737 372.33280391219159 0 0 0 0 1030.1414669458245 -75.914018508086883 0 -75.914018508086883 173.52397009758715 0 0 0 0 801.33121436975125 -347.66071111228302 0 -347.66071111228302 315.25353682163404 0 0 0 0 430.47172533603953 -251.98926600984487 0 -251.98926600984487 316.46279072407924 0 0 0 0 267.0258174538576 -163.00621046208835 0 -163.00621046208835 383.29431635412766 0 0 0 0 226.39433219011789 -236.50254164546686 0 -236.50254164546686 385.00304462082931 0 0 0 0 425.77861583474623 -232.16817364241433 0 -232.16817364241433 234.41770230940165 0 0 0 0 425.00543006813677 -357.27710550303163 0 -357.27710550303163 600.56524852279108 0 0 0 0 -31.554134419100592 -221.88051859068128 0 -221.88051859068128 109.38204762020541 0 0 0 0 6.6523194501078251 -110.44043426999633 0 -110.44043426999633 245.17532762949122 0 0 0 0 130.98146516656925 37.762126225370594 0 37.762126225370594 422.8440442369515 0 0 0 0 -108.34778952723457 -204.92764161827438 0 -204.92764161827438 179.02810636947834 0 0 0 0 -109.75411017391889 -219.75986468882911 0 -219.75986468882911 246.64626867472543 0 0 0 0 -34.058641558942327 12.541268404082075 0 12.541268404082075 552.04348874645621 0 0 0 0 -79.520342821775557 135.54169405206812 0 135.54169405206812 309.36158187484898 0 0 0 0 81.197955768355314 -131.6706546503483 0 -131.6706546503483 316.37713316004374 0 0 0 0 86.560028716052329 -161.15012535046299 0 -161.15012535046299 223.39024714943662 0 0 0 0 -64.946154570972794 -264.6840647765016 0 -264.6840647765016 105.82081286269386 0 0 0 0 -32.186033920925183 -225.11091954744825 0 -225.11091954744825 101.7328868625591 0 0 0 0 -5.7001638404508412 -264.76822349993927 0 -264.76822349993927 20.854270787931455 0 0 0 0 50.672783318265374 -190.10655085575763 0 -190.10655085575763 -31.097000225472584 0 0 0 0 50.689291716636944 -218.10705854571097 0 -218.10705854571097 -43.86274965582561 0 0 0 0 151.30703416602591 -138.83477778033557 0 -138.83477778033557 -20.197940055084473 0 0 0 0 68.267193859490362 -163.49438218216164 0 -163.49438218216164 42.109695173590808 0 0 0 0 99.946987760478805 -179.69984766637481 0 -179.69984766637481 3.2576568041040446 0 0 0 0 192.57470058656872 -151.05424304151802 0 -151.05424304151802 -2.1191492638208729 0 0 0 0 155.7131007742928 -153.01981764207972 0 -153.01981764207972 3.1114483432411362 0 0 0 0 157.37722230029249 -166.36552779121121 0 -166.36552779121121 55.631432891706226 0 0 0 0 139.95264501643032 -132.94594173785026 0 -132.94594173785026 56.014364488080901 0 0 0 0 194.75077609852542 -132.88565563683778 0 -132.88565563683778 59.954963050491642 0 0 0 0 189.90734759499719 -159.43610753512075 0 -159.43610753512075 69.760221216400168 0 0 0 0 213.53949421041943 -133.94482963373866 0 -133.94482963373866 5.4899374266373684 0 0 0 0 229.61954166508849 -105.21331409160894 0 -105.21331409160894 55.98921279219212 0 0 0 0 194.92342282823165 -86.940942814168011 0 -86.940942814168011 55.925562693704585 0 0 0 0 181.67227437528254 -96.822574959752274 0 -96.822574959752274 103.78628174324695 0 0 0 0 152.81689566945897 -115.5643915550736 0 -115.5643915550736 201.82702037754916 0 0 0 0 210.3799737999525 -8.6965352905990585 0 -8.6965352905990585 172.58717390101083 0 0 0 0 213.37385544776043 10.026836694947633 0 10.026836694947633 268.10403031562601 0 0 0 0 439.26507214314915 120.77143003600759 0 120.77143003600759 266.73813737231831 0 0 0 0 250.23978766687969 -4.8350911300572079 0 -4.8350911300572079 242.5108838967717 0 0 0 0 240.27508098909311 38.114036176873924 0 38.114036176873924 335.85687793879151 0 0 0 0 170.22015688308966 -63.93372928259123 0 -63.93372928259123 318.06527237292721 0 0 0 0 161.84811293520477 -164.02991220787089 0 -164.02991220787089 171.85543600467645 0 0 0 0 170.9607568149695 -123.14266207524815 0 -123.14266207524815 141.14368279497648 0 0 0 0 178.62612888944727 -100.37159139315145 0 -100.37159139315145 141.53514905400516 0 0 0 0 46.701316184040479 -104.63325353514574 0 -104.63325353514574 203.491622240379 0 0 0 0 40.285506032226749 -82.554805120250535 0 -82.554805120250535 144.58932655987883 0 0 0 0 49.123797523670873 -37.507211660920348 0 -37.507211660920348 200.15656600487068 0 0 0 0 -32.34476443145104 -31.716828993605532 0 -31.716828993605532 292.83463114737856 0 0 0 0 29.329400301216083 -118.98736352390097 0 -118.98736352390097 228.04592043733146 0 0 0 0 201.25543040520461 -178.28919671100971 0 -178.28919671100971 172.85106698519394 0 0 0 0 -8.395758760991157 -120.27479021126464 0 -120.27479021126464 306.73354203250574 0 0 0 0 32.842456739061163 -143.92933185009406 0 -143.92933185009406 319.31912063492746 0 0 0 0 152.16629625772111 -101.77247291420491 0 -101.77247291420491 53.632280976540642 0 0 0 0 50.083808800591214 -248.50328691059758 0 -248.50328691059758 586.73939271823474 0 0 0 0 87.773832535189285 -114.4386580629598 0 -114.4386580629598 126.0318105101851 0 0 0 0 161.32409084729943 -203.37644838625778 0 -203.37644838625778 176.93789818164623 0 0 0 0 87.054259555433987 -97.299304380233451 0 -97.299304380233451 102.8809065792102 0 0 0 0 83.466734722234833 -39.59277746056614 0 -39.59277746056614 -11.874753650377897 0 0 0 0 97.81435349793901 -118.32427370710457 0 -118.32427370710457 99.455554251717331 0 0 0 0 114.15031968255516 -31.708560192206733 0 -31.708560192206733 -35.419205233441971 0 0 0 0 138.8399546620858 -117.14152626831219 0 -117.14152626831219 71.048253988839861 0 0 0 0 -3.1402257130212092 62.277220044576097 0 62.277220044576097 -28.56199557894422 0 0 0 0 53.294015808227414 -16.363175454842349 0 -16.363175454842349 33.747656137265949 0 0 0 0 75.784833340147088 -74.080478134015266 0 -74.080478134015266 125.4791724401548 0 0 0 0 69.149356317082493 -90.31790162377365 0 -90.31790162377365 101.89151148773817 0 0 0 0 60.498277671091273 -51.992492998979287 0 -51.992492998979287 52.303599257416863 0 0 0 0 127.44607853170237 -84.276142016306949 0 -84.276142016306949 85.15972836725723 0 0 0 0 78.277622433679426 -82.433659309349423 0 -82.433659309349423 96.113025667954844 0 0 0 0 203.83366439675046 -64.33110709169614 0 -64.33110709169614 60.269685545918037 0 0 0 0 172.19931062856449 -39.663613342141161 0 -39.663613342141161 46.61372540471325 0 0 0 0 132.30495773929124 -14.744822574069531 0 -14.744822574069531 104.40048993032542 0 0 0 0 115.99736470064454 -47.369811173072321 0 -47.369811173072321 123.82996174590744 0 0 0 0 48.597698273439164 -20.315213081813681 0 -20.315213081813681 126.06708570250157 0 0 0 0 50.85889535557726 40.716475064397699 0 40.716475064397699 133.8430269091256 0 0 0 0 104.68189930394237 11.240885247525 0 11.240885247525 143.65187324617338 0 0 0 0 166.29046349879354 53.079843443017126 0 53.079843443017126 72.982258255680335 0 0 0 0 108.65259532844721 5.302378741509358 0 5.302378741509358 101.93629175570372 0 0 0 0 27.676028114245128 -8.9576086454216011 0 -8.9576086454216011 130.54085697262494 0 0 0 0 46.548349342318943 -35.151392240823725 0 -35.151392240823725 60.987721291527578 0 0 0 0 48.520492781095527 -10.874503962978054 0 -10.874503962978054 43.52751197012843 0 0 0 0 16.774726159852435 -26.135129135521268 0 -26.135129135521268 60.758901360055461 0 0 0 0 18.019700147939147 15.958737121523313 0 15.958737121523313 194.13197063218013 0 0 0 0 28.704537536214048 64.69562544985493 0 64.69562544985493 64.310223977380147 0 0 0 0 1.6182663292001962 -10.02424941900631 0 -10.02424941900631 186.38975288391339 0 0 0 0 -166.14465619665361 -160.12071254292277 0 -160.12071254292277 85.97482867112285 0 0 0 0 412.84957481484525 -1067.7184038643518 0 -1067.7184038643518 1147.4747950434503 0 0 0 0 25.566551218388021 -49.142379016080874 0 -49.142379016080874 107.45497162107233 0 0 0 0 -46.00348594348543 178.41653730707446 0 178.41653730707446 291.56893975666765 0 0 0 0 -22.730031164228421 -71.212537340061544 0 -71.212537340061544 401.81645598934574 0 0 0 0 -59.337546669863514 21.747286254202209 0 21.747286254202209 575.6694974462182 0 0 0 0 -78.518109949793143 113.3845362805107 0 113.3845362805107 272.8569066018224 0 0 0 0 32.720044982504987 147.29755858416928 0 147.29755858416928 -103.90630076896355 0 0 0 0 12.808846725267358 81.342327698802279 0 81.342327698802279 237.11352105053737 0 0 0 0 13.983640298914128 -30.875184546897032 0 -30.875184546897032 -3.487127428340258 0 0 0 0 -36.266963720147032 -155.98478353219025 0 -155.98478353219025 -164.86650918140893 0 0 0 0 28.618766749492352 -28.070209659711452 0 -28.070209659711452 14.999186687792871 0 0 0 0 9.8261598733124629 -25.693870597221331 0 -25.693870597221331 54.117906564294387 0 0 0 0 -23.926071247202344 -59.696422991394229 0 -59.696422991394229 35.273321549370849 0 0 0 0 -8.4694475488781791 -35.026064646197824 0 -35.026064646197824 33.59927806181804 0 0 0 0 5.9263987852062456 -18.017899128886537 0 -18.017899128886537 47.89491714038234 0 0 0 0 -150.26751149513268 -94.832324258320455 0 -94.832324258320455 129.9073005555183 0 0 0 0 11.241934906313872 -24.979805548381592 0 -24.979805548381592 29.861666294383213 0 0 0 0 10.253881305317918 -35.663721754963717 0 -35.663721754963717 28.463150564748958 0 0 0 0 20.1432912917262 -37.99519836126683 0 -37.99519836126683 48.478463692412788 0 0 0 0 12.575104523241166 -20.85340252309928 0 -20.85340252309928 36.835043734629842 0 0 0 0 0.51912743305456255 -11.128973903108125 0 -11.128973903108125 47.683749000337258 0 0 0 0 -181.96803470900215 1.5581888826360455 0 1.5581888826360455 44.322036817327898 0 0 0 0 9.3161679056729554 -16.511989248685495 0 -16.511989248685495 44.870470730656962 0 0 0 0 11.010203187258323 -8.2243616738602441 0 -8.2243616738602441 25.343790581518562 0 0 0 0 -9.4003203413403753 -13.139736777797225 0 -13.139736777797225 55.725604571520307 0 0 0 0 58.866745108695795 92.759747501403126 0 92.759747501403126 166.75145779096511 0 0 0 0 479.55605853315546 -39.01209219709483 0 -39.01209219709483 52.472152747156542 0 0 0 0 -0.95329687812061792 3.1413887725370397 0 3.1413887725370397 1.9627101314770243 0 0 0 0 54.392036568006915 -22.84007926715617 0 -22.84007926715617 18.081242386837857 0 0 0 0 2.3125961943575781 -0.012543279998162404 0 -0.012543279998162404 9.8675822351063491 0 0 0 0 -81.870096767866926 -11.297491601843831 0 -11.297491601843831 47.399786907087218 0 0 0 0 25.358906209910401 -16.416112550835351 0 -16.416112550835351 16.663290931767733 0 0 0 0 -85.086327444650124 12.87946643756095 0 12.87946643756095 175.97349536978436 0 0 0 0 151.08961125158112 -146.48605959156885 0 -146.48605959156885 100.24349907165765 0 0 0 0 597.32490010580022 -187.1862844150055 0 -187.1862844150055 117.72151858644065 0 0 0 0 694.70106255004885 159.76473679689298 0 159.76473679689298 -141.88732050914223 0 0 0 0 11.64610983462363 0.2413128514977636 0 0.2413128514977636 0.5742158040239308 0 0 0 0 54.785371554778067 117.08479662145328 0 117.08479662145328 43.422971647380109 0 0 0 0 -115.46288827047829 -124.76425516625022 0 -124.76425516625022 118.44955605263976 0 0 0 0 -46.49298453578831 -97.654464475590885 0 -97.654464475590885 -44.289140455444794 0 0 0 0 26.06741140326897 -3.3635468433523634 0 -3.3635468433523634 6.4951650377597563 0 0 0 0 8.5774456321520347 -4.364130101816599 0 -4.364130101816599 9.1388773015927427 0 0 0 0 1050.9283835202632 -672.92256222448395 0 -672.92256222448395 455.89332073622609 0 0 0 0 -441.85103017429088 -796.89553874906369 0 -796.89553874906369 3493.9098278486545 0 0 0 0 -151.80082619221378 -737.01780545253405 0 -737.01780545253405 2164.0738795367797 0 0 0 0 17.751600440011885 -9.9408894665554612 0 -9.9408894665554612 33.283338068569719 0 0 0 0 7.7516195016170855 -7.2788132631505391 0 -7.2788132631505391 29.959361253811949 0 0 0 0 8.4654061547797159 -4.2909757593329143 0 -4.2909757593329143 25.134480580874566 0 0 0 0 18.496054909227496 -13.040467126560543 0 -13.040467126560543 35.944490033214606 0 0 0 0 19.083829726445423 -5.1933940524356004 0 -5.1933940524356004 13.140021649087959 0 0 0 0 28.82682719666991 -15.200789556815835 0 -15.200789556815835 45.719389629271973 0 0 0 0 17.396907018514803 -16.285727340015864 0 -16.285727340015864 27.678998781701466 0 0 0 0 -363.73141616277945 358.97266978720563 0 358.97266978720563 3483.4837737326925 0 0 0 0 591.83863514446523 -538.77602967041094 0 -538.77602967041094 519.57666751807096 0 0 0 0 1235.78248778394 1608.1286858584112 0 1608.1286858584112 2063.8819903662152 0 0 0 0 3.8890275217430386 0.44193066464864483 0 0.44193066464864483 12.699711796409062 0 0 0 0 -77.859981488120852 781.53567029738406 0 781.53567029738406 2943.6536035638273 0 0 0 0 -79.143910008877455 1344.2877259252837 0 1344.2877259252837 3494.5040739435917 0 0 0 0 -415.39041656409933 1131.527694740239 0 1131.527694740239 3977.3911426577833 0 0 0 0 -680.54777657272189 319.61481790152902 0 319.61481790152902 3008.4233761979181 0 0 0 0 5.8665886034993182 -6.2978973182829705 0 -6.2978973182829705 10.316447225978036 0 0 0 0 -90.499910400189606 195.64439119133385 0 195.64439119133385 -38.447772304960381 0 0 0 0 -2.405324026279771 4.2226628276643865 0 4.2226628276643865 17.371729961876895 0 0 0 0 912.56941821420082 782.67251984234827 0 782.67251984234827 710.5195990636239 0 0 0 0 4.4437034955024135 2.4969013657842254 0 2.4969013657842254 3.2708770266894192 0 0 0 0 -160.89108780644733 165.71156373554732 0 165.71156373554732 121.2139286580059 0 0 0 0 -100.38264939515804 194.79576156751864 0 194.79576156751864 135.09847456827265 0 0 0 0 216.68469588832653 223.63807107338653 0 223.63807107338653 581.95180594862904 0 0 0 0 165.59799104206468 243.2396781918942 0 243.2396781918942 579.51324901784392 0 0 0 0 17.276298532078229 -8.3442300444985449 0 -8.3442300444985449 246.92426850431866 0 0 0 0 162.67885958199926 668.42458018221805 0 668.42458018221805 289.83856740042211 0 0 0 0 1366.4703449259237 1005.4966467557315 0 1005.4966467557315 746.0126122790316 0 0 0 0 -3.5250271315170365 -0.085018217663197504 0 -0.085018217663197504 4.5854283260099127 0 0 0 0 114.67155266615237 282.28635018269779 0 282.28635018269779 -849.34417970364302 0 0 0 0 -835.66248340069046 1480.0931569400273 0 1480.0931569400273 3823.0575133938401 0 0 0 0 85.515058347876874 615.13631338096457 0 615.13631338096457 1272.1849633143574 0 0 0 0 28.798198656205159 1036.1343865242379 0 1036.1343865242379 1149.2722147965706 0 0 0 0 -196.60299812266339 514.9058957219986 0 514.9058957219986 2515.4071569103107 0 0 0 0 -370.56541888143022 712.5195034348726 0 712.5195034348726 2881.7019712893743 0 0 0 0 313.77002824898705 188.27450913734356 0 188.27450913734356 3028.4245352924554 0 0 0 0 788.50248261027673 950.78548568414044 0 950.78548568414044 2915.7034894096068 0 0 0 0 -69.152042013736249 764.68737538713322 0 764.68737538713322 2876.9769932901072 0 0 0 0 -60.003124733129134 525.31680438340845 0 525.31680438340845 2892.7748432292829 0 0 0 0 -615.68724633935699 397.30991016424014 0 397.30991016424014 3501.6622480476981 0 0 0 0 -439.40003099871456 -64.854298762325925 0 -64.854298762325925 3010.1527829318511 0 0 0 0 -172.35545873182278 606.27987307018384 0 606.27987307018384 1967.8280695421854 0 0 0 0 -371.14238469561059 -282.27683263460449 0 -282.27683263460449 2063.2952880312077 0 0 0 0 -355.51816436927862 -331.00059951285903 0 -331.00059951285903 2007.4270298641495 0 0 0 0 234.84114372707913 -189.51458871317482 0 -189.51458871317482 899.04813839958661 0 0 0 0 200.36959483350063 -52.066523766552564 0 -52.066523766552564 843.05797678478848 0 0 0 0 33.927395446102196 120.89421384510933 0 120.89421384510933 1528.3351539397991 0 0 0 0 39.340825403524263 187.02409820739558 0 187.02409820739558 1823.9516329026501 0 0 0 0 244.7140253623383 359.56658613061109 0 359.56658613061109 791.03633508285566 0 0 0 0 160.60194719648985 66.060317710987874 0 66.060317710987874 839.93328688324436 0 0 0 0 263.55092394720816 -100.12324744758871 0 -100.12324744758871 470.50708252708137 0 0 0 0 292.58891116254199 112.80494447187084 0 112.80494447187084 654.47969085529803 0 0 0 0 240.76933390039738 -113.81806471533355 0 -113.81806471533355 376.60277876172768 0 0 0 0 297.15135526361365 60.742683543510793 0 60.742683543510793 438.05673236026632 0 0 0 0 250.51168710339635 66.414132590696681 0 66.414132590696681 196.74062904696984 0 0 0 0 235.10102191262081 -75.880866475326911 0 -75.880866475326911 280.51962983576595 0 0 0 0 232.12921866943012 31.668940126368398 0 31.668940126368398 299.23498066132925 0 0 0 0 164.72719975311585 -156.75805301377977 0 -156.75805301377977 248.17398641749605 0 0 0 0 191.33275242044795 -96.454882209978678 0 -96.454882209978678 148.14261219263062 0 0 0 0 104.32449332359046 -74.577237363333552 0 -74.577237363333552 146.90300389515255 0 0 0 0 108.28211968148932 -116.74629916448703 0 -116.74629916448703 109.58484389855585 0 0 0 0 -38.625432391094392 -94.121933064685436 0 -94.121933064685436 68.156235606267728 0 0 0 0 -34.780674315479445 -126.32477198986271 0 -126.32477198986271 238.00357978131069 0 0 0 0 -144.68080672207736 59.173316606655135 0 59.173316606655135 132.20473227036928 0 0 0 0 -92.087130516773811 -49.118873805380645 0 -49.118873805380645 256.381206586193 0 0 0 0 241.63295031249598 -1.6806801449711202 0 -1.6806801449711202 286.60026484556238 0 0 0 0 204.93441378744092 23.429385315706895 0 23.429385315706895 333.34373421504279 0 0 0 0 47.040108897912127 -83.780962785876 0 -83.780962785876 417.39725488189288 0 0 0 0 30.665972914492471 -20.809213527048996 0 -20.809213527048996 176.00723277243014 0 0 0 0 -30.509793674235809 172.29770210897414 0 172.29770210897414 706.45641044317745 0 0 0 0 -0.15642296591651017 1.0764581258745238 0 1.0764581258745238 -0.49866060091552811 0 0 0 0 -116.60340222445757 265.56718719278069 0 265.56718719278069 -118.62490950967185 0 0 0 0 -1.1370774751509316 -172.93122317408415 0 -172.93122317408415 814.78107501319028 0 0 0 0 48.215895433202164 551.46820495638167 0 551.46820495638167 1064.5070047169647 0 0 0 0 -324.09286283170701 70.109898157919815 0 70.109898157919815 2233.325515455821 0 0 0 0 -230.74875936409194 672.24904933590278 0 672.24904933590278 2474.1748171768777 0 0 0 0 129.39165141792873 910.00044835333938 0 910.00044835333938 2180.5649673475855 0 0 0 0 -236.88250992789591 584.397767662207 0 584.397767662207 2224.7768410219287 0 0 0 0 579.4925376147113 1860.0469905224018 0 1860.0469905224018 3496.2035298702831 0 0 0 0 7.7826525134741669 -19.981414358499904 0 -19.981414358499904 34.163368045624665 0 0 0 0 -504.11347643644785 -503.04697462838885 0 -503.04697462838885 -122.31792147693704 0 0 0 0 -3.1350779244671658 5.7650532973405433 0 5.7650532973405433 5.0315597101747329 0 0 0 0 66.778001288603321 -59.993904549939543 0 -59.993904549939543 128.91461637566681 0 0 0 0 302.43559758096217 -250.60655927964217 0 -250.60655927964217 458.17370752099305 0 0 0 0 -184.79231313207583 156.21299494879349 0 156.21299494879349 398.50914590260254 0 0 0 0 898.01089644299361 -955.66585505682087 0 -955.66585505682087 -767.46823021313685 0 0 0 0 4.4958823229920375 -3.4425714045361104 0 -3.4425714045361104 11.579656326529275 0 0 0 0 0.76631250766981285 1.2943193906202737 0 1.2943193906202737 6.6394864662192958 0 0 0 0 16.393950896995065 0.37715031736297533 0 0.37715031736297533 3444.7132637703617 0 0 0 0 878.74447707945001 -1677.459550051472 0 -1677.459550051472 1444.6680775519417 0 0 0 0 -247.84819818213609 -1245.9920919852811 0 -1245.9920919852811 3492.4574384574084 0 0 0 0 492.00414187175551 -772.45779883482828 0 -772.45779883482828 1593.6353278070692 0 0 0 0 255.94263565559783 -189.1607361724964 0 -189.1607361724964 665.64789534456213 0 0 0 0 259.99208503130939 -185.34845196095557 0 -185.34845196095557 682.22549129014078 0 0 0 0 364.3630635083826 -52.602776707468365 0 -52.602776707468365 373.9433685689728 0 0 0 0 55.184684487126219 17.489428383560153 0 17.489428383560153 227.46133868608376 0 0 0 0 224.69558219420946 143.15172622167665 0 143.15172622167665 313.6815961316961 0 0 0 0 32.09091957760495 135.74898289316388 0 135.74898289316388 339.41813229606487 0 0 0 0 -42.308652016421547 3.6297337040396087 0 3.6297337040396087 107.88811681357038 0 0 0 0 -117.5026674568583 130.34898638953666 0 130.34898638953666 481.96108359256323 0 0 0 0 -115.15045942698657 80.697495177511883 0 80.697495177511883 408.80271770146283 0 0 0 0 120.1762154597028 187.72865330484819 0 187.72865330484819 324.31262405195594 0 0 0 0 26.212673518725751 214.69036361307371 0 214.69036361307371 59.806794562814503 0 0 0 0 -340.56502983844359 154.07950332002201 0 154.07950332002201 767.13111774710706 0 0 0 0 -179.50561223384284 45.620596689419472 0 45.620596689419472 431.02208377330862 0 0 0 0 -248.37057242780952 -134.49103532003028 0 -134.49103532003028 6.7920567667824798 0 0 0 0 0.025370085148757493 0.20781734348193481 0 0.20781734348193481 0.075074294726945823 0 0 0 0 655.43423731161965 538.58729080794728 0 538.58729080794728 441.52159387146821 0 0 0 0 0.074485033484877228 0.39872552831013763 0 0.39872552831013763 3.9166382764827148 0 0 0 0 431.48207988853846 653.37502736636088 0 653.37502736636088 494.62250364229476 0 0 0 0 -25.370434478927564 153.64938935103783 0 153.64938935103783 338.53911887529102 0 0 0 0 458.02722237291152 220.6234299180328 0 220.6234299180328 139.90784019661078 0 0 0 0 471.39333465665516 403.9541082193864 0 403.9541082193864 243.69924657941738 0 0 0 0 114.38187743070193 329.45762899659894 0 329.45762899659894 244.23424408019716 0 0 0 0 -25.33571478719864 190.93068999392017 0 190.93068999392017 155.3561689310518 0 0 0 0 -242.77264559609705 -516.87885910618206 0 -516.87885910618206 -175.23980645371194 0 0 0 0 -439.70386593285957 -273.11186012236976 0 -273.11186012236976 463.75072398208431 0 0 0 0 7.179951588437719 -21.9290857658915 0 -21.9290857658915 36.100307344741481 0 0 0 0 -62.921790326204928 -288.2749281270444 0 -288.2749281270444 226.42850941835786 0 0 0 0 -161.86137824099706 -128.2404377528037 0 -128.2404377528037 190.23973152933468 0 0 0 0 -7.594980201130511 6.3595159237083863 0 6.3595159237083863 54.535583990658779 0 0 0 0 -14.4155596648352 28.809506201752811 0 28.809506201752811 66.230551686410763 0 0 0 0 9.5117081605662861 73.216949816051056 0 73.216949816051056 23.083358760624833 0 0 0 0 1.7165813996968047 24.266947803173494 0 24.266947803173494 48.194216072695951 0 0 0 0 15.181695547035588 51.455169228513114 0 51.455169228513114 47.363401292517665 0 0 0 0 -12.313503617475817 25.383855705445043 0 25.383855705445043 7.0475984650963568 0 0 0 0 10.009051025113592 69.289150507893737 0 69.289150507893737 107.60615169625817 0 0 0 0 -1.9609139106123812 5.8342105871786316 0 5.8342105871786316 -5.135202321542593 0 0 0 0 3.6610938464573337 28.049817925511888 0 28.049817925511888 21.92918440066569 0 0 0 0 1.8371442830626339 6.6260861663593786 0 6.6260861663593786 22.323121894841364 0 0 0 0 -121.4023189320335 29.999828369960596 0 29.999828369960596 58.101564266537025 0 0 0 0 -13.256654222834186 27.456896753572437 0 27.456896753572437 26.034529179523815 0 0 0 0 -200.74455322319 84.66609680034162 0 84.66609680034162 110.59746703540895 0 0 0 0 -64.929883654843707 73.54429114665254 0 73.54429114665254 -0.974230512878421 0 0 0 0 -61.358551790393904 25.92228996560516 0 25.92228996560516 59.79426990711363 0 0 0 0 1.7179694786619191 8.8752856230146797 0 8.8752856230146797 47.62840072067786 0 0 0 0 -36.734033321033166 2.2736846928310115 0 2.2736846928310115 40.293255304626655 0 0 0 0 -20.997734512983243 38.306149393378291 0 38.306149393378291 38.875435721784015 0 0 0 0 20.450503393635927 75.153045780416505 0 75.153045780416505 -68.953641402462381 0 0 0 0 -25.208670279374019 80.667979150635801 0 80.667979150635801 -0.03328781972231809 0 0 0 0 12.264638578162931 132.0118760129335 0 132.0118760129335 51.760697551260819 0 0 0 0 -74.854806542051392 100.68981995543072 0 100.68981995543072 144.50559704674924 0 0 0 0 163.91149888398849 117.70423218645192 0 117.70423218645192 89.668282044511216 0 0 0 0 66.591383499045492 37.085773102499388 0 37.085773102499388 22.89585256592909 0 0 0 0 -0.50535197944532229 96.508489738114804 0 96.508489738114804 4.7519387050851947 0 0 0 0 17.807477685122649 3.7783357974958562 0 3.7783357974958562 88.560617378367169 0 0 0 0 17.389728562088067 2.1437648806681864 0 2.1437648806681864 94.091351047660282 0 0 0 0 5.8843306683065748 3.9652613670514256 0 3.9652613670514256 92.722444314971654 0 0 0 0 4.7356820992226858 7.5394082466518739 0 7.5394082466518739 92.697636899725921 0 0 0 0 -10.929270519257841 18.892200802127697 0 18.892200802127697 72.127461297693941 0 0 0 0 9.7559561755015238 18.005862296191481 0 18.005862296191481 91.982827707885008 0 0 0 0 16.18279434310865 9.0886234640084282 0 9.0886234640084282 6.5457539783249752 0 0 0 0 14.545761647121935 10.907701962997635 0 10.907701962997635 75.16283578117509 0 0 0 0 -42.280092703058685 75.360175236070063 0 75.360175236070063 23.824897244236126 0 0 0 0 -1.7652644394617321 24.196594464535959 0 24.196594464535959 42.93704886164258 0 0 0 0 -57.935837360719802 33.437014511018788 0 33.437014511018788 43.716438049668795 0 0 0 0 -7.3399286541745923 11.85770900680383 0 11.85770900680383 45.771376478560512 0 0 0 0 -44.482039049457399 29.363000696401286 0 29.363000696401286 34.725292181996338 0 0 0 0 -16.703613175419036 66.880433521073428 0 66.880433521073428 78.857588684048096 0 0 0 0 -14.355677406385553 30.200282423832505 0 30.200282423832505 42.168854842209839 0 0 0 0 68.535808493401646 -78.558384151860082 0 -78.558384151860082 32.293441107052786 0 0 0 0 26.479836160931896 -127.68278291407478 0 -127.68278291407478 80.118992080730095 0 0 0 0 0.49381439707244112 -95.501248350452443 0 -95.501248350452443 40.830328666641435 0 0 0 0 -210.58273399308382 -129.41478263683757 0 -129.41478263683757 113.3928342957588 0 0 0 0 -10.429480662736836 -114.34679464519468 0 -114.34679464519468 81.788992581346974 0 0 0 0 -0.31282895345967177 -120.50574754636909 0 -120.50574754636909 85.488944195734803 0 0 0 0 -0.11865239056990751 -116.72481934678137 0 -116.72481934678137 90.865758711166563 0 0 0 0 64.119441831367922 -154.47574454762798 0 -154.47574454762798 106.95669941937831 0 0 0 0 67.970794041668881 -109.53167546002078 0 -109.53167546002078 147.82529076138712 0 0 0 0 121.60874297538348 -16.911267742881137 0 -16.911267742881137 111.86706498862623 0 0 0 0 150.42700484676422 -127.42400009391713 0 -127.42400009391713 52.428124323461816 0 0 0 0 101.96256173030564 -38.760795909682656 0 -38.760795909682656 123.11184947311995 0 0 0 0 216.91910524269275 -24.19115378342758 0 -24.19115378342758 -3.4232977832507459 0 0 0 0 36.653931147963959 32.345882158855602 0 32.345882158855602 0.29439778708876929 0 0 0 0 121.2379187785846 -5.4015778745178977 0 -5.4015778745178977 -163.83192330715974 0 0 0 0 74.148867983274855 -115.10956398271992 0 -115.10956398271992 -8.2958297027398658 0 0 0 0 28.407677583229088 -7.0648492016334785 0 -7.0648492016334785 103.1094335311318 0 0 0 0 28.013145342034601 9.6482577809665315 0 9.6482577809665315 -0.84953302286037946 0 0 0 0 32.707347917301377 0.93010047595089418 0 0.93010047595089418 80.342237474627836 0 0 0 0 33.125619075184659 5.2117761495246668 0 5.2117761495246668 87.356958473657869 0 0 0 0 16.378348633936792 -28.099141834418578 0 -28.099141834418578 37.078882002414701 0 0 0 0 34.266345503938282 19.322242348211148 0 19.322242348211148 114.70314749478712 0 0 0 0 24.281099127283596 -16.753376708147698 0 -16.753376708147698 57.368433855587227 0 0 0 0 19.256162378394947 -16.833169660147178 0 -16.833169660147178 57.466357305718702 0 0 0 0 9.639920807724998 -10.629949618563238 0 -10.629949618563238 61.820663299401851 0 0 0 0 15.3048912956301 3.2328014855178537 0 3.2328014855178537 39.031223806925702 0 0 0 0 37.830050243122955 7.9604294040432677 0 7.9604294040432677 9.364041898895394 0 0 0 0 14.035340693570753 -27.773774144292503 0 -27.773774144292503 36.622573024213338 0 0 0 0 59.161049646220391 -55.83282823571426 0 -55.83282823571426 -56.140788443051861 0 0 0 0 52.92131066953516 20.553288569906726 0 20.553288569906726 88.366218863848189 0 0 0 0 163.87176969833672 19.566045090256125 0 19.566045090256125 52.398743577090954 0 0 0 0 1.851175731178575 -4.1892378482160417 0 -4.1892378482160417 8.5754100855903488 0 0 0 0 23.652954168279393 -29.268685676315727 0 -29.268685676315727 49.018492982089811 0 0 0 0 2.2295870174220909 754.03775928377195 0 754.03775928377195 -427.18115075757237 0 0 0 0 138.19618215676746 -135.32704548887989 0 -135.32704548887989 52.651027638909454 0 0 0 0 12.26001749081621 -27.66544672689162 0 -27.66544672689162 62.054722725964005 0 0 0 0 -23.169506829475239 -1.7112148498980844 0 -1.7112148498980844 38.87868249123634 0 0 0 0 15.219112840345417 -54.119303138919349 0 -54.119303138919349 91.240505159890745 0 0 0 0 22.310423492994961 -15.64108632490791 0 -15.64108632490791 88.097086591336563 0 0 0 0 -66.848997065755611 36.552478564165654 0 36.552478564165654 162.87992750940091 0 0 0 0 51.224012783172839 39.983069042724082 0 39.983069042724082 68.213855597500014 0 0 0 0 3.6282065049965695 -7.0723375256149268 0 -7.0723375256149268 29.904108526368873 0 0 0 0 -72.191352518895656 13.442539608232437 0 13.442539608232437 58.058368736197735 0 0 0 0 -31.797259160404792 -5.9395068336634722 0 -5.9395068336634722 47.313908478059602 0 0 0 0 -25.419671147863482 16.159690350440542 0 16.159690350440542 39.446976550933869 0 0 0 0 6.2629497355533452 -1.2425656960681692 0 -1.2425656960681692 2.3538327732627238 0 0 0 0 1.1560383049985248 11.029858980704949 0 11.029858980704949 33.856363204668654 0 0 0 0 49.738079024074068 65.833739296981662 0 65.833739296981662 69.390665124145016 0 0 0 0 164.02464344149848 -33.532174527758343 0 -33.532174527758343 -51.382679118262786 0 0 0 0 14.80507454041642 -27.326990178430208 0 -27.326990178430208 88.496291949394816 0 0 0 0 2.8248023452943016 -57.318075999783105 0 -57.318075999783105 51.346806821622977 0 0 0 0 27.223371850293915 -7.7071795141619077 0 -7.7071795141619077 95.947168172053352 0 0 0 0 24.313488703633993 -7.8624185311145993 0 -7.8624185311145993 96.253168076749716 0 0 0 0 13.256293867023068 -4.6175434159171935 0 -4.6175434159171935 35.737913751210769 0 0 0 0 26.707750128937732 -13.675773867975295 0 -13.675773867975295 80.018720627645962 0 0 0 0 23.653996110704611 2.4279287051904248 0 2.4279287051904248 92.140641657497326 0 0 0 0 22.083023697850876 3.6319075741298548 0 3.6319075741298548 122.30773333930847 0 0 0 0 9.8277628689488523 -20.32527951499269 0 -20.32527951499269 43.098685683228858 0 0 0 0 19.943156420189553 -5.8716139209409448 0 -5.8716139209409448 120.49295366551451 0 0 0 0 17.699457254229856 -4.6943554361314455 0 -4.6943554361314455 124.1401713455125 0 0 0 0 22.679740608490647 -11.310405755012653 0 -11.310405755012653 116.07914529387199 0 0 0 0 1.5697360925420583 -33.149011478396382 0 -33.149011478396382 139.69927762910697 0 0 0 0 -31.582829083796241 -390.18249655169848 0 -390.18249655169848 60.149004042694287 0 0 0 0 -12.988130806064873 -10.048191048153967 0 -10.048191048153967 128.36071630370589 0 0 0 0 -168.67874803900031 36.914784156317182 0 36.914784156317182 268.28046720952261 0 0 0 0 -124.14580344279193 44.107753258620505 0 44.107753258620505 24.834530184882169 0 0 0 0 -17.422436730887881 15.092688365219914 0 15.092688365219914 125.93565550289799 0 0 0 0 -96.561849181758816 -16.968249945924981 0 -16.968249945924981 195.74581157746434 0 0 0 0 -136.34110886674353 -29.039783399399312 0 -29.039783399399312 257.14502230316339 0 0 0 0 -16.441309338927383 -16.353266073972065 0 -16.353266073972065 158.2057467723242 0 0 0 0 -61.111745074109422 -11.906273914530175 0 -11.906273914530175 152.23807387950728 0 0 0 0 -18.864766884056735 371.987724594268 0 371.987724594268 371.53425828314721 0 0 0 0 574.98495914533851 941.84704259686259 0 941.84704259686259 911.63620733348944 0 0 0 0 -35.782562723161973 4.0648094988275858 0 4.0648094988275858 138.61441331069796 0 0 0 0 3.3042324012828175 2.5868637443263331 0 2.5868637443263331 1.5022570811080644 0 0 0 0 534.18004365945308 -445.62514803543627 0 -445.62514803543627 732.34360620766529 0 0 0 0 173.93218408769462 -277.60980982901128 0 -277.60980982901128 1065.9936343896934 0 0 0 0 262.27480228093555 32.598068402666286 0 32.598068402666286 -188.06129048721414 0 0 0 0 42.698295419268106 -82.619306714072081 0 -82.619306714072081 963.01239058972533 0 0 0 0 -36.204037306883038 -87.256303992864105 0 -87.256303992864105 29.424566170357139 0 0 0 0 -55.097616473522976 -66.366223849214066 0 -66.366223849214066 128.11922903731283 0 0 0 0 -49.576525726351974 -2.8897364111203387 0 -2.8897364111203387 152.39556110388435 0 0 0 0 6.4161418195869828 -13.219013546194958 0 -13.219013546194958 236.25464554167775 0 0 0 0 -22.174828796109864 8.3871809778975148 0 8.3871809778975148 184.10981138115312 0 0 0 0 5.5097527214264801 -18.213990478820961 0 -18.213990478820961 100.17757775392965 0 0 0 0 -12.112861859179446 52.042573893912959 0 52.042573893912959 7.9482684415852418 0 0 0 0 -116.53791753238681 69.009144568339252 0 69.009144568339252 75.883925405585614 0 0 0 0 -1.7721032796085689 13.151389887287074 0 13.151389887287074 12.870541308746027 0 0 0 0 -13.312613355619987 -154.26208640594996 0 -154.26208640594996 202.04127072949268 0 0 0 0 405.64769564314554 89.735673170100199 0 89.735673170100199 -17.431255486997543 0 0 0 0 1.2908670997218885 1.0127650961882182 0 1.0127650961882182 5.4001529312237437 0 0 0 0 228.61962406986834 -40.994981319319777 0 -40.994981319319777 -66.510953708508168 0 0 0 0 39.808602024822903 29.538391500798753 0 29.538391500798753 49.04871644594823 0 0 0 0 34.113181856971778 64.812595159979537 0 64.812595159979537 -65.928230981546221 0 0 0 0 -165.04110987672971 155.89496603645239 0 155.89496603645239 54.666076378358412 0 0 0 0 -38.647210922057639 294.59961746809495 0 294.59961746809495 -104.8200207601767 0 0 0 0 -3.6214140117075164 17.035769206066988 0 17.035769206066988 81.519447525451739 0 0 0 0 12.453808246018525 11.892213207775058 0 11.892213207775058 83.311525403863925 0 0 0 0 14.019516248231412 4.545689554157434 0 4.545689554157434 94.056152234563342 0 0 0 0 -17.468532183039915 41.144731714190172 0 41.144731714190172 94.648133553185033 0 0 0 0 -214.34959644226547 313.47601544511417 0 313.47601544511417 173.44059726636624 0 0 0 0 -291.09535465689714 42.685944263437705 0 42.685944263437705 41.846079486036615 0 0 0 0 77.866878351260198 203.81283758953759 0 203.81283758953759 -179.03748287187773 0 0 0 0 -63.663749662781129 235.10846762659639 0 235.10846762659639 200.4198435520666 0 0 0 0 -156.93689646012672 73.816146614040917 0 73.816146614040917 519.89367688539642 0 0 0 0 18.318208174883239 -161.69779595226282 0 -161.69779595226282 345.32654813881891 0 0 0 0 186.1311041513527 -39.931654621497728 0 -39.931654621497728 212.8526303156541 0 0 0 0 165.03354981746543 284.36483756545204 0 284.36483756545204 210.97175541277466 0 0 0 0 -83.024002464852302 -31.940907284297282 0 -31.940907284297282 441.89946543631231 0 0 0 0 8.4618588842638474 99.735874414447608 0 99.735874414447608 404.87544357893148 0 0 0 0 -23.924596708227853 31.881374376223903 0 31.881374376223903 300.94463846282451 0 0 0 0 -88.153838047870295 -66.338290400101869 0 -66.338290400101869 312.81178557609383 0 0 0 0 -108.13135813062195 -11.250261745371972 0 -11.250261745371972 376.53697865196591 0 0 0 0 -84.656027307794602 35.20256769288244 0 35.20256769288244 191.47807360941079 0 0 0 0 -51.089625211451676 -51.512565771314257 0 -51.512565771314257 201.51220114381431 0 0 0 0 -45.344772868189239 43.77709596099703 0 43.77709596099703 38.676080563302094 0 0 0 0 2.2227452452939254 1.0332962878559897 0 1.0332962878559897 -3.250504577087554 0 0 0 0 88.308838288152174 -133.36572549322955 0 -133.36572549322955 213.2177114827864 0 0 0 0 34.537341676679716 -49.217306857219228 0 -49.217306857219228 88.532547033690207 0 0 0 0 -11.406039163423884 -110.5676151030566 0 -110.5676151030566 84.238857681637455 0 0 0 0 -1.373026735465432 -5.6721552502186228 0 -5.6721552502186228 11.797065747381424 0 0 0 0 19.644817227795329 52.64483794951957 0 52.64483794951957 6.2663697030002368 0 0 0 0 -1.402562837326057 -6.043895362794423 0 -6.043895362794423 54.344897595987931 0 0 0 0 -7.2602001834864041 -41.407181751128519 0 -41.407181751128519 49.927954114056774 0 0 0 0 -218.40074248025371 122.14160450923373 0 122.14160450923373 1.446437019687437 0 0 0 0 -32.033031356602692 -33.216252374979376 0 -33.216252374979376 89.305062456616724 0 0 0 0 -32.372734591727365 5.1895683560783823 0 5.1895683560783823 13.723362911332515 0 0 0 0 -87.784508480826617 22.273002065783658 0 22.273002065783658 42.457241243295357 0 0 0 0 -111.2440699589649 -2.4792596101615345 0 -2.4792596101615345 34.37520116660744 0 0 0 0 -131.51732814613575 87.028354277664221 0 87.028354277664221 -24.970971239745268 0 0 0 0 -2.49919836712772 -0.64091506692818712 0 -0.64091506692818712 1.2874627098045437 0 0 0 0 -55.089948983915519 73.641043329509557 0 73.641043329509557 -70.741391546820523 0 0 0 0 -59.452328086540433 51.928699246403994 0 51.928699246403994 -86.61769455429021 0 0 0 0 -50.974252277803771 24.601266738653067 0 24.601266738653067 3.7617823934269836 0 0 0 0 -59.480526227766092 71.720209674738271 0 71.720209674738271 -1.9279358266649069 0 0 0 0 164.53527799265066 -336.99372294351133 0 -336.99372294351133 -121.29458888475347 0 0 0 0 -18.606366249532726 -3.1714554998700741 0 -3.1714554998700741 97.863536788884858 0 0 0 0 5.8744419111262687 23.437566206594056 0 23.437566206594056 156.85781522040816 0 0 0 0 -25.718838436945035 13.539640908880051 0 13.539640908880051 88.827288317821882 0 0 0 0 -1.4634531854899251 210.41249411455919 0 210.41249411455919 57.985927603112941 0 0 0 0 -27.522497426765767 151.90044156108615 0 151.90044156108615 159.37108152616202 0 0 0 0 -124.92246442247961 -72.436406365967287 0 -72.436406365967287 186.25819256941031 0 0 0 0 -243.28125186334728 -52.540490470219083 0 -52.540490470219083 101.20032863266897 0 0 0 0 51.336222582063783 239.61562731395497 0 239.61562731395497 315.41764050101483 0 0 0 0 268.70160192713411 -70.022813391661657 0 -70.022813391661657 108.51209116941754 0 0 0 0 -85.67992412489366 -386.40142826445481 0 -386.40142826445481 442.96209545422607 0 0 0 0 -7.2657878392774364 -11.670047229976262 0 -11.670047229976262 175.31630306077568 0 0 0 0 -478.50621987413615 -569.01346209020267 0 -569.01346209020267 -232.0918504857691 0 0 0 0 -74.845829321326164 109.90492917248457 0 109.90492917248457 165.60265690768392 0 0 0 0 -252.54330643860158 -105.87659078472643 0 -105.87659078472643 217.52592450301745 0 0 0 0 -1.433415963925782 2.6344792221463713 0 2.6344792221463713 3.454284204692593 0 0 0 0 250.88141540756624 -123.43331071356442 0 -123.43331071356442 781.00938180658886 0 0 0 0 -29.719157699405095 27.778294579725138 0 27.778294579725138 42.200939111233382 0 0 0 0 -25.124745811475776 41.319858259590276 0 41.319858259590276 124.50018404589729 0 0 0 0 -9.1299116684658657 -2.3802741135441465 0 -2.3802741135441465 140.87812967266655 0 0 0 0 -121.77878241502867 -123.0823773294469 0 -123.0823773294469 179.13692871959302 0 0 0 0 -1.8747307971132869 -25.530705017529236 0 -25.530705017529236 122.12645344813058 0 0 0 0 -13.502041668486527 -2.1583212341447506 0 -2.1583212341447506 144.61932453510963 0 0 0 0 -7.9722168106018216 5.6963475989105063 0 5.6963475989105063 137.89783907740639 0 0 0 0 -2.657440696759295 2.3897420666162361 0 2.3897420666162361 111.30344453425641 0 0 0 0 -17.318219626292375 -9.330876768568487 0 -9.330876768568487 119.35964317015168 0 0 0 0 -9.0288945711507438 -19.919479708594306 0 -19.919479708594306 90.99174612103684 0 0 0 0 -264.97857013643625 -60.743060168491866 0 -60.743060168491866 176.54302777696648 0 0 0 0 -17.300873675903858 11.597670168150216 0 11.597670168150216 113.6858939930753 0 0 0 0 -20.428951231539031 -18.816590242859093 0 -18.816590242859093 91.866617367428262 0 0 0 0 15.672733960915139 -3.5415279697226651 0 -3.5415279697226651 118.85663403973012 0 0 0 0 -7.1578507585955577 -10.600015408771469 0 -10.600015408771469 110.13878327907088 0 0 0 0 30.85996590099694 18.362432101253944 0 18.362432101253944 102.78038076829398 0 0 0 0 -0.01256149802429718 6.4642377733507601 0 6.4642377733507601 109.34134802965309 0 0 0 0 4.0090798317282861 -6.7345732957619475 0 -6.7345732957619475 41.844699991765083 0 0 0 0 4.2368396202236074 8.9499824199955782 0 8.9499824199955782 39.541238434390266 0 0 0 0 -4.7240669698048805 -8.4252742069111264 0 -8.4252742069111264 91.804301398289681 0 0 0 0 -15.084540424883016 7.2075772119678732 0 7.2075772119678732 81.427762711366086 0 0 0 0 -11.664216875248817 8.1084655699141592 0 8.1084655699141592 53.812251465581426 0 0 0 0 -2.3205449168352175 23.346492231565207 0 23.346492231565207 61.729807047515351 0 0 0 0 -3.6889239175061448 20.40774671174222 0 20.40774671174222 63.221567801319907 0 0 0 0 -5.6929440188152753 3.4096501024404802 0 3.4096501024404802 18.517572033923344 0 0 0 0 63.264827510225587 49.268129485179088 0 49.268129485179088 37.873437343840124 0 0 0 0 1.2144963799009645 23.034378668263294 0 23.034378668263294 38.752431832076269 0 0 0 0 184.03543320794233 179.88627049906881 0 179.88627049906881 40.512279495469556 0 0 0 0 121.08097776834825 -81.452205367023566 0 -81.452205367023566 102.99063054316866 0 0 0 0 -1.6974908607741446 11.956309789912261 0 11.956309789912261 7.1643143364513833 0 0 0 0 -219.57130384385164 332.0643602165037 0 332.0643602165037 556.06166379523711 0 0 0 0 -121.24832641367175 57.574912533747238 0 57.574912533747238 118.90446032271575 0 0 0 0 -81.998030799333719 -82.51046096788923 0 -82.51046096788923 250.54992348283122 0 0 0 0 6.7640419662275235 -29.626396945532179 0 -29.626396945532179 80.71634488844029 0 0 0 0 -3.7960027884804077 13.808700436747692 0 13.808700436747692 20.978791374234387 0 0 0 0 -0.50061261578230187 -1.5833188628712378 0 -1.5833188628712378 97.615262928822631 0 0 0 0 4.0294877687952066 -18.730483495975477 0 -18.730483495975477 111.1646021119559 0 0 0 0 -11.464397992966042 -14.733165107554669 0 -14.733165107554669 134.17078822616349 0 0 0 0 4.3508207168670197 11.997168756424799 0 11.997168756424799 131.74993943818481 0 0 0 0 -23.418039394648076 -1.7928447338326805 0 -1.7928447338326805 124.92710652165624 0 0 0 0 -12.307611161741079 18.828642917578691 0 18.828642917578691 126.61270575476738 0 0 0 0 -11.8519218521688 35.559077118688407 0 35.559077118688407 95.619203902901603 0 0 0 0 76.78598460226749 41.323548489214772 0 41.323548489214772 -26.446588986997085 0 0 0 0 106.47480111946425 -84.126648869189012 0 -84.126648869189012 120.93275799623734 0 0 0 0 256.16252671803522 -3.8551510315010091 0 -3.8551510315010091 201.61699850043442 0 0 0 0 -3.2389624860297772 -62.941196364055941 0 -62.941196364055941 222.15314904248953 0 0 0 0 -15.140783028555425 -1.0741623379397822 0 -1.0741623379397822 28.562032871274809 0 0 0 0 119.12291865979319 50.096116791896975 0 50.096116791896975 53.508306508570968 0 0 0 0 142.17512304829506 170.24239568280427 0 170.24239568280427 174.36954891610731 0 0 0 0 134.79643139858058 94.52227812292756 0 94.52227812292756 -75.473763326146582 0 0 0 0 78.921235420613812 55.519062225534981 0 55.519062225534981 -24.864836942648253 0 0 0 0 -75.994598037239484 177.24499885959449 0 177.24499885959449 68.378225558830309 0 0 0 0 -15.707582284032313 29.233419001650226 0 29.233419001650226 84.520126565769061 0 0 0 0 -88.680912000989338 109.18510707116184 0 109.18510707116184 219.15354330794435 0 0 0 0 -17.325521511003899 -57.915965320591567 0 -57.915965320591567 42.676852897213394 0 0 0 0 -2.6997135137571604 -209.42056926009263 0 -209.42056926009263 290.27121920005084 0 0 0 0 -41.249762403924251 -147.40820939946389 0 -147.40820939946389 277.8239512121545 0 0 0 0 -50.923567299032584 58.971547804800139 0 58.971547804800139 169.01941536383674 0 0 0 0 -68.399393290063017 -50.531694198496552 0 -50.531694198496552 365.47312914157192 0 0 0 0 191.57922830965254 -169.88581164319476 0 -169.88581164319476 87.277421325206888 0 0 0 0 -36.236360118818993 141.79781276140284 0 141.79781276140284 581.3441169293219 0 0 0 0 -43.489694282732671 -314.18339950308291 0 -314.18339950308291 231.06461003185541 0 0 0 0 -83.27772968885256 -398.72347585734315 0 -398.72347585734315 706.74216993302707 0 0 0 0 -92.730242524818095 -32.293860061641681 0 -32.293860061641681 465.8034936955919 0 0 0 0 -43.620458296045399 -187.44398159758202 0 -187.44398159758202 700.29198947622172 0 0 0 0 -236.07634361420423 -207.08082926922907 0 -207.08082926922907 458.42334798154479 0 0 0 0 -61.923103637978784 -113.60894097862911 0 -113.60894097862911 507.40221917210147 0 0 0 0 -70.099316227482632 -169.63605050137267 0 -169.63605050137267 544.20459927234333 0 0 0 0 -17.69978955485567 -128.46200681499795 0 -128.46200681499795 657.97149237974372 0 0 0 0 116.93432124069659 -156.71880091573257 0 -156.71880091573257 324.09653157767025 0 0 0 0 -130.24584447356392 -215.02569739542196 0 -215.02569739542196 505.07672507475218 0 0 0 0 -17.935514283570228 -179.99527092415519 0 -179.99527092415519 515.90163647394365 0 0 0 0 171.80512375882972 -171.97616137515433 0 -171.97616137515433 631.92224150203037 0 0 0 0 -16.704977221350418 -224.86018995099585 0 -224.86018995099585 640.34650543974885 0 0 0 0 -73.952568617332872 -110.56081533286033 0 -110.56081533286033 613.27301374671515 0 0 0 0 145.43401606319821 9.152200837736018 0 9.152200837736018 387.99095232954642 0 0 0 0 162.49908590931591 -126.19867617204545 0 -126.19867617204545 458.50681757495522 0 0 0 0 1.2704133572069622 3.8952369599106405 0 3.8952369599106405 4.0571415503408055 0 0 0 0 1.8617094778910541 -31.160118398018767 0 -31.160118398018767 454.58052304626472 0 0 0 0 35.692192476868513 -89.620049237637431 0 -89.620049237637431 400.84779043092931 0 0 0 0 73.811530970164313 -132.38805343033164 0 -132.38805343033164 445.60027360283857 0 0 0 0 28.987988553858742 11.730201009242876 0 11.730201009242876 6.6244485890021529 0 0 0 0 43.628436912811594 30.19548179719277 0 30.19548179719277 432.98946870697182 0 0 0 0 -114.13240150668935 227.6396349219649 0 227.6396349219649 -279.50567598836915 0 0 0 0 8.9096360586845051 -1.8426446120903144 0 -1.8426446120903144 -3.1400374669457634 0 0 0 0 233.4034406764622 -386.24773919861036 0 -386.24773919861036 782.68457687242335 0 0 0 0 196.02702843938459 -119.58255830729104 0 -119.58255830729104 385.30374305508303 0 0 0 0 139.44973500479682 -104.77384742745926 0 -104.77384742745926 706.74968120189078 0 0 0 0 97.391383940668675 -190.10895798244292 0 -190.10895798244292 348.62480051803868 0 0 0 0 191.93618985187641 -109.75530095719296 0 -109.75530095719296 364.21767140078373 0 0 0 0 151.32315837416536 -105.61163815188411 0 -105.61163815188411 366.79850482322126 0 0 0 0 1.0580199522597908 2.7043414639271717 0 2.7043414639271717 2.8733907287832388 0 0 0 0 197.86121057239507 -13.329158252690831 0 -13.329158252690831 119.09774653431305 0 0 0 0 189.57378506868463 -49.312551224552408 0 -49.312551224552408 698.19401988095706 0 0 0 0 77.261306330547086 3.9506894314417877 0 3.9506894314417877 261.2525955893725 0 0 0 0 228.17510708194459 -49.263323433977348 0 -49.263323433977348 210.81747837618423 0 0 0 0 30.818485720914396 -68.314811924070455 0 -68.314811924070455 443.99086852774781 0 0 0 0 63.081811176253723 -40.396996260999913 0 -40.396996260999913 451.22855398780666 0 0 0 0 10.170744035112875 -61.204683018337164 0 -61.204683018337164 549.06632925076337 0 0 0 0 238.98258639785672 -195.39577354616085 0 -195.39577354616085 -2.3197439150935679 0 0 0 0 -2.3300742060127959 -180.29678168405735 0 -180.29678168405735 521.67119300706645 0 0 0 0 -0.20549398799047935 1.6628187055667976 0 1.6628187055667976 4.9374058205073084 0 0 0 0 -126.14284592031618 -64.054707086654162 0 -64.054707086654162 711.49943459904625 0 0 0 0 -120.00074109206935 -9.921089182061678 0 -9.921089182061678 120.22931881585828 0 0 0 0 -101.18420115586332 108.50020796926788 0 108.50020796926788 94.048968753235386 0 0 0 0 36.648538376561191 -49.303086703006556 0 -49.303086703006556 -62.673320119902883 0 0 0 0 -12.781151618255535 17.982045538072271 0 17.982045538072271 88.840013446690136 0 0 0 0 0.9742706307249378 3.7140453837139109 0 3.7140453837139109 7.389425311317467 0 0 0 0 -92.425710087902189 180.33446688824006 0 180.33446688824006 2.2999103219758723 0 0 0 0 -27.791176345981512 -92.266094691307444 0 -92.266094691307444 157.59107498143931 0 0 0 0 170.0510775278708 164.99238231368872 0 164.99238231368872 252.46509699091166 0 0 0 0 114.36866181776168 -90.089607389742014 0 -90.089607389742014 366.66743752571347 0 0 0 0 272.95442513158469 114.38333624535244 0 114.38333624535244 147.0965546489424 0 0 0 0 243.98663019840569 -38.127169960876017 0 -38.127169960876017 354.29212836789884 0 0 0 0 95.646397675887783 -21.893758631247692 0 -21.893758631247692 195.06510057083142 0 0 0 0 9.3462080278400208 -195.14378754184963 0 -195.14378754184963 373.92817217400443 0 0 0 0 237.79693071124348 -704.09468929245122 0 -704.09468929245122 1016.3227569072933 0 0 0 0 -175.31899742563837 -570.5448653412459 0 -570.5448653412459 994.78516420985761 0 0 0 0 4.2297292072861339 0.72905985202837442 0 0.72905985202837442 1.1123563899768349 0 0 0 0 119.42228962046647 -56.456642154920701 0 -56.456642154920701 536.6809548027486 0 0 0 0 718.20222121115512 -80.523411014581143 0 -80.523411014581143 397.54987157203504 0 0 0 0 278.69619650748609 -209.35488629505562 0 -209.35488629505562 579.40889560755568 0 0 0 0 679.33628638967275 -156.36562234304074 0 -156.36562234304074 106.44710480059803 0 0 0 0 127.29399642782664 -52.837647446616756 0 -52.837647446616756 48.359582676876016 0 0 0 0 615.88511258504514 18.947294745757972 0 18.947294745757972 -44.831293982972056 0 0 0 0 99.197507455061896 -295.9333587655392 0 -295.9333587655392 -49.293378275000578 0 0 0 0 47.045526122858973 -115.00391086776744 0 -115.00391086776744 103.8688113956232 0 0 0 0 16.48914377655823 12.805634570379066 0 12.805634570379066 19.337317654403719 0 0 0 0 676.14923176911543 11.575306072347303 0 11.575306072347303 -210.70649810699797 0 0 0 0 582.19838719825202 127.57141566458813 0 127.57141566458813 93.048005371626004 0 0 0 0 440.44362564701078 271.28593669563998 0 271.28593669563998 519.45722660482716 0 0 0 0 683.98663210350969 270.98582422014442 0 270.98582422014442 253.4624261058816 0 0 0 0 303.18249821485006 104.42239916703147 0 104.42239916703147 385.21197179274532 0 0 0 0 727.85709448401167 -913.87093867931617 0 -913.87093867931617 -1199.5476801225195 0 0 0 0 132.6696657421071 31.005194490489885 0 31.005194490489885 21.9334415384034 0 0 0 0 185.88239239992981 117.76409895609868 0 117.76409895609868 598.19157840006028 0 0 0 0 850.45314703058466 -227.98929414511076 0 -227.98929414511076 -514.8142816032323 0 0 0 0 32.599985334582421 1.9584945030825338 0 1.9584945030825338 2.1352999820849377 0 0 0 0 14.515075216286007 2.633087303466084 0 2.633087303466084 0.61945070208564879 0 0 0 0 -573.98159608616334 755.55064083624529 0 755.55064083624529 1081.5152828815626 0 0 0 0 22.244201014967985 -113.30987429494598 0 -113.30987429494598 438.30199014798382 0 0 0 0 57.422500723865596 -65.927863121978589 0 -65.927863121978589 457.83317245495346 0 0 0 0 -2.010284589818184 -99.898219243523272 0 -99.898219243523272 443.86774249756854 0 0 0 0 76.533123314402474 -82.295393081400107 0 -82.295393081400107 427.68020315794092 0 0 0 0 256.51031939897803 -20.045581661474898 0 -20.045581661474898 438.83843735804112 0 0 0 0 -32.335378034411406 -29.392844222431449 0 -29.392844222431449 530.49509925171697 0 0 0 0 -6.6570628723238769 -134.53918428114594 0 -134.53918428114594 444.22423965339203 0 0 0 0 585.2985224420072 511.99670425312434 0 511.99670425312434 494.9030300704149 0 0 0 0 10.444132019567077 0.68340536669260388 0 0.68340536669260388 0.074351517797792865 0 0 0 0 -2818.9615163119615 -33.452556357406138 0 -33.452556357406138 156.67277825695783 0 0 0 0 289.05499696892366 -932.11992225835093 0 -932.11992225835093 -307.80145551502818 0 0 0 0 31.575192910960002 9.4972395182962401 0 9.4972395182962401 1.9433474305577363 0 0 0 0 38.468094216652389 -96.238252400698002 0 -96.238252400698002 347.87444967645388 0 0 0 0 2919.3285408080774 615.91065688579693 0 615.91065688579693 -305.84462992323097 0 0 0 0 730.69288926214085 -73.770098884853724 0 -73.770098884853724 -22.209262877188394 0 0 0 0 1248.1677033906387 195.66528414871027 0 195.66528414871027 43.090072183655138 0 0 0 0 13.792075665566017 77.032017622160197 0 77.032017622160197 443.50278897042153 0 0 0 0 126.04113456862638 153.91506884214323 0 153.91506884214323 474.68417302397484 0 0 0 0 6.2601606348477175 -1.2344690299721712 0 -1.2344690299721712 0.071514951368548907 0 0 0 0 719.66669338916586 -146.25924737092816 0 -146.25924737092816 610.67151500610271 0 0 0 0 164.1031111182856 -135.60463070646165 0 -135.60463070646165 546.49481509899852 0 0 0 0 172.95448344646218 -178.75236685621894 0 -178.75236685621894 171.56022491131444 0 0 0 0 66.585203429982585 -176.19228569795996 0 -176.19228569795996 451.32368931295787 0 0 0 0 221.45471724497941 8.0367042179041164 0 8.0367042179041164 478.58386823634828 0 0 0 0 10.14677556604093 80.167307104271686 0 80.167307104271686 454.16057444423859 0 0 0 0 58.833489857766253 46.840126918411897 0 46.840126918411897 540.32660157887949 0 0 0 0 37.352630400350051 36.76354302184609 0 36.76354302184609 857.87413878525695 0 0 0 0 8.1576861517223502 -4.4970865995613778 0 -4.4970865995613778 1.4571271674418895 0 0 0 0 21.574431075500634 -35.418824978493262 0 -35.418824978493262 380.7325151131663 0 0 0 0 194.44361080214094 34.782149863789527 0 34.782149863789527 372.09247441061871 0 0 0 0 -111.80549825259806 -7.7179990066451865 0 -7.7179990066451865 903.64800220897723 0 0 0 0 36.762447132785098 -154.42286844513001 0 -154.42286844513001 848.88871178901445 0 0 0 0 142.88628230945596 371.56629226297264 0 371.56629226297264 1035.6512760059059 0 0 0 0 143.49041369746061 -216.22123434976493 0 -216.22123434976493 866.42143439546271 0 0 0 0 178.11027047002364 -22.806782174713589 0 -22.806782174713589 -5.9070059477944596 0 0 0 0 2.8169436337497444 -1.0923232655731212 0 -1.0923232655731212 1.0394373415174201 0 0 0 0 16.132181997403677 -173.47110152796449 0 -173.47110152796449 -341.14101422444094 0 0 0 0 11.536410722890079 -4.9734707658994814 0 -4.9734707658994814 1.5294002662780137 0 0 0 0 29.012304632792905 -37.240748942546816 0 -37.240748942546816 -5.7808608451014152 0 0 0 0 -4.7218847378117061 -264.61719787312177 0 -264.61719787312177 -341.38563697372075 0 0 0 0 72.009243432950257 83.845911996466384 0 83.845911996466384 -243.97149940531926 0 0 0 0 -163.15900933709429 -194.56864488242627 0 -194.56864488242627 -183.0930072191677 0 0 0 0 128.90921185604327 -52.766564018014833 0 -52.766564018014833 -75.372953409008915 0 0 0 0 165.99333109378222 -71.09398491616048 0 -71.09398491616048 -170.47862726558378 0 0 0 0 -0.90003295952010376 -89.46767868616007 0 -89.46767868616007 -132.50124034140117 0 0 0 0 16.626611401566151 -233.25849076954353 0 -233.25849076954353 -263.3024219833278 0 0 0 0 80.599764961049004 -181.95089224442836 0 -181.95089224442836 -146.80534160601019 0 0 0 0 28.075569496651042 -141.31436183427104 0 -141.31436183427104 -91.911332560588789 0 0 0 0 -106.62694660881607 -264.61066134848261 0 -264.61066134848261 -80.557884690393621 0 0 0 0 -61.027629157528281 -115.66868635361243 0 -115.66868635361243 -266.82811360510823 0 0 0 0 -54.035457284840959 -167.26595157525298 0 -167.26595157525298 -147.49469360029616 0 0 0 0 313.26289431227906 -191.66655498549244 0 -191.66655498549244 -46.953609206697365 0 0 0 0 295.58745467123151 -277.29680433541284 0 -277.29680433541284 114.57008971650794 0 0 0 0 409.60770277328493 -107.58407679173251 0 -107.58407679173251 -312.45811970204159 0 0 0 0 663.57129847556098 -519.53727459589572 0 -519.53727459589572 103.23914179535586 0 0 0 0 321.61416193987543 -186.39222479658201 0 -186.39222479658201 -71.170436532648637 0 0 0 0 420.54646744603497 -115.77159738750379 0 -115.77159738750379 -167.50798399384803 0 0 0 0 229.62709336816783 23.855682383251406 0 23.855682383251406 -173.51573942805669 0 0 0 0 304.31054782215415 -68.131856727754894 0 -68.131856727754894 -60.685346444857714 0 0 0 0 250.33939275739885 -109.97350659512995 0 -109.97350659512995 -22.340437638025833 0 0 0 0 237.14193693091056 -67.923275495198141 0 -67.923275495198141 -13.924791241224739 0 0 0 0 282.36697905924939 -110.12645555968538 0 -110.12645555968538 -46.237716887862916 0 0 0 0 211.12797227658439 -143.01469019449496 0 -143.01469019449496 50.589606010893476 0 0 0 0 130.83536412066587 -108.70431424750177 0 -108.70431424750177 48.162667427852284 0 0 0 0 151.58997437537255 -176.77544131797549 0 -176.77544131797549 45.586325017223317 0 0 0 0 -10.617223322546124 -106.28021413169154 0 -106.28021413169154 146.36147995874651 0 0 0 0 109.86704888795703 -158.35358798001016 0 -158.35358798001016 147.3252396661992 0 0 0 0 88.690206183937335 -236.23997549129672 0 -236.23997549129672 261.74956342437508 0 0 0 0 2.0377211783634266 -76.190288258308101 0 -76.190288258308101 94.742724268857273 0 0 0 0 -28.389747636674656 -22.652055901937274 0 -22.652055901937274 76.113848683562537 0 0 0 0 70.98256105670589 -107.73080605781979 0 -107.73080605781979 96.58794729465626 0 0 0 0 41.916497113872538 -49.293040979986472 0 -49.293040979986472 70.290558234998571 0 0 0 0 35.543632276208882 -48.419995156672485 0 -48.419995156672485 80.940921817298658 0 0 0 0 -29.573397932832449 9.6777031870715291 0 9.6777031870715291 54.775764991454707 0 0 0 0 32.142788104392821 1.8482622134306439 0 1.8482622134306439 19.821554109397766 0 0 0 0 52.166168931595166 -49.439557534597043 0 -49.439557534597043 65.238769778798087 0 0 0 0 8.0847016832340159 -9.2176841767850419 0 -9.2176841767850419 51.263599610206256 0 0 0 0 9.5843400682206266 -8.5288766169942392 0 -8.5288766169942392 48.619937684725301 0 0 0 0 -27.572905268127215 7.1969764635441607 0 7.1969764635441607 59.409968666416262 0 0 0 0 -2.8674475063453428 -5.675896140882287 0 -5.675896140882287 43.630240422358838 0 0 0 0 -5.8389489315304672 -63.618101926140298 0 -63.618101926140298 125.54783572064662 0 0 0 0 -14.370298922609436 -3.3234118962809589 0 -3.3234118962809589 67.12595609984146 0 0 0 0 -35.905867121307892 41.197279940656699 0 41.197279940656699 -6.7311994294068427 0 0 0 0 -51.375713884777724 42.995612702596191 0 42.995612702596191 45.506439867376969 0 0 0 0 -3.8524278757612649 11.454438299131116 0 11.454438299131116 28.09736040812728 0 0 0 0 -11.470283309367062 -40.456759071190731 0 -40.456759071190731 57.522649257522062 0 0 0 0 -10.733074601546832 -11.720112116020573 0 -11.720112116020573 89.678145073381529 0 0 0 0 11.922999041879983 1.6560132016242264 0 1.6560132016242264 0.85102512053648383 0 0 0 0 14.474652575634536 -33.929440711604002 0 -33.929440711604002 -66.018849687865441 0 0 0 0 -3.5862444366430282 -131.73073612207554 0 -131.73073612207554 821.00987174968941 0 0 0 0 5.1890932577916828 3.4886411106936066 0 3.4886411106936066 53.023799177719411 0 0 0 0 21.129925954658823 1.2222409758200072 0 1.2222409758200072 3.9173100202399729 0 0 0 0 -23.044172391229949 65.916769274477701 0 65.916769274477701 -3.5326613927754806 0 0 0 0 42.260364103709435 -27.534514920776928 0 -27.534514920776928 19.225003575895698 0 0 0 0 -0.84907915766465791 7.2403504010949913 0 7.2403504010949913 23.70997959278716 0 0 0 0 -23.831606210460961 89.631892606005465 0 89.631892606005465 -140.86478168709436 0 0 0 0 -208.32218510727398 147.9633818623206 0 147.9633818623206 103.93482652366583 0 0 0 0 -272.02309550716564 272.2117049397857 0 272.2117049397857 -132.72024583219536 0 0 0 0 -686.959057163544 -18.50693261682909 0 -18.50693261682909 339.86144868843257 0 0 0 0 36.593413700171368 -229.0931371352417 0 -229.0931371352417 236.1227722290987 0 0 0 0 50.284272996661457 -130.38099195368886 0 -130.38099195368886 218.43936015092913 0 0 0 0 -133.73553105380233 -189.75739962359512 0 -189.75739962359512 268.24302197241195 0 0 0 0 -34.823970889412522 -93.867791407210461 0 -93.867791407210461 194.45037273094204 0 0 0 0 -81.434498190069462 15.339014900177062 0 15.339014900177062 123.86725159234629 0 0 0 0 -158.3342864443498 -0.59679640317051508 0 -0.59679640317051508 159.07180699861419 0 0 0 0 -78.252791996035739 16.578036341172265 0 16.578036341172265 100.76824018682169 0 0 0 0 0.32859361586448138 21.899910479307437 0 21.899910479307437 643.21006061632215 0 0 0 0 -13.486488914169456 8.6452088802834623 0 8.6452088802834623 60.008163024845999 0 0 0 0 222.30639770962307 87.332498884294182 0 87.332498884294182 27.454833788635369 0 0 0 0 19.023162975352054 -101.84324358310187 0 -101.84324358310187 12.12955063348636 0 0 0 0 0.0012956258890040899 -1.5436028164040181 0 -1.5436028164040181 6.7089765326381894 0 0 0 0 -0.18581145237397212 -0.25511196606018416 0 -0.25511196606018416 -0.45698159655560744 0 0 0 0 24.231921982498477 10.466486019900913 0 10.466486019900913 -2.6649706269818125 0 0 0 0 -3.8048905815704757 -40.66038263446535 0 -40.66038263446535 21.060559227194972 0 0 0 0 -2.1034666137964573 -3.6454341330423574 0 -3.6454341330423574 17.322377676039537 0 0 0 0 -8.2600919339782735 -1.6132139498859033 0 -1.6132139498859033 24.706146058713784 0 0 0 0 -9.1248098733163374 3.7208193765691249 0 3.7208193765691249 24.246671119210077 0 0 0 0 7.4804299296878298 -9.4756162923586089 0 -9.4756162923586089 41.333066713035805 0 0 0 0 -5.481645899149461 0.15192678513788849 0 0.15192678513788849 28.032424729876254 0 0 0 0 1.2011226714810164 -50.564295121548639 0 -50.564295121548639 -9.3313800833566347 0 0 0 0 0.4839112936060701 6.086874676620937 0 6.086874676620937 46.656903464841889 0 0 0 0 -5.9846177775257212 -5.2603440560463781 0 -5.2603440560463781 36.922750327554127 0 0 0 0 -2.9026442330277065 -6.3963678704621572 0 -6.3963678704621572 -1.9332339632135813 0 0 0 0 -80.650042078756201 15.927474685755442 0 15.927474685755442 35.147850988309074 0 0 0 0 196.16651684187946 -164.44488870839996 0 -164.44488870839996 30.343234233507246 0 0 0 0 0.98617858037783745 0.22567686029552192 0 0.22567686029552192 -2.8032935053537358 0 0 0 0 -76.003388117640952 -88.562110041668348 0 -88.562110041668348 67.74501124220842 0 0 0 0 -36.539618949164833 -59.295950615785841 0 -59.295950615785841 -10.747218974378484 0 0 0 0 -353.21439279603032 97.946050472857678 0 97.946050472857678 117.22650101879844 0 0 0 0 -235.36845795342492 -193.36680496082408 0 -193.36680496082408 490.60067486020853 0 0 0 0 99.970233050577832 -29.345223008049288 0 -29.345223008049288 752.24732491439499 0 0 0 0 -65.887827330109928 223.24988586717154 0 223.24988586717154 1603.1794889727535 0 0 0 0 162.29129536273513 269.85064326705105 0 269.85064326705105 143.58344256889541 0 0 0 0 33.067893845609149 145.34471761348505 0 145.34471761348505 3497.6400003716917 0 0 0 0 -150.88448698147499 869.11710963786027 0 869.11710963786027 2540.811714534022 0 0 0 0 128.10823537090866 165.55014898155787 0 165.55014898155787 2678.6921207230089 0 0 0 0 -0.38699135304950499 -18.206634400279324 0 -18.206634400279324 3195.4443409030355 0 0 0 0 393.7388883869063 234.84230305484016 0 234.84230305484016 3269.5588752311414 0 0 0 0 13.049434940058994 603.54836203881496 0 603.54836203881496 3194.3208816266861 0 0 0 0 863.90888663797455 796.36880616749113 0 796.36880616749113 3489.9386847223868 0 0 0 0 6.4995299432329716 376.56193863850785 0 376.56193863850785 4448.6243374648475 0 0 0 0 229.49016709273357 391.82018449936731 0 391.82018449936731 3234.3369066608575 0 0 0 0 121.46579996129789 127.57198906952613 0 127.57198906952613 3233.5743443321044 0 0 0 0 1054.911628360949 -86.694233378315403 0 -86.694233378315403 3103.7823653651649 0 0 0 0 587.41488989445475 1129.2898606944218 0 1129.2898606944218 1075.4945843559854 0 0 0 0 -273.01766423166157 444.20545587614833 0 444.20545587614833 3276.9226554821071 0 0 0 0 83.080675195022309 -1244.9561503805671 0 -1244.9561503805671 3924.9957254168839 0 0 0 0 710.90517778622689 536.24640981248376 0 536.24640981248376 -116.64743980423373 0 0 0 0 777.95740391586878 -1692.2593369843671 0 -1692.2593369843671 2499.7310308248852 0 0 0 0 4.3725380172435457 6.9852021674650331 0 6.9852021674650331 16.449818248684153 0 0 0 0 251.87321479953943 -581.15309476239781 0 -581.15309476239781 1934.695881762178 0 0 0 0 219.7934075176276 -587.35184802132426 0 -587.35184802132426 2284.933326676095 0 0 0 0 183.73310279135308 -361.37797620441415 0 -361.37797620441415 1941.0808853829658 0 0 0 0 86.134159124544681 -519.10455808050756 0 -519.10455808050756 1911.2505842740939 0 0 0 0 -23.9603272187519 -397.23237375792814 0 -397.23237375792814 1834.3880760313623 0 0 0 0 -158.50346176229073 -173.51843723186903 0 -173.51843723186903 2900.095854452542 0 0 0 0 -88.583851584528929 -58.399173320649425 0 -58.399173320649425 2288.5277657142069 0 0 0 0 -356.41111140871897 -47.186536142238765 0 -47.186536142238765 2344.6689033050352 0 0 0 0 -85.279254750356813 -190.52059686766006 0 -190.52059686766006 1802.9753857705655 0 0 0 0 -102.41554976613611 -175.26052110344608 0 -175.26052110344608 1796.5297479482397 0 0 0 0 -200.7504578158119 481.67589317271268 0 481.67589317271268 2224.465415130886 0 0 0 0 -303.0025011652852 407.47621862471351 0 407.47621862471351 3170.6003071103478 0 0 0 0 -112.54506972531382 -77.906702096699519 0 -77.906702096699519 2806.4582641274901 0 0 0 0 -99.214725711968526 610.74429514036456 0 610.74429514036456 3276.6163852486206 0 0 0 0 17.341276284131464 611.23081374789399 0 611.23081374789399 3066.2630845885014 0 0 0 0 -462.85789384473605 557.03934301371737 0 557.03934301371737 3501.4378426931835 0 0 0 0 -466.68759299678175 800.01165046584629 0 800.01165046584629 2154.6156945428156 0 0 0 0 -500.11066431946841 775.81436373217002 0 775.81436373217002 3135.2565347239579 0 0 0 0 -291.68574072480885 713.34396868144177 0 713.34396868144177 2194.295685289926 0 0 0 0 -209.74106856385993 129.18121850219904 0 129.18121850219904 1856.7476128851995 0 0 0 0 -152.46794730321619 90.808000088054541 0 90.808000088054541 1029.1843012329628 0 0 0 0 -184.85262084283903 154.72947203283184 0 154.72947203283184 1593.9444914523192 0 0 0 0 -37.319056471328395 56.542876383075054 0 56.542876383075054 806.38531220518053 0 0 0 0 50.232628574720138 243.50898887156654 0 243.50898887156654 827.34052272869758 0 0 0 0 16.802425259914401 -93.307890915963071 0 -93.307890915963071 185.34353251238645 0 0 0 0 5.3226767948883662 73.537046651319542 0 73.537046651319542 58.175456007113098 0 0 0 0 -1.671030844428981 -1.004580844263856 0 -1.004580844263856 0.10031329858779259 0 0 0 0 38.496607309984142 -60.443530585816916 0 -60.443530585816916 242.99774125454132 0 0 0 0 -60.575223261443625 -311.17076377448393 0 -311.17076377448393 116.78932378525496 0 0 0 0 -60.992628118204266 -10.030495051714752 0 -10.030495051714752 1022.3173349673889 0 0 0 0 -16.373169673222492 -158.78402242175071 0 -158.78402242175071 1029.1731764997385 0 0 0 0 -49.764462477669895 -45.059087197645567 0 -45.059087197645567 256.14468391536502 0 0 0 0 174.1875462974815 -53.981995049733086 0 -53.981995049733086 578.50101277492286 0 0 0 0 -2.1144426714635149 -1.0689718859835864 0 -1.0689718859835864 0.29176663377677414 0 0 0 0 240.09027669206716 -721.60047713312088 0 -721.60047713312088 696.82632796234975 0 0 0 0 25.056095622129533 -343.03691880125552 0 -343.03691880125552 1085.3844631974353 0 0 0 0 -91.699475303684721 -155.52016966920201 0 -155.52016966920201 1029.6402182535912 0 0 0 0 617.13125924050757 -205.1257457200054 0 -205.1257457200054 -167.82581237450358 0 0 0 0 0.18913869530751981 71.982993167883251 0 71.982993167883251 7.143141619173548 0 0 0 0 243.14388169743938 -545.0812958911265 0 -545.0812958911265 1949.6601448410438 0 0 0 0 -6.0795556545826219 -2.0281542876685421 0 -2.0281542876685421 5.1238792736242829 0 0 0 0 6.6299480405226623 21.545747779247151 0 21.545747779247151 43.982756251906437 0 0 0 0 166.61364248819109 -731.89637579780538 0 -731.89637579780538 1652.8713119825115 0 0 0 0 156.16456320270572 -545.57572769129183 0 -545.57572769129183 1911.0974691786505 0 0 0 0 147.96052115460009 -623.81316558010985 0 -623.81316558010985 1314.991133422649 0 0 0 0 129.99190549776813 -823.77084906506934 0 -823.77084906506934 1437.0026963423734 0 0 0 0 59.883830392508116 53.126509938796517 0 53.126509938796517 160.66901688918006 0 0 0 0 5.7665556070338813 3.6373556456989888 0 3.6373556456989888 5.8011187978811449 0 0 0 0 -47.916953112975534 98.287752325370093 0 98.287752325370093 148.0062607086802 0 0 0 0 -4.9455517343988191 8.1773990828994982 0 8.1773990828994982 32.918126341533537 0 0 0 0 -181.66687670354827 12.342193591503019 0 12.342193591503019 101.17485492696142 0 0 0 0 -162.99157105150562 -8.2131249112717342 0 -8.2131249112717342 257.52276243162169 0 0 0 0 72.408006057552939 30.365222125023138 0 30.365222125023138 27.524513615586329 0 0 0 0 -184.07827413902532 -258.75669496651028 0 -258.75669496651028 -205.46371276621358 0 0 0 0 -188.0911422055251 -362.59766665683128 0 -362.59766665683128 -954.88540797843598 0 0 0 0 312.57586270754177 580.61884144103533 0 580.61884144103533 629.04331938926771 0 0 0 0 -3.5400090370089417 6.0519745941965084 0 6.0519745941965084 28.264147820951109 0 0 0 0 3.194869156492814 5.7873607225774322 0 5.7873607225774322 26.389750680624275 0 0 0 0 -10.545996576527045 10.880424569782917 0 10.880424569782917 33.567931268822576 0 0 0 0 0.58046595617111052 -5.3265101226497791 0 -5.3265101226497791 33.659133802808356 0 0 0 0 2.5030152430358612 -3.1153418359717762 0 -3.1153418359717762 35.758141703685396 0 0 0 0 -4.4030549203523375 5.4095924905801098 0 5.4095924905801098 26.65115901820235 0 0 0 0 -3.8779288045825524 -3.8211068345772219 0 -3.8211068345772219 38.594584757564007 0 0 0 0 -3.6671257280031568 3.3898163880003267 0 3.3898163880003267 39.424018790581613 0 0 0 0 -144.36150831028135 50.650137345633993 0 50.650137345633993 554.81064951927692 0 0 0 0 -106.48054616252557 -60.286750426625076 0 -60.286750426625076 375.40990837787103 0 0 0 0 -3.3143112880343324 -258.79075524614018 0 -258.79075524614018 394.64208533365945 0 0 0 0 -193.43549095441813 -263.63282489805351 0 -263.63282489805351 673.82883683055115 0 0 0 0 -341.33339991493085 -133.00400680112944 0 -133.00400680112944 384.74717291855086 0 0 0 0 -14.283337952577337 -7.2017541862837788 0 -7.2017541862837788 -2.4589741740724946 0 0 0 0 -47.237754571342521 -140.01124457016704 0 -140.01124457016704 380.31984174930403 0 0 0 0 55.49321639239497 -68.545263008025358 0 -68.545263008025358 410.05496224868693 0 0 0 0 13.883068129987805 39.478365715491236 0 39.478365715491236 -469.4651425001648 0 0 0 0 -0.18644852347332019 -0.69959129385185292 0 -0.69959129385185292 -0.72015283442158307 0 0 0 0 62.99745481262579 -179.3851506735391 0 -179.3851506735391 -320.97531272827473 0 0 0 0 157.86395040075809 27.086074169936182 0 27.086074169936182 -880.02168645661732 0 0 0 0 -76.271768746783891 191.28028529828589 0 191.28028529828589 -119.80440553933295 0 0 0 0 -5.0592366362616961 -1.316010378838854 0 -1.316010378838854 -0.57012790995707974 0 0 0 0 -34.886918441343028 -56.635810720319569 0 -56.635810720319569 -208.46143919359019 0 0 0 0 -114.05285111077694 -162.93966220402581 0 -162.93966220402581 -165.86961945144867 0 0 0 0 30.257953318417321 -143.15140913866344 0 -143.15140913866344 -183.12434785966252 0 0 0 0 -33.209099834173401 -79.608363544364693 0 -79.608363544364693 -65.13048179265752 0 0 0 0 41.426570055184584 -119.77958428802231 0 -119.77958428802231 -166.85859117716609 0 0 0 0 63.940412180557246 -64.446158977501909 0 -64.446158977501909 -271.51727841931279 0 0 0 0 -28.666581687918324 -25.180334061646136 0 -25.180334061646136 -229.30721376728616 0 0 0 0 96.024927743330409 -194.78676585444191 0 -194.78676585444191 281.65225620804995 0 0 0 0 2.8071258610604843 -45.419414819742087 0 -45.419414819742087 -217.65398405624001 0 0 0 0 126.6849403644519 -155.32314243930523 0 -155.32314243930523 296.6859074717504 0 0 0 0 -24.246849107708787 -10.474232668879011 0 -10.474232668879011 -0.19193562094081074 0 0 0 0 42.859812974547822 -155.17496162629686 0 -155.17496162629686 328.27402819069539 0 0 0 0 81.695335627386157 294.41618805602775 0 294.41618805602775 887.97575539420359 0 0 0 0 -1.0128616350907933 6.4013902768527942 0 6.4013902768527942 4.5230701768434329 0 0 0 0 -3.8667937686778124 -1.9330376306241703 0 -1.9330376306241703 0.22397689366368922 0 0 0 0 268.29227373451977 799.96769699551805 0 799.96769699551805 530.1226818649011 0 0 0 0 -504.57397681478142 -411.18926571506017 0 -411.18926571506017 311.82874372496008 0 0 0 0 121.41987871370384 64.258975398595794 0 64.258975398595794 38.544345388268994 0 0 0 0 132.17454889379496 134.9785103982249 0 134.9785103982249 142.22231679214747 0 0 0 0 -0.24562018811816344 -5.7450043306510139 0 -5.7450043306510139 8.0357962229408599 0 0 0 0 105.16702808851778 144.98328508654413 0 144.98328508654413 266.0250716652663 0 0 0 0 -115.83125641916968 57.984193083731952 0 57.984193083731952 96.652727208587748 0 0 0 0 118.84637598245354 80.026083473250765 0 80.026083473250765 -29.728709135124518 0 0 0 0 -20.033152775964123 4.4077648350022685 0 4.4077648350022685 22.321207218884069 0 0 0 0 -269.56850660023974 -312.06838595635418 0 -312.06838595635418 -59.805441626842367 0 0 0 0 -52.695800021471797 -18.974736261738144 0 -18.974736261738144 -55.408086370865931 0 0 0 0 71.757144528869048 113.21275103833977 0 113.21275103833977 73.196624991775025 0 0 0 0 -19.014676189255518 4.1626007234097244 0 4.1626007234097244 29.623474674151822 0 0 0 0 -380.47722827029588 -261.00077792272532 0 -261.00077792272532 138.98800022758223 0 0 0 0 -91.016818124389602 85.167435316547198 0 85.167435316547198 567.56911143759498 0 0 0 0 121.57357924364601 71.18601100705564 0 71.18601100705564 -81.337340254076935 0 0 0 0 118.8889418243574 14.147795239456173 0 14.147795239456173 183.39981217161767 0 0 0 0 -76.675527461717593 -78.955076533868123 0 -78.955076533868123 214.57561688675196 0 0 0 0 74.319005680881787 -144.43413561327907 0 -144.43413561327907 -39.690125334218465 0 0 0 0 -39.405472234281433 -164.62773217121139 0 -164.62773217121139 -56.915396399635938 0 0 0 0 -4.9113186905477164 -11.082113274072981 0 -11.082113274072981 167.17955994755903 0 0 0 0 58.290395518665719 -47.220637666876428 0 -47.220637666876428 184.8831527988732 0 0 0 0 71.289222784932718 226.16725925086575 0 226.16725925086575 732.06897198366642 0 0 0 0 -361.12964151568002 1465.0906536454868 0 1465.0906536454868 3494.6455897879569 0 0 0 0 -26.445576255755867 120.49880513704375 0 120.49880513704375 962.06351983099012 0 0 0 0 44.386052483744017 474.032755506287 0 474.032755506287 1119.0160809655063 0 0 0 0 70.577017658110663 720.72133115633915 0 720.72133115633915 1371.138833700621 0 0 0 0 1369.8228034889546 2202.4657712482003 0 2202.4657712482003 1375.7726395856298 0 0 0 0 2315.0590529132082 743.93134241341795 0 743.93134241341795 -315.24486095221073 0 0 0 0 11.201966442159087 9.6588752663621023 0 9.6588752663621023 14.139966040952686 0 0 0 0 12.251986532520277 147.00376664764917 0 147.00376664764917 413.83842243447725 0 0 0 0 1132.5849922282848 718.41416644198398 0 718.41416644198398 392.51548079058557 0 0 0 0 149.6529464087522 1087.6825630774474 0 1087.6825630774474 1710.1274017066899 0 0 0 0 7.7743372407210245 108.31337846915994 0 108.31337846915994 545.19198008979765 0 0 0 0 435.41162695712592 629.32198966417491 0 629.32198966417491 545.10066446714336 0 0 0 0 155.06193072498081 207.16804241609498 0 207.16804241609498 29.798220188233245 0 0 0 0 -12.28011545774774 19.687853436851583 0 19.687853436851583 60.75719431586549 0 0 0 0 -15.712569294232367 26.011908727545233 0 26.011908727545233 58.083893304217781 0 0 0 0 -4.7915598696405359 13.649013676953018 0 13.649013676953018 47.272947264086127 0 0 0 0 -92.82268881170944 170.56978296393208 0 170.56978296393208 88.711840770018853 0 0 0 0 -19.469639111713459 10.549940097855874 0 10.549940097855874 39.539758090864098 0 0 0 0 -353.8484244625206 -137.31591602451408 0 -137.31591602451408 272.82100068393629 0 0 0 0 -86.86985736400311 322.47258918798252 0 322.47258918798252 121.61467190874828 0 0 0 0 15.882116718651478 26.112852169420066 0 26.112852169420066 40.546891870650995 0 0 0 0 34.105762662417682 -116.39690350200181 0 -116.39690350200181 1041.7238840827049 0 0 0 0 -371.05156327854888 -43.829414467920287 0 -43.829414467920287 101.39610893165809 0 0 0 0 4.6903109140206496 -1.1316356032952939 0 -1.1316356032952939 30.014440252050406 0 0 0 0 20.98571405139246 -140.08046425132125 0 -140.08046425132125 1034.9995804338887 0 0 0 0 -313.21165911724501 338.48963042090145 0 338.48963042090145 3944.6743985306821 0 0 0 0 197.27160196835646 -1192.130369740642 0 -1192.130369740642 3495.8072293993027 0 0 0 0 -717.49892800381542 128.41457343853472 0 128.41457343853472 3499.8624585597609 0 0 0 0 -114.12185634942915 63.130332014494343 0 63.130332014494343 1632.0065726247994 0 0 0 0 -341.86322906770215 -267.33303922144114 0 -267.33303922144114 2786.136570726745 0 0 0 0 -324.16600967555792 -280.71234694024315 0 -280.71234694024315 2788.2540421620597 0 0 0 0 -192.42004046648464 144.34105926108714 0 144.34105926108714 3864.5461641650472 0 0 0 0 767.85124520738066 -101.106074294672 0 -101.106074294672 3500.1839754319662 0 0 0 0 4.2004078638090672 -4.7614518900307061 0 -4.7614518900307061 6.9006883446327265 0 0 0 0 137.34367426384603 -1233.0577520807856 0 -1233.0577520807856 2861.0777843867618 0 0 0 0 483.42778214141441 -1025.5924525743212 0 -1025.5924525743212 374.29375185044773 0 0 0 0 -47.151266137803987 346.87557486762671 0 346.87557486762671 124.06224010933602 0 0 0 0 395.902572395476 -98.350985055114506 0 -98.350985055114506 174.3082510448512 0 0 0 0 240.93028751758516 -726.53394263438531 0 -726.53394263438531 1251.9596831764939 0 0 0 0 131.90009082096503 -93.64860192778724 0 -93.64860192778724 1012.3801354111292 0 0 0 0 -51.504219833379693 -241.18904039642803 0 -241.18904039642803 1500.2642338481055 0 0 0 0 225.83245289717749 -115.48846453905389 0 -115.48846453905389 563.13957921840483 0 0 0 0 97.440303190680652 104.63362981558566 0 104.63362981558566 395.27356069108646 0 0 0 0 218.99925635183229 -137.63716445535101 0 -137.63716445535101 123.68745194223447 0 0 0 0 233.1703643516679 -90.377960343186714 0 -90.377960343186714 94.049443057250755 0 0 0 0 110.06667452531931 79.389654994827652 0 79.389654994827652 -89.129978059929272 0 0 0 0 147.77041765142093 207.92654357021092 0 207.92654357021092 77.47158864892117 0 0 0 0 -71.178157636823926 66.392779532288841 0 66.392779532288841 -8.7738190653835773 0 0 0 0 23.135391872190155 106.77173028079415 0 106.77173028079415 -55.072357897282927 0 0 0 0 -10.60399006550486 12.541657297435449 0 12.541657297435449 83.421372826931474 0 0 0 0 2.386000462250319 21.914577687778632 0 21.914577687778632 54.1096353296426 0 0 0 0 33.900366351923907 -44.598595991898037 0 -44.598595991898037 -133.07646321853008 0 0 0 0 -312.21315873663468 -24.139655655844763 0 -24.139655655844763 207.22686714188239 0 0 0 0 1.8620358239439987 -9.3878972376402032 0 -9.3878972376402032 48.503277010015296 0 0 0 0 -3.9431216287354265 35.614357998000855 0 35.614357998000855 79.205800181122981 0 0 0 0 -13.881765719360033 49.576711035733751 0 49.576711035733751 68.684708851506002 0 0 0 0 -26.901986859671268 105.86168887437543 0 105.86168887437543 125.27797946435749 0 0 0 0 -109.68420077816529 -10.202702100315946 0 -10.202702100315946 92.857097849409911 0 0 0 0 -4.649021386281726 9.0017318945373717 0 9.0017318945373717 19.653959532062999 0 0 0 0 -87.427340652670807 88.267232273428817 0 88.267232273428817 110.21895615034737 0 0 0 0 46.00367671728327 48.024594492686447 0 48.024594492686447 84.006136218245956 0 0 0 0 -8.864484312106697 33.783599909384066 0 33.783599909384066 77.856656150579511 0 0 0 0 -14.547566849223063 89.098709925811818 0 89.098709925811818 119.12000275730679 0 0 0 0 -11.659894335706031 12.520510767184632 0 12.520510767184632 24.930410407582229 0 0 0 0 -26.556536129833603 25.024545682346798 0 25.024545682346798 76.475803288616589 0 0 0 0 -14.365765496430527 17.441006208184263 0 17.441006208184263 37.004953441108228 0 0 0 0 -20.031495094802732 2.5524026946235949 0 2.5524026946235949 32.014646627702376 0 0 0 0 13.353679357183637 61.743026649226522 0 61.743026649226522 84.950170600452111 0 0 0 0 -2.9378218248307348 28.250973327267275 0 28.250973327267275 67.725002685496293 0 0 0 0 -23.989866047546911 32.124149031755223 0 32.124149031755223 93.813718193165187 0 0 0 0 -10.829659901891091 21.761020544341591 0 21.761020544341591 19.029736461481662 0 0 0 0 -20.434620843584071 0.9172974140929 0 0.9172974140929 57.549252712924499 0 0 0 0 -17.202092302267147 11.373535015416564 0 11.373535015416564 46.484401633497328 0 0 0 0 162.48723113568849 139.38642314739991 0 139.38642314739991 124.93975892709568 0 0 0 0 -8.8152727583268575 0.45257108224238607 0 0.45257108224238607 6.5033563168261423 0 0 0 0 -36.109159381118616 -6.0669524691111292 0 -6.0669524691111292 40.177542322539011 0 0 0 0 -39.490497181628371 17.928251917881425 0 17.928251917881425 45.456727866083384 0 0 0 0 88.056886883918196 175.88108613328222 0 175.88108613328222 146.16939352397458 0 0 0 0 23.86896982088183 57.351768488093512 0 57.351768488093512 151.85684370232048 0 0 0 0 98.907243384303911 42.924494178067107 0 42.924494178067107 123.44414494067314 0 0 0 0 -46.26854640777583 70.265323755316786 0 70.265323755316786 215.3348094443063 0 0 0 0 151.0886617526412 117.4070368425746 0 117.4070368425746 180.01337382658676 0 0 0 0 272.50426878699727 292.31412973202532 0 292.31412973202532 301.77143474592594 0 0 0 0 0.87423614442493047 0.63993642397375083 0 0.63993642397375083 0.27712191312190271 0 0 0 0 -1.8005738868408123 -0.76199520590337499 0 -0.76199520590337499 0.31474386129374921 0 0 0 0 273.17661977227544 288.4074886784947 0 288.4074886784947 294.10288365284214 0 0 0 0 102.14695696578565 72.14891635607637 0 72.14891635607637 265.85146986478685 0 0 0 0 129.1177273848466 95.011874482275744 0 95.011874482275744 68.045969854225405 0 0 0 0 -6.3475490602788494 -2.7721697226942013 0 -2.7721697226942013 8.7648174624731041 0 0 0 0 90.050129016475694 153.53819331334671 0 153.53819331334671 253.44724617211614 0 0 0 0 45.162084032646817 196.42618037360808 0 196.42618037360808 217.12415729749046 0 0 0 0 -60.878954639261792 -63.196376529191184 0 -63.196376529191184 -1.6736681501060957 0 0 0 0 75.274960301661849 41.723588541179197 0 41.723588541179197 126.93123177139933 0 0 0 0 126.67389451547206 32.465791016147705 0 32.465791016147705 87.123881700441416 0 0 0 0 -42.249491275209039 90.306413359732687 0 90.306413359732687 86.361034085093706 0 0 0 0 -2.1563654692216065 -2.3184906798797158 0 -2.3184906798797158 7.419856715058927 0 0 0 0 -199.59865743424541 -139.05712609132388 0 -139.05712609132388 68.300061810288753 0 0 0 0 53.32747599435163 45.96741639272841 0 45.96741639272841 68.816145528820925 0 0 0 0 49.74296985675528 33.393562490469776 0 33.393562490469776 27.073852377230651 0 0 0 0 11.863239520078423 31.171024457500607 0 31.171024457500607 1.9778898942131491 0 0 0 0 -52.479524558438754 34.697280542779481 0 34.697280542779481 202.84457289852435 0 0 0 0 -23.11318723392742 25.712769305511756 0 25.712769305511756 259.56189759992412 0 0 0 0 78.820967618272874 80.095377542140341 0 80.095377542140341 87.467841622776177 0 0 0 0 75.143869012119808 74.28446555402661 0 74.28446555402661 131.87554202131287 0 0 0 0 -178.919741248214 -138.31109905680569 0 -138.31109905680569 -38.229717897253067 0 0 0 0 -2.002093926334874 -1.5771853003867591 0 -1.5771853003867591 9.2677043375670678 0 0 0 0 -52.921244911481836 94.529281906396136 0 94.529281906396136 51.606778790941462 0 0 0 0 -33.647530772478603 43.591713979170891 0 43.591713979170891 183.51576546895376 0 0 0 0 55.559582613975181 55.303313161515689 0 55.303313161515689 50.005341254363884 0 0 0 0 49.707245635322465 -59.244513156619178 0 -59.244513156619178 -187.54532021963678 0 0 0 0 -38.598731016344232 -336.30903061916342 0 -336.30903061916342 374.85835712942935 0 0 0 0 -0.75738137029538155 -0.76400327735417761 0 -0.76400327735417761 4.2968057240505004 0 0 0 0 -39.505392357855271 -362.80898893110862 0 -362.80898893110862 -12.784173755720985 0 0 0 0 49.672981849240387 -86.750359487719834 0 -86.750359487719834 180.18247115552367 0 0 0 0 196.70623806457968 285.03983109683713 0 285.03983109683713 575.99734249433095 0 0 0 0 190.33423092981593 231.4917193531146 0 231.4917193531146 196.08300028137455 0 0 0 0 65.397926526086621 81.111016330192797 0 81.111016330192797 417.43070136729511 0 0 0 0 98.377000260981276 172.54612682154402 0 172.54612682154402 601.05179715562554 0 0 0 0 -70.717932165904131 -137.09687279411446 0 -137.09687279411446 635.04075468172596 0 0 0 0 373.89095135973366 -74.436960091261426 0 -74.436960091261426 781.04879580067063 0 0 0 0 48.026357311294305 59.106098753836704 0 59.106098753836704 575.50015663958038 0 0 0 0 328.91417545947843 -161.90083496741863 0 -161.90083496741863 622.04110701559694 0 0 0 0 124.87727748930229 210.161378972276 0 210.161378972276 513.1079469111246 0 0 0 0 296.9346398832123 167.12272877694704 0 167.12272877694704 59.319823372425162 0 0 0 0 -26.242386560757495 -76.11016957427637 0 -76.11016957427637 608.67844491034793 0 0 0 0 1.8893143212573653 2.1126833721002853 0 2.1126833721002853 2.16495345499834 0 0 0 0 -17.762937991932631 -53.102916850149995 0 -53.102916850149995 119.15508634727303 0 0 0 0 -27.307141745521221 -146.01443743464552 0 -146.01443743464552 431.72563834822336 0 0 0 0 -45.796191764051628 100.60779803236437 0 100.60779803236437 488.64533115760423 0 0 0 0 -51.353109034944111 47.217381174446245 0 47.217381174446245 291.96711863558448 0 0 0 0 -104.02046093713022 3.0393348804063862 0 3.0393348804063862 387.31330971655552 0 0 0 0 -85.951287174732215 -32.190665485664795 0 -32.190665485664795 366.66526283913481 0 0 0 0 -60.42306255969379 62.510584601186565 0 62.510584601186565 112.86370282917778 0 0 0 0 -84.451356600925465 12.217404862232797 0 12.217404862232797 62.592085571490315 0 0 0 0 3.201921829062345 4.5791857447688784 0 4.5791857447688784 6.1909216645466358 0 0 0 0 -56.237350926823183 28.38880695093394 0 28.38880695093394 44.52220216042042 0 0 0 0 -26.607886529886628 59.75372025687102 0 59.75372025687102 -29.703821358954883 0 0 0 0 -23.91963861479735 6.9248854356446827 0 6.9248854356446827 31.88471845757158 0 0 0 0 -64.253797733330202 71.543636773894832 0 71.543636773894832 -17.676295720248163 0 0 0 0 -47.947389369949406 42.966999556265364 0 42.966999556265364 -49.544331488439639 0 0 0 0 -54.91197731325002 11.28664365462464 0 11.28664365462464 37.146704264596337 0 0 0 0 2.1898275281273731 5.634034964931196 0 5.634034964931196 8.0282427087070687 0 0 0 0 -11.452094346258946 -35.891798417535028 0 -35.891798417535028 15.980652417259989 0 0 0 0 -0.86621074306920498 -1.8857047382905137 0 -1.8857047382905137 0.27013027479870289 0 0 0 0 5.7258831831013595 -61.996513837046223 0 -61.996513837046223 88.517529022381495 0 0 0 0 -7.2099399325059146 -5.040218289864697 0 -5.040218289864697 -1.0410370251453855 0 0 0 0 -8.9264750840229681 -10.101057667401619 0 -10.101057667401619 5.9770651950966567 0 0 0 0 40.569403641948156 -39.334571874322137 0 -39.334571874322137 93.329938944385503 0 0 0 0 -36.162146628637856 -43.760803445271449 0 -43.760803445271449 87.19078965310473 0 0 0 0 -12.966570560376567 -38.507064107470796 0 -38.507064107470796 59.229570490861079 0 0 0 0 16.173288708880136 -50.858877635590034 0 -50.858877635590034 87.950820709247637 0 0 0 0 43.573831012766277 -47.966104698120034 0 -47.966104698120034 86.061084596172805 0 0 0 0 37.719709739672908 132.50405607653374 0 132.50405607653374 -20.663288754032692 0 0 0 0 113.94904998150105 -18.490770477277692 0 -18.490770477277692 -12.406207715364872 0 0 0 0 -7.2462673765749059 -66.962654129813018 0 -66.962654129813018 131.26058268573252 0 0 0 0 -1.0746164201436343 -1.7874795897523654 0 -1.7874795897523654 -0.20923269014350865 0 0 0 0 -50.830503948325713 26.472370176241384 0 26.472370176241384 44.754994038274162 0 0 0 0 -52.056190498768046 27.273613239085535 0 27.273613239085535 184.89771821640534 0 0 0 0 -71.759480624892603 -11.58593912361539 0 -11.58593912361539 179.9900786098442 0 0 0 0 -50.553681918010426 -17.549414097289798 0 -17.549414097289798 67.301933361421106 0 0 0 0 -21.114125193922519 22.717969014338451 0 22.717969014338451 105.07058474467703 0 0 0 0 -42.61115320398676 14.630145120609086 0 14.630145120609086 104.84350572602125 0 0 0 0 -9.0700702518024627 -2.3687444585957564 0 -2.3687444585957564 59.983053808100522 0 0 0 0 -30.865109037105867 -7.0874572487955447 0 -7.0874572487955447 96.952862163937425 0 0 0 0 -49.260047747513681 -14.781972480972399 0 -14.781972480972399 96.972677682817448 0 0 0 0 -16.025342858145905 11.637917684991407 0 11.637917684991407 113.46470297299675 0 0 0 0 42.753739069859876 19.141381033390644 0 19.141381033390644 112.0186492043722 0 0 0 0 -5.6018021124819573 -2.8303152809989456 0 -2.8303152809989456 -1.1900037682721063 0 0 0 0 -14.771021193374509 -39.79291451969948 0 -39.79291451969948 63.126704976821202 0 0 0 0 -3.8152515746187419 -18.916892632943927 0 -18.916892632943927 -13.819996278161852 0 0 0 0 2.1033625307363764 -6.3665173255867558 0 -6.3665173255867558 78.490128528981586 0 0 0 0 3.3718987779448071 -5.485258836633875 0 -5.485258836633875 -19.699722006545926 0 0 0 0 -12.975020612654589 -2.2793000126694096 0 -2.2793000126694096 50.104823613492044 0 0 0 0 -52.659030776365398 21.269144001722452 0 21.269144001722452 7.4447338567733823 0 0 0 0 -1.5566816292899599 -1.3742453516828022 0 -1.3742453516828022 -0.80179483928003492 0 0 0 0 1.1106923033214571 -31.159822027129849 0 -31.159822027129849 69.40185140450194 0 0 0 0 -44.941437886651329 5.9834777559372014 0 5.9834777559372014 14.049190259320312 0 0 0 0 -43.720584968506955 -159.84886581028695 0 -159.84886581028695 245.66380594061775 0 0 0 0 45.336138384491278 207.80263337187353 0 207.80263337187353 303.13052582209639 0 0 0 0 -52.880802813740047 76.090622591560532 0 76.090622591560532 17.256455663153247 0 0 0 0 -45.378998262965524 41.879491377811064 0 41.879491377811064 86.274184075558878 0 0 0 0 9.533409864196301 -16.816448558367483 0 -16.816448558367483 52.717119830005686 0 0 0 0 103.49663405495016 227.3920716230059 0 227.3920716230059 119.03625688506872 0 0 0 0 11.083708994745848 85.566844020519056 0 85.566844020519056 -69.734176867736096 0 0 0 0 217.63001059284397 38.825613980792696 0 38.825613980792696 -64.782131661253516 0 0 0 0 -1.9693599766360421 528.58302437877137 0 528.58302437877137 -585.19697454317247 0 0 0 0 52.328054460107523 75.851009208337928 0 75.851009208337928 -163.8565958258821 0 0 0 0 27.557168715611624 223.73915370081522 0 223.73915370081522 -516.31393993180609 0 0 0 0 -117.76131487129624 486.92931595575646 0 486.92931595575646 -174.55154971300431 0 0 0 0 141.23481491821804 -238.8146874372178 0 -238.8146874372178 514.19458788105112 0 0 0 0 2.2101785469148147 3.1222352336147452 0 3.1222352336147452 2.8367305070350426 0 0 0 0 -92.975460232445585 -158.62837701546232 0 -158.62837701546232 1235.5054775934987 0 0 0 0 239.13844067918217 433.15638726679026 0 433.15638726679026 317.86933443589078 0 0 0 0 -63.086790737347656 10.278767181225703 0 10.278767181225703 65.345067389192991 0 0 0 0 43.462944340117247 -60.305926391825778 0 -60.305926391825778 18.839339170284802 0 0 0 0 76.118744013147079 -58.287394647035399 0 -58.287394647035399 59.648285167251743 0 0 0 0 45.345750145782688 -20.009346685406854 0 -20.009346685406854 13.469640485738637 0 0 0 0 68.598605827057327 -79.572865661655669 0 -79.572865661655669 88.495900284899108 0 0 0 0 200.10836871099764 25.324895951758663 0 25.324895951758663 49.665639101469424 0 0 0 0 86.440516506409494 -7.8383197718067095 0 -7.8383197718067095 154.4246064182953 0 0 0 0 104.74002989376277 159.6738335731643 0 159.6738335731643 431.65283617017485 0 0 0 0 108.64112469668999 30.143226294032502 0 30.143226294032502 100.49579886774882 0 0 0 0 82.495039040657048 83.468539919016621 0 83.468539919016621 54.911002630135044 0 0 0 0 43.268491029979486 51.386681790361763 0 51.386681790361763 157.67282263017751 0 0 0 0 146.61235707373817 45.009482523164479 0 45.009482523164479 22.13380704485462 0 0 0 0 100.3883859323405 84.940418762440459 0 84.940418762440459 -178.44659258607135 0 0 0 0 -0.80381782702708549 0.59213859722675011 0 0.59213859722675011 -0.34126227745639426 0 0 0 0 10.983325118977518 56.991721481026616 0 56.991721481026616 -37.626007625995953 0 0 0 0 -4.5940109911534819 20.13725045270985 0 20.13725045270985 27.669093787524616 0 0 0 0 60.846908620525426 19.366517421366552 0 19.366517421366552 4.0908061370719224 0 0 0 0 -34.641179946587727 54.33981102600228 0 54.33981102600228 -6.9579532371571986 0 0 0 0 20.852963528427608 58.552202085164026 0 58.552202085164026 44.954007733860635 0 0 0 0 33.950959167203109 54.988910248561297 0 54.988910248561297 -20.930235664476641 0 0 0 0 64.442385609573705 79.63979303048427 0 79.63979303048427 -12.042387871450046 0 0 0 0 39.91662085446842 68.905212211146136 0 68.905212211146136 -26.237088559486438 0 0 0 0 45.188450227306021 63.516207064370974 0 63.516207064370974 -37.343983255865169 0 0 0 0 46.847780604110085 -63.937922732293373 0 -63.937922732293373 -72.517289025432547 0 0 0 0 -1.7650514810134545 0.42664346077197024 0 0.42664346077197024 0.051258870647018284 0 0 0 0 -18.035488982168772 -268.47789881454082 0 -268.47789881454082 -88.993735495881992 0 0 0 0 -108.80117339418211 113.75121123238932 0 113.75121123238932 80.432564948147046 0 0 0 0 -18.538470314769256 5.229395127906173 0 5.229395127906173 -43.894581486398238 0 0 0 0 98.747459164125758 -60.416490307834465 0 -60.416490307834465 -14.628763757093111 0 0 0 0 -24.782436793569047 -67.714516199741411 0 -67.714516199741411 -5.439992162398994 0 0 0 0 -1.7405250298716872 7.8846380778912675 0 7.8846380778912675 32.093181860587094 0 0 0 0 103.80361907487668 40.164944821317476 0 40.164944821317476 56.472652473428752 0 0 0 0 -145.64212287059672 83.32231338947895 0 83.32231338947895 5.3519914750359021 0 0 0 0 -113.7497417748009 239.76028461330134 0 239.76028461330134 -397.88968010596 0 0 0 0 -110.27373364914547 155.34801578933548 0 155.34801578933548 -38.790820814057952 0 0 0 0 -3.805785586941056 57.471262125181966 0 57.471262125181966 -28.528268081950955 0 0 0 0 -64.742566097524104 61.733147342922166 0 61.733147342922166 -27.801082176491036 0 0 0 0 -80.616387985606707 111.47720301807567 0 111.47720301807567 9.0369862971419934 0 0 0 0 -41.89015127616949 57.52952809270937 0 57.52952809270937 -8.5009536746656522 0 0 0 0 32.394440391348326 60.280973602843005 0 60.280973602843005 -0.04251853490495705 0 0 0 0 -11.958180243196693 130.05512926456868 0 130.05512926456868 37.626038623406203 0 0 0 0 -4.9515719999508292 75.36113128537545 0 75.36113128537545 -3.0525071715819649 0 0 0 0 -72.34591130636727 90.542934058306855 0 90.542934058306855 21.436657897713303 0 0 0 0 -83.398600091175126 173.88513835050571 0 173.88513835050571 -27.068185748415999 0 0 0 0 -38.8899200199603 34.442268387050717 0 34.442268387050717 91.294322591878881 0 0 0 0 -23.313157790582636 74.54398993338782 0 74.54398993338782 -67.375114384369226 0 0 0 0 21.22910302586979 121.69962272467092 0 121.69962272467092 189.11748447644641 0 0 0 0 -206.1662987153577 -14.140974400448613 0 -14.140974400448613 130.01406353555649 0 0 0 0 -189.15012409291319 168.74863395252441 0 168.74863395252441 86.441302835810347 0 0 0 0 -0.51448620095705611 12.865316562143988 0 12.865316562143988 43.527136328906465 0 0 0 0 11.498009492118399 97.408403849804017 0 97.408403849804017 -101.2284000722575 0 0 0 0 -110.15749198365756 -10.039998036263569 0 -10.039998036263569 255.06621615594486 0 0 0 0 -21.922259045089959 33.008940864652686 0 33.008940864652686 131.38954798909253 0 0 0 0 -27.442666816139536 -192.4467570335255 0 -192.4467570335255 242.77876645922242 0 0 0 0 -44.514815576099863 -170.95797078908072 0 -170.95797078908072 347.74145100906026 0 0 0 0 124.11694887699588 -24.492948909692814 0 -24.492948909692814 315.24310654909641 0 0 0 0 -61.782068143054858 -75.156340342524345 0 -75.156340342524345 314.45963441736603 0 0 0 0 4.8509669781339539 9.5466919284667853 0 9.5466919284667853 8.7900950728987652 0 0 0 0 -67.94564058534479 -171.7048403177505 0 -171.7048403177505 532.47084960051143 0 0 0 0 -52.194027716498567 -140.54013168631354 0 -140.54013168631354 346.76673305568693 0 0 0 0 -37.179622382568596 -188.78499060671311 0 -188.78499060671311 354.16286458307877 0 0 0 0 -78.152703210457275 -152.62820542701957 0 -152.62820542701957 471.78339237987529 0 0 0 0 -46.650997358836548 325.88065234197529 0 325.88065234197529 -355.94649443775415 0 0 0 0 47.599078891836143 196.43274622576428 0 196.43274622576428 217.60533978055901 0 0 0 0 7.0178678646879575 13.082575527433946 0 13.082575527433946 10.283413378990673 0 0 0 0 305.5714801204731 -46.301126078644302 0 -46.301126078644302 89.552121657226962 0 0 0 0 -178.12048502259722 199.53020111449769 0 199.53020111449769 34.837259736494161 0 0 0 0 82.363597357696563 -103.4589550353121 0 -103.4589550353121 238.31147274941759 0 0 0 0 -171.64977307175741 362.10504607550683 0 362.10504607550683 -416.0531768517867 0 0 0 0 21.8837009404524 -13.660748377147684 0 -13.660748377147684 -107.51626717871113 0 0 0 0 -156.98560650585912 39.04666129553425 0 39.04666129553425 3.9845930551091442 0 0 0 0 -72.432945503484007 92.632198700492154 0 92.632198700492154 30.433945327909896 0 0 0 0 160.27958549951381 118.04128618611139 0 118.04128618611139 89.000964940045378 0 0 0 0 -97.52027269037626 12.526499713952944 0 12.526499713952944 396.18686178045755 0 0 0 0 -120.38616514987461 -123.87570638849138 0 -123.87570638849138 316.71025026337156 0 0 0 0 21.927845179537144 -18.752046294732281 0 -18.752046294732281 345.49463985260809 0 0 0 0 -90.261168202516274 -193.35071545567916 0 -193.35071545567916 475.25104420626303 0 0 0 0 -72.744976636211504 -143.45239322189445 0 -143.45239322189445 254.42598794856895 0 0 0 0 -138.78322619592018 30.58207135779594 0 30.58207135779594 196.0356729952473 0 0 0 0 -10.727235719973578 -143.345683631871 0 -143.345683631871 320.16707658558153 0 0 0 0 -55.866319205274522 -68.174622844677288 0 -68.174622844677288 504.43749695860606 0 0 0 0 7.7204796092391916 -32.760368257833761 0 -32.760368257833761 448.08169567921868 0 0 0 0 32.628150494560032 -145.20010215038928 0 -145.20010215038928 91.612645595974755 0 0 0 0 22.126382252564326 -128.34406571558793 0 -128.34406571558793 316.24159206317563 0 0 0 0 82.092054857161202 67.142369855289871 0 67.142369855289871 264.6586728738057 0 0 0 0 54.154150310678233 29.518992972989508 0 29.518992972989508 215.55161276347644 0 0 0 0 83.815744552206525 71.637162394024926 0 71.637162394024926 249.13292656473641 0 0 0 0 154.55974930035518 207.94241092183074 0 207.94241092183074 507.19052231393289 0 0 0 0 2.0947615339954524 -3.0360220189976985 0 -3.0360220189976985 3.6058020255098882 0 0 0 0 85.936712126108432 -173.90463401956367 0 -173.90463401956367 271.47001214424745 0 0 0 0 385.02208214259736 -277.45581228647279 0 -277.45581228647279 -457.94445267455376 0 0 0 0 45.806828728140772 276.05027503318706 0 276.05027503318706 776.92105320826522 0 0 0 0 92.159853394801303 -166.07080778581985 0 -166.07080778581985 214.87352158704016 0 0 0 0 -44.987344768604089 -113.55491643715504 0 -113.55491643715504 375.63713049513717 0 0 0 0 54.860660447480768 -217.62057375221048 0 -217.62057375221048 259.39438118717953 0 0 0 0 22.365070892436961 270.83931971791753 0 270.83931971791753 191.10736672418716 0 0 0 0 -149.98449655645891 183.76590794940421 0 183.76590794940421 381.57605109205178 0 0 0 0 27.071226691495212 -174.07666505730231 0 -174.07666505730231 663.59965854611073 0 0 0 0 -8.6929194877666305 96.055075270909583 0 96.055075270909583 840.72267000111242 0 0 0 0 -185.22323674491781 23.781610073579941 0 23.781610073579941 129.14986997978122 0 0 0 0 -325.76086174690408 117.56109229054709 0 117.56109229054709 79.681566332263174 0 0 0 0 -423.7395020136064 -25.794462706864579 0 -25.794462706864579 131.55284996816772 0 0 0 0 -186.44164633341404 9.5078230259268821 0 9.5078230259268821 66.417150954570388 0 0 0 0 -61.524347877395485 -29.086635723419022 0 -29.086635723419022 41.383504959376296 0 0 0 0 -84.26633709772068 19.339589229028206 0 19.339589229028206 63.332390815863619 0 0 0 0 -183.72720224308614 63.600282319777762 0 63.600282319777762 46.018991044227732 0 0 0 0 -272.77397740761808 69.331740606306994 0 69.331740606306994 105.96620424091816 0 0 0 0 -178.60970022044603 82.605340448004426 0 82.605340448004426 100.17529779890901 0 0 0 0 -172.83690437239602 108.60130162118003 0 108.60130162118003 160.24290768490755 0 0 0 0 -223.66749873309891 149.58685280707141 0 149.58685280707141 160.08570741617586 0 0 0 0 -341.23040746094921 96.239109755464597 0 96.239109755464597 196.43369879527017 0 0 0 0 -188.15039824423548 9.3953011000266997 0 9.3953011000266997 72.324443657256779 0 0 0 0 -281.91030542725002 149.28658147552778 0 149.28658147552778 -64.974303063616389 0 0 0 0 -133.82342864465227 67.947465828983695 0 67.947465828983695 67.743602437898517 0 0 0 0 -225.83250241909082 -116.24156596607645 0 -116.24156596607645 207.07293493335601 0 0 0 0 -29.71261870534363 -206.31806367887475 0 -206.31806367887475 112.84429294406436 0 0 0 0 -193.94677100894478 -142.68830734914809 0 -142.68830734914809 -75.915919529827079 0 0 0 0 -250.10733796124759 300.21721185642673 0 300.21721185642673 -352.37066397001036 0 0 0 0 -316.95657634920462 -268.68370740156388 0 -268.68370740156388 132.85657317968435 0 0 0 0 -1.2797696085787553 -0.96049442192821743 0 -0.96049442192821743 4.4396539508997179 0 0 0 0 -306.28739161462363 90.705180665987427 0 90.705180665987427 -347.2644051683892 0 0 0 0 -20.493112374266275 -166.12055569446238 0 -166.12055569446238 33.136839500264614 0 0 0 0 -801.10885373840574 151.95587522070855 0 151.95587522070855 35.551732273452217 0 0 0 0 -816.14966961157984 67.4160184525972 0 67.4160184525972 21.027619546279311 0 0 0 0 -3.6053767221400914 -4.7260162462291362 0 -4.7260162462291362 6.8686879369068095 0 0 0 0 -453.51526692153493 -21.09882500225649 0 -21.09882500225649 -2.9562347380851861 0 0 0 0 -53.216806549658713 11.853939426599027 0 11.853939426599027 55.611511145485565 0 0 0 0 -53.210327274580777 0.78553885624569375 0 0.78553885624569375 82.796832908257784 0 0 0 0 -1.8617906012723111 -12.305414384776924 0 -12.305414384776924 8.4327649013840258 0 0 0 0 0.29794150754969451 2.0094039669202175 0 2.0094039669202175 46.007915947760921 0 0 0 0 12.716886009162408 17.362045479188964 0 17.362045479188964 47.102157149463892 0 0 0 0 -4.2914260825472414 -8.3337996129884573 0 -8.3337996129884573 11.960773212963744 0 0 0 0 1.6815348751708825 -2.0485634511933313 0 -2.0485634511933313 35.615441590621231 0 0 0 0 -2.0220247145453754 6.5978695458396146 0 6.5978695458396146 24.525151927805268 0 0 0 0 -0.097697002728182269 0.42296588105455157 0 0.42296588105455157 40.464442711469019 0 0 0 0 -0.62194170895823131 7.3303437696171443 0 7.3303437696171443 21.470304336104945 0 0 0 0 2.777251073142935 10.727716021834567 0 10.727716021834567 3.6480966995877679 0 0 0 0 0.9627064207788294 12.1540549345209 0 12.1540549345209 16.645987067182432 0 0 0 0 3.2259340775427257 11.037025485583001 0 11.037025485583001 15.78387981977562 0 0 0 0 -3.4785835329660131 14.201213757238293 0 14.201213757238293 23.066619728122532 0 0 0 0 2.0279719736600286 8.2425651974545531 0 8.2425651974545531 12.389403792834202 0 0 0 0 26.739592078577857 23.378597608127166 0 23.378597608127166 -30.806800269594532 0 0 0 0 -2.3474047057686676 21.175104253590689 0 21.175104253590689 21.543872435664525 0 0 0 0 -56.570450803335177 39.507692616795339 0 39.507692616795339 44.223736032581655 0 0 0 0 11.503430045930145 3.0410179165482987 0 3.0410179165482987 37.189730628786492 0 0 0 0 0.20200518501727549 11.431019009555541 0 11.431019009555541 34.624245378456465 0 0 0 0 5.8615581555921938 17.606772098839542 0 17.606772098839542 28.177028341274735 0 0 0 0 -82.88331209750686 19.673237648519716 0 19.673237648519716 50.974039952590829 0 0 0 0 -13.126360005524475 23.971672537445556 0 23.971672537445556 28.467245945401373 0 0 0 0 -32.201321525713865 -0.58823178963211831 0 -0.58823178963211831 19.992391089850571 0 0 0 0 0.71682016512894497 14.86477088863677 0 14.86477088863677 34.98764795558435 0 0 0 0 3.0284061545708099 6.1151178484686994 0 6.1151178484686994 -1.0274010769965685 0 0 0 0 30.269265417560518 4.8359811761329183 0 4.8359811761329183 -74.22695067760651 0 0 0 0 -31.273261518476321 91.54127522309318 0 91.54127522309318 -37.317133546283003 0 0 0 0 53.646764118725741 -73.424807790004706 0 -73.424807790004706 93.647961943308474 0 0 0 0 -1.1666320119213083 -1.8044328567521006 0 -1.8044328567521006 38.108875492966035 0 0 0 0 -3.7079696449673349 -11.02936359612977 0 -11.02936359612977 15.668641443538945 0 0 0 0 65.795526847500696 -2.4648679904494202 0 -2.4648679904494202 -27.630914885958191 0 0 0 0 62.12996928000473 -85.897399441033713 0 -85.897399441033713 68.9614177729527 0 0 0 0 113.99699291656208 -160.65740412450759 0 -160.65740412450759 221.8623855021433 0 0 0 0 109.85982324482738 -184.42374978985208 0 -184.42374978985208 209.82713922750554 0 0 0 0 76.485805986051901 -81.869686951773474 0 -81.869686951773474 57.010554950378719 0 0 0 0 88.15279979966823 -70.732384210981763 0 -70.732384210981763 66.914525291445898 0 0 0 0 212.37435985525713 -225.63982099547866 0 -225.63982099547866 178.50133519055089 0 0 0 0 -101.34294594649758 177.57874871332206 0 177.57874871332206 135.13454181700945 0 0 0 0 -15.010141805748958 -106.98303821177979 0 -106.98303821177979 54.279068010364426 0 0 0 0 110.09012242636766 -0.82964814349543303 0 -0.82964814349543303 -130.31515630141075 0 0 0 0 171.43702296025901 10.672331588968518 0 10.672331588968518 123.5413244546653 0 0 0 0 5.6699858275437638 20.168859373490761 0 20.168859373490761 42.496223013495751 0 0 0 0 -119.8310351544236 189.74029089615033 0 189.74029089615033 40.037876841364778 0 0 0 0 -15.786207888491845 -71.048137114659767 0 -71.048137114659767 -106.17671439591504 0 0 0 0 -339.08483934534979 -416.47061703151849 0 -416.47061703151849 -473.26103480681195 0 0 0 0 553.99564197041786 44.465103089620243 0 44.465103089620243 -647.37745139212348 0 0 0 0 -0.094520986888347869 0.45717353445034803 0 0.45717353445034803 2.1499528993174977 0 0 0 0 1980.3369398615368 2353.8442360583649 0 2353.8442360583649 -4132.4402199064498 0 0 0 0 4.3863250517674217 12.145779540397612 0 12.145779540397612 21.339610307635169 0 0 0 0 -156.59865196270948 210.30718466732651 0 210.30718466732651 -59.679166314125723 0 0 0 0 -198.7835930498577 151.96440766603337 0 151.96440766603337 60.005740744963987 0 0 0 0 -52.598860991241963 56.10125555023842 0 56.10125555023842 -8.1737424458551686 0 0 0 0 -104.83345421019476 113.4355528705637 0 113.4355528705637 -57.245339130095545 0 0 0 0 -174.49920660941643 204.87524228659458 0 204.87524228659458 143.38795881993065 0 0 0 0 -62.923012883764386 150.06967292966874 0 150.06967292966874 20.09580919824657 0 0 0 0 -195.0372806420819 150.1234064704804 0 150.1234064704804 46.893726489011897 0 0 0 0 -209.20486243499363 202.59669539488823 0 202.59669539488823 47.048498975126506 0 0 0 0 -176.85843212721011 117.97105908048252 0 117.97105908048252 13.93016856176655 0 0 0 0 39.874197815830485 319.87581502406192 0 319.87581502406192 823.1759235234058 0 0 0 0 85.157052069743258 51.989371770265279 0 51.989371770265279 -760.59515034119249 0 0 0 0 398.33161522611408 1023.2321167389164 0 1023.2321167389164 1832.4692640111025 0 0 0 0 -1.4638139008166036 -24.311629380856175 0 -24.311629380856175 435.70114189870947 0 0 0 0 177.91173352904661 -355.90160749031929 0 -355.90160749031929 805.4875062219071 0 0 0 0 2.6023311691218076 10.306165203860601 0 10.306165203860601 20.176640532777128 0 0 0 0 -212.83128671122631 6.2426277853446663 0 6.2426277853446663 1093.6538224368705 0 0 0 0 -2301.4163221903109 2299.5114300895366 0 2299.5114300895366 1023.4565241241362 0 0 0 0 -2827.4090231140099 1966.0695178537862 0 1966.0695178537862 1724.0865054889 0 0 0 0 2.2540680873906722 10.529532749774404 0 10.529532749774404 22.304230399154164 0 0 0 0 -8.3585994344120991 198.77663440344622 0 198.77663440344622 1805.5268952068886 0 0 0 0 -127.04282702288128 230.76418929174542 0 230.76418929174542 1508.4700940978946 0 0 0 0 201.38680839386234 -323.04928481833485 0 -323.04928481833485 252.67639712797245 0 0 0 0 -36.633293056192088 -242.76807574607665 0 -242.76807574607665 707.55050902281073 0 0 0 0 125.38213197550049 -190.38128000026518 0 -190.38128000026518 426.04280347836902 0 0 0 0 -339.29249464110603 -246.33305564122929 0 -246.33305564122929 760.10768971359357 0 0 0 0 -60.944708888393507 -298.21354659303324 0 -298.21354659303324 608.0555485713121 0 0 0 0 -198.88388451814308 -56.986224583757576 0 -56.986224583757576 1000.5080741355778 0 0 0 0 -249.32429497110934 -502.98513799099601 0 -502.98513799099601 410.75501280641765 0 0 0 0 -121.2372732140775 -46.011054832430091 0 -46.011054832430091 882.54340629608487 0 0 0 0 -63.522522993616349 126.40035188163165 0 126.40035188163165 865.75863838829719 0 0 0 0 -96.113795962360427 14.419884575268952 0 14.419884575268952 1008.6232537028263 0 0 0 0 -171.08721813734155 57.275706544009154 0 57.275706544009154 1011.93574532817 0 0 0 0 91.736686347526359 -85.050959798623808 0 -85.050959798623808 779.60762070052442 0 0 0 0 205.12439758005405 121.43922659457894 0 121.43922659457894 742.38480540394085 0 0 0 0 -32.276119619703081 262.31345161932404 0 262.31345161932404 1222.4073031590087 0 0 0 0 316.33122842535499 270.31618782811711 0 270.31618782811711 291.21607454246259 0 0 0 0 152.96057816619032 -197.04419732935639 0 -197.04419732935639 -71.000350806163624 0 0 0 0 2174.834680325308 1561.2545388269064 0 1561.2545388269064 -4927.5542462037993 0 0 0 0 532.40035542884743 543.31958049295645 0 543.31958049295645 601.33054638377507 0 0 0 0 -56.991567483382823 576.04819324301207 0 576.04819324301207 671.17720565220225 0 0 0 0 38.280445525989307 1001.6833023921936 0 1001.6833023921936 2125.0210877775389 0 0 0 0 1263.8751102161714 2289.3462476473942 0 2289.3462476473942 872.8696309957304 0 0 0 0 -427.3243374442909 -608.93603065295611 0 -608.93603065295611 -264.45694954578357 0 0 0 0 700.01495577184346 -42.769729443469259 0 -42.769729443469259 -631.96889140992425 0 0 0 0 622.83648979904046 243.57558115036227 0 243.57558115036227 -1138.7753658663278 0 0 0 0 -823.52992197399726 -1063.1059860398673 0 -1063.1059860398673 -659.2164400779584 0 0 0 0 96.904969757501021 -1295.1150240616407 0 -1295.1150240616407 -2470.441894128453 0 0 0 0 -688.48754867673415 -277.64241313496314 0 -277.64241313496314 77.721447940100916 0 0 0 0 -462.70551026212775 -134.9151897835327 0 -134.9151897835327 143.1451624474721 0 0 0 0 228.17310947138367 -331.39863139284716 0 -331.39863139284716 -155.7131005784031 0 0 0 0 446.96060379808682 -253.53805895239202 0 -253.53805895239202 219.23214555805316 0 0 0 0 217.73656633653445 -384.77937430208112 0 -384.77937430208112 203.18416435201834 0 0 0 0 0.61283122353154074 6.3345300829080031 0 6.3345300829080031 22.988509675928469 0 0 0 0 257.32316962667386 -490.98406202702608 0 -490.98406202702608 227.12332712629336 0 0 0 0 373.60195299849806 -280.99117831814874 0 -280.99117831814874 78.701369007714675 0 0 0 0 120.9159482485947 -373.8253329355357 0 -373.8253329355357 400.9843428585591 0 0 0 0 38.209542106666618 22.570093957307108 0 22.570093957307108 102.54393171763513 0 0 0 0 -24.746653625614613 -55.537596452217258 0 -55.537596452217258 75.807093836043464 0 0 0 0 -173.60596963360791 66.270921475224895 0 66.270921475224895 46.217599531664746 0 0 0 0 -46.167144664677835 272.71350827098649 0 272.71350827098649 70.16435390803224 0 0 0 0 -70.466740082613512 111.53436876854903 0 111.53436876854903 661.62680651119445 0 0 0 0 -7.435868089259202 -236.89847687596921 0 -236.89847687596921 811.61898184371239 0 0 0 0 112.41203802926044 -176.22206056525556 0 -176.22206056525556 1121.0371338689438 0 0 0 0 0.17518881054435309 1.6185396856741789 0 1.6185396856741789 8.5315292106238871 0 0 0 0 774.98007255716516 -666.50634519826053 0 -666.50634519826053 692.61589514336083 0 0 0 0 97.5621436483151 129.28709919126413 0 129.28709919126413 929.12111020567681 0 0 0 0 431.22915558860768 87.91456117413145 0 87.91456117413145 450.30186873907223 0 0 0 0 165.86190308733421 -130.18121618987061 0 -130.18121618987061 308.86885715615063 0 0 0 0 204.51404182447328 131.05704725206306 0 131.05704725206306 61.276004905739683 0 0 0 0 442.90479758452847 -321.63720058050876 0 -321.63720058050876 423.82303808802681 0 0 0 0 86.750640208260506 -165.24421148377587 0 -165.24421148377587 357.2635384647001 0 0 0 0 -70.816919457287554 -76.148344712913968 0 -76.148344712913968 425.67001839329896 0 0 0 0 -41.444957079062362 -137.29436065285699 0 -137.29436065285699 460.02847789163206 0 0 0 0 -35.459234956142268 -93.209182578437321 0 -93.209182578437321 368.14209581057003 0 0 0 0 -43.403020015193022 -119.85693991861626 0 -119.85693991861626 315.75857761484804 0 0 0 0 -63.423878672870778 -15.643928482072624 0 -15.643928482072624 334.00068316126999 0 0 0 0 -60.834065503043632 -35.062932343622379 0 -35.062932343622379 476.08849184387509 0 0 0 0 -9.3799992064770095 103.62973426294047 0 103.62973426294047 241.58151580831327 0 0 0 0 -8.853687640584269 -3.183496560806816 0 -3.183496560806816 203.64593744182275 0 0 0 0 10.827270019558917 3.8044311352896329 0 3.8044311352896329 135.31818733669934 0 0 0 0 -10.843508944758284 -0.9930134380410891 0 -0.9930134380410891 181.88117987327132 0 0 0 0 -0.0075023014518385833 -44.715731012835022 0 -44.715731012835022 134.91107490390277 0 0 0 0 -23.042143486091611 -10.112826892807789 0 -10.112826892807789 256.04231185077515 0 0 0 0 -0.017649391802682202 -50.844958295001561 0 -50.844958295001561 240.52440204334562 0 0 0 0 -31.199414138649146 -38.22474758552562 0 -38.22474758552562 291.87515250089928 0 0 0 0 -29.883857228599851 -35.017793970968341 0 -35.017793970968341 256.13486590039884 0 0 0 0 -36.167091617669655 -84.081368271057727 0 -84.081368271057727 302.45156170263363 0 0 0 0 -0.052828064888386553 -66.669182229510625 0 -66.669182229510625 295.56294271822208 0 0 0 0 -2.6550856201945408 -86.494446627988509 0 -86.494446627988509 301.07926320047409 0 0 0 0 0.044157493692366809 -85.691423955322534 0 -85.691423955322534 297.71399806182308 0 0 0 0 21.480111417369301 -57.532160875489353 0 -57.532160875489353 265.02026144209231 0 0 0 0 -9.0460545365589553 -107.10046554233486 0 -107.10046554233486 247.28718735983421 0 0 0 0 10.457018963714617 -128.95030534106081 0 -128.95030534106081 215.6348629930726 0 0 0 0 -8.6211582668110509 -121.80471903720172 0 -121.80471903720172 314.58776191505058 0 0 0 0 55.930556392726317 -228.66377212674706 0 -228.66377212674706 340.64487561614078 0 0 0 0 7.9050388287339501 -129.80983546595962 0 -129.80983546595962 256.55862766432256 0 0 0 0 64.927413760414026 -143.11279043739341 0 -143.11279043739341 180.07877582749643 0 0 0 0 26.809617251070264 -71.990796383399356 0 -71.990796383399356 95.212777883250965 0 0 0 0 2.6116585980734044 -52.660563951445511 0 -52.660563951445511 113.36996306170477 0 0 0 0 11.495575913271367 -106.88871899093465 0 -106.88871899093465 225.89528429231723 0 0 0 0 -5.3893439175474214 -39.254499047980062 0 -39.254499047980062 124.4660164026136 0 0 0 0 9.6534737895561591 -82.447907428788312 0 -82.447907428788312 213.40024027513573 0 0 0 0 13.861272874533711 -41.993733513954794 0 -41.993733513954794 114.39479686175764 0 0 0 0 -17.428811423828392 33.232078355700651 0 33.232078355700651 193.70246395058348 0 0 0 0 1.3891271558339204 3.0760254988947509 0 3.0760254988947509 4.1542933306896117 0 0 0 0 25.473519311493504 7.2665067508241918 0 7.2665067508241918 16.959338861459401 0 0 0 0 -5.9854894580651035 -1.8102691169187892 0 -1.8102691169187892 56.785204586354666 0 0 0 0 25.939669947074492 -30.813097976126301 0 -30.813097976126301 31.093230822152691 0 0 0 0 3.516015526760853 8.7104153352736375 0 8.7104153352736375 7.1098602237364048 0 0 0 0 17.342090329931352 21.359715475133271 0 21.359715475133271 -12.034720934716461 0 0 0 0 -4.079058361479758 4.4760220463103906 0 4.4760220463103906 32.00898363655142 0 0 0 0 0.22939539758882432 3.5090379448594149 0 3.5090379448594149 12.387758910166724 0 0 0 0 -0.59798695302986715 3.0489707851811545 0 3.0489707851811545 23.649004841630813 0 0 0 0 -1.456219873672211 -2.6787411124132632 0 -2.6787411124132632 23.727114428998902 0 0 0 0 -0.75653091877071432 1.4373072985326871 0 1.4373072985326871 12.241148135901312 0 0 0 0 0.81815414612884174 0.73266902950490476 0 0.73266902950490476 12.070985031532473 0 0 0 0 -0.42067771808188109 -0.40507346982899151 0 -0.40507346982899151 8.5483480876280851 0 0 0 0 -1.2800228890745118 5.0223142422330227 0 5.0223142422330227 10.130813557179039 0 0 0 0 -1.35226089958643 -1.4129425201196 0 -1.4129425201196 2.9188784297578252 0 0 0 0 -0.18585710067561756 -1.9623594213626347 0 -1.9623594213626347 12.895890318934107 0 0 0 0 -0.45307237874437106 -3.085239104430002 0 -3.085239104430002 8.183831420232309 0 0 0 0 0.11650751672671422 -0.47882456034130882 0 -0.47882456034130882 9.1138671187545697 0 0 0 0 -22.27864878246902 -36.354295636032475 0 -36.354295636032475 379.18423173394694 0 0 0 0 -0.0011555767439292198 -1.4368770489652314 0 -1.4368770489652314 7.3793614410387818 0 0 0 0 0.26118337131699154 -0.43152647711707459 0 -0.43152647711707459 0.50347308688400005 0 0 0 0 -18.02828690969551 -16.593943796297935 0 -16.593943796297935 222.62890322512249 0 0 0 0 0.021989529205773461 -0.6954138911460177 0 -0.6954138911460177 10.270953864353942 0 0 0 0 40.734440996634248 -74.238585174723994 0 -74.238585174723994 147.78519544329902 0 0 0 0 0.81024960770291687 -0.59053168846182302 0 -0.59053168846182302 1.6239450574916532 0 0 0 0 0.44979862079777633 0.35593495142418874 0 0.35593495142418874 0.67059759682035747 0 0 0 0 -2.1441857950339394 42.173447494435095 0 42.173447494435095 -3.0008843868854456 0 0 0 0 0.044833265254002594 0.46159739505043262 0 0.46159739505043262 1.1786284960980993 0 0 0 0 24.488121800086802 -116.22063881023496 0 -116.22063881023496 267.96968230862694 0 0 0 0 -2.93513932331701 36.857694086320407 0 36.857694086320407 113.39928983349819 0 0 0 0 -22.768243946964621 9.6521466770063853 0 9.6521466770063853 174.55374608711281 0 0 0 0 -0.02135851773250989 -0.1874093001242727 0 -0.1874093001242727 105.42409261873399 0 0 0 0 17.943900565487176 13.531736071279738 0 13.531736071279738 34.508420910642599 0 0 0 0 -1.3950404096337028 -6.3784174572720076 0 -6.3784174572720076 43.765762094481033 0 0 0 0 -17.673517935659312 -25.993168911933026 0 -25.993168911933026 20.756296108236711 0 0 0 0 4.421425254041992 -35.078802432864904 0 -35.078802432864904 113.48806520292419 0 0 0 0 10.632935085670752 46.231619793106802 0 46.231619793106802 -16.087711347441655 0 0 0 0 0.73199517315868179 1.6847397344478594 0 1.6847397344478594 1.9049368905968151 0 0 0 0 -36.621595073381215 -12.428641062895622 0 -12.428641062895622 42.583759718603687 0 0 0 0 33.51181986910251 -60.598224716552068 0 -60.598224716552068 95.059913212702668 0 0 0 0 8.7616215794444088 -20.86981350008864 0 -20.86981350008864 53.755184484209167 0 0 0 0 16.655122503969551 -33.33177288484876 0 -33.33177288484876 69.929435984435258 0 0 0 0 31.953822370031048 -34.479714782253723 0 -34.479714782253723 49.463015754125081 0 0 0 0 15.706426958703105 -32.011647671301034 0 -32.011647671301034 95.192591030179756 0 0 0 0 6.4137649867236632 -18.370032263992471 0 -18.370032263992471 75.446698127248965 0 0 0 0 12.351598501377566 -20.695953849630314 0 -20.695953849630314 75.604259742365684 0 0 0 0 6.2399062703580057 -9.1772103536059149 0 -9.1772103536059149 72.930012665150571 0 0 0 0 108.94296662988654 2.4127633390889969 0 2.4127633390889969 131.58714044956287 0 0 0 0 -0.76273912595931281 0.24670571796318086 0 0.24670571796318086 0.35559335287704386 0 0 0 0 4.3319458202895191 -13.825320763939089 0 -13.825320763939089 84.714209877012763 0 0 0 0 4.8149432900336251 -12.720958897842138 0 -12.720958897842138 70.663504799245857 0 0 0 0 7.7933359757050198 -12.489934803641518 0 -12.489934803641518 76.722131426999113 0 0 0 0 0.75636715710368208 -11.708837402242352 0 -11.708837402242352 87.576706691623258 0 0 0 0 7.2767337849182923 -5.2355393349134829 0 -5.2355393349134829 77.204414885753067 0 0 0 0 48.355354588571572 -86.269121206289128 0 -86.269121206289128 131.68253842668491 0 0 0 0 -5.9633242167562912 -10.607586935992003 0 -10.607586935992003 95.172673219189164 0 0 0 0 3.0336631152024438 -23.160512159927748 0 -23.160512159927748 109.00511540300795 0 0 0 0 9.3378765856020323 49.516747609974118 0 49.516747609974118 130.99916807493372 0 0 0 0 -45.177083396295245 1.1362154995294986 0 1.1362154995294986 92.38609434873797 0 0 0 0 -12.95287103681386 -48.022236383338168 0 -48.022236383338168 73.904055064806016 0 0 0 0 -35.715235238767661 -21.742099399343715 0 -21.742099399343715 139.2011051887057 0 0 0 0 -9.57322794607256 4.3045188354733455 0 4.3045188354733455 26.664679076886387 0 0 0 0 -1.4870389829995521 -0.56893006554835779 0 -0.56893006554835779 0.34384841517405107 0 0 0 0 20.133054933548671 24.75430744112964 0 24.75430744112964 29.75901562825311 0 0 0 0 2.4954744131098892 -4.6087346503700246 0 -4.6087346503700246 -6.7114412742885179 0 0 0 0 -9.7114960954897356 2.229930555455212 0 2.229930555455212 92.322175851309566 0 0 0 0 -0.038239166756452198 -0.13675906041243024 0 -0.13675906041243024 -0.027791745236612542 0 0 0 0 -2.0863832428377584 4.4643154191289796 0 4.4643154191289796 0.27291745509137399 0 0 0 0 -0.30912272497696797 -0.50618670432911017 0 -0.50618670432911017 -0.53076748963133014 0 0 0 0 48.478929667463916 -33.147001940291375 0 -33.147001940291375 98.913201364208362 0 0 0 0 -28.768077463048144 11.420725495067018 0 11.420725495067018 123.30130043852841 0 0 0 0 -0.34451321953675551 -0.076147793121378982 0 -0.076147793121378982 0.48072539934412362 0 0 0 0 54.915731809729458 38.938704927699291 0 38.938704927699291 185.84303755743895 0 0 0 0 28.621260910606072 -10.767169575332446 0 -10.767169575332446 128.62425955281651 0 0 0 0 -0.00033836135915733465 -14.45714353540825 0 -14.45714353540825 91.900243563519325 0 0 0 0 30.819234770145222 -43.778192838173709 0 -43.778192838173709 153.22441170729871 0 0 0 0 -10.407407269488855 -8.4787677463609725 0 -8.4787677463609725 129.0502413752547 0 0 0 0 18.448996644489011 -14.803171594292508 0 -14.803171594292508 4.0242019281577086 0 0 0 0 4.357444951064096 -3.3021718806412537 0 -3.3021718806412537 -4.5934307967690984 0 0 0 0 -3.4787456745827026 -3.7787062990682898 0 -3.7787062990682898 9.0707801731259678 0 0 0 0 0.021521177446726429 2.1624944608047372 0 2.1624944608047372 -1.7785168375776266 0 0 0 0 -0.01746538672679291 -0.097953156212724934 0 -0.097953156212724934 -0.32437103091154995 0 0 0 0 -0.71066490607597643 2.5421694095675775 0 2.5421694095675775 -16.434505754208658 0 0 0 0 9.0650009497441602 -6.8886557578480279 0 -6.8886557578480279 -11.959938480780693 0 0 0 0 6.1734498648611975 -7.030568584203138 0 -7.030568584203138 -8.9064088154063938 0 0 0 0 1.3582581186978588 20.072186009252619 0 20.072186009252619 -52.211020614908193 0 0 0 0 -3.5639164967229031 -20.379512852507105 0 -20.379512852507105 68.423245004712953 0 0 0 0 0.00077142139191736445 -45.721958248082956 0 -45.721958248082956 -5.2250822000714834 0 0 0 0 8.0656550579229744 -35.170350846154179 0 -35.170350846154179 0.48294509197876323 0 0 0 0 4.2683189438249656 -13.696133003679279 0 -13.696133003679279 55.390687445928052 0 0 0 0 18.774630099985451 -24.715374156474354 0 -24.715374156474354 57.874989831325365 0 0 0 0 7.892043565612644 0.91675069838402123 0 0.91675069838402123 75.802601329181925 0 0 0 0 21.361291104780939 -14.44012860798648 0 -14.44012860798648 66.59623678328353 0 0 0 0 6.5480462760841078 -42.591569000345771 0 -42.591569000345771 68.666193196564564 0 0 0 0 -6.1906056079134544 -12.890384075391921 0 -12.890384075391921 140.92923490536668 0 0 0 0 10.658997227369412 -29.413944040294155 0 -29.413944040294155 15.794236905669095 0 0 0 0 -62.64598590911055 28.285768148911302 0 28.285768148911302 5.0326104127889266 0 0 0 0 -31.607909936064516 -20.712460830924101 0 -20.712460830924101 68.841174135101028 0 0 0 0 -13.188435024600722 -6.1891541622617297 0 -6.1891541622617297 4.1945889761700528 0 0 0 0 -15.708782439232898 -15.41174608460642 0 -15.41174608460642 8.5722693791030906 0 0 0 0 8.3156937907194219 -16.445919555604632 0 -16.445919555604632 -0.065454499643237796 0 0 0 0 -4.3097924829998338 -7.0537424678519187 0 -7.0537424678519187 -6.5429417244304204 0 0 0 0 -4.30251695657961 -6.0374760936838072 0 -6.0374760936838072 2.4265818539861357 0 0 0 0 -8.8392676075762893 -3.486694066086784 0 -3.486694066086784 3.4491366719739744 0 0 0 0 -3.3247521807332419 1.6161722631622979 0 1.6161722631622979 0.30333210651588161 0 0 0 0 -4.5465698182976597 -0.081189475812465162 0 -0.081189475812465162 0.5077232744280451 0 0 0 0 -5.4836091340770849 2.9972658943479473 0 2.9972658943479473 4.0695231876452453 0 0 0 0 -1.1914039340037066 0.59279084467522125 0 0.59279084467522125 0.98563848988823111 0 0 0 0 -25.32627921123958 -10.150936458205251 0 -10.150936458205251 65.245017499517417 0 0 0 0 -15.615845144240438 -4.4288408553911722 0 -4.4288408553911722 2.9346049836749444 0 0 0 0 -17.626838470309394 6.977190029603662 0 6.977190029603662 -1.479066335294192 0 0 0 0 -0.35382529626369763 -0.036365858949466201 0 -0.036365858949466201 0.4335758839925461 0 0 0 0 -0.10336918605304701 -0.065600996454008964 0 -0.065600996454008964 0.10042890155710893 0 0 0 0 1.0263987587082966 -11.987618134364311 0 -11.987618134364311 59.593180496391142 0 0 0 0 18.711745092909723 -67.269501113471051 0 -67.269501113471051 87.337500920199091 0 0 0 0 -42.990562559793489 -35.881462837402069 0 -35.881462837402069 57.192481782250979 0 0 0 0 29.515243464670505 -87.32154872710089 0 -87.32154872710089 113.01023842538416 0 0 0 0 410.50870265672017 -16.84000896385561 0 -16.84000896385561 326.91173582198098 0 0 0 0 -97.513905648693253 -21.10087694611866 0 -21.10087694611866 402.7457436961995 0 0 0 0 2.445699845770033 11.488684267219796 0 11.488684267219796 33.741011104681206 0 0 0 0 -111.9476361276927 44.260386378289695 0 44.260386378289695 51.5306925609475 0 0 0 0 -18.268140441102105 -2.8535390076285694 0 -2.8535390076285694 46.334222253353801 0 0 0 0 -24.177567046927379 -5.1521758009839687 0 -5.1521758009839687 46.213524994964246 0 0 0 0 117.09414258185961 156.21850893097871 0 156.21850893097871 -117.64769747996979 0 0 0 0 0.61132931462737217 1.3518220791703399 0 1.3518220791703399 -1.6873138989167273 0 0 0 0 -40.665556411244779 -2.7092666496173479 0 -2.7092666496173479 50.493394393386552 0 0 0 0 224.58975131830175 -98.64463838688971 0 -98.64463838688971 94.004895063815638 0 0 0 0 -37.579649614405987 14.339363473026879 0 14.339363473026879 49.665930915303761 0 0 0 0 -57.897572968773602 49.78323277097661 0 49.78323277097661 29.131373389158398 0 0 0 0 3.9662559161976945 15.845789802629696 0 15.845789802629696 40.652801129900581 0 0 0 0 -28.338737903913056 9.7618287437617255 0 9.7618287437617255 44.011877547207405 0 0 0 0 -49.088747505525589 12.236447491754006 0 12.236447491754006 55.026786587506649 0 0 0 0 -36.364984755096373 3.3165476037465851 0 3.3165476037465851 54.446900183043908 0 0 0 0 1.2180351503509428 -13.387656198210607 0 -13.387656198210607 49.300193095026771 0 0 0 0 -3.6874317803062695 -35.683083568364964 0 -35.683083568364964 74.098480477685371 0 0 0 0 -23.164619764378358 -2.2995631015655817 0 -2.2995631015655817 58.956114651518874 0 0 0 0 -22.372318114782502 -1.1596252962190192 0 -1.1596252962190192 49.653508112984127 0 0 0 0 -11.484373857330411 -4.1482927351171384 0 -4.1482927351171384 51.617226503803977 0 0 0 0 -13.7287917544827 -14.757815107266651 0 -14.757815107266651 60.034324692376686 0 0 0 0 -4.487528916919473 -9.1563923135254299 0 -9.1563923135254299 -2.6118574350402923 0 0 0 0 -11.288897941768482 -5.9392981223936658 0 -5.9392981223936658 55.325230689602904 0 0 0 0 -9.9305099633845657 -5.2370245943166083 0 -5.2370245943166083 36.979936252115294 0 0 0 0 -0.62455523303147764 -1.0566096075378368 0 -1.0566096075378368 0.69235885174133216 0 0 0 0 -5.0846704792256787 -6.5569255315203918 0 -6.5569255315203918 4.4183248075423762 0 0 0 0 -5.8160799880828193 -1.5306425267312136 0 -1.5306425267312136 2.1343179849050671 0 0 0 0 -9.8097482236267766 2.6268404391614126 0 2.6268404391614126 43.802282999778981 0 0 0 0 -2.7078244749740579 1.9849006564942044 0 1.9849006564942044 11.606788837173042 0 0 0 0 4.3726347488417332 26.008925112793804 0 26.008925112793804 10.053580864383548 0 0 0 0 20.058521845880534 4.7536691311252071 0 4.7536691311252071 19.771053519354609 0 0 0 0 14.496826234624933 32.673170835545534 0 32.673170835545534 -35.715599724935601 0 0 0 0 -1.1104450055815391 22.396519330141018 0 22.396519330141018 107.68533585460682 0 0 0 0 34.473986817407791 -22.119586341068498 0 -22.119586341068498 4.9071310760700726 0 0 0 0 0.54493185254739274 -3.211921124078799 0 -3.211921124078799 104.85917346776114 0 0 0 0 0.81202934916401226 0.40914540971613178 0 0.40914540971613178 1.7735402935282139 0 0 0 0 11.787658287246316 29.654702217969316 0 29.654702217969316 65.544651045333012 0 0 0 0 10.310906037776558 33.767107508087065 0 33.767107508087065 94.216700780845713 0 0 0 0 -18.225103168190742 12.002357749814109 0 12.002357749814109 95.560074548709963 0 0 0 0 -4.9642252832969405 -6.5209053413345828 0 -6.5209053413345828 46.628410917688598 0 0 0 0 1.5669563548745771 10.275658405938884 0 10.275658405938884 83.606737995767617 0 0 0 0 0.75025566322924053 2.7635913377941961 0 2.7635913377941961 75.700198518286925 0 0 0 0 -3.9103822466381359 18.648035390317091 0 18.648035390317091 71.789825672211009 0 0 0 0 0.87477217987768596 -1.9596541344585603 0 -1.9596541344585603 1.895596183687104 0 0 0 0 -19.527483705507507 -5.5156968159208191 0 -5.5156968159208191 14.594551867328846 0 0 0 0 -5.3496077879480026 4.0793711750447983 0 4.0793711750447983 25.340372461469087 0 0 0 0 3.4576987022275318 7.2473125874421385 0 7.2473125874421385 -10.885995066302712 0 0 0 0 -2.9599411258640442 -0.14306871752825145 0 -0.14306871752825145 0.33081114131616118 0 0 0 0 -141.48716142696708 -25.734219984151423 0 -25.734219984151423 207.1761743703355 0 0 0 0 0.46008365682191721 -0.52119426537302616 0 -0.52119426537302616 0.80096616017698352 0 0 0 0 12.441734143029635 94.560748946525564 0 94.560748946525564 177.68423285533208 0 0 0 0 -8.8621726266446785 -43.077014260226861 0 -43.077014260226861 -10.7478071370424 0 0 0 0 26.878735813109131 31.915389528177911 0 31.915389528177911 77.361860582757799 0 0 0 0 -2.8326610524144193 -0.032859541194540043 0 -0.032859541194540043 -0.75236796695926245 0 0 0 0 -5.574903275080942 -10.009518745373498 0 -10.009518745373498 68.108973008493194 0 0 0 0 31.211874994466854 25.828749646330834 0 25.828749646330834 87.95523014619539 0 0 0 0 -2.2780208570701745 -8.4289188766415464 0 -8.4289188766415464 67.463322854688158 0 0 0 0 -1.9053119508771488 -10.391465200169478 0 -10.391465200169478 76.488454271209775 0 0 0 0 4.8028183743659838 -20.742369520321517 0 -20.742369520321517 75.033288329665083 0 0 0 0 1.3755108773771099 -13.657147618330782 0 -13.657147618330782 61.282584440807113 0 0 0 0 -1.3575107913570719 -16.15857961112124 0 -16.15857961112124 66.228186011838261 0 0 0 0 7.1932025835790228 -24.105618555244291 0 -24.105618555244291 57.942742033690593 0 0 0 0 -1.8541316992186694 -6.7434886148766964 0 -6.7434886148766964 61.740382320094795 0 0 0 0 -0.84651615342113473 -11.658946971416299 0 -11.658946971416299 55.736005090468097 0 0 0 0 -1.9081219759953001 -15.264655488659628 0 -15.264655488659628 48.372026780198212 0 0 0 0 -1.7897896757729086 -10.572126551858673 0 -10.572126551858673 45.539183343586046 0 0 0 0 -1.4495463410410867 -10.163622500290451 0 -10.163622500290451 40.94876746243807 0 0 0 0 -63.60578914362145 -24.337385938400985 0 -24.337385938400985 57.072305695095565 0 0 0 0 -5.8784878164779046 -0.70535900796448914 0 -0.70535900796448914 7.5650325891044474 0 0 0 0 -7.8506712071417155 -8.0290849280936527 0 -8.0290849280936527 56.726500388635031 0 0 0 0 1.3440163705628265 4.6017230990710232 0 4.6017230990710232 31.62787573983951 0 0 0 0 33.485145058079524 25.526007937354734 0 25.526007937354734 169.34465176897356 0 0 0 0 24.422141471451596 -15.329277815879323 0 -15.329277815879323 83.690995285855024 0 0 0 0 -53.390202457265332 -17.685984732983343 0 -17.685984732983343 44.027549153927794 0 0 0 0 -67.820764281384527 26.915878668005462 0 26.915878668005462 50.025929041061318 0 0 0 0 -80.729856718163774 -53.327729400698445 0 -53.327729400698445 35.408826618562671 0 0 0 0 -0.63008996909188397 1.9944605354718874 0 1.9944605354718874 7.7585548140217284 0 0 0 0 33.286154536398044 -22.196918257715879 0 -22.196918257715879 67.296310201490996 0 0 0 0 25.801660486339642 6.6149405439500697 0 6.6149405439500697 3.891971465680399 0 0 0 0 14.978324217633599 1.6189056614748552 0 1.6189056614748552 45.637792825640645 0 0 0 0 -30.829546577116616 -19.585235444290447 0 -19.585235444290447 38.97530225054652 0 0 0 0 -2.3835565280473929 17.462489382731292 0 17.462489382731292 56.49133415723918 0 0 0 0 71.123124053750871 14.233285337475536 0 14.233285337475536 41.062893050417188 0 0 0 0 42.204249530927882 33.171976748868474 0 33.171976748868474 58.297332316986285 0 0 0 0 88.754061869038651 11.099269963051484 0 11.099269963051484 37.861581621385994 0 0 0 0 83.792580531129033 6.6223786942646257 0 6.6223786942646257 49.013894964940846 0 0 0 0 168.78889292989516 39.138361456854909 0 39.138361456854909 32.169303858980129 0 0 0 0 104.13033130405074 34.182945163505792 0 34.182945163505792 152.18976828981977 0 0 0 0 127.86632948382976 14.955604407216015 0 14.955604407216015 47.803449365688721 0 0 0 0 64.486630630689888 29.68198372705956 0 29.68198372705956 151.87419034732739 0 0 0 0 0.42291947774181171 0.61356670873807673 0 0.61356670873807673 1.2331497035806365 0 0 0 0 -0.2209614343796602 -32.305222080496605 0 -32.305222080496605 100.23288443974889 0 0 0 0 170.83031931310234 47.397707605181495 0 47.397707605181495 3.1687585593026597 0 0 0 0 73.497632307630056 -66.880549426410653 0 -66.880549426410653 8.0143840300297597 0 0 0 0 124.33397266565498 -8.4107135375597863 0 -8.4107135375597863 74.978318375025992 0 0 0 0 0.72531624700005182 1.2068252697443 0 1.2068252697443 2.3908749022050984 0 0 0 0 55.874447330041221 5.7650548285673722 0 5.7650548285673722 3.2928749155180412 0 0 0 0 -10.467353044674383 18.384465771894611 0 18.384465771894611 88.717165052439668 0 0 0 0 123.45689892344262 -18.412828019991139 0 -18.412828019991139 -27.09977737635927 0 0 0 0 91.840899434389712 -38.33286824822062 0 -38.33286824822062 22.265834351113881 0 0 0 0 87.374267430224791 -28.743781880140887 0 -28.743781880140887 1.7127612398908241 0 0 0 0 0.37699298200720843 0.016191278517112551 0 0.016191278517112551 2.9324009665829749 0 0 0 0 30.023507063292527 -43.560718146130966 0 -43.560718146130966 102.32431848548003 0 0 0 0 0.22719428471969572 0.24735934602955467 0 0.24735934602955467 0.69189773335421023 0 0 0 0 141.60610733608246 -47.373738488928211 0 -47.373738488928211 15.89694596688787 0 0 0 0 25.154182593763039 -14.468634789024691 0 -14.468634789024691 2.9643451964657288 0 0 0 0 -1.6754083336796566 -5.2225883862918963 0 -5.2225883862918963 2.3016128208188888 0 0 0 0 -42.55902293056397 -5.4533624174146098 0 -5.4533624174146098 100.18341961135593 0 0 0 0 -28.133479903873194 -69.024463096990075 0 -69.024463096990075 88.297036045849381 0 0 0 0 -36.277841758927735 -39.838425595280569 0 -39.838425595280569 43.487390714377398 0 0 0 0 87.210796441955324 -28.910839584874338 0 -28.910839584874338 -16.49060110739083 0 0 0 0 -2.3074143580796846 -2.5012094136222771 0 -2.5012094136222771 42.163515559604264 0 0 0 0 -1.3526559508702354 0.63902313247081466 0 0.63902313247081466 26.985821072930491 0 0 0 0 -12.591171653730953 4.3094758169390843 0 4.3094758169390843 18.311383055639453 0 0 0 0 -121.27216299167804 96.334574711814639 0 96.334574711814639 183.34192933041777 0 0 0 0 1.3291072013557823 -14.602580825703626 0 -14.602580825703626 3.8688045630187844 0 0 0 0 1.7008364191157526 2.4363314698938865 0 2.4363314698938865 16.56822347422127 0 0 0 0 48.140641135958958 -5.5961730981398432 0 -5.5961730981398432 -32.862580887740478 0 0 0 0 1.4332884072036904 26.525308636416412 0 26.525308636416412 31.074401608319022 0 0 0 0 -11.547962042635163 6.1183924529977958 0 6.1183924529977958 19.715241956851969 0 0 0 0 -2.7706383006205897 4.2432457095637801 0 4.2432457095637801 42.834534895984689 0 0 0 0 0.95364249923328659 4.2434065366623201 0 4.2434065366623201 20.464910774335351 0 0 0 0 -10.77994045678588 42.971044449288456 0 42.971044449288456 -3.82354164836579 0 0 0 0 3.1287065858711371 7.7319581551966614 0 7.7319581551966614 17.632520058458965 0 0 0 0 150.70048231664623 -18.188906276685884 0 -18.188906276685884 33.209077581879683 0 0 0 0 126.97623416147371 -12.55066608118068 0 -12.55066608118068 6.6168756781262346 0 0 0 0 83.853028781174999 -48.628670069731015 0 -48.628670069731015 27.629267751966836 0 0 0 0 0.63436178496014817 1.3898896059173964 0 1.3898896059173964 1.3921210865102012 0 0 0 0 150.90848202998859 -21.923898008069955 0 -21.923898008069955 0.83283676223072689 0 0 0 0 220.36974761973693 -43.964593991449874 0 -43.964593991449874 -34.660572433829657 0 0 0 0 0.2968860039006973 0.35735339974374369 0 0.35735339974374369 1.4322434595084701 0 0 0 0 90.582930905140984 -82.895374285770231 0 -82.895374285770231 236.8234537704393 0 0 0 0 180.94237722777189 42.97200031686225 0 42.97200031686225 88.738471909106011 0 0 0 0 -55.524833651589688 -9.0145000641205115 0 -9.0145000641205115 72.785763591178693 0 0 0 0 -35.038839601093059 6.9123943537852028 0 6.9123943537852028 21.877887154536438 0 0 0 0 -0.12350069382063822 1.9436902048043407 0 1.9436902048043407 3.4865702833220666 0 0 0 0 -16.456852943167178 0.44572666215026402 0 0.44572666215026402 13.818531741562765 0 0 0 0 15.29137257807834 37.055486908221354 0 37.055486908221354 -17.572582652413871 0 0 0 0 36.641098302599403 80.388130624021869 0 80.388130624021869 -65.401732693862868 0 0 0 0 156.62858339929244 -51.63908262111363 0 -51.63908262111363 -178.43916597314819 0 0 0 0 -84.446912103032446 -30.89933488558745 0 -30.89933488558745 159.3841558014974 0 0 0 0 -27.73932969962425 26.038662258157274 0 26.038662258157274 -249.35825759050203 0 0 0 0 -47.431258965762026 92.437387310063059 0 92.437387310063059 150.90147489507217 0 0 0 0 -29.194651863845593 57.619694300708943 0 57.619694300708943 216.17871427611681 0 0 0 0 58.466992111459149 130.2383977623831 0 130.2383977623831 32.37135702976957 0 0 0 0 252.29707708616525 -79.228720279723348 0 -79.228720279723348 208.96012365445495 0 0 0 0 267.22763972478742 -263.3799128898936 0 -263.3799128898936 352.09465547520085 0 0 0 0 179.28925807312135 -90.867926491380786 0 -90.867926491380786 270.40615384739067 0 0 0 0 286.70729788698009 -315.42477282945765 0 -315.42477282945765 372.53824254361098 0 0 0 0 117.92202114887641 -69.968414062765078 0 -69.968414062765078 141.06463963606075 0 0 0 0 73.926866690956331 -169.86339476713329 0 -169.86339476713329 346.92783028035774 0 0 0 0 284.62101009436083 -163.54308838621364 0 -163.54308838621364 275.50858126000094 0 0 0 0 148.69991254750221 -190.99215746601112 0 -190.99215746601112 386.10965914439294 0 0 0 0 292.48856581180189 -176.52399559169135 0 -176.52399559169135 206.82550483664454 0 0 0 0 238.26963291009929 -281.12345999644458 0 -281.12345999644458 495.65410392012564 0 0 0 0 197.00353602167525 -183.00657660477009 0 -183.00657660477009 387.36981929161993 0 0 0 0 300.71569895536959 -159.04926680508652 0 -159.04926680508652 449.6398730011424 0 0 0 0 18.525568759595444 -53.707271300838329 0 -53.707271300838329 619.32996210124111 0 0 0 0 -90.972985147396685 171.66993621367146 0 171.66993621367146 -194.49146166600985 0 0 0 0 177.03565876720268 -207.98600008562789 0 -207.98600008562789 910.24340773836593 0 0 0 0 283.05182309841211 -189.95971646605904 0 -189.95971646605904 522.47226468173903 0 0 0 0 431.63527658312159 -476.95503053424181 0 -476.95503053424181 901.75513687977218 0 0 0 0 4.4864475379906903 2.1304219031927687 0 2.1304219031927687 -3.1493744909365091 0 0 0 0 114.17836030428043 -537.3324789545004 0 -537.3324789545004 1120.048103452551 0 0 0 0 4.0114013903209074 1.0301371304978488 0 1.0301371304978488 6.0680615320096933 0 0 0 0 420.08513007493207 -683.23702699908972 0 -683.23702699908972 659.62250944055268 0 0 0 0 186.38742755300973 -318.79498855626298 0 -318.79498855626298 553.77027207310311 0 0 0 0 205.00356735371679 -239.87468583244481 0 -239.87468583244481 613.65354331766139 0 0 0 0 343.19073277823531 -324.77362954670025 0 -324.77362954670025 77.994926393905189 0 0 0 0 302.21900083469882 -248.4813873260573 0 -248.4813873260573 472.31746846262831 0 0 0 0 277.12832128514401 -384.69682422619371 0 -384.69682422619371 608.32807602768298 0 0 0 0 7.5156812460899687 10.989714118268068 0 10.989714118268068 6.3040720560147321 0 0 0 0 35.041887628660334 24.168108684469189 0 24.168108684469189 -59.975756165433268 0 0 0 0 -135.06003169991436 94.814156263688346 0 94.814156263688346 -28.547506361093838 0 0 0 0 -85.540615955940666 167.93738154444145 0 167.93738154444145 -115.56642104358889 0 0 0 0 -9.7708467981256035 -90.23751770254421 0 -90.23751770254421 -9.0059500703355297 0 0 0 0 -0.71172852793045394 -0.43505148817808958 0 -0.43505148817808958 -0.43461872852145689 0 0 0 0 6.2649305979655523 11.552236362242922 0 11.552236362242922 9.4909020440333194 0 0 0 0 113.58393573940793 -245.50433627105667 0 -245.50433627105667 576.59995875378081 0 0 0 0 48.342082044660856 64.435287169093499 0 64.435287169093499 -155.00511026556705 0 0 0 0 64.426333263981178 -204.88806462743378 0 -204.88806462743378 561.94859621907381 0 0 0 0 57.990513047427157 -129.22722860693466 0 -129.22722860693466 426.74413945147535 0 0 0 0 143.05163528491948 -146.11440328252502 0 -146.11440328252502 261.45543729397468 0 0 0 0 68.200362172001405 -197.03467583606107 0 -197.03467583606107 407.26977269591953 0 0 0 0 46.125860707104493 -159.81834284624347 0 -159.81834284624347 399.91889935280778 0 0 0 0 39.795444228746419 -163.0851794899645 0 -163.0851794899645 388.12159049246202 0 0 0 0 61.741091855215984 -154.71604188607034 0 -154.71604188607034 387.51319025459816 0 0 0 0 53.024399523379543 -171.23653535881022 0 -171.23653535881022 346.95873630020651 0 0 0 0 55.060041611823181 -126.09929441196437 0 -126.09929441196437 328.06405819262727 0 0 0 0 72.612418229819014 -172.06555052741169 0 -172.06555052741169 298.04268086007505 0 0 0 0 44.106744612335206 -124.88848682244861 0 -124.88848682244861 288.86421893264196 0 0 0 0 58.267457138584291 -163.51995271575106 0 -163.51995271575106 273.372630415819 0 0 0 0 69.169805789902512 -167.51315162119135 0 -167.51315162119135 257.04348923575162 0 0 0 0 105.93607571614234 -171.94735489743107 0 -171.94735489743107 122.46297559485538 0 0 0 0 78.093949068017537 -21.495694419922074 0 -21.495694419922074 37.434111423302966 0 0 0 0 73.063907990667531 -99.513883909743754 0 -99.513883909743754 184.70485950057628 0 0 0 0 76.12407111946959 -75.137614767161722 0 -75.137614767161722 211.06137169376598 0 0 0 0 102.51901219171441 5.5197607815571246 0 5.5197607815571246 186.53786191622203 0 0 0 0 77.50104790190926 -96.639826193553745 0 -96.639826193553745 296.27891672640544 0 0 0 0 95.779717514030381 8.2081734581734054 0 8.2081734581734054 356.07447556391708 0 0 0 0 169.88219385668958 41.458111899759388 0 41.458111899759388 136.2248518607812 0 0 0 0 41.50248873409555 -38.56060998304747 0 -38.56060998304747 540.93506088003051 0 0 0 0 64.283175753976138 -98.614460465723823 0 -98.614460465723823 416.93069691721757 0 0 0 0 75.095981995807051 -63.641889876496862 0 -63.641889876496862 337.37010291913975 0 0 0 0 86.227790383385582 -173.75581376852642 0 -173.75581376852642 393.52897649780789 0 0 0 0 98.332925106935363 -176.75592132698512 0 -176.75592132698512 358.76965295812988 0 0 0 0 160.59222712848259 -272.21367851502146 0 -272.21367851502146 502.85767089587171 0 0 0 0 71.040461041421622 -94.23274322868383 0 -94.23274322868383 300.1316425017867 0 0 0 0 66.320636864604239 -147.28119417042763 0 -147.28119417042763 359.48609120876063 0 0 0 0 66.499075839962643 -151.55557730716828 0 -151.55557730716828 351.22115266764013 0 0 0 0 62.90009400758845 -140.40650703003485 0 -140.40650703003485 387.3009018121229 0 0 0 0 98.206311922828263 -158.97261337164673 0 -158.97261337164673 360.53077763391775 0 0 0 0 -129.80692796370386 25.820014852637541 0 25.820014852637541 18.25893239499419 0 0 0 0 94.820000265668341 -165.31159222842325 0 -165.31159222842325 357.71177147245908 0 0 0 0 -113.74645337764377 213.2887532866589 0 213.2887532866589 -277.88742046047992 0 0 0 0 -1.1892841316091349 -0.30579940792796378 0 -0.30579940792796378 0.79979107021674167 0 0 0 0 5.8872584762452824 6.1596941731535679 0 6.1596941731535679 3.6618972138100503 0 0 0 0 -21.71685332267225 88.93618267113925 0 88.93618267113925 -248.4453252925814 0 0 0 0 -112.98950017436982 69.955819435861486 0 69.955819435861486 -55.269015061800019 0 0 0 0 -54.170458855775905 57.342273828318866 0 57.342273828318866 -191.42188164455001 0 0 0 0 -61.4125079704163 -4.3916262789352913 0 -4.3916262789352913 -9.6422743476578034 0 0 0 0 -247.414426956444 113.98110111043206 0 113.98110111043206 -78.105703356384765 0 0 0 0 -80.450490032972084 53.056559216536698 0 53.056559216536698 -77.012949389347341 0 0 0 0 -50.21528127937745 14.484466729991254 0 14.484466729991254 3.7153703994117677 0 0 0 0 -53.84780981707263 -21.093124143866589 0 -21.093124143866589 52.544236478410312 0 0 0 0 -66.343881995999936 79.355051976157483 0 79.355051976157483 -82.148513595486293 0 0 0 0 -50.37189361791593 -0.99026734436847619 0 -0.99026734436847619 6.701275196071947 0 0 0 0 -41.635680587693059 23.512922393725603 0 23.512922393725603 32.361648287595017 0 0 0 0 -27.877815696615244 86.363656879770133 0 86.363656879770133 -62.74342056614114 0 0 0 0 -4.1522186065449205 -15.348062534583732 0 -15.348062534583732 13.723086033060099 0 0 0 0 -1.7144090809342742 37.553990984393749 0 37.553990984393749 -143.34958879908663 0 0 0 0 -0.61172057472364472 -1.6815295613788237 0 -1.6815295613788237 -4.8898355589610674 0 0 0 0 -41.987544130174683 139.99307594827405 0 139.99307594827405 -196.20906751819712 0 0 0 0 -70.193907070395653 54.525838487490546 0 54.525838487490546 -103.32941958718584 0 0 0 0 -0.42578681727202294 1.2799382397190158 0 1.2799382397190158 0.73852523871781273 0 0 0 0 87.025691180942658 -118.80494341816666 0 -118.80494341816666 127.23010064840491 0 0 0 0 19.177573848102156 15.744368707943067 0 15.744368707943067 251.93693336268188 0 0 0 0 27.320721669761497 -11.333072188608639 0 -11.333072188608639 27.220998313103337 0 0 0 0 -15.823760239769399 -3.8297525735833915 0 -3.8297525735833915 102.11578643344546 0 0 0 0 -9.7726513879779304 -81.136197643063497 0 -81.136197643063497 87.04864176211413 0 0 0 0 -60.277351070229997 -43.51046086223505 0 -43.51046086223505 68.631386947396095 0 0 0 0 -44.38898042198889 -7.1094651650928427 0 -7.1094651650928427 33.205539232876617 0 0 0 0 -48.390143779713071 35.581518085644348 0 35.581518085644348 -65.09904288391408 0 0 0 0 -74.197953876149768 -27.8087851524906 0 -27.8087851524906 18.852567931811791 0 0 0 0 -7.626904731108425 -9.7327454606129322 0 -9.7327454606129322 43.166033760135178 0 0 0 0 -52.537806191880009 21.84370805999788 0 21.84370805999788 42.021211936978943 0 0 0 0 -29.657779388686322 -41.633428852805082 0 -41.633428852805082 19.933626535552321 0 0 0 0 50.986809495222587 146.78997669195087 0 146.78997669195087 -6.179537337491638 0 0 0 0 -52.224361042250166 25.708575559874589 0 25.708575559874589 -79.505872063615243 0 0 0 0 -259.45060066084216 60.270224766998581 0 60.270224766998581 -69.371227819850901 0 0 0 0 -140.50785080207325 135.2372237923214 0 135.2372237923214 -113.5255835824064 0 0 0 0 6.0098392416975912 60.460241640459571 0 60.460241640459571 -171.01306088136334 0 0 0 0 62.307123273026264 112.87748269356234 0 112.87748269356234 63.212395105918404 0 0 0 0 20.776325512639687 180.14220365408983 0 180.14220365408983 45.397687274420605 0 0 0 0 60.930732921420713 129.68212258331914 0 129.68212258331914 107.02715837792493 0 0 0 0 -163.21938856574025 89.81378460835549 0 89.81378460835549 487.79927208115987 0 0 0 0 68.734339437470226 381.76398829463142 0 381.76398829463142 284.46429728463409 0 0 0 0 38.108823231948918 253.66472670219082 0 253.66472670219082 -165.2064193312799 0 0 0 0 1.9895940104533114 1.8262347124435365 0 1.8262347124435365 2.1860740078379308 0 0 0 0 136.97210511612775 -308.84392758501053 0 -308.84392758501053 731.23708884914231 0 0 0 0 81.939615466543728 -134.89129331310687 0 -134.89129331310687 762.618497201227 0 0 0 0 249.53376737212193 62.000087635240561 0 62.000087635240561 114.94629284538678 0 0 0 0 118.13733923692735 100.61706909543136 0 100.61706909543136 535.89603588555474 0 0 0 0 61.427132764699763 -174.72553526813863 0 -174.72553526813863 204.24493076876388 0 0 0 0 -39.233987694926782 -59.37046717307021 0 -59.37046717307021 67.276570419417112 0 0 0 0 -154.06157833154941 -237.39363661110292 0 -237.39363661110292 -1.2327159322449006 0 0 0 0 -61.411221958428996 -173.23185095091321 0 -173.23185095091321 16.470230301654738 0 0 0 0 -42.734216039888452 -41.18813182631493 0 -41.18813182631493 76.203596235776786 0 0 0 0 146.84362159305829 -25.763328660457773 0 -25.763328660457773 35.459218178315496 0 0 0 0 2.6875121290959214 -118.78382927354323 0 -118.78382927354323 148.73077455449675 0 0 0 0 94.344241828349368 -0.92607298811344663 0 -0.92607298811344663 138.55112745703832 0 0 0 0 134.97856459554214 52.780162166996888 0 52.780162166996888 53.653679806317086 0 0 0 0 123.99457649035276 -12.415414284711005 0 -12.415414284711005 155.43210427841404 0 0 0 0 158.23280345485557 64.945565640995483 0 64.945565640995483 59.999114721555088 0 0 0 0 39.66804274793185 33.043555729123909 0 33.043555729123909 115.17374735167323 0 0 0 0 80.053308482484908 -53.350659546913448 0 -53.350659546913448 46.364850611716975 0 0 0 0 -56.611743337791722 -32.749268194333126 0 -32.749268194333126 55.109114846891316 0 0 0 0 -42.032046000523678 -69.271683284281607 0 -69.271683284281607 -10.737172882552841 0 0 0 0 -134.5794093630966 -100.65352304749103 0 -100.65352304749103 56.357947079908627 0 0 0 0 -233.13600327629376 -187.78411776102439 0 -187.78411776102439 7.5794025317300111 0 0 0 0 7.7835403932122551 -24.964393928884498 0 -24.964393928884498 70.456144294059584 0 0 0 0 -150.83882020750116 -70.103254021927569 0 -70.103254021927569 43.890031332382932 0 0 0 0 -208.20577469698833 -79.976551744657627 0 -79.976551744657627 38.844149679134716 0 0 0 0 6.181336461027513 -72.613838478505386 0 -72.613838478505386 -0.88460540448431857 0 0 0 0 -106.39615349285259 -56.915537393950217 0 -56.915537393950217 2.3559809477737872 0 0 0 0 6.8449714492189679 -22.663250992459972 0 -22.663250992459972 64.746297921188898 0 0 0 0 -118.1673918289539 -102.66622091347563 0 -102.66622091347563 161.0436324023176 0 0 0 0 -184.33064121104258 -70.970493370528857 0 -70.970493370528857 54.039411445890437 0 0 0 0 -215.99357177196111 -165.96589239903369 0 -165.96589239903369 -18.181455632497091 0 0 0 0 74.734329440467263 -7.8196756299948902 0 -7.8196756299948902 13.090367268567206 0 0 0 0 9.4052219388463527 -19.037630706101481 0 -19.037630706101481 -7.7214397270799964 0 0 0 0 -104.85226310251801 -25.624351251077314 0 -25.624351251077314 35.029493679554434 0 0 0 0 -210.42439403968774 -15.069101682893233 0 -15.069101682893233 73.376856812130427 0 0 0 0 -58.005293486225384 -70.637844860958921 0 -70.637844860958921 198.66685216444603 0 0 0 0 -55.565630674352576 -68.462872630997481 0 -68.462872630997481 -15.368624530965462 0 0 0 0 -311.78607453952282 -157.17992331321511 0 -157.17992331321511 16.722521558821427 0 0 0 0 5.6565907688529098 -19.086471049479329 0 -19.086471049479329 55.177075942712975 0 0 0 0 19.438968480085691 29.692616715958138 0 29.692616715958138 121.48891133443976 0 0 0 0 218.68001143561742 85.741172503232519 0 85.741172503232519 44.813836446737696 0 0 0 0 250.26645398196615 119.84993233898058 0 119.84993233898058 232.04371574957622 0 0 0 0 350.38510981235663 130.78114560697577 0 130.78114560697577 66.697213841012854 0 0 0 0 463.3324048240479 277.59283614826018 0 277.59283614826018 232.09879326747614 0 0 0 0 298.61197252659241 13.509680486311481 0 13.509680486311481 340.17744713070715 0 0 0 0 6.3866656754412361 117.11593180676573 0 117.11593180676573 307.89938311370861 0 0 0 0 423.28259804572349 345.030280467392 0 345.030280467392 486.61205952968885 0 0 0 0 359.14030587317575 -40.954491974941902 0 -40.954491974941902 1288.1771073331474 0 0 0 0 392.03841513527686 280.74765242188391 0 280.74765242188391 798.86246434994973 0 0 0 0 134.58070215283487 -126.41310876284842 0 -126.41310876284842 1255.7721274542128 0 0 0 0 98.605719200518649 -260.76682969865578 0 -260.76682969865578 1715.8229032335366 0 0 0 0 154.6123988519758 -409.27364528421458 0 -409.27364528421458 1656.3285578025607 0 0 0 0 780.03149373288716 -535.29102130905085 0 -535.29102130905085 1498.9753360747709 0 0 0 0 736.80399810341316 175.43063333590044 0 175.43063333590044 1325.8898468376574 0 0 0 0 802.55716036500644 370.37496889447357 0 370.37496889447357 848.85667886980082 0 0 0 0 731.78073648386408 -491.70159693814639 0 -491.70159693814639 1461.9213427144641 0 0 0 0 207.39923082872349 54.470646305971059 0 54.470646305971059 920.67334234018927 0 0 0 0 75.702695793159364 -385.13208973415749 0 -385.13208973415749 2052.1461756301069 0 0 0 0 177.23879233590628 666.46171836491703 0 666.46171836491703 1808.1462612669602 0 0 0 0 559.12638555683941 -646.2769201341398 0 -646.2769201341398 75.959658962747199 0 0 0 0 1.8828132424847461 -5.0649566789639451 0 -5.0649566789639451 16.994266019314779 0 0 0 0 -387.43169372231614 -221.74795770928176 0 -221.74795770928176 113.20354915095595 0 0 0 0 4.2468479898055183 -14.180276534924886 0 -14.180276534924886 41.29370923760311 0 0 0 0 -87.435064083831321 -6.723788930754381 0 -6.723788930754381 163.61866317712702 0 0 0 0 216.53131111464586 -165.20886934829832 0 -165.20886934829832 58.580555553140584 0 0 0 0 65.129492698853028 -231.83503687334451 0 -231.83503687334451 570.48215968138902 0 0 0 0 -17.465177439706963 -439.1532683948044 0 -439.1532683948044 929.8342260003119 0 0 0 0 9.0591741563700907 -431.16364919550324 0 -431.16364919550324 410.83105309067105 0 0 0 0 75.355309684581925 -785.1723369883639 0 -785.1723369883639 1259.3359335300993 0 0 0 0 2.4246080565553711 46.844447518731613 0 46.844447518731613 1727.078724590785 0 0 0 0 -47.887632670071696 -233.22338675679975 0 -233.22338675679975 530.76466116333177 0 0 0 0 -331.79844564288032 -504.92177319982511 0 -504.92177319982511 991.95805088405177 0 0 0 0 -149.84811606913718 13.756868605603813 0 13.756868605603813 808.02422179679706 0 0 0 0 -5.5569794732434756 -1.0189327698969919 0 -1.0189327698969919 -0.22365796299324359 0 0 0 0 -283.82313334128094 -387.18531764368163 0 -387.18531764368163 -241.65148661418061 0 0 0 0 -427.85005143731973 -349.40117542859662 0 -349.40117542859662 654.98743331567675 0 0 0 0 -367.92106183326541 -324.23476235169073 0 -324.23476235169073 1120.4033071061276 0 0 0 0 -93.621106071002259 -169.64407659056815 0 -169.64407659056815 1076.746165027871 0 0 0 0 -88.693819157754433 -161.17398947464972 0 -161.17398947464972 1002.4100367282699 0 0 0 0 242.59282210209801 -127.73443756942652 0 -127.73443756942652 979.57703932146251 0 0 0 0 -102.13915038663436 -144.55774126311735 0 -144.55774126311735 974.91133943248133 0 0 0 0 -92.539699464633259 -243.1833731367733 0 -243.1833731367733 584.25224196944328 0 0 0 0 -64.446547440623817 -263.36694310650819 0 -263.36694310650819 1340.8556659224851 0 0 0 0 120.78444576758807 400.33170286984387 0 400.33170286984387 729.05224902719783 0 0 0 0 88.685926687775918 4.683162011380773 0 4.683162011380773 219.13180947138608 0 0 0 0 106.06554885839736 -29.929799405351332 0 -29.929799405351332 16.770992836289224 0 0 0 0 76.914797489544526 48.679409086755186 0 48.679409086755186 156.32665616593295 0 0 0 0 141.26965001556482 -26.18391478920239 0 -26.18391478920239 145.84779657630497 0 0 0 0 89.809884036531002 59.565751758993429 0 59.565751758993429 64.808665085758548 0 0 0 0 122.47006728035842 96.122156005099896 0 96.122156005099896 240.20515566771792 0 0 0 0 28.387306839367284 -40.5964427277504 0 -40.5964427277504 682.21249375538537 0 0 0 0 55.438566108824944 -134.45475600563077 0 -134.45475600563077 198.06176038600097 0 0 0 0 100.23744549260982 33.701351704054105 0 33.701351704054105 63.47899578561919 0 0 0 0 118.75035908421211 -15.250366654035133 0 -15.250366654035133 52.006403612525901 0 0 0 0 103.11598513416038 42.559797542955494 0 42.559797542955494 267.14830290563805 0 0 0 0 139.92184863951479 31.074440678870815 0 31.074440678870815 -6.9741582748101791 0 0 0 0 123.16035189856802 45.692367497540545 0 45.692367497540545 82.040528703320888 0 0 0 0 29.914379802403232 31.934909394789429 0 31.934909394789429 76.446166411973536 0 0 0 0 95.786561351652153 -2.2348687943886034 0 -2.2348687943886034 -1.8240824499516748 0 0 0 0 135.93783016574776 31.911023384596774 0 31.911023384596774 6.3937972948042443 0 0 0 0 70.528659427696311 -1.6083202730951598 0 -1.6083202730951598 23.621314016236283 0 0 0 0 132.35994394771569 36.785406536924711 0 36.785406536924711 26.799926803483686 0 0 0 0 104.45344712261203 1.0098918684743694 0 1.0098918684743694 -18.981457802568912 0 0 0 0 2.4311697584230387 2.9111274878960103 0 2.9111274878960103 73.871856449863117 0 0 0 0 -0.093462713028342748 0.27538472983735574 0 0.27538472983735574 -0.32700908598813783 0 0 0 0 88.030738837018362 1.6262934154874529 0 1.6262934154874529 -91.86422654731723 0 0 0 0 51.981886547686372 -1.9600228542331024 0 -1.9600228542331024 54.288668897170282 0 0 0 0 -0.16481941215715779 10.61464286455157 0 10.61464286455157 52.720579633627494 0 0 0 0 -8.5666274522632193 -11.643749297330942 0 -11.643749297330942 17.430917316465639 0 0 0 0 76.639285595291085 -13.875575425667193 0 -13.875575425667193 25.846969011923647 0 0 0 0 0.8091960590629439 -6.400769700303627 0 -6.400769700303627 16.448252089356856 0 0 0 0 -2.758796903663324 -6.0475416414410574 0 -6.0475416414410574 21.889907176941051 0 0 0 0 -42.088037306958995 -60.936615995487955 0 -60.936615995487955 25.335067879183271 0 0 0 0 17.631222086421872 -47.187000867252209 0 -47.187000867252209 -40.140985069607268 0 0 0 0 -20.540496131092141 -0.72521009120100643 0 -0.72521009120100643 55.889745320979273 0 0 0 0 -0.97632367118187391 -10.320744921468481 0 -10.320744921468481 40.313328952613745 0 0 0 0 -1.0666631388996466 -0.11209991319216783 0 -0.11209991319216783 9.0583595247701609 0 0 0 0 -0.90434253834459444 -9.9546567439492719 0 -9.9546567439492719 11.225641926826086 0 0 0 0 -6.1925941431413776 -16.921405595923716 0 -16.921405595923716 46.818166029288477 0 0 0 0 -1.923173991315366 -15.104248423285753 0 -15.104248423285753 45.500490620106575 0 0 0 0 -3.1128313773513128 -14.240404132913682 0 -14.240404132913682 47.973662117725326 0 0 0 0 -0.69877589897822645 -11.854093563804781 0 -11.854093563804781 37.543887747975532 0 0 0 0 8.5810643817575283 -20.230955749066197 0 -20.230955749066197 22.692907376913354 0 0 0 0 1.3531858353806001 -20.37587892737065 0 -20.37587892737065 49.135563137919235 0 0 0 0 4.3625776403873715 -15.858733765278885 0 -15.858733765278885 44.848609594540903 0 0 0 0 6.3754459375895749 -24.853475990705192 0 -24.853475990705192 40.576758241400967 0 0 0 0 15.59450437911255 -26.880347164202249 0 -26.880347164202249 97.473605747894908 0 0 0 0 0.15799716618019399 -5.5884973851703421 0 -5.5884973851703421 2.8191539052361065 0 0 0 0 -212.70174162221906 -146.90984863272752 0 -146.90984863272752 182.69164182868553 0 0 0 0 3.9308488097888055 -11.42857981295802 0 -11.42857981295802 2.1129529697735165 0 0 0 0 4.6710649793159575 -7.5351207341082045 0 -7.5351207341082045 12.38229517628497 0 0 0 0 4.7326530574684966 -10.104789335542591 0 -10.104789335542591 24.972289861221725 0 0 0 0 3.1427778728692708 1.305108117416097 0 1.305108117416097 -0.36259965673428951 0 0 0 0 255.49590499262621 184.04814255754172 0 184.04814255754172 -232.31434649133007 0 0 0 0 -44.393410544121423 19.347952682946925 0 19.347952682946925 -51.979372147849062 0 0 0 0 178.11376820394946 81.95485834054125 0 81.95485834054125 -45.857104847385926 0 0 0 0 116.97057927076628 -12.953726908835961 0 -12.953726908835961 -5.2459618597349618 0 0 0 0 -3.3804529772493463 0.12433243691046414 0 0.12433243691046414 9.1962333189338921 0 0 0 0 -45.796422520982333 -151.85799336552009 0 -151.85799336552009 -105.95918907255691 0 0 0 0 30.815362001373401 -167.64667862597344 0 -167.64667862597344 -136.37542922157445 0 0 0 0 233.58395575290228 -112.44109931327694 0 -112.44109931327694 -135.80199787436322 0 0 0 0 504.71294064721764 -262.97350697435604 0 -262.97350697435604 -185.20705950011325 0 0 0 0 -103.05123930925208 -276.87566466924909 0 -276.87566466924909 -58.427745620283531 0 0 0 0 -19.30128818072734 4.597073351371364 0 4.597073351371364 11.343303960951744 0 0 0 0 32.670296795989998 101.13602298963087 0 101.13602298963087 34.579301449513878 0 0 0 0 403.36746414484736 440.67099118323677 0 440.67099118323677 325.8606271780227 0 0 0 0 20.985296913154343 96.219945951314003 0 96.219945951314003 535.15542717241624 0 0 0 0 -121.13845362395659 70.436631074167963 0 70.436631074167963 16.191583079831616 0 0 0 0 4.0695793279911339 8.0479323033791133 0 8.0479323033791133 11.967336304989487 0 0 0 0 2.06498392724178 3.2445432729793211 0 3.2445432729793211 -1.2310650821797822 0 0 0 0 1.8258151867673815 -0.56810989206292106 0 -0.56810989206292106 14.040846797958807 0 0 0 0 -76.978325666387263 -27.698333361859113 0 -27.698333361859113 48.603963197485427 0 0 0 0 3.3665707104028115 -7.2406286289624404 0 -7.2406286289624404 12.328653316915734 0 0 0 0 52.606949986819473 -66.713955823278411 0 -66.713955823278411 42.978048902368755 0 0 0 0 -40.144254804524735 -3.8105369302647887 0 -3.8105369302647887 27.799596751881381 0 0 0 0 158.31201728115479 210.97482425768249 0 210.97482425768249 -78.804527591346414 0 0 0 0 -104.64336924733789 -18.687076431800961 0 -18.687076431800961 171.38448594196234 0 0 0 0 1.5198505827825324 2.9135672046299419 0 2.9135672046299419 5.3953611761121181 0 0 0 0 33.75092832484836 -407.99647157597792 0 -407.99647157597792 1816.0801842029323 0 0 0 0 -277.4222828254525 158.45903104831086 0 158.45903104831086 1384.4205224991674 0 0 0 0 11.227271635542706 -235.19541239443788 0 -235.19541239443788 629.72199880318476 0 0 0 0 -146.61225187707464 4.4304530064146093 0 4.4304530064146093 1549.6843770431369 0 0 0 0 -52.805645152970783 136.31690158689162 0 136.31690158689162 1649.0661496898902 0 0 0 0 88.554339336621183 -28.237319150954136 0 -28.237319150954136 448.78559619245061 0 0 0 0 173.15403985344267 -320.11897957156179 0 -320.11897957156179 343.88195870231721 0 0 0 0 1.2857386725326023 -361.65211245440878 0 -361.65211245440878 1216.1822200900715 0 0 0 0 -30.398581988272554 3.6288542323618458 0 3.6288542323618458 520.39721249358263 0 0 0 0 107.15822679312311 -188.95881556995846 0 -188.95881556995846 276.0593391458824 0 0 0 0 -164.98504780951862 -60.739296573774482 0 -60.739296573774482 17.421380611085624 0 0 0 0 -16.234316770141859 2.9380994718851241 0 2.9380994718851241 10.461271613493736 0 0 0 0 2.7799850787968103 1.7861988687629378 0 1.7861988687629378 1.0093835570414171 0 0 0 0 -42.612781057853624 -250.57910033833468 0 -250.57910033833468 497.06841063567845 0 0 0 0 215.56277339638973 187.25529179433943 0 187.25529179433943 -631.38519569342316 0 0 0 0 -80.45808886653117 -129.88799496944193 0 -129.88799496944193 543.12494800642889 0 0 0 0 -87.557850250707816 81.716217925830279 0 81.716217925830279 515.23823636493762 0 0 0 0 -232.4965574366438 -24.039117145788623 0 -24.039117145788623 -3.7050962793000508 0 0 0 0 -0.69407711869444011 14.637853117069852 0 14.637853117069852 40.675450456048907 0 0 0 0 -18.66172813508274 -131.2827661462652 0 -131.2827661462652 133.89384342932499 0 0 0 0 -268.41768984771534 79.251187860994833 0 79.251187860994833 152.91815987487098 0 0 0 0 -224.58703021661685 64.615436823554774 0 64.615436823554774 -125.64140684444283 0 0 0 0 -209.44501860312818 -77.462921729931622 0 -77.462921729931622 -239.75320587852912 0 0 0 0 287.63810820935521 31.88491070609598 0 31.88491070609598 -162.64287241144848 0 0 0 0 151.137316307665 -202.07579978657304 0 -202.07579978657304 -208.49010723298125 0 0 0 0 229.943241057628 140.77312936833914 0 140.77312936833914 -160.2431636993424 0 0 0 0 287.77659559028604 423.44634431345025 0 423.44634431345025 696.27076252715779 0 0 0 0 147.34098224667423 -138.647941104864 0 -138.647941104864 79.40533949197561 0 0 0 0 -303.04097545784555 634.48303501059854 0 634.48303501059854 930.33689794821839 0 0 0 0 420.08274673259325 8.0887728897796478 0 8.0887728897796478 1055.1530903724342 0 0 0 0 -52.613523740305709 -111.92416488200251 0 -111.92416488200251 3128.443329792819 0 0 0 0 850.34373296211311 453.3805384219304 0 453.3805384219304 1338.4188603599177 0 0 0 0 588.91154639596277 -1182.4079723825125 0 -1182.4079723825125 2120.4488687768826 0 0 0 0 -610.06058101310794 198.02613046772603 0 198.02613046772603 2965.279018992871 0 0 0 0 2.7678885644682705 5.0865491386754513 0 5.0865491386754513 15.615434326851243 0 0 0 0 -356.17534783402596 1.7710974309266021 0 1.7710974309266021 2242.4623640667414 0 0 0 0 322.73083087094415 1002.6903950245323 0 1002.6903950245323 2203.0623739249131 0 0 0 0 1.5616529723267831 -126.75348906727231 0 -126.75348906727231 819.11050032734056 0 0 0 0 -445.24099908868425 653.03100009125774 0 653.03100009125774 1186.9342080227507 0 0 0 0 0.22705893862299753 0.93610163485303843 0 0.93610163485303843 13.794015365949633 0 0 0 0 735.92775957662013 -941.56538755554357 0 -941.56538755554357 3309.1407572041244 0 0 0 0 460.44621807275712 -603.08827112098515 0 -603.08827112098515 438.98243824286328 0 0 0 0 770.86730901061355 -1279.3254396986013 0 -1279.3254396986013 1855.0378892612061 0 0 0 0 -264.14527737119437 -213.29648007504147 0 -213.29648007504147 1280.5203516689216 0 0 0 0 -273.65213703007737 -315.14959752280993 0 -315.14959752280993 1718.5937332975736 0 0 0 0 -81.544488521845381 46.097383734799223 0 46.097383734799223 567.62174551020144 0 0 0 0 -247.32601031434456 -75.002512907609344 0 -75.002512907609344 3292.0871588612936 0 0 0 0 522.40749819031498 910.91412784256318 0 910.91412784256318 1940.7618367141695 0 0 0 0 -179.83160455692814 -187.84938988497743 0 -187.84938988497743 1483.6256230198196 0 0 0 0 -193.8927290115605 365.13709809363354 0 365.13709809363354 1734.7510331693738 0 0 0 0 128.42240815324817 499.96005531474657 0 499.96005531474657 1748.0982599340132 0 0 0 0 165.78237703978152 222.95463283122081 0 222.95463283122081 820.44210599869257 0 0 0 0 205.63710745464644 491.72105784334826 0 491.72105784334826 730.59027323609916 0 0 0 0 380.48813862558518 -127.54582873216714 0 -127.54582873216714 -568.71428425803606 0 0 0 0 -387.81546838962367 -98.623470372185693 0 -98.623470372185693 243.07652523441357 0 0 0 0 -52.758991316278639 -4.2431896656926256 0 -4.2431896656926256 254.71137197288772 0 0 0 0 2.7262575310644186 5.1972668883362871 0 5.1972668883362871 4.4282939269467931 0 0 0 0 -28.898676558276065 553.30707901623282 0 553.30707901623282 450.07817619149864 0 0 0 0 -54.183998606992304 95.134179926346405 0 95.134179926346405 226.78157117082446 0 0 0 0 -3.7807208333342999 29.897928491991479 0 29.897928491991479 68.137560992414365 0 0 0 0 -6.3335673721595072 39.969160505745094 0 39.969160505745094 89.312479428655934 0 0 0 0 -43.820223591476804 40.505684482908691 0 40.505684482908691 182.44520590259344 0 0 0 0 -4.3900683394024327 34.960915638919687 0 34.960915638919687 36.141718501297873 0 0 0 0 -132.16965705530009 6.5640772232727613 0 6.5640772232727613 58.242267967143562 0 0 0 0 38.713579652765546 -126.8261460070571 0 -126.8261460070571 199.7097857229528 0 0 0 0 151.93182548102476 -294.5221594904724 0 -294.5221594904724 236.54993034666768 0 0 0 0 17.5204008693606 114.66854223672999 0 114.66854223672999 139.77102670446038 0 0 0 0 14.002228849342625 0.14445978253206704 0 0.14445978253206704 106.47002466023696 0 0 0 0 45.372553240064732 14.138950016655144 0 14.138950016655144 112.41176429675397 0 0 0 0 1.4812534051394692 0.37096528988331556 0 0.37096528988331556 158.02352883832646 0 0 0 0 0.14063618625266372 11.726218987816537 0 11.726218987816537 112.03016053420652 0 0 0 0 16.790345470156666 17.509091591840843 0 17.509091591840843 58.118185822706437 0 0 0 0 0.03252244166694513 25.649403848088696 0 25.649403848088696 67.483099649260112 0 0 0 0 15.339553812080734 31.463122000153817 0 31.463122000153817 49.239547806861083 0 0 0 0 0.68451013538152938 2.504030522510476 0 2.504030522510476 3.8097532138378654 0 0 0 0 -252.06458983378258 -209.26285302136239 0 -209.26285302136239 1654.0396244733638 0 0 0 0 -195.54129683935381 -160.71918750978512 0 -160.71918750978512 1304.2626602240925 0 0 0 0 -70.866755588982244 -72.186145558608587 0 -72.186145558608587 887.28447715897346 0 0 0 0 0.54205880605946366 103.25036806378193 0 103.25036806378193 1287.2283848165389 0 0 0 0 -102.76182998275965 -148.88818745566095 0 -148.88818745566095 1064.9832450867325 0 0 0 0 -0.27360711814188848 56.045278071246599 0 56.045278071246599 851.83574116382806 0 0 0 0 5.410260356254895 -122.21222155340365 0 -122.21222155340365 602.71260055901075 0 0 0 0 -0.32228058120743874 -0.60588129447384631 0 -0.60588129447384631 -0.14034091240844759 0 0 0 0 -0.049267381892738271 -5.0921260732429801 0 -5.0921260732429801 26.826627208502032 0 0 0 0 -0.0140189121195528 -7.0968145740771433 0 -7.0968145740771433 31.499656648826203 0 0 0 0 -3.7875383100611302 -2.7584983904234832 0 -2.7584983904234832 32.625253880629316 0 0 0 0 -132.05942263998222 -98.13239584607436 0 -98.13239584607436 882.6033099200431 0 0 0 0 -1.8337438827027381 2.4568498153014176 0 2.4568498153014176 31.880858501937894 0 0 0 0 -21.02434162708505 -18.318630864661827 0 -18.318630864661827 332.98542903731868 0 0 0 0 -303.36316842013377 -103.93180810725244 0 -103.93180810725244 -30.862872115671053 0 0 0 0 -3.3392437834593238 -0.85402504903322551 0 -0.85402504903322551 45.22875963385377 0 0 0 0 153.91844280419849 -79.756608284053073 0 -79.756608284053073 157.822048880902 0 0 0 0 -2.9634556959233707 -0.25763890707594328 0 -0.25763890707594328 8.1807630867041681 0 0 0 0 -3.8724467592988212 -0.79979099985212088 0 -0.79979099985212088 45.525776378519367 0 0 0 0 -0.23332689951055607 -0.47208997634979255 0 -0.47208997634979255 5.4875433699145333 0 0 0 0 -3.4328580836902418 -0.62452096100605559 0 -0.62452096100605559 45.580159596240264 0 0 0 0 1.1836482812310116 -3.1233441633594339 0 -3.1233441633594339 21.220798751346592 0 0 0 0 0.51830545290852115 -3.8645658848909079 0 -3.8645658848909079 62.343044879147783 0 0 0 0 -2.8952566210330843 -0.7151561702194158 0 -0.7151561702194158 45.263591795635875 0 0 0 0 -3.1635346709351682 0.47524032778193259 0 0.47524032778193259 38.848461626044582 0 0 0 0 3.6815470814913271 -16.944737500885765 0 -16.944737500885765 8.9621366004957963 0 0 0 0 10.98884657617711 -16.637385449856083 0 -16.637385449856083 38.292947137466399 0 0 0 0 0.70001209716491875 -0.99370884732368836 0 -0.99370884732368836 8.7163774826060205 0 0 0 0 0.23728767944638918 -158.48509395850851 0 -158.48509395850851 94.086830052139703 0 0 0 0 -9.874727121799431 -3.7043939103969024 0 -3.7043939103969024 35.996675945729294 0 0 0 0 0.99154516957881633 -3.9991312336969571 0 -3.9991312336969571 2.8506614499801799 0 0 0 0 293.63224499479782 -48.169726161344443 0 -48.169726161344443 -49.608339262267691 0 0 0 0 25.574531822090762 -23.748294099947088 0 -23.748294099947088 36.75015524844639 0 0 0 0 -12.77894016355911 -5.1189434060433996 0 -5.1189434060433996 43.425902313741972 0 0 0 0 20.31085634484317 14.897331530719384 0 14.897331530719384 37.855826097220415 0 0 0 0 -23.549481098643682 5.9663696621573763 0 5.9663696621573763 69.402222455100855 0 0 0 0 -18.62370130886125 -8.592885606967684 0 -8.592885606967684 41.451559532288229 0 0 0 0 1.4553642478315076 -10.081123904332344 0 -10.081123904332344 33.029980725201312 0 0 0 0 -12.330037607198651 -12.567027729812253 0 -12.567027729812253 36.450267029867973 0 0 0 0 0.021960657503193409 -9.7224973707852769 0 -9.7224973707852769 35.085749882171513 0 0 0 0 -3.0399528524090682 -7.2199687432157589 0 -7.2199687432157589 33.092142950888956 0 0 0 0 -3.0559883433834343 -7.6183216021956923 0 -7.6183216021956923 37.257989626319613 0 0 0 0 -9.0720157451560226 315.93261107643775 0 315.93261107643775 69.533865096236696 0 0 0 0 -152.11243971001386 137.57648089258873 0 137.57648089258873 236.10273898312153 0 0 0 0 -23.159609890561114 99.936815684312023 0 99.936815684312023 149.79927787763518 0 0 0 0 -15.99747771033617 76.814585711518703 0 76.814585711518703 202.11906954271399 0 0 0 0 -14.227238824154483 54.825520134098042 0 54.825520134098042 80.48870135632751 0 0 0 0 -9.0684345571771701 79.195492491830009 0 79.195492491830009 170.52840548867243 0 0 0 0 4.8362288199023169 116.18804633827313 0 116.18804633827313 144.29663917391372 0 0 0 0 5.9439868367981035 124.41608485790402 0 124.41608485790402 38.819140860592597 0 0 0 0 112.54552061478898 126.63669387201298 0 126.63669387201298 26.595103509172986 0 0 0 0 91.213281717922655 180.08327588863176 0 180.08327588863176 48.925100628574 0 0 0 0 59.517523430478832 160.47075874757502 0 160.47075874757502 37.946788942917919 0 0 0 0 -56.784286630975998 24.363943242165078 0 24.363943242165078 82.748447560887143 0 0 0 0 -0.67573763105138251 3.6326579877588596 0 3.6326579877588596 -0.64348659661112606 0 0 0 0 167.61410635707944 172.08846293875831 0 172.08846293875831 34.918580179613855 0 0 0 0 66.530447222434304 154.80729300624989 0 154.80729300624989 42.375130241809529 0 0 0 0 255.51740272878396 368.13526265408655 0 368.13526265408655 -173.71035129524535 0 0 0 0 460.77287468454233 70.216496612192714 0 70.216496612192714 -25.955035822069476 0 0 0 0 -0.52652270985410787 3.3608516639390373 0 3.3608516639390373 -3.680010162599217 0 0 0 0 331.48816722867377 155.71594418607492 0 155.71594418607492 -74.069560868309054 0 0 0 0 -41.645329775536766 -31.449064065400307 0 -31.449064065400307 10.827570834386279 0 0 0 0 2.3205274994309182 4.7956946176603612 0 4.7956946176603612 -6.2938829002851548 0 0 0 0 405.50616953358804 38.616343579975364 0 38.616343579975364 -43.957402428033674 0 0 0 0 905.76988447311123 -157.10536596024394 0 -157.10536596024394 -48.013023979889113 0 0 0 0 585.94373510958394 512.67003486545946 0 512.67003486545946 251.91467729519354 0 0 0 0 -453.79913641040548 522.41255692320919 0 522.41255692320919 211.2922658969328 0 0 0 0 60.063923664349204 130.92932932064286 0 130.92932932064286 -25.190473421811475 0 0 0 0 -311.77462466886936 228.83353965259448 0 228.83353965259448 218.48908289163046 0 0 0 0 -208.16173307157806 425.89958351031237 0 425.89958351031237 32.817785823865051 0 0 0 0 -2.1277530043667383 -5.0005126659066974 0 -5.0005126659066974 -3.533889962434948 0 0 0 0 -91.121950526270666 -22.560591331341129 0 -22.560591331341129 504.19583117520233 0 0 0 0 -204.47323784754917 563.88844547582266 0 563.88844547582266 -588.81275514439767 0 0 0 0 -186.04993971597651 232.60210654268303 0 232.60210654268303 43.211388495932624 0 0 0 0 -228.04474002055031 145.64469783207278 0 145.64469783207278 80.459293782434543 0 0 0 0 -15.798799138708262 3.824479892718017 0 3.824479892718017 34.408164830126509 0 0 0 0 -17.541518238771115 -6.8045057164996825 0 -6.8045057164996825 0.47586550288410479 0 0 0 0 -160.32405509299906 -17.153411809415047 0 -17.153411809415047 -3.7939545935523711 0 0 0 0 -16.791293245037366 34.121524567530301 0 34.121524567530301 148.88076139812983 0 0 0 0 -56.271605535410345 32.996251700518769 0 32.996251700518769 38.219266331358085 0 0 0 0 -80.540861688164398 26.635977653591752 0 26.635977653591752 179.85654945026911 0 0 0 0 -52.749013520206127 13.003650412552695 0 13.003650412552695 88.655426316734463 0 0 0 0 -14.490691809630619 48.058512328917978 0 48.058512328917978 105.62801886066744 0 0 0 0 -8.9913390194307361 17.794470550378207 0 17.794470550378207 149.2872681488052 0 0 0 0 -5.8829184037038544 28.041085542513208 0 28.041085542513208 21.377922216905926 0 0 0 0 -46.669654286564764 8.8165425162969768 0 8.8165425162969768 135.93083286543697 0 0 0 0 -90.344008683443462 7.4257209356451312 0 7.4257209356451312 298.61832154096192 0 0 0 0 -78.767922628278029 38.591621323681466 0 38.591621323681466 238.43436558501708 0 0 0 0 22.332776270621252 -50.478947072160736 0 -50.478947072160736 180.05377940953986 0 0 0 0 -54.066282698855503 -27.629979519912922 0 -27.629979519912922 282.73286212970197 0 0 0 0 -21.185351258969604 109.2968768198034 0 109.2968768198034 192.36098215678021 0 0 0 0 -0.8462887288787897 56.389993454777141 0 56.389993454777141 182.7535858791307 0 0 0 0 -65.264407565293368 39.642182292198413 0 39.642182292198413 299.65971350405925 0 0 0 0 -34.082915506511199 -16.388704954898458 0 -16.388704954898458 211.72636888999273 0 0 0 0 -20.273609741667315 -2.3096750781976425 0 -2.3096750781976425 122.48126609392966 0 0 0 0 -36.76423323491224 19.369556291009964 0 19.369556291009964 49.873199394360128 0 0 0 0 -43.125355860640411 -21.720064410107625 0 -21.720064410107625 206.18003401167152 0 0 0 0 -41.966418014276087 20.588002506579869 0 20.588002506579869 127.67073242437073 0 0 0 0 -47.341301532285833 29.579299045314315 0 29.579299045314315 28.367554716914473 0 0 0 0 -34.578343787579797 -14.843724355108861 0 -14.843724355108861 211.70647489771454 0 0 0 0 -68.161119330976362 78.189982829715518 0 78.189982829715518 149.59035900673803 0 0 0 0 -78.979113879822762 57.608008322309615 0 57.608008322309615 214.42347189933935 0 0 0 0 -35.724106435199417 32.125810518427279 0 32.125810518427279 116.01459295777963 0 0 0 0 -69.188640058515375 28.574358560423889 0 28.574358560423889 161.72167392540541 0 0 0 0 14.376169303934148 -36.406022152421428 0 -36.406022152421428 182.52063746478052 0 0 0 0 10.921661300797041 -17.392737067735652 0 -17.392737067735652 177.76132952262924 0 0 0 0 19.012351391056654 -12.356988820501101 0 -12.356988820501101 223.37501728167808 0 0 0 0 29.034431909796695 -31.756552960239787 0 -31.756552960239787 184.95880075545483 0 0 0 0 20.850564913091148 -34.424040139733734 0 -34.424040139733734 197.23791251634975 0 0 0 0 -15.119398254140833 52.800432224026736 0 52.800432224026736 119.56249240557372 0 0 0 0 -74.987066768371733 60.115481246150921 0 60.115481246150921 71.120296099832331 0 0 0 0 -44.131322461368654 22.691356027884467 0 22.691356027884467 80.372088844900645 0 0 0 0 -35.03851303262924 22.126881220368297 0 22.126881220368297 135.48425728706195 0 0 0 0 2.6837503361650188 42.802043544759698 0 42.802043544759698 116.24844469307692 0 0 0 0 13.35555650715105 85.375262563284195 0 85.375262563284195 143.24972585609794 0 0 0 0 -0.1805405884456377 83.877021629002229 0 83.877021629002229 170.23764485482388 0 0 0 0 32.933349416809506 42.199219818012352 0 42.199219818012352 190.04899700800161 0 0 0 0 11.247113600564262 78.51945386126863 0 78.51945386126863 160.52679184450244 0 0 0 0 440.84854745137272 686.8169398053069 0 686.8169398053069 743.06153229314077 0 0 0 0 -952.99310847932247 -344.49300385243259 0 -344.49300385243259 1261.1873153266679 0 0 0 0 12.707757641004434 48.38961962211345 0 48.38961962211345 138.91572664861917 0 0 0 0 19.131194923741738 48.488980143256377 0 48.488980143256377 108.91511570879373 0 0 0 0 35.673835472637677 -3.4378081939261733 0 -3.4378081939261733 214.83051817343221 0 0 0 0 -20.43232986160001 42.573304930266204 0 42.573304930266204 75.562419996301287 0 0 0 0 -4.6496009123622981 32.796844254593246 0 32.796844254593246 115.00892582645837 0 0 0 0 145.9425301582873 -190.55821809438976 0 -190.55821809438976 511.02144290295473 0 0 0 0 14.046870383657073 15.838333509798844 0 15.838333509798844 -0.15017925373641106 0 0 0 0 -241.02292813079112 -222.95763215771512 0 -222.95763215771512 -261.54868646899456 0 0 0 0 4.4472539203556352 -3.1186973371554316 0 -3.1186973371554316 2.6433533866644296 0 0 0 0 -111.24446712576537 135.91247266803839 0 135.91247266803839 766.29185969253012 0 0 0 0 777.12036457227805 -291.00737061972541 0 -291.00737061972541 2.5631124987412477 0 0 0 0 -0.40893684534967178 134.98103992452707 0 134.98103992452707 505.86135990834009 0 0 0 0 176.18013904566033 182.97224692007148 0 182.97224692007148 238.70991306144424 0 0 0 0 53.62561975717108 -140.12153777704771 0 -140.12153777704771 488.45861883859288 0 0 0 0 15.148339663591415 83.314735662886136 0 83.314735662886136 155.85237921601592 0 0 0 0 188.95957166984499 196.45479371969941 0 196.45479371969941 23.678717854672868 0 0 0 0 32.916819633972118 -2.6296989310530776 0 -2.6296989310530776 -1.1600828771695966 0 0 0 0 -33.545617876301549 29.580105999935768 0 29.580105999935768 401.18867641930399 0 0 0 0 42.635955961180926 -3.553578834975994 0 -3.553578834975994 16.644274524053554 0 0 0 0 85.600394024082561 -7.2255807270612422 0 -7.2255807270612422 344.13006028548261 0 0 0 0 -27.505464441052027 -44.951843997387186 0 -44.951843997387186 391.52269501466924 0 0 0 0 -96.950081790086188 29.973724900291927 0 29.973724900291927 339.94150403965978 0 0 0 0 45.319889607926598 89.096928507256962 0 89.096928507256962 56.032996492674556 0 0 0 0 55.306281076529558 36.905085616415818 0 36.905085616415818 161.4874568528503 0 0 0 0 -148.75098527642513 17.878683778599225 0 17.878683778599225 185.17556617989612 0 0 0 0 128.76771240751623 49.068725771711797 0 49.068725771711797 -64.09867331818532 0 0 0 0 -100.01106137383431 -164.04364444770181 0 -164.04364444770181 26.36471636665442 0 0 0 0 6.9784566828404877 -6.9593859211451132 0 -6.9593859211451132 6.4839617018345166 0 0 0 0 -241.45111948856356 -55.248724620198118 0 -55.248724620198118 -27.161175326160446 0 0 0 0 -67.706106607123729 304.40771341899381 0 304.40771341899381 273.98517221825568 0 0 0 0 238.71554089736856 151.26027604141564 0 151.26027604141564 -90.885960950907247 0 0 0 0 450.67190647580583 -369.19875726978921 0 -369.19875726978921 -6.7434829200283275 0 0 0 0 3.6655524494521217 -3.4587813957035607 0 -3.4587813957035607 3.2750550320563434 0 0 0 0 15.336698712926591 -249.29605926066324 0 -249.29605926066324 915.94512352803031 0 0 0 0 2.5390659592302285 2.2967834298007546 0 2.2967834298007546 0.12776040613701412 0 0 0 0 -72.976476588202786 -175.38419755236464 0 -175.38419755236464 260.06934285196985 0 0 0 0 341.80425466419911 320.76503071259685 0 320.76503071259685 -1.5728720958250051 0 0 0 0 833.75432337494203 66.073227356630014 0 66.073227356630014 241.33501815695126 0 0 0 0 444.97482502839557 302.72880992628052 0 302.72880992628052 -222.6462085183357 0 0 0 0 721.54789814987816 -63.838917826422403 0 -63.838917826422403 102.83085399895208 0 0 0 0 59.056910225179308 468.94853472599425 0 468.94853472599425 82.27753797566038 0 0 0 0 217.65589936267861 234.42590752809701 0 234.42590752809701 190.70199266851705 0 0 0 0 154.42485933118041 256.19977144688619 0 256.19977144688619 -6.6831819636136061 0 0 0 0 106.65988839843158 129.72816595483346 0 129.72816595483346 152.86818857300023 0 0 0 0 0.22702385940947067 1.4987565930924163 0 1.4987565930924163 3.8632557847353013 0 0 0 0 213.74581956679765 31.884253285535294 0 31.884253285535294 -132.44199705185747 0 0 0 0 220.28248780024296 129.53603722795924 0 129.53603722795924 141.07341335855381 0 0 0 0 351.57254495267125 163.8832832965756 0 163.8832832965756 -69.800692768658337 0 0 0 0 62.50352441970972 -98.851115519555606 0 -98.851115519555606 164.89067213938415 0 0 0 0 76.712192110491742 -90.308330064735856 0 -90.308330064735856 134.25311911183417 0 0 0 0 -3.2050863919240271 28.884433329678231 0 28.884433329678231 74.750487181222525 0 0 0 0 71.986585541097156 25.180419909625925 0 25.180419909625925 13.689534048718997 0 0 0 0 45.078157853549783 46.859115202122666 0 46.859115202122666 107.72635101847845 0 0 0 0 9.8536168675454974 80.734075709882745 0 80.734075709882745 81.546151604125043 0 0 0 0 3.0906558977362266 27.279561379879741 0 27.279561379879741 71.779970414628025 0 0 0 0 -132.85509698745227 43.00757107816753 0 43.00757107816753 330.11401342922727 0 0 0 0 -36.808288241174523 -48.915954208301628 0 -48.915954208301628 244.20681388308003 0 0 0 0 0.53575803307459324 67.221906932418889 0 67.221906932418889 137.97303438373814 0 0 0 0 7.9520447053362702 -0.35260271330494675 0 -0.35260271330494675 36.90386694848906 0 0 0 0 47.58902012258477 15.185467152921774 0 15.185467152921774 174.62159567274443 0 0 0 0 64.096335154699773 -312.16141504974439 0 -312.16141504974439 -40.086611060753057 0 0 0 0 -3.3865784590070689 155.45525652224023 0 155.45525652224023 164.07073967685938 0 0 0 0 67.123719936647831 79.79418883346807 0 79.79418883346807 -20.907580433304247 0 0 0 0 1.822402586179436 -3.8913651297449832 0 -3.8913651297449832 -3.8665408930494967 0 0 0 0 -14.746205416626253 98.419334742959109 0 98.419334742959109 518.91160097227475 0 0 0 0 5.5387662672702902 1.26416403342634 0 1.26416403342634 41.603039537006552 0 0 0 0 -35.413275300303212 85.782497217218406 0 85.782497217218406 306.91911026715024 0 0 0 0 -93.481149675590018 46.626400444475962 0 46.626400444475962 265.12946048829326 0 0 0 0 -84.53071340921781 154.70272203356058 0 154.70272203356058 156.60061978783779 0 0 0 0 112.19981394908609 108.7993096262162 0 108.7993096262162 194.34643777507517 0 0 0 0 33.367920272779884 3.9591429591419001 0 3.9591429591419001 211.92427567781488 0 0 0 0 -1.0932421826510108 39.401586073639919 0 39.401586073639919 178.6930043628081 0 0 0 0 -35.627714977055803 65.262676686310442 0 65.262676686310442 166.53283563729929 0 0 0 0 -23.729684221308162 80.37430603001485 0 80.37430603001485 171.27387733756768 0 0 0 0 -2.4098936720824895 16.434441623140174 0 16.434441623140174 68.390785495030286 0 0 0 0 -6.8834227958359406 24.329965596440161 0 24.329965596440161 156.63387794445862 0 0 0 0 8.8607510407400696 50.993368276973342 0 50.993368276973342 76.296391147203394 0 0 0 0 26.6640938383498 56.586648419881385 0 56.586648419881385 111.35631440750876 0 0 0 0 -13.349275969212613 20.399139506913343 0 20.399139506913343 95.810212829190277 0 0 0 0 7.6637074790960469 6.8938552636491295 0 6.8938552636491295 93.761946562095545 0 0 0 0 10.216056817975186 51.384021548486999 0 51.384021548486999 38.596123565057496 0 0 0 0 -5.5275216070923392 29.020058637069369 0 29.020058637069369 33.531687472418007 0 0 0 0 2.4564547854834018 -4.9402984038601971 0 -4.9402984038601971 102.15207631658996 0 0 0 0 -2.0071146838207241 -3.9666170188124248 0 -3.9666170188124248 66.872705835882272 0 0 0 0 -11.707062283683626 5.7821837661758764 0 5.7821837661758764 132.14700685936259 0 0 0 0 7.0837912052193133 35.784478365836549 0 35.784478365836549 90.707801779113652 0 0 0 0 -14.42842092981352 2.9977414213802476 0 2.9977414213802476 20.853070263194802 0 0 0 0 -1.936323789382854 1.451832114823393 0 1.451832114823393 14.035174783243235 0 0 0 0 3.4773256918451807 6.2896785212069517 0 6.2896785212069517 62.848659748051432 0 0 0 0 3.7117949262714305 19.477682554594132 0 19.477682554594132 30.735788118557466 0 0 0 0 5.926024105748823 18.087338508826598 0 18.087338508826598 14.766984411672119 0 0 0 0 1.1605599533377244 27.916913593955542 0 27.916913593955542 63.824737464881764 0 0 0 0 2.4302179397818691 19.832748915723641 0 19.832748915723641 19.707047259333194 0 0 0 0 -9.6354046693640001 -2.0160907819870388 0 -2.0160907819870388 19.435326343791701 0 0 0 0 7.2586008900034358 36.176339116915187 0 36.176339116915187 89.533695131329296 0 0 0 0 4.1056693281348089 27.519403999266615 0 27.519403999266615 66.354505977556983 0 0 0 0 31.642484659999809 4.5325324787354475 0 4.5325324787354475 52.50368055900617 0 0 0 0 0.98708865777825849 59.769498892639604 0 59.769498892639604 115.67913053744996 0 0 0 0 -5.4656962188774258 -6.0003512091162534 0 -6.0003512091162534 19.24382055396125 0 0 0 0 1.337186733128874 13.013577824258391 0 13.013577824258391 66.017968885175492 0 0 0 0 -63.750426403757956 13.457649342351942 0 13.457649342351942 164.50518419830769 0 0 0 0 -11.387706516444245 1.7828253137680194 0 1.7828253137680194 65.111033078649683 0 0 0 0 48.338076097839803 4.0498441092058783 0 4.0498441092058783 247.78140151730622 0 0 0 0 2.6153724264018088 -0.95144234417847429 0 -0.95144234417847429 -0.09940140551466925 0 0 0 0 38.148604239901942 48.999277733684721 0 48.999277733684721 71.738098476605956 0 0 0 0 -11.867598300209792 3.4264712004276916 0 3.4264712004276916 25.604139481126964 0 0 0 0 -2.8590115575207165 16.123745298136782 0 16.123745298136782 42.361849076798535 0 0 0 0 -5.3332561832628755 17.283434968339691 0 17.283434968339691 33.520412727262908 0 0 0 0 26.143037552654278 20.126519741490483 0 20.126519741490483 22.420115225220798 0 0 0 0 -4.4244204610054112 22.413141369283494 0 22.413141369283494 59.397985356772551 0 0 0 0 -10.827636369405809 22.878903592772986 0 22.878903592772986 54.440123337288242 0 0 0 0 -3.1288017861012887 17.007620521042931 0 17.007620521042931 43.150532633798733 0 0 0 0 -2.4043059848845587 18.97619217574902 0 18.97619217574902 59.519602480037065 0 0 0 0 4.1360439505798592 19.983873764657048 0 19.983873764657048 43.655932424188507 0 0 0 0 1.7007724865629825 39.737555029403666 0 39.737555029403666 93.101517473478452 0 0 0 0 -1.9934069655673996 10.231642497467725 0 10.231642497467725 13.444550649554486 0 0 0 0 70.292995326774872 -2.3849104721630283 0 -2.3849104721630283 41.318564571862225 0 0 0 0 31.511442391534274 -32.436460397744668 0 -32.436460397744668 57.750441607422545 0 0 0 0 50.841401542247411 38.579632721139205 0 38.579632721139205 55.660409882999375 0 0 0 0 7.3036621354011775 -15.403991460656101 0 -15.403991460656101 20.193846119909324 0 0 0 0 54.514552733083747 18.919317260630123 0 18.919317260630123 99.341259137698216 0 0 0 0 30.384187286416818 42.12236767504146 0 42.12236767504146 140.47163242055103 0 0 0 0 -13.927929370071285 -18.925975570793931 0 -18.925975570793931 52.731294174626782 0 0 0 0 -20.77911638628575 36.608305835987267 0 36.608305835987267 212.92937390890438 0 0 0 0 62.424956051117078 -68.127136738653462 0 -68.127136738653462 -41.018089903220243 0 0 0 0 70.23499831288791 -79.826960312810115 0 -79.826960312810115 -24.372019146242678 0 0 0 0 8.0295342945737502 -26.561352022290521 0 -26.561352022290521 99.258827061014017 0 0 0 0 -49.509092224650885 -18.692433882170008 0 -18.692433882170008 164.11184260970185 0 0 0 0 -71.839946635125671 61.647189945433638 0 61.647189945433638 99.00543363543693 0 0 0 0 51.434995210865964 -29.521766770543763 0 -29.521766770543763 164.73103452018404 0 0 0 0 32.71645501787134 65.094189648196334 0 65.094189648196334 -25.568369446438737 0 0 0 0 -38.894816590489427 38.370223728452402 0 38.370223728452402 107.66048675225466 0 0 0 0 -63.374708407996877 52.148523835028755 0 52.148523835028755 107.30375206258032 0 0 0 0 -60.146863531774216 76.38831729155936 0 76.38831729155936 55.003674386593048 0 0 0 0 85.782350052404581 25.549053933529649 0 25.549053933529649 1.9288479154929519 0 0 0 0 41.044098352347646 51.478939745444222 0 51.478939745444222 112.56407241866691 0 0 0 0 106.64065961242932 79.38544001869559 0 79.38544001869559 63.663300610656734 0 0 0 0 -33.383140372683556 47.287463215165189 0 47.287463215165189 155.81816621994949 0 0 0 0 0.33093488547182659 1.687071617534599 0 1.687071617534599 10.435103768086421 0 0 0 0 -17.015633028591367 -10.935026072191164 0 -10.935026072191164 50.234195475395168 0 0 0 0 -85.406621764829993 -63.089515689042855 0 -63.089515689042855 120.03684030628938 0 0 0 0 29.993654045034418 -50.317903295035649 0 -50.317903295035649 12.085851054334853 0 0 0 0 -129.53939960901621 -66.329821449402516 0 -66.329821449402516 144.86301663331687 0 0 0 0 -23.366898113174102 -50.121030181580863 0 -50.121030181580863 78.296960686515376 0 0 0 0 10.632852197223315 -98.11915798066002 0 -98.11915798066002 172.58851890385267 0 0 0 0 -86.171539979998215 38.861507513502147 0 38.861507513502147 -20.346201159461771 0 0 0 0 -28.266179426074359 12.111168945528334 0 12.111168945528334 109.38748792169281 0 0 0 0 -33.675837183160183 -36.595013093810849 0 -36.595013093810849 312.49280617706972 0 0 0 0 -0.47937436877455575 -1.5086978386930876 0 -1.5086978386930876 4.0224180676221408 0 0 0 0 67.858556269034125 -100.49805244587515 0 -100.49805244587515 66.675656919906032 0 0 0 0 80.203138523283997 168.33965951402934 0 168.33965951402934 206.04757352298657 0 0 0 0 5.5958088192819559 104.39925737133308 0 104.39925737133308 184.45962388598127 0 0 0 0 13.698569161940213 93.79164210030649 0 93.79164210030649 164.04958182549308 0 0 0 0 43.694799765104108 106.38439045121049 0 106.38439045121049 155.1464625887329 0 0 0 0 24.996734530688627 78.638471234695317 0 78.638471234695317 114.12778411728505 0 0 0 0 104.3502793798466 53.460614429028283 0 53.460614429028283 65.152861114511325 0 0 0 0 192.03377288011734 128.03546996658042 0 128.03546996658042 101.52356644464453 0 0 0 0 64.323486714831233 34.970512875603163 0 34.970512875603163 58.734300221127342 0 0 0 0 -62.555450411331321 -16.755777843209216 0 -16.755777843209216 136.44119678560673 0 0 0 0 -86.579398270667298 85.333726087519608 0 85.333726087519608 147.41373740534618 0 0 0 0 101.23242304919131 18.421204607118852 0 18.421204607118852 166.92019477135182 0 0 0 0 -64.725908256019466 14.330573189232382 0 14.330573189232382 241.45288939902093 0 0 0 0 34.129654649209101 56.801562198314059 0 56.801562198314059 74.330542055322439 0 0 0 0 -70.651902878528688 -60.901507658723858 0 -60.901507658723858 298.50864663707034 0 0 0 0 -0.035075561671192301 -0.77933191198923168 0 -0.77933191198923168 -0.78668488873165643 0 0 0 0 -104.31947612718108 177.9075945300865 0 177.9075945300865 -215.88215985288844 0 0 0 0 -189.85725349344642 8.8237999128868978 0 8.8237999128868978 259.31433219070459 0 0 0 0 -167.24256238886227 20.285344719242858 0 20.285344719242858 129.28537608621991 0 0 0 0 -159.82937654895477 27.750296399048239 0 27.750296399048239 70.977771569570905 0 0 0 0 -2.8251118023976436 -9.0910035186572173 0 -9.0910035186572173 52.100537600154325 0 0 0 0 -32.079163038635627 -16.49109304108606 0 -16.49109304108606 67.428025110290037 0 0 0 0 -69.326615096916157 -40.16519530032383 0 -40.16519530032383 82.400316017490695 0 0 0 0 31.745474775040748 -38.752353500523895 0 -38.752353500523895 47.164604612597032 0 0 0 0 -12.953737874980561 19.294688799534924 0 19.294688799534924 113.28882337918913 0 0 0 0 4.7607850761037298 111.00665265654607 0 111.00665265654607 228.15246261958964 0 0 0 0 21.908956877953415 19.664608059752936 0 19.664608059752936 44.776436794785695 0 0 0 0 8.9276265418536198 -16.84425162798027 0 -16.84425162798027 12.505179373733483 0 0 0 0 -35.360473135546272 -17.469226746368804 0 -17.469226746368804 188.72806687409684 0 0 0 0 -75.011315966028633 16.861762530490523 0 16.861762530490523 160.88911613301025 0 0 0 0 11.729118313328854 100.2025272008068 0 100.2025272008068 12.728739801008487 0 0 0 0 116.69230840582441 24.911367323034938 0 24.911367323034938 65.536476513618254 0 0 0 0 10.381746551204847 -14.995350492551296 0 -14.995350492551296 28.439186744184681 0 0 0 0 49.790903233829567 90.375036680845369 0 90.375036680845369 163.51233052446332 0 0 0 0 -0.51182485319890247 4.5037815966970811 0 4.5037815966970811 68.527953297321801 0 0 0 0 -0.38705983119220533 -10.726572498749903 0 -10.726572498749903 49.689481483547041 0 0 0 0 26.791501289007456 11.739924973631787 0 11.739924973631787 48.656128527261899 0 0 0 0 -186.38417015280925 -131.9255025489183 0 -131.9255025489183 36.672418330686924 0 0 0 0 -242.67143737702122 -143.00497788737994 0 -143.00497788737994 67.696335465181619 0 0 0 0 -199.36761013769879 -15.026836997902592 0 -15.026836997902592 193.67285448667826 0 0 0 0 -344.28120373902902 -351.73034153854678 0 -351.73034153854678 -196.27706158255023 0 0 0 0 -5.9833740368826032 1.7215440015864374 0 1.7215440015864374 20.810900983110486 0 0 0 0 -221.64383524520724 -124.64615487219271 0 -124.64615487219271 -15.557573100581067 0 0 0 0 -168.02372445770311 26.873739228220074 0 26.873739228220074 44.59515925575397 0 0 0 0 -465.02326813049604 -175.16591618012899 0 -175.16591618012899 138.94645514423291 0 0 0 0 -202.83822509246522 -4.9701276510968455 0 -4.9701276510968455 261.17524357905495 0 0 0 0 -299.82738397668118 -124.25517221203336 0 -124.25517221203336 118.00607577736082 0 0 0 0 -206.3809247736333 27.965408983494854 0 27.965408983494854 151.07565379980224 0 0 0 0 22.448795136932858 159.23999356386958 0 159.23999356386958 195.54051839570457 0 0 0 0 7.4202211110634329 -25.065323305385796 0 -25.065323305385796 74.288757407055755 0 0 0 0 138.44394639123948 17.053962173395121 0 17.053962173395121 25.442123967317457 0 0 0 0 -288.45653655829415 -217.09069083541181 0 -217.09069083541181 78.593434401202103 0 0 0 0 -325.05126034316163 -137.4431786144778 0 -137.4431786144778 67.269729155220375 0 0 0 0 95.636959374351818 34.598658931048703 0 34.598658931048703 116.234887350387 0 0 0 0 7.615961899183155 -26.438863588664084 0 -26.438863588664084 75.921888725446678 0 0 0 0 -243.20450212505284 10.392837954175775 0 10.392837954175775 137.93531716171128 0 0 0 0 77.756624651677612 22.568259530002251 0 22.568259530002251 122.42451299072127 0 0 0 0 -22.397113237987469 -70.920510751398979 0 -70.920510751398979 27.606927083601477 0 0 0 0 97.306527400898517 -46.904294452012437 0 -46.904294452012437 -0.21743272566527594 0 0 0 0 93.468885439063342 50.790096583281411 0 50.790096583281411 36.896052134735328 0 0 0 0 64.741704617541473 -47.788735630456358 0 -47.788735630456358 -21.288142857495586 0 0 0 0 33.032412102798844 -22.208507840459788 0 -22.208507840459788 113.28626648574209 0 0 0 0 -20.69257406088775 48.272417668369599 0 48.272417668369599 88.382662200470804 0 0 0 0 -0.54562980340831047 -1.1190548432501544 0 -1.1190548432501544 0.49895480441358586 0 0 0 0 -43.293184388212467 86.979778899207304 0 86.979778899207304 213.363323827165 0 0 0 0 -18.501592392414132 -3.2783291744337788 0 -3.2783291744337788 49.220629208842837 0 0 0 0 27.076357123971775 -45.067336272166358 0 -45.067336272166358 21.869674633257091 0 0 0 0 46.77479485151423 34.856881754280039 0 34.856881754280039 47.850937366689323 0 0 0 0 3.92650451763825 46.008390428381972 0 46.008390428381972 87.978051765185228 0 0 0 0 37.976999517698587 19.592314217521036 0 19.592314217521036 11.071845857140453 0 0 0 0 48.37804653728665 52.199228549027794 0 52.199228549027794 38.6337307687063 0 0 0 0 37.990518507877823 53.032568174668995 0 53.032568174668995 39.509625463906559 0 0 0 0 16.025990396007046 42.31136399850584 0 42.31136399850584 46.671278797242849 0 0 0 0 9.1000950871848545 5.646322079901438 0 5.646322079901438 198.61198932205662 0 0 0 0 69.856738375051464 69.377621601877763 0 69.377621601877763 87.08228663088812 0 0 0 0 6.2258083798219541 0.56655542804046632 0 0.56655542804046632 10.888639202221214 0 0 0 0 33.668031689858708 14.683276988327634 0 14.683276988327634 99.352083247737028 0 0 0 0 -16.773884302509593 3.0914696910109498 0 3.0914696910109498 42.404602356970429 0 0 0 0 94.156445975936094 12.564268082667695 0 12.564268082667695 31.380398546756624 0 0 0 0 -2.0488147861766102 2.7254940865009019 0 2.7254940865009019 10.933556415566173 0 0 0 0 18.598175721357848 40.333240293568451 0 40.333240293568451 -9.1346977167268051 0 0 0 0 109.70665323731782 22.557684768822583 0 22.557684768822583 32.621700024363236 0 0 0 0 113.1520853746074 22.010761658817501 0 22.010761658817501 -1.6641266812803224 0 0 0 0 72.591416766333168 -16.421932452220062 0 -16.421932452220062 47.344255200090629 0 0 0 0 94.557543287953195 8.3483536814565014 0 8.3483536814565014 29.006635296856984 0 0 0 0 110.95120429943972 15.518514010385843 0 15.518514010385843 11.064377819027868 0 0 0 0 21.594229694150727 -147.65684483206132 0 -147.65684483206132 59.91311514521658 0 0 0 0 126.43204056150921 -0.42903502818444395 0 -0.42903502818444395 22.487937805897673 0 0 0 0 59.889370020678143 23.734485872771984 0 23.734485872771984 59.173952243108943 0 0 0 0 81.508960621461483 -3.0337377752039174 0 -3.0337377752039174 6.1047198563901475 0 0 0 0 44.522100821006461 -41.628254402323364 0 -41.628254402323364 -6.3088441448635422 0 0 0 0 82.970068514408922 17.398791856536263 0 17.398791856536263 0.7288100976475107 0 0 0 0 27.155905117550901 25.681769316321152 0 25.681769316321152 55.777312332835209 0 0 0 0 264.84398732722411 -3.7410091620731691 0 -3.7410091620731691 62.825023063945991 0 0 0 0 24.861673850088664 32.269819694429316 0 32.269819694429316 279.84855034553402 0 0 0 0 111.95954048304293 194.55974813909779 0 194.55974813909779 238.93072543000653 0 0 0 0 10.122186295528081 66.379656929333578 0 66.379656929333578 91.600952403510746 0 0 0 0 1.0349188779694032 73.218345801746182 0 73.218345801746182 95.680680830856545 0 0 0 0 -16.642635307186765 65.578240058566735 0 65.578240058566735 95.122472131377435 0 0 0 0 8.0195591863875961 69.136374132882338 0 69.136374132882338 82.008441616977507 0 0 0 0 0.19097030528496362 57.689789428823133 0 57.689789428823133 70.470103429848677 0 0 0 0 98.223086504116509 91.422183911556203 0 91.422183911556203 39.977334071241785 0 0 0 0 8.8663741395737361 76.141007232452694 0 76.141007232452694 96.05921716910234 0 0 0 0 6.0461554203716332 39.965632859348261 0 39.965632859348261 -1.9084415643519606 0 0 0 0 35.582326677308743 39.834847426615852 0 39.834847426615852 -2.1318178921501385 0 0 0 0 38.585913819786583 57.851212743687938 0 57.851212743687938 -42.888316972606845 0 0 0 0 29.654336770216332 73.544351958888001 0 73.544351958888001 48.555761388139217 0 0 0 0 24.647711949385467 27.695293753034093 0 27.695293753034093 -8.2917586451512761 0 0 0 0 24.775548381516273 31.723748777632863 0 31.723748777632863 231.20532445255594 0 0 0 0 32.108912447112118 15.891823231076202 0 15.891823231076202 5.7129808346649185 0 0 0 0 58.515206997442874 26.343204401888215 0 26.343204401888215 -74.00129249546444 0 0 0 0 24.156213606642503 13.745658001643136 0 13.745658001643136 5.5281690398203196 0 0 0 0 -1.9825226156590361 -59.469017638009973 0 -59.469017638009973 320.33388599942919 0 0 0 0 67.94082021936083 19.240069038769434 0 19.240069038769434 -21.135590663481707 0 0 0 0 17.169063053496757 7.2092714338941732 0 7.2092714338941732 -23.882651877640455 0 0 0 0 28.559990265132001 -18.695406407274277 0 -18.695406407274277 -10.641548499083001 0 0 0 0 21.159336370397796 -7.224731338017591 0 -7.224731338017591 -20.688268660684116 0 0 0 0 15.357322684760064 10.263599525215369 0 10.263599525215369 4.6638536469561345 0 0 0 0 28.738366760282588 1.7155372077904758 0 1.7155372077904758 -40.140085770763108 0 0 0 0 9.7641961329409241 -4.9241753138594504 0 -4.9241753138594504 -20.854579238970928 0 0 0 0 -118.37527133955518 -43.597348366800361 0 -43.597348366800361 1148.3817200280755 0 0 0 0 159.32262059737604 -43.529863476773244 0 -43.529863476773244 201.46593699029472 0 0 0 0 243.04197609683979 -456.66590902224561 0 -456.66590902224561 585.7058212004049 0 0 0 0 148.3726753218325 366.21156952794991 0 366.21156952794991 911.64502154778893 0 0 0 0 -91.801268129131131 48.441159198446258 0 48.441159198446258 721.43217619840289 0 0 0 0 -72.645610911116819 218.18478169941955 0 218.18478169941955 591.42597676192599 0 0 0 0 -53.377137808323823 6.036515816098472 0 6.036515816098472 581.30419449221517 0 0 0 0 -40.195262186956825 -139.37275688508635 0 -139.37275688508635 583.88131900491862 0 0 0 0 2.3060484922716569 -37.941813107348935 0 -37.941813107348935 377.65266540079028 0 0 0 0 -58.18844926022939 82.008918783831177 0 82.008918783831177 427.37602621309998 0 0 0 0 -35.868232438973337 103.19995018402551 0 103.19995018402551 444.00765647133812 0 0 0 0 -88.878508912983307 170.36934692225987 0 170.36934692225987 414.08560790396587 0 0 0 0 -93.683822454266192 72.242270789764007 0 72.242270789764007 461.41963430770556 0 0 0 0 -88.249809276441738 160.17779928586606 0 160.17779928586606 560.36967315685251 0 0 0 0 -69.704683122705319 196.34157314900585 0 196.34157314900585 470.8046674158104 0 0 0 0 -99.513679760933428 216.91029901683305 0 216.91029901683305 471.54882340659969 0 0 0 0 -37.308069171440366 223.94799105153652 0 223.94799105153652 410.13014553142557 0 0 0 0 -42.221647826986555 193.07836118601335 0 193.07836118601335 407.15621960013232 0 0 0 0 -75.250298979273794 273.42294544417018 0 273.42294544417018 345.69052479282254 0 0 0 0 -159.3853591709576 164.72664544812869 0 164.72664544812869 320.70589097521315 0 0 0 0 -54.084921020788897 255.73836624712931 0 255.73836624712931 335.26135992916625 0 0 0 0 -60.872240400043665 189.03903004201857 0 189.03903004201857 406.88319121786481 0 0 0 0 -14.953932975531643 128.76540334129822 0 128.76540334129822 212.68446580543423 0 0 0 0 67.393936566756565 194.290594614984 0 194.290594614984 332.98250339695369 0 0 0 0 102.98020299745986 194.62191428327787 0 194.62191428327787 208.96167897172472 0 0 0 0 37.778420607695807 14.902082938970125 0 14.902082938970125 74.628961355847423 0 0 0 0 192.64978463440457 221.03185655436391 0 221.03185655436391 322.47837036603596 0 0 0 0 -32.188253821049329 155.52502329494382 0 155.52502329494382 666.27744278396858 0 0 0 0 49.142283296789174 333.20571083176401 0 333.20571083176401 527.39008629931777 0 0 0 0 336.16384938843248 145.24947977884949 0 145.24947977884949 107.08840838809556 0 0 0 0 227.09241885588153 -157.56807133073016 0 -157.56807133073016 25.087343570412486 0 0 0 0 30.176849821411224 123.80959487253676 0 123.80959487253676 305.01748011752352 0 0 0 0 89.359590403458697 167.21364643232664 0 167.21364643232664 297.8735063490094 0 0 0 0 351.82800154181723 49.637242888107721 0 49.637242888107721 8.6184265662000143 0 0 0 0 -0.0085646847396354531 -1.2423502830206274 0 -1.2423502830206274 3.051499359241916 0 0 0 0 93.148465276119168 54.630757911454566 0 54.630757911454566 355.33321106094081 0 0 0 0 324.82723291323146 38.205126532819122 0 38.205126532819122 256.66841064521577 0 0 0 0 21.192017150361607 139.05801617572433 0 139.05801617572433 330.90254353111231 0 0 0 0 72.949589158542949 143.00852299577218 0 143.00852299577218 292.45068721893767 0 0 0 0 102.18373562760644 94.18554213445168 0 94.18554213445168 89.580157646518273 0 0 0 0 21.761254609004027 105.75843884834103 0 105.75843884834103 272.18810344654776 0 0 0 0 31.183004395284115 120.88431058265996 0 120.88431058265996 268.44887030837344 0 0 0 0 -28.780522568793685 96.419617239551371 0 96.419617239551371 313.28135454712174 0 0 0 0 24.201442822886747 159.40360776647867 0 159.40360776647867 370.75305775439483 0 0 0 0 -32.490486986579072 173.45012866823527 0 173.45012866823527 368.65771671729453 0 0 0 0 43.207297730834398 209.34709820584249 0 209.34709820584249 372.74160647921235 0 0 0 0 85.906264336796994 280.61113790499803 0 280.61113790499803 327.34276819428487 0 0 0 0 -32.527558167214693 245.9979018021013 0 245.9979018021013 355.65899706074561 0 0 0 0 125.81231914056843 216.73563062911126 0 216.73563062911126 284.28123059602422 0 0 0 0 81.241227133289613 156.96280308214773 0 156.96280308214773 335.36899674020242 0 0 0 0 146.08382072710447 195.96584035169508 0 195.96584035169508 286.3738589745335 0 0 0 0 268.26511403684799 162.42907077808195 0 162.42907077808195 186.69618961986998 0 0 0 0 191.18238194144851 131.45525875346721 0 131.45525875346721 211.73962218891756 0 0 0 0 209.71245295179051 284.15438827986873 0 284.15438827986873 312.33203591160418 0 0 0 0 274.92942083815524 217.14351981069194 0 217.14351981069194 176.98077608760468 0 0 0 0 287.68578512630313 278.9383232429368 0 278.9383232429368 269.2067197789147 0 0 0 0 226.56566918675571 193.48097911354125 0 193.48097911354125 170.22510884500298 0 0 0 0 295.8784415379555 317.28770615102621 0 317.28770615102621 663.29305876325816 0 0 0 0 305.14038721685165 300.12273825099692 0 300.12273825099692 540.15960617401288 0 0 0 0 423.43634454442326 156.83566649409477 0 156.83566649409477 589.96798668258998 0 0 0 0 347.58492414839839 241.72920195668485 0 241.72920195668485 277.01010499147378 0 0 0 0 235.26212969645076 321.68051703029414 0 321.68051703029414 447.4869322231898 0 0 0 0 279.84281751957087 233.92235898513172 0 233.92235898513172 449.81952651905885 0 0 0 0 132.9378964986181 221.21046120911342 0 221.21046120911342 623.37922726044781 0 0 0 0 30.803667791557018 198.39450882320671 0 198.39450882320671 437.45107513902258 0 0 0 0 133.05850535425452 249.25348872074392 0 249.25348872074392 456.64896735137881 0 0 0 0 133.045861708134 318.11877480579642 0 318.11877480579642 371.46021147594729 0 0 0 0 193.09382909684382 247.04006942239357 0 247.04006942239357 321.26564025384869 0 0 0 0 48.863427854128531 239.47535893352324 0 239.47535893352324 334.38582760822828 0 0 0 0 -41.025516171736854 296.12720636479571 0 296.12720636479571 328.76525719012716 0 0 0 0 -77.460820956501266 218.80119980354357 0 218.80119980354357 344.80048154124961 0 0 0 0 29.802954554328352 173.04221431639405 0 173.04221431639405 319.83369704711367 0 0 0 0 -33.11508811504973 29.352858498692513 0 29.352858498692513 354.91556721089 0 0 0 0 -69.702887461693535 -13.435689310550515 0 -13.435689310550515 305.44284678714757 0 0 0 0 -29.585201123728211 78.030202771266431 0 78.030202771266431 619.94724964989291 0 0 0 0 -121.52534641562488 -111.74222330625344 0 -111.74222330625344 561.56628006577375 0 0 0 0 -141.48161453805506 -150.51667202445879 0 -150.51667202445879 518.20819221071724 0 0 0 0 -287.126493269614 -261.55449273703562 0 -261.55449273703562 593.68550269774278 0 0 0 0 -133.43776552935981 -73.993132193384554 0 -73.993132193384554 677.67200960771879 0 0 0 0 -138.78127698715434 -172.07477476133499 0 -172.07477476133499 623.75477835735364 0 0 0 0 -22.402028085374695 -53.330329353186244 0 -53.330329353186244 557.48504778144707 0 0 0 0 55.291563651446268 -91.802778565805056 0 -91.802778565805056 691.93935638968833 0 0 0 0 12.842169074263893 33.451550426907488 0 33.451550426907488 749.05676751492138 0 0 0 0 50.798862422670936 64.133027498297452 0 64.133027498297452 528.13966055837227 0 0 0 0 97.331945206438377 170.0788795302833 0 170.0788795302833 769.26144342740008 0 0 0 0 245.90252366594996 188.53488966909936 0 188.53488966909936 595.49044294682244 0 0 0 0 237.75438952135335 127.3164540952539 0 127.3164540952539 805.62850996258203 0 0 0 0 236.96826253641757 -91.253732229757588 0 -91.253732229757588 1171.6720610062039 0 0 0 0 219.71683068686525 25.833465127376257 0 25.833465127376257 752.81477623562387 0 0 0 0 125.65703581224989 -25.119638184201904 0 -25.119638184201904 753.8327144083587 0 0 0 0 97.624522067408179 1.9973264535146882 0 1.9973264535146882 899.77461844036588 0 0 0 0 376.83816430636034 -107.56822800582813 0 -107.56822800582813 1080.6796445139335 0 0 0 0 436.53921377987081 -367.87256679054553 0 -367.87256679054553 2097.6031492282928 0 0 0 0 407.31723755137682 214.65324221651827 0 214.65324221651827 848.73832592865074 0 0 0 0 444.964868657431 -59.167570155055728 0 -59.167570155055728 1148.836912820072 0 0 0 0 -151.5880046610946 31.620301328584901 0 31.620301328584901 4.4967541581572732 0 0 0 0 -159.04371621484643 12.644752528860408 0 12.644752528860408 128.62248642536724 0 0 0 0 -21.759840664168223 39.173987269394274 0 39.173987269394274 113.97369314479147 0 0 0 0 -12.235611361562 5.0290104455857829 0 5.0290104455857829 2.1369018090332759 0 0 0 0 -0.83177370171038234 -0.79362824136744337 0 -0.79362824136744337 1.4848865694450382 0 0 0 0 8.765682346783251 50.062476645165589 0 50.062476645165589 59.316974031389691 0 0 0 0 -20.543609937473775 12.595203240420233 0 12.595203240420233 44.983550886026933 0 0 0 0 95.917797206297109 52.494540989013331 0 52.494540989013331 42.311917356564663 0 0 0 0 -113.58113430517551 33.07991409306851 0 33.07991409306851 120.18919809882937 0 0 0 0 -118.6572954724505 207.00931240841203 0 207.00931240841203 196.80884418352798 0 0 0 0 -124.91665451013978 268.96207158519246 0 268.96207158519246 349.64750399699733 0 0 0 0 -53.98988444938368 211.83379699108627 0 211.83379699108627 268.12056635770568 0 0 0 0 -119.21520990775571 113.63254662395047 0 113.63254662395047 189.40598083502846 0 0 0 0 -235.15324658892132 195.98126712527301 0 195.98126712527301 293.29931604572266 0 0 0 0 -170.17670024402287 38.393974481841724 0 38.393974481841724 101.25673715957964 0 0 0 0 -471.98383672673503 -197.85559196668237 0 -197.85559196668237 0.92341732943896204 0 0 0 0 -370.21961383174016 185.22070955458457 0 185.22070955458457 215.40621668571839 0 0 0 0 -77.30589771069026 -8.9683056027497514 0 -8.9683056027497514 -132.80044571205508 0 0 0 0 -114.38853232153542 -8.7911684867576696 0 -8.7911684867576696 354.04900191072375 0 0 0 0 -124.8506119136764 -146.63090855114569 0 -146.63090855114569 231.25310687690944 0 0 0 0 -202.06920546858692 -295.20205135934884 0 -295.20205135934884 470.77090827570646 0 0 0 0 -252.93532170156823 -224.64582872569372 0 -224.64582872569372 619.91547266782436 0 0 0 0 -95.689321281504817 -171.77408721147367 0 -171.77408721147367 523.379023936679 0 0 0 0 -379.8387852845583 128.56204537933991 0 128.56204537933991 336.61373524127703 0 0 0 0 -257.51862445342522 -352.20835818920023 0 -352.20835818920023 254.0881683846892 0 0 0 0 -15.391565781215832 -121.93438108627015 0 -121.93438108627015 497.77855948493379 0 0 0 0 -37.271774835026008 40.382499229621317 0 40.382499229621317 188.19058444800248 0 0 0 0 -3.7095595363483653 1.6926359830629423 0 1.6926359830629423 -0.88479737131748948 0 0 0 0 -19.133946551127337 137.24209364617491 0 137.24209364617491 59.266854637040524 0 0 0 0 -4.7050999083153329 85.203375821768532 0 85.203375821768532 170.88035705090442 0 0 0 0 -45.178341726270446 36.636056726194511 0 36.636056726194511 114.02359026668637 0 0 0 0 -73.615434663772703 45.444981651229682 0 45.444981651229682 185.24672144791111 0 0 0 0 -83.346965813286261 80.447976654719241 0 80.447976654719241 267.5334487476066 0 0 0 0 -138.20269675137934 -7.0092134565493325 0 -7.0092134565493325 166.38604029116686 0 0 0 0 150.78689848765225 -405.70692729644179 0 -405.70692729644179 141.00357977275235 0 0 0 0 -33.176587801459746 -70.420676472459775 0 -70.420676472459775 -21.214305536199006 0 0 0 0 -304.50872087901189 -330.6917139549696 0 -330.6917139549696 180.85681756305166 0 0 0 0 -5.078507785759939 -125.20643107269461 0 -125.20643107269461 33.651653816271391 0 0 0 0 -74.885458807090799 -139.89746573708544 0 -139.89746573708544 7.7815403013883042 0 0 0 0 -6.8733297518750529 -29.637071958062307 0 -29.637071958062307 179.94963671624686 0 0 0 0 -122.64708858945141 -3.4816639603595831 0 -3.4816639603595831 146.04369059878809 0 0 0 0 407.18426298405302 157.45547098399493 0 157.45547098399493 312.7345056167087 0 0 0 0 292.6647597513429 315.49161041830939 0 315.49161041830939 451.0562263407146 0 0 0 0 413.3139913034729 -150.6003945527882 0 -150.6003945527882 -3.3826589079776568 0 0 0 0 215.36103374379809 272.5843276657597 0 272.5843276657597 704.31807226414094 0 0 0 0 0.555519918719515 -13.72496135361517 0 -13.72496135361517 1.1869361169420856 0 0 0 0 -18.660045873860771 -17.191697429060468 0 -17.191697429060468 143.30077943400266 0 0 0 0 -3.2336487131518741 1.1561286792314149 0 1.1561286792314149 24.94937952457208 0 0 0 0 467.82684325827222 65.727230946935379 0 65.727230946935379 55.835188434743941 0 0 0 0 116.16819415705413 59.974885958104096 0 59.974885958104096 142.85452506082038 0 0 0 0 130.26403632767233 82.038856043246597 0 82.038856043246597 171.81139018805334 0 0 0 0 13.177494768573524 -245.50413356808713 0 -245.50413356808713 -138.59732011438609 0 0 0 0 -222.8400199142834 -312.67595690394592 0 -312.67595690394592 -35.20642230908561 0 0 0 0 274.40029261285963 -142.21075489595387 0 -142.21075489595387 -101.55209225758881 0 0 0 0 -530.51038326754133 -532.02626399148357 0 -532.02626399148357 117.73481274456572 0 0 0 0 30.269038067570477 50.822571318052269 0 50.822571318052269 206.36398501240546 0 0 0 0 -16.424492825690002 -3.1873138104803678 0 -3.1873138104803678 149.96846014165595 0 0 0 0 -38.306057234092805 11.170453263423042 0 11.170453263423042 118.21651615154406 0 0 0 0 -3.8492005975294887 -24.012241425185493 0 -24.012241425185493 31.201076982983068 0 0 0 0 -18.625474449910204 1.1888004329491366 0 1.1888004329491366 33.000643773394046 0 0 0 0 1.1699527868656494 -15.068218261844837 0 -15.068218261844837 6.2880662146697546 0 0 0 0 63.763447486737277 -13.715360554917424 0 -13.715360554917424 -15.350075133486826 0 0 0 0 138.74560397951427 -39.552819952332356 0 -39.552819952332356 -46.939732729937532 0 0 0 0 207.24545423160089 74.230254347232403 0 74.230254347232403 33.884292753333284 0 0 0 0 0.42697902709697644 -1.7711059174559693 0 -1.7711059174559693 5.6303304743698988 0 0 0 0 59.254293883765058 20.627646211156389 0 20.627646211156389 -5.5493598285756889 0 0 0 0 27.652915171749555 -45.166211943942471 0 -45.166211943942471 -26.053517265565461 0 0 0 0 -2.505328934635827 -11.612490454895749 0 -11.612490454895749 17.42516576178997 0 0 0 0 -110.09261605597749 -56.478539241335966 0 -56.478539241335966 89.278579212041222 0 0 0 0 178.02483298031439 -79.169175185690619 0 -79.169175185690619 -10.567002256371779 0 0 0 0 253.30038087257708 162.45993495371658 0 162.45993495371658 89.9404214081178 0 0 0 0 305.60325534494405 -87.763824548640514 0 -87.763824548640514 936.73127438910888 0 0 0 0 118.03396534498279 312.7021862511865 0 312.7021862511865 382.21161674834002 0 0 0 0 143.73170909230794 361.38446791971728 0 361.38446791971728 637.05454040377663 0 0 0 0 969.31698546348707 -365.88011086165716 0 -365.88011086165716 38.365533878370115 0 0 0 0 0.48104788242614926 0.37649140101436274 0 0.37649140101436274 7.3197854045452289 0 0 0 0 117.19338933003337 -154.59593654356922 0 -154.59593654356922 217.87603692145785 0 0 0 0 0.63375412821182309 -3.1367747634528449 0 -3.1367747634528449 17.957381316195978 0 0 0 0 339.27192161284256 -197.72406231338027 0 -197.72406231338027 -6.1056286460370757 0 0 0 0 300.96094858372089 -70.976935471313482 0 -70.976935471313482 28.256047980490621 0 0 0 0 -392.42234091737555 -16.097307784755685 0 -16.097307784755685 286.20668570036651 0 0 0 0 -19.473294955794692 -0.087981383873152019 0 -0.087981383873152019 142.85665262056312 0 0 0 0 -862.60446719974243 -470.68300392178571 0 -470.68300392178571 205.56823709712626 0 0 0 0 -435.51409986075123 93.818207795800845 0 93.818207795800845 216.26922000028571 0 0 0 0 384.31684081819003 -531.95183831153554 0 -531.95183831153554 543.33855430569383 0 0 0 0 -211.63021305335678 -155.07639183790161 0 -155.07639183790161 471.38448714504193 0 0 0 0 -283.14597950390089 269.57004910603428 0 269.57004910603428 540.54750794685333 0 0 0 0 -74.941935439058398 89.63964582090739 0 89.63964582090739 896.29840566372877 0 0 0 0 -440.32557703522252 67.519329532393385 0 67.519329532393385 155.29234089859528 0 0 0 0 -476.04027446566852 99.28291805570916 0 99.28291805570916 440.40439226246963 0 0 0 0 -428.23496511964004 366.50789988976248 0 366.50789988976248 378.01862720229838 0 0 0 0 -399.47293849877315 301.43044260575698 0 301.43044260575698 62.104161420682431 0 0 0 0 -188.73028957371207 190.75943418432871 0 190.75943418432871 262.26120809503027 0 0 0 0 -55.135458218979693 27.727703700176789 0 27.727703700176789 616.92203949541727 0 0 0 0 20.085501370811471 403.803934589243 0 403.803934589243 477.54698974355415 0 0 0 0 256.07456650817312 67.813250862900532 0 67.813250862900532 544.13858935174358 0 0 0 0 814.70950267758963 209.55960282120941 0 209.55960282120941 463.89496650638466 0 0 0 0 3.94559829862078 -1.4461158155753111 0 -1.4461158155753111 -0.63679062749915971 0 0 0 0 556.6411624038501 619.09563560237439 0 619.09563560237439 692.12419983093059 0 0 0 0 1.5227093922027004 3.9531637306770691 0 3.9531637306770691 5.751464602752236 0 0 0 0 815.35350253386059 272.82035507738328 0 272.82035507738328 1104.9334737514582 0 0 0 0 572.15909516243482 10.013648657066369 0 10.013648657066369 827.04606780454924 0 0 0 0 467.63406148045487 -113.88106872523713 0 -113.88106872523713 1035.2758122921514 0 0 0 0 756.89362351258387 -229.06547467543714 0 -229.06547467543714 908.73075345255529 0 0 0 0 826.54307216984853 -132.96246901755148 0 -132.96246901755148 729.77983511531784 0 0 0 0 430.00459093086101 285.45601050489495 0 285.45601050489495 620.62169237512717 0 0 0 0 -44.029656183786528 18.565507887279637 0 18.565507887279637 159.44160738807841 0 0 0 0 -32.166355333849872 32.673985519139023 0 32.673985519139023 151.67841550623598 0 0 0 0 -33.517753781570718 40.666408006169149 0 40.666408006169149 191.30431201673309 0 0 0 0 -28.841510451814429 37.492983076237579 0 37.492983076237579 164.4679390777037 0 0 0 0 -29.344071275502301 22.310282919999736 0 22.310282919999736 162.32750103941362 0 0 0 0 -39.988229826676388 22.601019082529092 0 22.601019082529092 174.4497215133415 0 0 0 0 -33.616245576520669 28.531999827348045 0 28.531999827348045 157.13781374156315 0 0 0 0 -43.913330974872054 12.035970198633549 0 12.035970198633549 146.59362156304996 0 0 0 0 -37.407430318567322 17.478259457178865 0 17.478259457178865 116.88657065616644 0 0 0 0 -57.652922791637593 27.645524070110696 0 27.645524070110696 161.42531684089772 0 0 0 0 -166.94582322912436 -29.447796675465725 0 -29.447796675465725 176.46685536655423 0 0 0 0 -70.334524245492958 -28.248696703153428 0 -28.248696703153428 83.632971111182997 0 0 0 0 -65.28085448039883 -3.480870060469897 0 -3.480870060469897 145.88210162532232 0 0 0 0 -31.258756213131221 16.590094798914834 0 16.590094798914834 115.44643308139527 0 0 0 0 -279.56814175673935 144.04001396527747 0 144.04001396527747 97.284777486202074 0 0 0 0 -282.01877174133551 172.09418706637007 0 172.09418706637007 204.32915991242044 0 0 0 0 -89.907810223098295 10.600698498898055 0 10.600698498898055 150.68824253070852 0 0 0 0 -22.017880772439337 6.8619842855173916 0 6.8619842855173916 130.20615895425692 0 0 0 0 -892.60858435857881 -72.784863721703005 0 -72.784863721703005 406.75683039336218 0 0 0 0 -72.78231281147464 32.356898312236808 0 32.356898312236808 99.770628130388104 0 0 0 0 -68.488993901583626 14.198447808993478 0 14.198447808993478 149.88963666995187 0 0 0 0 -27.675713693616217 31.366123394929673 0 31.366123394929673 140.04351914712242 0 0 0 0 1.7070050547313258 38.284331924593062 0 38.284331924593062 152.88853683482648 0 0 0 0 -72.412120353958016 6.9616314145569049 0 6.9616314145569049 146.82313476331183 0 0 0 0 61.482550675408675 41.579475711557279 0 41.579475711557279 157.89321548047064 0 0 0 0 -26.619899290501962 27.843201281728852 0 27.843201281728852 170.39766614691143 0 0 0 0 -2.6458994302529391 83.561008718121229 0 83.561008718121229 197.54187297704902 0 0 0 0 -43.570544711921485 69.531399815063196 0 69.531399815063196 205.05647724419759 0 0 0 0 -103.16549804398892 84.812286502039569 0 84.812286502039569 246.97798505502442 0 0 0 0 -41.344418695326226 125.68973731303049 0 125.68973731303049 264.56438508854808 0 0 0 0 -50.578091510295849 56.772826835757769 0 56.772826835757769 254.54470367162867 0 0 0 0 -46.108482222548375 44.698816035217533 0 44.698816035217533 188.44823612127584 0 0 0 0 -41.224226234234834 58.482082423737666 0 58.482082423737666 182.7385526857779 0 0 0 0 -38.254108153057814 40.578892595482102 0 40.578892595482102 227.59042943691929 0 0 0 0 -37.830287100020541 29.661778341340323 0 29.661778341340323 199.89775316595478 0 0 0 0 -53.179596962023084 14.654187854530392 0 14.654187854530392 313.91907818103573 0 0 0 0 -374.52956753360542 86.599907341293147 0 86.599907341293147 329.9722392435142 0 0 0 0 -270.7583262610392 46.318615194519225 0 46.318615194519225 325.76373051632481 0 0 0 0 -253.79448343147601 66.579685474733196 0 66.579685474733196 310.11839897653954 0 0 0 0 -104.85596839870635 137.8990372854787 0 137.8990372854787 271.58129952796662 0 0 0 0 -103.31962371069136 137.58993658825693 0 137.58993658825693 262.59130704870404 0 0 0 0 42.2828821835692 201.32504397089724 0 201.32504397089724 284.85615491026419 0 0 0 0 -134.38342795812127 183.92564760857931 0 183.92564760857931 394.28480710302028 0 0 0 0 -279.3331747008981 23.361486217347192 0 23.361486217347192 413.82973661053347 0 0 0 0 -300.93197438104039 -81.434362371289353 0 -81.434362371289353 246.71044194927663 0 0 0 0 -246.28360072034343 90.990930006589224 0 90.990930006589224 157.5801403784626 0 0 0 0 86.547483019694937 90.699801580046369 0 90.699801580046369 226.89215247961965 0 0 0 0 8.4199549691140305 103.76034666463966 0 103.76034666463966 227.04390521009009 0 0 0 0 53.677791464260736 130.43142133995707 0 130.43142133995707 310.84331776404724 0 0 0 0 -57.985983928695987 195.55775164573242 0 195.55775164573242 282.87254204404098 0 0 0 0 169.75878801997351 349.49401191434299 0 349.49401191434299 296.4928823194532 0 0 0 0 -246.42938831859664 386.50050073318243 0 386.50050073318243 150.68671807201281 0 0 0 0 -1.4527933415221632 -1.3594772325729156 0 -1.3594772325729156 4.4875401831698554 0 0 0 0 -67.596368209280172 -30.858610939029859 0 -30.858610939029859 -28.118187207787741 0 0 0 0 162.97577495885071 -13.844883852470048 0 -13.844883852470048 343.92946258779182 0 0 0 0 -11.170944400127155 117.16628042998309 0 117.16628042998309 311.01330685683206 0 0 0 0 -211.73404329704181 5.9266844691246661 0 5.9266844691246661 -45.998056033288776 0 0 0 0 -582.8877561176954 167.56066267614574 0 167.56066267614574 149.28872061124821 0 0 0 0 92.807195677753384 -137.30669465969004 0 -137.30669465969004 132.65605331275947 0 0 0 0 -203.31588651769698 34.777517300440195 0 34.777517300440195 45.16098485666771 0 0 0 0 -233.1514243514298 -25.736583357081145 0 -25.736583357081145 53.655956474890104 0 0 0 0 -244.60009089728828 -54.50290759885138 0 -54.50290759885138 -17.84709568848325 0 0 0 0 -247.53965908954979 2.4714933094996923 0 2.4714933094996923 29.669891185491906 0 0 0 0 -98.601214156302774 -40.100286566853356 0 -40.100286566853356 1.5980877089145906 0 0 0 0 -2.5596110552124922 -2.0731426131480983 0 -2.0731426131480983 9.0658278316566232 0 0 0 0 -235.40498049182861 0.45866283016403031 0 0.45866283016403031 29.920222115903414 0 0 0 0 173.40260092989411 -111.56276417532308 0 -111.56276417532308 122.76979689297377 0 0 0 0 -481.44637734881803 45.768595024241677 0 45.768595024241677 175.08202415753658 0 0 0 0 -124.70546270020981 -163.85646957812014 0 -163.85646957812014 90.360392485464672 0 0 0 0 -58.203291475737842 -36.295212434518817 0 -36.295212434518817 -2.6161558030194101 0 0 0 0 98.970583709848142 -197.08827642054939 0 -197.08827642054939 140.4876222735129 0 0 0 0 -68.570502714673637 -108.04180495046691 0 -108.04180495046691 218.45467972719143 0 0 0 0 -11.576115512609704 -193.55346718298279 0 -193.55346718298279 179.49781921010208 0 0 0 0 68.931247948209602 -167.60511868965091 0 -167.60511868965091 167.73964000048863 0 0 0 0 -16.680463896613048 -204.72578825277651 0 -204.72578825277651 164.908219253889 0 0 0 0 -27.48015035853939 -128.43143335750318 0 -128.43143335750318 94.989335726094396 0 0 0 0 -12.315546098142477 -168.51847220402516 0 -168.51847220402516 225.64070093391126 0 0 0 0 -1.5109041353020984 -174.62392477912505 0 -174.62392477912505 179.12126858418549 0 0 0 0 -285.50831186729147 -13.955609247103951 0 -13.955609247103951 28.248684819027403 0 0 0 0 -236.53210823896515 -75.078315724406139 0 -75.078315724406139 145.86335820611839 0 0 0 0 -78.545064643239527 -75.392745171610386 0 -75.392745171610386 92.763479774035204 0 0 0 0 -2.9249339489265154 -2.8738605307527867 0 -2.8738605307527867 9.0658517888143457 0 0 0 0 75.631167149781959 -188.06435940306108 0 -188.06435940306108 155.70604450658797 0 0 0 0 -2.034104273865498 -2.5717205382547963 0 -2.5717205382547963 4.7496524106842433 0 0 0 0 -469.39130812766439 118.24456308374961 0 118.24456308374961 181.01927992805935 0 0 0 0 192.23984578445629 -373.96954351549937 0 -373.96954351549937 384.57250548579032 0 0 0 0 -176.03032199788504 -114.61410931983458 0 -114.61410931983458 546.99136424850167 0 0 0 0 -13.212323131825997 -224.54769044061641 0 -224.54769044061641 379.10290371202791 0 0 0 0 -63.94397381792578 -72.730216584682609 0 -72.730216584682609 359.15998224139361 0 0 0 0 -68.520902522453724 -52.044844947717394 0 -52.044844947717394 273.69442766778593 0 0 0 0 -60.75910049260699 -162.24699286262648 0 -162.24699286262648 394.38485104096117 0 0 0 0 -61.153867812488556 -146.44556664418474 0 -146.44556664418474 215.75669033002953 0 0 0 0 -25.753624531961236 -87.089162492597666 0 -87.089162492597666 172.4730988194317 0 0 0 0 -23.149003304510003 -107.09995402536694 0 -107.09995402536694 255.84883741112458 0 0 0 0 -43.488383727379983 -38.453355680414461 0 -38.453355680414461 191.4433324586048 0 0 0 0 -42.800263892063754 -46.968693915793665 0 -46.968693915793665 252.83575920717703 0 0 0 0 -13.43018352861418 -46.904484933290405 0 -46.904484933290405 159.2395523561263 0 0 0 0 -21.445616843164959 21.10424173885319 0 21.10424173885319 40.746219194429209 0 0 0 0 -66.000121518627907 3.2129478596530134 0 3.2129478596530134 80.077152189125627 0 0 0 0 -77.37369315533283 66.199583715213862 0 66.199583715213862 26.63919188667569 0 0 0 0 -10.606512833474255 22.113709621889029 0 22.113709621889029 93.490161345844172 0 0 0 0 -50.825134335143048 -241.49194264586185 0 -241.49194264586185 -512.38105885621917 0 0 0 0 -14.589434390854819 8.7951922798756641 0 8.7951922798756641 130.60661555341539 0 0 0 0 -309.54011822338111 -194.67530318301851 0 -194.67530318301851 -86.144463035368972 0 0 0 0 -7.6644316528485925 6.8827184132082193 0 6.8827184132082193 13.583255907575534 0 0 0 0 95.314433792271302 -62.716319649211982 0 -62.716319649211982 -221.48439648208114 0 0 0 0 -455.69985684377752 -410.22234761412983 0 -410.22234761412983 -318.57388549408711 0 0 0 0 -282.60413734251358 -223.96251916433539 0 -223.96251916433539 388.41628487649268 0 0 0 0 -78.849480762569328 39.399696690940573 0 39.399696690940573 18.323388211739257 0 0 0 0 -189.86207336255393 64.097701902446261 0 64.097701902446261 282.10024056816701 0 0 0 0 -30.905970426254953 27.140966820619724 0 27.140966820619724 165.71438429793125 0 0 0 0 -15.369223819728518 82.617623031042058 0 82.617623031042058 239.8668669796325 0 0 0 0 0.51545738172798217 1.7736877371083342 0 1.7736877371083342 -2.9284393633174268 0 0 0 0 5.9596855698006266 -11.615331854547549 0 -11.615331854547549 61.952530796416795 0 0 0 0 914.89240872361677 -552.10315405995971 0 -552.10315405995971 119.8353539433665 0 0 0 0 925.62450717015054 -547.93814491449302 0 -547.93814491449302 -15.889591865969123 0 0 0 0 1005.1332157798361 -259.26063817219256 0 -259.26063817219256 -341.36143582230943 0 0 0 0 0.2672998121366168 -27.451163267456042 0 -27.451163267456042 64.65911324106051 0 0 0 0 385.63879581276069 117.5100618290744 0 117.5100618290744 123.05031707457238 0 0 0 0 -0.019099377060335598 -5.441745703262324 0 -5.441745703262324 15.88792952428377 0 0 0 0 -23.181115894607956 -14.815091989506982 0 -14.815091989506982 28.464064333673377 0 0 0 0 -99.44699289196997 -44.009375058161822 0 -44.009375058161822 126.07997487565444 0 0 0 0 -12.740668779264297 -105.74636652216577 0 -105.74636652216577 132.43609437883424 0 0 0 0 137.69843805581877 -33.079842674128486 0 -33.079842674128486 98.966591589466589 0 0 0 0 248.18137088646779 -285.33651584561994 0 -285.33651584561994 169.54452347030383 0 0 0 0 50.860262447586138 72.914871419910014 0 72.914871419910014 11.966163950229202 0 0 0 0 47.852408885707064 165.04378300061853 0 165.04378300061853 102.5589748507773 0 0 0 0 -0.045805952425784113 0.66557664738344435 0 0.66557664738344435 7.608250205971018 0 0 0 0 0.57161006184651342 60.568970895118582 0 60.568970895118582 19.441283178902268 0 0 0 0 -35.924137740152673 10.429886355143935 0 10.429886355143935 -26.376221367634571 0 0 0 0 -28.423149933905457 17.380172833117502 0 17.380172833117502 34.719161698700098 0 0 0 0 -14.749087926360232 -28.820378590750579 0 -28.820378590750579 133.99094460456217 0 0 0 0 -1.078090922203625 9.6614682319978105 0 9.6614682319978105 15.533790214192351 0 0 0 0 91.226333268215569 -135.93667879512759 0 -135.93667879512759 94.920454082268407 0 0 0 0 -71.412986982526149 34.937831684208504 0 34.937831684208504 12.495524547337482 0 0 0 0 11.888686325092891 -76.754553181099709 0 -76.754553181099709 167.29534827649331 0 0 0 0 -32.837745257172912 7.1261167718489871 0 7.1261167718489871 41.58790882275872 0 0 0 0 16.920470486348677 -42.75740466646613 0 -42.75740466646613 117.17262271045274 0 0 0 0 5.1741206380202129 -76.266830359799428 0 -76.266830359799428 166.21611333512084 0 0 0 0 -0.062058441162662348 -67.202510467697863 0 -67.202510467697863 152.12521691941845 0 0 0 0 12.265098881671292 -110.78603587401051 0 -110.78603587401051 185.73574997951846 0 0 0 0 37.040071768044982 -79.484714037538652 0 -79.484714037538652 150.06275027830921 0 0 0 0 34.802033141122592 -69.341076985726716 0 -69.341076985726716 138.14849612817147 0 0 0 0 22.063748518021384 -73.539785295090496 0 -73.539785295090496 168.35147995023544 0 0 0 0 26.264006354276717 4.0917577393615829 0 4.0917577393615829 153.36955976311947 0 0 0 0 11.325104699234544 -48.761255221309511 0 -48.761255221309511 172.66350433346634 0 0 0 0 -33.946983360801823 10.592668045621394 0 10.592668045621394 64.8859846472551 0 0 0 0 -21.214142077844141 0.54084717813327643 0 0.54084717813327643 77.464419023906274 0 0 0 0 -20.157677887496092 -2.4584790419966751 0 -2.4584790419966751 103.46560143902342 0 0 0 0 3.7738082588291517 -22.001877221240655 0 -22.001877221240655 51.674485742639455 0 0 0 0 -14.283233882368542 -52.567626245924998 0 -52.567626245924998 134.99169491239081 0 0 0 0 91.248378428773378 -87.879112451184483 0 -87.879112451184483 47.291633431400669 0 0 0 0 0.9087321168808441 -31.46765335405048 0 -31.46765335405048 93.373470124555851 0 0 0 0 512.31884536684265 -379.67944653109589 0 -379.67944653109589 5.5219396553366096 0 0 0 0 -279.29757916496214 -161.85069972024871 0 -161.85069972024871 518.4774138631401 0 0 0 0 -0.8109460118578653 -8.1749362548947602 0 -8.1749362548947602 23.558034847867617 0 0 0 0 306.37430927583227 -30.781365366827231 0 -30.781365366827231 521.97623422963079 0 0 0 0 545.81412982281972 373.10560979932052 0 373.10560979932052 36.677127347735222 0 0 0 0 -288.51599938972868 -265.76093022900022 0 -265.76093022900022 555.97284825684619 0 0 0 0 124.93062700128212 248.12557801258663 0 248.12557801258663 123.2245063190494 0 0 0 0 283.99724352465034 -197.86109172220768 0 -197.86109172220768 226.84496651904192 0 0 0 0 -16.419093075367172 5.4799055017933611 0 5.4799055017933611 4.3379641244838751 0 0 0 0 -133.26009464714082 321.02972195441907 0 321.02972195441907 282.3958292483585 0 0 0 0 -181.89423291882849 26.242526448404988 0 26.242526448404988 275.40295888124001 0 0 0 0 -94.070547810564449 -111.01038190186046 0 -111.01038190186046 -94.359406788891647 0 0 0 0 -31.671718270897848 1.0952477020963407 0 1.0952477020963407 179.44200669045574 0 0 0 0 -226.80312573885749 -133.87548468451769 0 -133.87548468451769 159.02670048623895 0 0 0 0 -221.33787993750593 75.975025958340666 0 75.975025958340666 213.34182557237909 0 0 0 0 -1.8277483599964981 -14.888349363488697 0 -14.888349363488697 51.213880879568158 0 0 0 0 -49.253453564757365 352.8241322840222 0 352.8241322840222 281.66629087092588 0 0 0 0 -15.542051426150966 38.476189819440975 0 38.476189819440975 4.6769196094646368 0 0 0 0 96.611549116700189 -145.58872883419554 0 -145.58872883419554 155.82861570373797 0 0 0 0 23.284168817757745 -42.955620171649571 0 -42.955620171649571 231.50149129519286 0 0 0 0 52.460824643570959 -34.389828599663815 0 -34.389828599663815 177.19583520450965 0 0 0 0 59.634535444209178 41.717489047320669 0 41.717489047320669 296.288064202442 0 0 0 0 22.246161526283686 -20.682866014990395 0 -20.682866014990395 459.74808713316816 0 0 0 0 -104.43236436435109 231.1491937971291 0 231.1491937971291 610.95594136000727 0 0 0 0 35.59629034329555 49.561697950604866 0 49.561697950604866 219.45492975650268 0 0 0 0 174.01740130019607 231.50496333628507 0 231.50496333628507 336.48367711981336 0 0 0 0 353.5244128808481 -59.245468808892838 0 -59.245468808892838 -29.454655172332423 0 0 0 0 76.991251146191644 34.932351512841706 0 34.932351512841706 188.44079074347792 0 0 0 0 29.052084200251556 96.380752310892603 0 96.380752310892603 167.07101592813342 0 0 0 0 -55.325976949940014 6.2860700103110503 0 6.2860700103110503 186.54050320517308 0 0 0 0 123.03072820251327 72.890107294211703 0 72.890107294211703 141.13181748860734 0 0 0 0 55.952567882814037 67.719787886100676 0 67.719787886100676 189.77214246973955 0 0 0 0 79.150645638568676 85.654660762334515 0 85.654660762334515 189.25888876588397 0 0 0 0 52.274194308607548 114.55825545456628 0 114.55825545456628 153.78338530386645 0 0 0 0 15.308319980365923 56.914511904515166 0 56.914511904515166 152.61789888784824 0 0 0 0 -83.040010754539253 146.30710117008675 0 146.30710117008675 153.94201475137015 0 0 0 0 -168.47620755824755 -18.604251448794457 0 -18.604251448794457 196.17946851520901 0 0 0 0 -198.4386295283075 35.758545860820959 0 35.758545860820959 220.0026079481795 0 0 0 0 -18.099859795467097 -32.097873589327548 0 -32.097873589327548 41.211530275550444 0 0 0 0 66.826588855299633 -26.950129167409614 0 -26.950129167409614 152.78816448483849 0 0 0 0 -25.274617039186356 0.43105283926487914 0 0.43105283926487914 145.52293328269204 0 0 0 0 -58.509891097470245 15.468562443958945 0 15.468562443958945 53.322951872250997 0 0 0 0 -37.528898024918284 28.899584373978264 0 28.899584373978264 92.989023124833523 0 0 0 0 -34.932489066887022 -28.61457112968516 0 -28.61457112968516 167.09210503959827 0 0 0 0 -100.65085508336415 37.429528034193027 0 37.429528034193027 221.5865462648253 0 0 0 0 -80.644120478071272 10.124480229806977 0 10.124480229806977 189.69035953384082 0 0 0 0 -135.01713113088772 18.527954495344602 0 18.527954495344602 211.94022146752104 0 0 0 0 -115.44932753652756 47.840964906100453 0 47.840964906100453 212.66067228626707 0 0 0 0 -102.39917088441143 -3.1996900027843367 0 -3.1996900027843367 182.41601807342158 0 0 0 0 39.355878243852203 -127.07042090792788 0 -127.07042090792788 178.70159495953067 0 0 0 0 67.820603023395051 -127.82859056337293 0 -127.82859056337293 152.4052518515191 0 0 0 0 75.358326225026531 -68.579442508209866 0 -68.579442508209866 164.76632668838556 0 0 0 0 70.768568449740997 -69.508712590823052 0 -69.508712590823052 166.18531412299262 0 0 0 0 49.864194209523703 -28.010553828174125 0 -28.010553828174125 207.37528753976312 0 0 0 0 47.932825777876133 2.9979565017030154 0 2.9979565017030154 181.37134920249082 0 0 0 0 130.13930275470193 18.113055545816223 0 18.113055545816223 171.98829594130166 0 0 0 0 266.79204977588961 34.624559626980044 0 34.624559626980044 104.51626887255406 0 0 0 0 119.4622986938914 52.12109075613148 0 52.12109075613148 131.34926523933791 0 0 0 0 267.91185314219729 -84.52468975415286 0 -84.52468975415286 131.68520147435288 0 0 0 0 137.67592575223352 -58.983418618563519 0 -58.983418618563519 153.2403771282975 0 0 0 0 120.41612716873715 -78.517939047826985 0 -78.517939047826985 132.82487442111506 0 0 0 0 144.40055493243199 -120.44738047788269 0 -120.44738047788269 153.11581530863793 0 0 0 0 68.495483406190715 -165.58949718778126 0 -165.58949718778126 158.48749481541472 0 0 0 0 276.95757197283274 -183.07148266411241 0 -183.07148266411241 228.11895824814519 0 0 0 0 154.25627966684624 -116.73630268758598 0 -116.73630268758598 192.76176635261982 0 0 0 0 165.86460876366618 -130.68180548752025 0 -130.68180548752025 150.49937964140156 0 0 0 0 385.77905402498072 -41.661116386848789 0 -41.661116386848789 122.84971953999593 0 0 0 0 204.47468418641074 -26.388625703652906 0 -26.388625703652906 125.1969638419323 0 0 0 0 290.43624641640963 -13.324356337961945 0 -13.324356337961945 218.74422149708516 0 0 0 0 309.21674944943697 -196.81710414327699 0 -196.81710414327699 728.23278503193433 0 0 0 0 749.56259449133722 -136.84721883792281 0 -136.84721883792281 208.33964728490355 0 0 0 0 149.48360594477458 -87.857944459358805 0 -87.857944459358805 423.2488721738755 0 0 0 0 267.16512894807602 -35.153009759804263 0 -35.153009759804263 283.17565419341827 0 0 0 0 -5.1383072496144342 -17.8602605390615 0 -17.8602605390615 219.50318683524858 0 0 0 0 -275.21091157870069 -104.95499833061695 0 -104.95499833061695 307.31401516569895 0 0 0 0 -404.54057207207916 79.202364735178435 0 79.202364735178435 288.84251467473041 0 0 0 0 -183.39071672239243 -188.00391752320138 0 -188.00391752320138 262.18922215123894 0 0 0 0 -237.29424125414789 260.92863661711226 0 260.92863661711226 180.88650071228039 0 0 0 0 40.942202472102508 122.79509602719008 0 122.79509602719008 148.79182102278196 0 0 0 0 47.195944686969597 84.746886043832092 0 84.746886043832092 138.54413478815604 0 0 0 0 114.81026175344959 134.30794736034113 0 134.30794736034113 107.49065509631509 0 0 0 0 9.9106109059866867 194.33592682023004 0 194.33592682023004 293.09167623362373 0 0 0 0 393.33517284107074 85.443728349542653 0 85.443728349542653 72.480088532021 0 0 0 0 -1.1523867634841736 127.37248395211009 0 127.37248395211009 -2.1053002108310466 0 0 0 0 -415.04115652456494 188.34480800040546 0 188.34480800040546 883.64516915067088 0 0 0 0 580.64505792309319 338.29264055272597 0 338.29264055272597 283.52573703612507 0 0 0 0 -304.27013409832239 -3.0236752736282142 0 -3.0236752736282142 288.77539041457931 0 0 0 0 -755.34663213278941 -199.7060867328986 0 -199.7060867328986 602.08395411341917 0 0 0 0 3.2718264327075213 -23.468335165305501 0 -23.468335165305501 204.22178722091033 0 0 0 0 -76.836731847772171 -9.0857271959466743 0 -9.0857271959466743 409.92213852306304 0 0 0 0 -86.831128295465078 -57.907950760816675 0 -57.907950760816675 273.80314133581123 0 0 0 0 -148.26731057569123 50.321083497256041 0 50.321083497256041 202.92868143979285 0 0 0 0 -77.777585977865783 -70.628711430672411 0 -70.628711430672411 362.39876762373024 0 0 0 0 141.9399267756944 -213.1664811924129 0 -213.1664811924129 322.61714925862543 0 0 0 0 -18.843068369018404 -8.2730068074272367 0 -8.2730068074272367 -3.69462391662816 0 0 0 0 1052.224401256804 -96.695613054791465 0 -96.695613054791465 783.90641673727077 0 0 0 0 45.40969239275546 -303.78951076155499 0 -303.78951076155499 641.9438923215148 0 0 0 0 21.925848933907218 -65.381835454631073 0 -65.381835454631073 577.24081639031647 0 0 0 0 35.5212757993786 -127.77045262594402 0 -127.77045262594402 428.73343750124332 0 0 0 0 -97.739352908207366 73.034872597687354 0 73.034872597687354 360.61648891807999 0 0 0 0 -2.9319066871548785 -547.59188249333965 0 -547.59188249333965 901.64366843168682 0 0 0 0 165.49987774761757 -110.84710127626022 0 -110.84710127626022 430.22162068269245 0 0 0 0 8.17635431849817 449.50262607444529 0 449.50262607444529 1161.5682131279755 0 0 0 0 -215.32773001978239 -138.35430444126541 0 -138.35430444126541 665.22164478975901 0 0 0 0 -6.6265375624089131 -2.7033054373095808 0 -2.7033054373095808 1.2582388774209221 0 0 0 0 -982.48756763322854 -149.16622670283687 0 -149.16622670283687 1801.8474717937352 0 0 0 0 -972.34663336943049 -1058.1221984864969 0 -1058.1221984864969 1376.4271297714731 0 0 0 0 513.80922914231542 -676.63995140341649 0 -676.63995140341649 364.06189695284047 0 0 0 0 -1136.4837969487162 300.70556291668618 0 300.70556291668618 879.73208757070825 0 0 0 0 -1.1413975773577549 -0.63169077742517743 0 -0.63169077742517743 9.8058169853187849 0 0 0 0 -839.62755938214286 338.97791033137764 0 338.97791033137764 357.7467737813131 0 0 0 0 -84.006537951051087 -478.53557568747783 0 -478.53557568747783 475.49588313144341 0 0 0 0 -81.745362832718456 -440.4855937158718 0 -440.4855937158718 1111.2497917075671 0 0 0 0 33.475148055457794 -66.292510728286288 0 -66.292510728286288 164.53273245341552 0 0 0 0 -26.927671625280709 122.48860241915099 0 122.48860241915099 1151.6376656691164 0 0 0 0 -28.672861422715187 84.869433756187391 0 84.869433756187391 355.421245876787 0 0 0 0 8.5527010174154938 -7.0011643003370949 0 -7.0011643003370949 14.585549389154892 0 0 0 0 -1.5986355638986538 -2.3598565847722455 0 -2.3598565847722455 25.299260370276357 0 0 0 0 -569.32341334987041 -119.09609109860867 0 -119.09609109860867 31.004342705695308 0 0 0 0 -109.14076737366304 151.0463069174657 0 151.0463069174657 -189.06279370772245 0 0 0 0 -2.9815902991776433 1.3483104210362455 0 1.3483104210362455 8.3423105051091113 0 0 0 0 -363.89543486490311 -291.75033661400812 0 -291.75033661400812 -41.142427292017601 0 0 0 0 -223.84659545647384 -253.3157685085871 0 -253.3157685085871 -6.3849423229839886 0 0 0 0 -221.85892729119769 -225.80534495604661 0 -225.80534495604661 -71.765478806773899 0 0 0 0 -327.11007725136005 -91.617901140001777 0 -91.617901140001777 -49.290584839068288 0 0 0 0 -302.21478087963499 -288.37946594956793 0 -288.37946594956793 148.57727832668752 0 0 0 0 -12.929545785927889 -340.78491540468451 0 -340.78491540468451 36.314456913416507 0 0 0 0 -10.761874314766828 -237.84976147730049 0 -237.84976147730049 -25.614442025995231 0 0 0 0 389.79087171506762 -428.09643089247402 0 -428.09643089247402 -76.59610969156347 0 0 0 0 325.07661599889207 -471.39557722923564 0 -471.39557722923564 41.204478298925096 0 0 0 0 383.86119129822396 -472.79318408470135 0 -472.79318408470135 53.636397166075767 0 0 0 0 452.09595958657246 -235.39754312068544 0 -235.39754312068544 60.504925453144097 0 0 0 0 288.60980585125253 -136.07666408902151 0 -136.07666408902151 425.75979792765429 0 0 0 0 350.98636503616513 -153.34636698792019 0 -153.34636698792019 118.57253172642959 0 0 0 0 446.92638646483465 -152.46420659847354 0 -152.46420659847354 130.94483225265867 0 0 0 0 194.20274944107041 -249.1355873158027 0 -249.1355873158027 118.47683796055207 0 0 0 0 313.37796681201553 -315.14300650119549 0 -315.14300650119549 25.246034795301966 0 0 0 0 232.00335447695511 -364.40360388837871 0 -364.40360388837871 86.81323404792056 0 0 0 0 241.44656430172381 -352.50107759080129 0 -352.50107759080129 100.23737039488333 0 0 0 0 166.15601680397094 -399.19752293353667 0 -399.19752293353667 158.13425513581024 0 0 0 0 77.718486209830417 -199.15850138249516 0 -199.15850138249516 113.87543686652134 0 0 0 0 -82.717684940114395 -189.22831279811726 0 -189.22831279811726 354.54684031830402 0 0 0 0 -34.171409222387389 -23.084056885956898 0 -23.084056885956898 10.903710053629993 0 0 0 0 -232.95838596319845 -429.02422125185694 0 -429.02422125185694 198.56864018441411 0 0 0 0 554.53340429804484 -1246.4846868615714 0 -1246.4846868615714 474.91011531266849 0 0 0 0 -193.97985900666845 -778.02433085288067 0 -778.02433085288067 216.54280893900432 0 0 0 0 931.0925452704605 -436.69468669955677 0 -436.69468669955677 -244.95622483780608 0 0 0 0 8.3114973820960714 -2.7594558289719799 0 -2.7594558289719799 -0.95912505510193569 0 0 0 0 548.34648906587245 -332.54261995485285 0 -332.54261995485285 -272.95514476386597 0 0 0 0 5.9906008372690849 -194.90553639582504 0 -194.90553639582504 -167.23527908035612 0 0 0 0 59.420176704645655 -600.63348183242488 0 -600.63348183242488 -11.361387495373492 0 0 0 0 394.64863600206934 -785.84538025203437 0 -785.84538025203437 83.826947959518293 0 0 0 0 237.25845117243898 -395.47460212144506 0 -395.47460212144506 692.6156271573127 0 0 0 0 974.28360134826517 -470.06884005411166 0 -470.06884005411166 333.35686278395588 0 0 0 0 1.1944021215174914 -1.8945851982897608 0 -1.8945851982897608 8.3857724601158168 0 0 0 0 920.08470769175983 -748.6448646756362 0 -748.6448646756362 464.96543216361897 0 0 0 0 615.8788374312162 -643.87516566401609 0 -643.87516566401609 1219.4205504699057 0 0 0 0 389.53113926097967 -220.85278160922371 0 -220.85278160922371 692.12411787806195 0 0 0 0 371.46847917285868 -320.55012520716991 0 -320.55012520716991 796.069578203329 0 0 0 0 60.282245037666144 -212.3729525987801 0 -212.3729525987801 902.43799364609004 0 0 0 0 121.81608795419015 -205.09227898011886 0 -205.09227898011886 778.0288659416874 0 0 0 0 299.84335579766048 -398.34127285407158 0 -398.34127285407158 669.96236733879778 0 0 0 0 998.16290708823647 -322.76170418679612 0 -322.76170418679612 593.35351593181258 0 0 0 0 533.35828253358522 -382.400704431755 0 -382.400704431755 920.7162697911117 0 0 0 0 513.95829131210212 -285.72646261902992 0 -285.72646261902992 439.40197294219979 0 0 0 0 196.54150905147799 -223.09086543080048 0 -223.09086543080048 436.51416661673557 0 0 0 0 -27.76703359485623 -230.02307270354686 0 -230.02307270354686 492.743983090244 0 0 0 0 -217.3502221636918 -88.489465702819871 0 -88.489465702819871 603.69944187893998 0 0 0 0 -28.392640925582782 -229.6684080669711 0 -229.6684080669711 634.59251315079746 0 0 0 0 107.71319587387188 -154.2987732617039 0 -154.2987732617039 595.8358201690462 0 0 0 0 56.960335949237049 -163.60985401975495 0 -163.60985401975495 671.72910688651609 0 0 0 0 -93.542346091229774 -75.095498206559569 0 -75.095498206559569 765.67859714628139 0 0 0 0 -194.46246575999066 -154.76156131555035 0 -154.76156131555035 737.86241624680406 0 0 0 0 -36.63773442155798 -227.17205114106764 0 -227.17205114106764 695.33290919000865 0 0 0 0 -429.12182420927456 -305.63437678449554 0 -305.63437678449554 674.69438868357975 0 0 0 0 -192.26109732686621 -173.13529009822378 0 -173.13529009822378 701.92981137675815 0 0 0 0 -195.00946775371813 -156.55158388827113 0 -156.55158388827113 668.7226590376813 0 0 0 0 -614.63198252391157 -808.60589499872003 0 -808.60589499872003 293.5703957768219 0 0 0 0 -146.12643592451286 -309.41491191217574 0 -309.41491191217574 357.77687654926558 0 0 0 0 -398.05006270713056 -410.91790886813396 0 -410.91790886813396 973.87493651933619 0 0 0 0 -944.91163308294199 -178.90002321102656 0 -178.90002321102656 880.312891379348 0 0 0 0 -447.56205576902357 132.48341890000302 0 132.48341890000302 -47.895570328415488 0 0 0 0 -614.56822517826004 -32.132443368609529 0 -32.132443368609529 939.85294399030681 0 0 0 0 -337.75081534315177 -201.36464442667784 0 -201.36464442667784 700.80121965063472 0 0 0 0 -533.84954334417671 -7.4302738073238288 0 -7.4302738073238288 559.1117877363431 0 0 0 0 -330.51247808534572 -125.85141013850807 0 -125.85141013850807 511.21886137362526 0 0 0 0 -238.89582670142499 -68.394931514754717 0 -68.394931514754717 371.16543296060991 0 0 0 0 -357.89273729382148 -251.81576019263593 0 -251.81576019263593 14.191486642844211 0 0 0 0 -293.39158395523054 -123.58506681046492 0 -123.58506681046492 153.66459799853328 0 0 0 0 -44.163074326737842 -310.95424840652413 0 -310.95424840652413 8.0338749201691826 0 0 0 0 -357.74978647884564 -158.86852481381356 0 -158.86852481381356 -7.3106753898537136 0 0 0 0 4.3051277547137943 -180.46269062664214 0 -180.46269062664214 22.96104758810543 0 0 0 0 273.43406386904098 -284.31808670406463 0 -284.31808670406463 -187.47770995779865 0 0 0 0 276.74997304130193 -312.94068238333421 0 -312.94068238333421 -3.2156981590378564 0 0 0 0 210.50448734098063 -341.95183239884682 0 -341.95183239884682 94.319593556545442 0 0 0 0 268.64612527480222 -228.15797415735506 0 -228.15797415735506 25.731895407632692 0 0 0 0 249.39376342348396 -314.06380756385624 0 -314.06380756385624 255.02367217713618 0 0 0 0 237.03404466114807 -261.5458673761168 0 -261.5458673761168 81.929566686763792 0 0 0 0 -19.048566572406344 -287.14911618197948 0 -287.14911618197948 222.64098045923674 0 0 0 0 11.364670664618188 -203.98166156152001 0 -203.98166156152001 291.33677337109111 0 0 0 0 163.31043205818423 -353.65835902953404 0 -353.65835902953404 426.30867393695007 0 0 0 0 369.88056487157837 -371.77542726346655 0 -371.77542726346655 519.72972002552706 0 0 0 0 347.91932617374187 -290.58421288912359 0 -290.58421288912359 238.33269312340417 0 0 0 0 626.20513986824426 -174.84966580470791 0 -174.84966580470791 43.466188815276837 0 0 0 0 703.18584152956828 -393.95378982157854 0 -393.95378982157854 117.97579006565502 0 0 0 0 482.15849940504813 -333.37363622495468 0 -333.37363622495468 73.143048517449643 0 0 0 0 472.37174241435605 -247.06601062909613 0 -247.06601062909613 24.869141549963388 0 0 0 0 435.37533895126808 -215.54366362979636 0 -215.54366362979636 0.44474960691877641 0 0 0 0 418.70752187026665 -280.08010778225434 0 -280.08010778225434 -60.99819896533154 0 0 0 0 385.46219485120491 -270.95604299563274 0 -270.95604299563274 -17.449882780041662 0 0 0 0 404.64802526093899 -161.99394185301935 0 -161.99394185301935 300.45113472815137 0 0 0 0 552.53110594440113 -261.34893428795476 0 -261.34893428795476 -19.972913850302575 0 0 0 0 566.15821635223756 -186.53406180811089 0 -186.53406180811089 -172.66528523106535 0 0 0 0 358.29935437345921 113.38550345604017 0 113.38550345604017 -241.12444306325415 0 0 0 0 -1.71398785093277 -4.3845612539198413 0 -4.3845612539198413 20.678793539997685 0 0 0 0 560.9600692977474 -239.49219304919097 0 -239.49219304919097 -20.095452782930806 0 0 0 0 455.65101951453244 67.845998133878311 0 67.845998133878311 74.299408287581173 0 0 0 0 1189.6922851820182 -497.3023141631711 0 -497.3023141631711 227.07996509633085 0 0 0 0 1041.2852594624571 116.96285263768641 0 116.96285263768641 -22.591095264942851 0 0 0 0 6.8774615254696982 -6.2687043201658526 0 -6.2687043201658526 25.35075440824221 0 0 0 0 1.3690168756900221 -5.3308628065751691 0 -5.3308628065751691 26.57783820827899 0 0 0 0 -500.91441994588058 -145.94739929681236 0 -145.94739929681236 331.32230042439187 0 0 0 0 -418.12807766775768 159.86248234282539 0 159.86248234282539 -3.2992984575103037 0 0 0 0 -2.9235537643016674 -1.8040159030385041 0 -1.8040159030385041 23.372077600495288 0 0 0 0 627.24522210856685 -311.93174233912578 0 -311.93174233912578 25.250319349506753 0 0 0 0 -0.68853762190116896 -1.4701826850730981 0 -1.4701826850730981 4.2557600577185326 0 0 0 0 428.76735064237255 -415.60366975892975 0 -415.60366975892975 136.25042140708319 0 0 0 0 255.48657805748553 -427.97642149330932 0 -427.97642149330932 51.681484415210434 0 0 0 0 371.12094338885254 -247.71932574117818 0 -247.71932574117818 24.738026610808447 0 0 0 0 410.59825224858969 -282.07326331841887 0 -282.07326331841887 129.67934256017907 0 0 0 0 197.70946946733966 -280.03128430654033 0 -280.03128430654033 163.97584076250496 0 0 0 0 318.89069682951231 -219.82123667274209 0 -219.82123667274209 150.55884945587604 0 0 0 0 363.12901356282237 -106.43048269634164 0 -106.43048269634164 77.644988527259557 0 0 0 0 0.57171002173397412 -5.331839636104732 0 -5.331839636104732 2.9351244338429296 0 0 0 0 -291.81563001113682 219.20879220485222 0 219.20879220485222 -226.32131421304075 0 0 0 0 138.75902799996038 -153.20132830093644 0 -153.20132830093644 133.0310120486356 0 0 0 0 196.81246890270813 -58.432581628665503 0 -58.432581628665503 80.661287825601903 0 0 0 0 51.590308964947326 -235.22513997981878 0 -235.22513997981878 209.51270624150493 0 0 0 0 149.74772153394588 -187.56908663293871 0 -187.56908663293871 232.0921819643263 0 0 0 0 81.798066052409467 -327.48708569432529 0 -327.48708569432529 412.0880628011073 0 0 0 0 195.81992662285847 -289.43970478605479 0 -289.43970478605479 222.00320933591138 0 0 0 0 28.242916283022168 -471.55233678541481 0 -471.55233678541481 56.713343481649645 0 0 0 0 154.51350982647818 -311.69787861814257 0 -311.69787861814257 210.53880212213699 0 0 0 0 37.111247399567446 -456.50523689084821 0 -456.50523689084821 -402.36812473053578 0 0 0 0 1.6670837082985859 -0.8349532873300376 0 -0.8349532873300376 -1.4345974994908488 0 0 0 0 -63.004807180634543 -292.39117406314654 0 -292.39117406314654 233.23792539430724 0 0 0 0 -79.354372710280586 -271.94970407115761 0 -271.94970407115761 519.05530117948365 0 0 0 0 -69.630794208969292 -127.84863207954913 0 -127.84863207954913 331.3611592950765 0 0 0 0 -23.591116548606806 15.19861589379434 0 15.19861589379434 268.98727272565884 0 0 0 0 46.078878917197471 11.173260520823533 0 11.173260520823533 83.574451032851357 0 0 0 0 -48.042234068998368 -20.089391357891145 0 -20.089391357891145 110.03185631349334 0 0 0 0 33.73791155822164 -40.563652460332378 0 -40.563652460332378 -42.910952135134721 0 0 0 0 16.128157579239996 -21.766064587463916 0 -21.766064587463916 67.927238762749766 0 0 0 0 58.761906871083738 -24.817179655543441 0 -24.817179655543441 -4.6682592357246904 0 0 0 0 56.356885129001967 -79.978289478058286 0 -79.978289478058286 112.26687206103088 0 0 0 0 59.084345854971616 -13.988646897625586 0 -13.988646897625586 35.275322203629912 0 0 0 0 84.338358290337055 -38.588217285607243 0 -38.588217285607243 44.135676943721592 0 0 0 0 69.316765983269761 -16.809195216492299 0 -16.809195216492299 32.578963209380163 0 0 0 0 44.810366583860741 -18.769127054198179 0 -18.769127054198179 42.527302232785587 0 0 0 0 4.8095700634567038 -183.5171836848167 0 -183.5171836848167 335.40167093603668 0 0 0 0 127.73997486570079 -112.98712763810909 0 -112.98712763810909 106.72031777044685 0 0 0 0 55.990689865756849 -87.321987000612353 0 -87.321987000612353 141.6410514764284 0 0 0 0 107.13013772032991 -84.968941160972463 0 -84.968941160972463 125.13025471300352 0 0 0 0 -186.61107407942836 73.9579646169841 0 73.9579646169841 12.930274701560847 0 0 0 0 -295.84742864417501 -104.9551071412576 0 -104.9551071412576 127.29220511147287 0 0 0 0 -1.5835699060313315 -2.3010885556580334 0 -2.3010885556580334 11.661158487650113 0 0 0 0 -54.445536629542403 42.644205725948268 0 42.644205725948268 -81.404110024333932 0 0 0 0 -15.917025857306726 -59.666291444107628 0 -59.666291444107628 0.65964102286670823 0 0 0 0 -1.1381531642032314 -9.7006550507430802 0 -9.7006550507430802 29.466507960343733 0 0 0 0 -147.96098530102836 19.379819773697818 0 19.379819773697818 9.6432324011839228 0 0 0 0 3.8356286255658141 -9.8167847848224881 0 -9.8167847848224881 21.573015291992618 0 0 0 0 -11.894408187405361 -32.658075265420848 0 -32.658075265420848 13.005726208590204 0 0 0 0 -425.48574523940624 -362.24568643583189 0 -362.24568643583189 858.87422448850702 0 0 0 0 -590.02882009799941 223.24908565065925 0 223.24908565065925 535.43123627010937 0 0 0 0 -639.30184200827739 10.693271015115897 0 10.693271015115897 24.303563519388263 0 0 0 0 -1.0537679321160232 -6.3804725088759611 0 -6.3804725088759611 16.027105089238205 0 0 0 0 428.86405435462393 -347.7486552049304 0 -347.7486552049304 1281.8081146740442 0 0 0 0 -335.04198685164397 178.55411397518401 0 178.55411397518401 78.128959917856264 0 0 0 0 1833.9488392905741 -797.23726242762496 0 -797.23726242762496 41.635325424314942 0 0 0 0 1062.585593776204 151.19370714322577 0 151.19370714322577 277.34565580019262 0 0 0 0 239.26312681797663 -185.73761724478936 0 -185.73761724478936 145.60647698580578 0 0 0 0 604.02588616770072 -685.59915076285324 0 -685.59915076285324 325.50097282105708 0 0 0 0 -182.41982572546385 -209.37135385078 0 -209.37135385078 110.45783223442049 0 0 0 0 -168.69342022052297 -406.31309013693681 0 -406.31309013693681 232.36810076124675 0 0 0 0 -4.6201271329612839 -7.1404934833439668 0 -7.1404934833439668 55.819965739802683 0 0 0 0 -438.88969863897637 -306.03375753607543 0 -306.03375753607543 215.07720725842228 0 0 0 0 -636.39034831834215 -99.167530059788987 0 -99.167530059788987 200.63748211460188 0 0 0 0 -551.54458938569951 179.7359255620031 0 179.7359255620031 -8.1370379234940629 0 0 0 0 -181.91763481835278 323.59890019696832 0 323.59890019696832 -448.20747898594709 0 0 0 0 256.03285054219941 20.150827680830844 0 20.150827680830844 -1176.0868872660067 0 0 0 0 338.41317019876988 -323.16449979209574 0 -323.16449979209574 -312.55650416378739 0 0 0 0 -311.13801306095502 -527.97462286063819 0 -527.97462286063819 655.360885613758 0 0 0 0 672.26571149769279 -1850.363713801351 0 -1850.363713801351 -229.8746989834799 0 0 0 0 -316.87824698319821 -553.92173695436122 0 -553.92173695436122 1943.6569326570607 0 0 0 0 -87.743500464215685 280.24338201442879 0 280.24338201442879 1266.5007407683006 0 0 0 0 -137.56101029387173 -38.25085718613991 0 -38.25085718613991 823.77134248510265 0 0 0 0 -1000.4537738129675 267.96193327205765 0 267.96193327205765 336.58687236363039 0 0 0 0 -5.1604485791173653 -3.4332426151223743 0 -3.4332426151223743 61.458979052928271 0 0 0 0 673.78504623462027 -259.27141796332569 0 -259.27141796332569 3565.7823019748903 0 0 0 0 88.590543657384387 228.30068758601192 0 228.30068758601192 544.17206838777929 0 0 0 0 1480.2870240505335 -273.49885559420363 0 -273.49885559420363 -1459.3016757123987 0 0 0 0 0.88386215346752306 -8.8658929365337613 0 -8.8658929365337613 19.438599240909724 0 0 0 0 961.70673189917579 -433.02903384770252 0 -433.02903384770252 2535.6250710097374 0 0 0 0 -101.40443979991869 -4.7074985595645558 0 -4.7074985595645558 539.38631537197216 0 0 0 0 124.35730028729722 147.85252022962231 0 147.85252022962231 -0.7275928665912943 0 0 0 0 11.529522145412557 206.14353008657054 0 206.14353008657054 445.21922957141942 0 0 0 0 23.695654005356118 -19.001977540974622 0 -19.001977540974622 134.63782842937508 0 0 0 0 10.565303757932471 -25.375344868070663 0 -25.375344868070663 47.155329662826404 0 0 0 0 -24.099707332320577 -182.08734123154863 0 -182.08734123154863 -113.35243763242761 0 0 0 0 17.722348514951591 -99.677408089424716 0 -99.677408089424716 -119.25068771123188 0 0 0 0 58.723310043993479 -4.1196441709907958 0 -4.1196441709907958 102.71316570647468 0 0 0 0 145.0712075514034 -82.011579849331611 0 -82.011579849331611 -237.43951321797795 0 0 0 0 -4.0247451900626512 -4.5205528209097707 0 -4.5205528209097707 42.673042855188584 0 0 0 0 912.14356263038633 -162.32641525525287 0 -162.32641525525287 1258.5650983494852 0 0 0 0 -819.97645410834446 265.15646872751131 0 265.15646872751131 -16.191919788339874 0 0 0 0 1241.8956479570204 -134.00238936527967 0 -134.00238936527967 -497.7670098281742 0 0 0 0 0.30696859289323442 -0.14397319926439422 0 -0.14397319926439422 2.2582809948998488 0 0 0 0 -620.69370848755659 173.63624073495521 0 173.63624073495521 -49.241624954483996 0 0 0 0 -595.87630945896899 147.49292106417852 0 147.49292106417852 -76.426942616117231 0 0 0 0 -660.3254365974517 135.30699768944396 0 135.30699768944396 -67.816036616255587 0 0 0 0 -518.51427257184548 60.696930321652417 0 60.696930321652417 2.4835024799176608 0 0 0 0 -576.12934270342703 280.4013585610337 0 280.4013585610337 -118.06740503296896 0 0 0 0 1005.185838325013 -226.74661589677453 0 -226.74661589677453 128.06246353424649 0 0 0 0 594.53485763126389 -506.41874138487219 0 -506.41874138487219 428.4995553401659 0 0 0 0 -618.85571052958835 176.33691435433684 0 176.33691435433684 -63.276110567159776 0 0 0 0 -2.9650282780006796 -7.2821395227730417 0 -7.2821395227730417 46.329940095444684 0 0 0 0 -273.09777833823262 319.33536724338865 0 319.33536724338865 609.91836187340232 0 0 0 0 -671.22958344843073 84.612200493098499 0 84.612200493098499 5.3224011021593469 0 0 0 0 -600.02010452346133 192.5249582159704 0 192.5249582159704 -49.497700847881788 0 0 0 0 -880.58624257560882 159.08214722237972 0 159.08214722237972 416.9479061145903 0 0 0 0 -355.81172604780227 12.477110877591258 0 12.477110877591258 -72.399735823935771 0 0 0 0 -3.9885577934749077 -5.1883618316829505 0 -5.1883618316829505 67.420132653409553 0 0 0 0 -175.93674332232445 -500.5602680604643 0 -500.5602680604643 589.80439250421614 0 0 0 0 -702.14911902392294 124.62601361226916 0 124.62601361226916 483.73677975642477 0 0 0 0 -661.49093009190256 222.31541381657007 0 222.31541381657007 60.212554076992092 0 0 0 0 -2.2737144009049777 -4.6120599639367406 0 -4.6120599639367406 15.121308506229099 0 0 0 0 1220.5808085859176 -1009.2413779094504 0 -1009.2413779094504 -292.81072836444218 0 0 0 0 180.30499990062526 -236.68232638565496 0 -236.68232638565496 338.85397680776805 0 0 0 0 1.1942959367419397 -13.622589154420456 0 -13.622589154420456 -2.0629896857046219 0 0 0 0 -98.158618965793721 -108.10645736662264 0 -108.10645736662264 -33.35122757271165 0 0 0 0 50.212570068284364 -100.00140300139915 0 -100.00140300139915 -3.1158259565199842 0 0 0 0 5.6146553558361605 -15.5559287636504 0 -15.5559287636504 -3.5765356454689652 0 0 0 0 19.341169308921963 -1.4506675051143247 0 -1.4506675051143247 66.832165197789436 0 0 0 0 -223.31332210938308 -208.37882805961272 0 -208.37882805961272 72.835939250209776 0 0 0 0 384.35828330122786 -71.967833282556967 0 -71.967833282556967 -105.6437590896021 0 0 0 0 -141.72941529742684 598.90828956282348 0 598.90828956282348 715.35638857232152 0 0 0 0 -702.74903139004527 86.898200488883958 0 86.898200488883958 490.77970108639784 0 0 0 0 -0.42984246362793022 -6.0027352728734016 0 -6.0027352728734016 2.6933393541015676 0 0 0 0 -11.660153688374976 -97.621267046162757 0 -97.621267046162757 44.724159677592979 0 0 0 0 -264.68947188797938 -148.43175039577727 0 -148.43175039577727 95.494853039832378 0 0 0 0 235.99072954752501 -196.29050452692536 0 -196.29050452692536 -27.282403196222731 0 0 0 0 -251.66448001686513 -55.241282241513545 0 -55.241282241513545 405.7132791915501 0 0 0 0 -240.45068460705807 137.98124139295032 0 137.98124139295032 168.81953455576786 0 0 0 0 169.45361523134216 35.948883135999495 0 35.948883135999495 23.135565535154456 0 0 0 0 -120.55874138740364 -34.320381119970989 0 -34.320381119970989 11.203092748839481 0 0 0 0 -34.190853241229433 -163.86993266616628 0 -163.86993266616628 30.125454111424915 0 0 0 0 -153.95878204217522 -160.29786748795959 0 -160.29786748795959 46.747974558224087 0 0 0 0 -67.18195910646682 -133.10429490878141 0 -133.10429490878141 23.312757592793787 0 0 0 0 -114.64747355051259 -112.97618131186573 0 -112.97618131186573 34.12743827443046 0 0 0 0 -150.0938477618478 -99.850701288687674 0 -99.850701288687674 29.805983970421948 0 0 0 0 -494.82684154265189 -149.31462016854675 0 -149.31462016854675 163.62431218973143 0 0 0 0 457.88429311847881 -77.03046227449795 0 -77.03046227449795 -17.632767309412884 0 0 0 0 -40.218228544599704 -167.86045508618281 0 -167.86045508618281 -26.705196543938655 0 0 0 0 -91.111522517807316 48.237539780675434 0 48.237539780675434 -13.588866068821517 0 0 0 0 1.1836744527551808 -0.11565042799401226 0 -0.11565042799401226 0.78508793283796763 0 0 0 0 -6.2767710664802507 34.476453803748882 0 34.476453803748882 95.146045097295428 0 0 0 0 -0.86397395290679313 0.43479883125534968 0 0.43479883125534968 2.1635519499157994 0 0 0 0 11.580371910713438 17.184343802509829 0 17.184343802509829 48.914308334351517 0 0 0 0 -23.579132885628951 -36.394053367081142 0 -36.394053367081142 52.006257598754019 0 0 0 0 -33.147440804454845 -15.053867113192609 0 -15.053867113192609 104.39688703136926 0 0 0 0 66.528473832597683 -16.149056024600213 0 -16.149056024600213 14.963507828913862 0 0 0 0 -126.63717116800808 149.05481069959205 0 149.05481069959205 36.035269425163278 0 0 0 0 -1.8097872665572439 -0.89099305792004913 0 -0.89099305792004913 16.41128284782107 0 0 0 0 -80.99512952063742 -53.961976609232806 0 -53.961976609232806 78.125848683805089 0 0 0 0 41.991248444315715 -77.93918181196932 0 -77.93918181196932 -105.97902486120438 0 0 0 0 -135.37866538474555 -93.043791899672215 0 -93.043791899672215 159.13520206877729 0 0 0 0 24.05550310263061 -113.39533223227045 0 -113.39533223227045 75.57880810216011 0 0 0 0 21.861369034101699 -33.716041101877636 0 -33.716041101877636 2.1887151610408182 0 0 0 0 23.098680967988003 -37.02910544599581 0 -37.02910544599581 7.7111447313509416 0 0 0 0 -0.060740856590710379 -6.9814902736481059 0 -6.9814902736481059 21.088214698679081 0 0 0 0 4.3980617807856106 -19.921872351354978 0 -19.921872351354978 8.9730984958732734 0 0 0 0 9.8927366730931681 -30.535391937090026 0 -30.535391937090026 28.534006412221061 0 0 0 0 55.705331881444181 -7.0425511533612735 0 -7.0425511533612735 18.195099950782605 0 0 0 0 27.654691720197661 -18.598172162528499 0 -18.598172162528499 18.578425109168165 0 0 0 0 60.623632265896958 -13.65064563206397 0 -13.65064563206397 9.941154426720459 0 0 0 0 -1.2536993647836425 -44.429472820240335 0 -44.429472820240335 10.287944700859953 0 0 0 0 18.592163720000144 -54.377811794389345 0 -54.377811794389345 1.7469005775783444 0 0 0 0 -99.477881545948549 -91.585201516354573 0 -91.585201516354573 15.214781579459668 0 0 0 0 4.079049895804495 -14.289267403167045 0 -14.289267403167045 32.216826700869746 0 0 0 0 6.2521926754717505 -24.116353222295281 0 -24.116353222295281 40.297895464318657 0 0 0 0 -24.042263171544619 -61.227717118999863 0 -61.227717118999863 15.484100838879385 0 0 0 0 -17.43563959128096 -24.706904874645261 0 -24.706904874645261 25.719912853819551 0 0 0 0 -12.728581117580688 -20.269213509069232 0 -20.269213509069232 96.442866841272917 0 0 0 0 1.7510802998856834 -13.638455824857928 0 -13.638455824857928 53.32053901311906 0 0 0 0 -2.694294043134505 -39.953658238526259 0 -39.953658238526259 62.483366589207435 0 0 0 0 -0.73624478802958038 -16.165858615808247 0 -16.165858615808247 30.086575443208858 0 0 0 0 -10.379952796894941 -18.763306183165696 0 -18.763306183165696 97.16119710716157 0 0 0 0 10.578353856777539 -11.99466540562571 0 -11.99466540562571 35.128280460365204 0 0 0 0 4.2936828137403173 -13.826587836667759 0 -13.826587836667759 1.7544091649279494 0 0 0 0 -16.036330729779593 20.472834141174189 0 20.472834141174189 63.234979288725299 0 0 0 0 14.18530545511021 -20.07146954116979 0 -20.07146954116979 52.978171279770322 0 0 0 0 -9.4106475620889842 -8.1872013743432035 0 -8.1872013743432035 21.489591691136496 0 0 0 0 -22.124751414398816 -14.30601432731055 0 -14.30601432731055 21.6001968793571 0 0 0 0 -4.6886191480024699 -13.401255928085078 0 -13.401255928085078 40.711139817915779 0 0 0 0 -24.66025106811685 2.6120591990111279 0 2.6120591990111279 75.249177053221501 0 0 0 0 -89.898659785555537 54.02378582676829 0 54.02378582676829 -14.098453469443484 0 0 0 0 -21.243265893240277 -15.547668573191913 0 -15.547668573191913 5.5525431978712732 0 0 0 0 0.61621948459036702 -3.3752154615007726 0 -3.3752154615007726 2.9341543682607245 0 0 0 0 -17.948717066952668 -6.4249399304826511 0 -6.4249399304826511 35.601721701787028 0 0 0 0 -9.7288089347999787 -9.4117437457679642 0 -9.4117437457679642 21.344247611432536 0 0 0 0 -9.134034131433026 -4.695823232861386 0 -4.695823232861386 38.803821185988937 0 0 0 0 -21.014629209381383 -8.6926923042556155 0 -8.6926923042556155 34.346527386704111 0 0 0 0 -7.8671511691918568 -19.542032073418341 0 -19.542032073418341 62.15049782852293 0 0 0 0 7.461568323204073 -17.340893752042696 0 -17.340893752042696 36.540364996178312 0 0 0 0 -1.5108279248333929 -23.302035375865671 0 -23.302035375865671 63.534906875705929 0 0 0 0 27.701785921671217 -29.096652370950324 0 -29.096652370950324 -6.7375644713174552 0 0 0 0 -2.0489795735160605 -3.5082937147510123 0 -3.5082937147510123 4.7247960434632148 0 0 0 0 7.1272037404323783 -19.868985913668439 0 -19.868985913668439 -0.21480036978027783 0 0 0 0 -4.9709206942097808 31.12617410148232 0 31.12617410148232 -118.36336306513113 0 0 0 0 20.813141391598037 26.015939607023029 0 26.015939607023029 36.95565554939094 0 0 0 0 -58.838021518605274 -15.449130818593403 0 -15.449130818593403 92.644873117693351 0 0 0 0 -17.201686574746656 -10.289013553757314 0 -10.289013553757314 0.58132843182956506 0 0 0 0 -38.724249403296426 45.227809365671419 0 45.227809365671419 -148.58530458789028 0 0 0 0 -8.7626938362964211 -9.0020357086832519 0 -9.0020357086832519 9.7489785354409833 0 0 0 0 -10.793613612602403 -9.2331169625811071 0 -9.2331169625811071 12.030603414456522 0 0 0 0 -45.475930416762367 8.6715259505144786 0 8.6715259505144786 -20.222849652074729 0 0 0 0 -3.6850330693864626 -1.789009723080909 0 -1.789009723080909 -0.68016633943645388 0 0 0 0 -13.719780787844945 -2.9634053139018874 0 -2.9634053139018874 14.743038334869471 0 0 0 0 -64.762831138597903 86.404284927797562 0 86.404284927797562 -55.116962435677124 0 0 0 0 -12.541043739907536 34.224470974659198 0 34.224470974659198 -123.65687782160239 0 0 0 0 61.261851140283852 85.241863668343285 0 85.241863668343285 -132.84757524058659 0 0 0 0 12.677392917486031 -40.889456744429481 0 -40.889456744429481 14.056212347641122 0 0 0 0 -34.323684646666152 7.5933764285000507 0 7.5933764285000507 65.444418397353729 0 0 0 0 -3.6373889245405735 -29.890520006767474 0 -29.890520006767474 -62.380237357090664 0 0 0 0 -101.91441222696994 -49.055459649709519 0 -49.055459649709519 40.892864236011519 0 0 0 0 -12.090263649328335 -11.969160536609706 0 -11.969160536609706 2.9802308908547275 0 0 0 0 24.335368705870451 113.64777951709038 0 113.64777951709038 158.80587451481551 0 0 0 0 -91.777567773648798 45.240634090368985 0 45.240634090368985 18.523532702529337 0 0 0 0 0.96429404980244726 43.111978625292977 0 43.111978625292977 16.968157620824059 0 0 0 0 -91.581284023224839 -8.3598662751937809 0 -8.3598662751937809 172.12778992216045 0 0 0 0 7.3068927280519347 -139.85201235441491 0 -139.85201235441491 202.73299060130194 0 0 0 0 -84.574060298330096 40.78013468141944 0 40.78013468141944 262.81023444013044 0 0 0 0 -125.7346322022043 38.213398502299242 0 38.213398502299242 69.885608557567139 0 0 0 0 -57.790362210925082 -45.946496889613627 0 -45.946496889613627 86.084512118683961 0 0 0 0 -82.297059517016109 5.794168833904223 0 5.794168833904223 27.194889912148938 0 0 0 0 -1.7548894380982092 -10.186361016716894 0 -10.186361016716894 31.36960686730464 0 0 0 0 -19.026617292782248 -2.8518544950420619 0 -2.8518544950420619 -6.6747176740900613 0 0 0 0 -8.2952043496050472 -2.964951087705078 0 -2.964951087705078 32.594278799131217 0 0 0 0 -81.113541291020596 86.735670892245253 0 86.735670892245253 44.827539478632389 0 0 0 0 23.965500455845813 -12.189606809940415 0 -12.189606809940415 0.17931487236637622 0 0 0 0 -335.07986738967838 47.202735057914197 0 47.202735057914197 125.9077589577937 0 0 0 0 1.9806854746839111 -11.383972991578482 0 -11.383972991578482 38.146421862355979 0 0 0 0 0.58920632029639819 82.949336177227451 0 82.949336177227451 50.769482714225887 0 0 0 0 -25.505094161781926 -12.498691836341095 0 -12.498691836341095 52.607727567010443 0 0 0 0 2.1745911159589637 -11.742043188784521 0 -11.742043188784521 25.112315709957898 0 0 0 0 -279.87231985101425 16.278527336479783 0 16.278527336479783 10.597522632408072 0 0 0 0 -1.7050108070427168 -6.9680071663967418 0 -6.9680071663967418 23.649736087782671 0 0 0 0 -0.11843216887384056 -14.924449663093492 0 -14.924449663093492 46.410938099683534 0 0 0 0 -37.572461501294129 -30.660417754830632 0 -30.660417754830632 75.445160507038963 0 0 0 0 80.86487563468836 -93.916972984240601 0 -93.916972984240601 -8.8790039480882115 0 0 0 0 -5.1183492076492945 -13.451493269030156 0 -13.451493269030156 55.64993798758087 0 0 0 0 -21.192930249708297 -6.7041693065912114 0 -6.7041693065912114 35.269233853148762 0 0 0 0 0.20451209951079363 37.559868083177207 0 37.559868083177207 103.17225438982132 0 0 0 0 3.0860669498987665 -19.074948948680436 0 -19.074948948680436 29.477996335728619 0 0 0 0 -13.695172604567084 -2.1875019077256894 0 -2.1875019077256894 71.369120702162391 0 0 0 0 -23.945361872005378 -123.19343334332552 0 -123.19343334332552 87.612668916588518 0 0 0 0 -1.0581981618306204 -6.8976428792851507 0 -6.8976428792851507 8.3293184600300236 0 0 0 0 -2.4251464774346876 -29.260096778331835 0 -29.260096778331835 83.341414214074604 0 0 0 0 140.59620271673703 -40.701976714262855 0 -40.701976714262855 74.004837207255605 0 0 0 0 287.30791213895372 -199.39524821613531 0 -199.39524821613531 -69.840358173230925 0 0 0 0 162.23903506347051 5.5032445507440571 0 5.5032445507440571 158.87921059425571 0 0 0 0 -19.003680113685618 -47.207128744676083 0 -47.207128744676083 106.42262391184886 0 0 0 0 -41.626735363103307 -18.895365260475955 0 -18.895365260475955 96.424641731493466 0 0 0 0 -95.5444201433356 -28.308747182778461 0 -28.308747182778461 111.78603638325876 0 0 0 0 -23.994975823572588 -83.284234383526382 0 -83.284234383526382 114.97058640584874 0 0 0 0 -71.599605313242705 -56.149404687837887 0 -56.149404687837887 114.23070446635393 0 0 0 0 29.978789238493846 -73.090640403417638 0 -73.090640403417638 94.140661596360587 0 0 0 0 31.706726955557315 -69.696063146266169 0 -69.696063146266169 93.505764756013377 0 0 0 0 -2.7763237210672758 1.2775866689743651 0 1.2775866689743651 -0.063740558100221278 0 0 0 0 33.768704861347942 -57.321581353269721 0 -57.321581353269721 60.373678850162833 0 0 0 0 121.43102949976173 -139.96356979931443 0 -139.96356979931443 48.918067204118415 0 0 0 0 -73.685881136818921 -62.80963828149288 0 -62.80963828149288 0.74891177933821496 0 0 0 0 -137.07318485502401 -115.48710462721647 0 -115.48710462721647 -13.454408744817556 0 0 0 0 -90.380005892142663 -104.74125165615987 0 -104.74125165615987 26.249905220945948 0 0 0 0 -91.326057685766273 -111.29140413008736 0 -111.29140413008736 -17.870967075810768 0 0 0 0 -89.764205635945473 -85.640362385958724 0 -85.640362385958724 1.1621112668700562 0 0 0 0 11.394651912746042 -2.9194768033246419 0 -2.9194768033246419 57.752581722736068 0 0 0 0 9.6619406004273571 -86.345369008428975 0 -86.345369008428975 30.138437498535495 0 0 0 0 -2.8125079529341193 -6.1671173026992143 0 -6.1671173026992143 15.813434418498332 0 0 0 0 -90.980680744271922 -106.88531256699935 0 -106.88531256699935 22.671860952395946 0 0 0 0 -70.65035928528664 -36.331773704852822 0 -36.331773704852822 54.260285004136676 0 0 0 0 -91.523469582302823 -111.01096100862196 0 -111.01096100862196 39.441923694902471 0 0 0 0 -104.66126020852244 -114.89541054721121 0 -114.89541054721121 25.062575868869317 0 0 0 0 -97.855789683713283 -134.90696465789188 0 -134.90696465789188 23.930793020413603 0 0 0 0 -108.91408388956097 -123.03216579754189 0 -123.03216579754189 21.330349153839052 0 0 0 0 -97.308294985838756 -116.42409417987164 0 -116.42409417987164 16.531585207536409 0 0 0 0 -54.716099532562112 -123.27039522477753 0 -123.27039522477753 0.84192872346102376 0 0 0 0 -76.517924831146047 -44.143403005036362 0 -44.143403005036362 4.2114401438666391 0 0 0 0 -158.56875141579076 -48.969354827200732 0 -48.969354827200732 1.8961922730522929 0 0 0 0 -155.65126586150836 -58.727630188557669 0 -58.727630188557669 8.5405567906564102 0 0 0 0 -122.60305468256684 -102.7922083762096 0 -102.7922083762096 -1.5219132028601052 0 0 0 0 -81.542389360008201 27.616065941894703 0 27.616065941894703 37.377280628148583 0 0 0 0 -230.15771123198647 -12.569093908918148 0 -12.569093908918148 26.709900459658456 0 0 0 0 -149.75190647048294 -54.842280750959617 0 -54.842280750959617 -4.8679106270719785 0 0 0 0 -182.59899366022728 -10.375539992401173 0 -10.375539992401173 1.0854700121926726 0 0 0 0 -239.44485280484332 -31.081445930425616 0 -31.081445930425616 3.0427168235255522 0 0 0 0 -225.30114017845335 -25.05656286383055 0 -25.05656286383055 3.6359482145344373 0 0 0 0 -230.72011026923792 -6.9341421688732225 0 -6.9341421688732225 -25.521235469786916 0 0 0 0 -263.18701883537506 24.202189839612402 0 24.202189839612402 -16.018829946230653 0 0 0 0 -214.13536008437859 -49.943692122826633 0 -49.943692122826633 4.1015821255423361 0 0 0 0 -253.02044294156076 -12.822614500753843 0 -12.822614500753843 0.79172949284838978 0 0 0 0 -207.5658212134731 -7.5566701405659842 0 -7.5566701405659842 -13.38704512957338 0 0 0 0 -242.3612222868951 -41.975923677334322 0 -41.975923677334322 2.2611423863709206 0 0 0 0 -277.61559150357425 -25.921682594598678 0 -25.921682594598678 17.701004841172107 0 0 0 0 -231.61730553836969 -21.94917575706495 0 -21.94917575706495 4.5347981575323502 0 0 0 0 -249.98243967940653 -5.3573318972357811 0 -5.3573318972357811 10.688688745533 0 0 0 0 -281.90536384325969 10.656940916778694 0 10.656940916778694 3.1406771637302882 0 0 0 0 -111.89998700782508 -95.356222851587518 0 -95.356222851587518 -9.2152380814950448 0 0 0 0 -154.10558568160923 -44.10678088683926 0 -44.10678088683926 -10.603697336411642 0 0 0 0 -175.25887732187675 -77.923412530470159 0 -77.923412530470159 -6.4303489780504606 0 0 0 0 -171.95817127006467 -75.312925597501817 0 -75.312925597501817 -13.97560412722305 0 0 0 0 -180.11579254091242 -139.66284169764276 0 -139.66284169764276 -67.833193111375294 0 0 0 0 -286.4258154132549 -73.707157349359477 0 -73.707157349359477 -6.3059579138134723 0 0 0 0 -267.41451501941992 -81.509787772494747 0 -81.509787772494747 -3.1176469196561811 0 0 0 0 -280.11032835394326 16.069897645290439 0 16.069897645290439 16.087362444894097 0 0 0 0 -350.68260919812747 -54.699397360494913 0 -54.699397360494913 10.774541377504647 0 0 0 0 -272.49011308792615 -27.928827039137104 0 -27.928827039137104 18.277016511259717 0 0 0 0 -286.49593001106859 -74.374133118728423 0 -74.374133118728423 -11.120658884137811 0 0 0 0 -389.40817026070363 -132.90654836302201 0 -132.90654836302201 -44.409528994310676 0 0 0 0 -493.96893765118512 23.124363699207606 0 23.124363699207606 62.533273720626312 0 0 0 0 -328.25304570781736 39.517763185000149 0 39.517763185000149 45.437464120128425 0 0 0 0 -675.17344653806595 -159.41342977413069 0 -159.41342977413069 -85.928122821447687 0 0 0 0 -595.75056776543352 -32.467597424663836 0 -32.467597424663836 32.329099500333541 0 0 0 0 -545.15846288709508 -154.71761838493512 0 -154.71761838493512 -31.65774644512021 0 0 0 0 -268.41115802798777 -180.65056350195664 0 -180.65056350195664 -240.03135643298447 0 0 0 0 5.1593027175570194 -7.7582812267448036 0 -7.7582812267448036 9.8624627686699569 0 0 0 0 -232.61603944046379 -91.476856577270155 0 -91.476856577270155 -81.801968276793559 0 0 0 0 -23.88837370205556 266.14444800254842 0 266.14444800254842 449.23284399384283 0 0 0 0 -55.112263476018597 17.880888651809073 0 17.880888651809073 376.39648389336799 0 0 0 0 -68.949695581097671 -87.402553604475543 0 -87.402553604475543 -51.077840515246862 0 0 0 0 11.456095894329811 -14.100643525787685 0 -14.100643525787685 18.974581075696911 0 0 0 0 13.895995217036415 -41.014724124614986 0 -41.014724124614986 186.12973364748541 0 0 0 0 28.37649122233185 -64.698875174793557 0 -64.698875174793557 187.04505900576805 0 0 0 0 -2.328986306535171 -173.30231216193124 0 -173.30231216193124 445.23758105220668 0 0 0 0 25.676396739588839 -17.872324273649738 0 -17.872324273649738 319.31683868005712 0 0 0 0 18.845118845864818 -151.30763021983375 0 -151.30763021983375 279.94735569911882 0 0 0 0 40.421763368555844 -113.50932165752829 0 -113.50932165752829 295.52636183363211 0 0 0 0 -1.1894560965820666 4.5094580674331137 0 4.5094580674331137 8.9390902883626087 0 0 0 0 137.59948765589979 -69.359880010938468 0 -69.359880010938468 52.125111870557532 0 0 0 0 102.74932807121877 -105.59054409189503 0 -105.59054409189503 64.406262259637742 0 0 0 0 196.70683877205465 -87.463894084777166 0 -87.463894084777166 44.571695798804285 0 0 0 0 17.660449101909947 21.875481296727742 0 21.875481296727742 101.77346328234125 0 0 0 0 1.1373746996917329 0.36406646560414213 0 0.36406646560414213 16.283374652217972 0 0 0 0 60.423858381863738 -124.74716708104552 0 -124.74716708104552 117.6615712332823 0 0 0 0 29.020532556653052 -1.7703529847472055 0 -1.7703529847472055 76.155877898101608 0 0 0 0 39.357721276509892 3.8915053944510873 0 3.8915053944510873 61.37764003636039 0 0 0 0 13.699486768156223 -21.739420933460345 0 -21.739420933460345 35.251766070749028 0 0 0 0 1.9170885936583952 -10.278279125297971 0 -10.278279125297971 3.0140033499859555 0 0 0 0 32.420268536302956 -62.794539319020259 0 -62.794539319020259 23.578404661374407 0 0 0 0 10.783908613927565 34.843188430816781 0 34.843188430816781 57.881534753203596 0 0 0 0 157.29208906174335 -15.272048502591133 0 -15.272048502591133 55.146702652288241 0 0 0 0 157.25668124499225 -98.797933226043824 0 -98.797933226043824 65.993772391908351 0 0 0 0 236.17865109877403 -86.8043474356964 0 -86.8043474356964 42.780745940995985 0 0 0 0 301.00464931793817 -155.2063917989916 0 -155.2063917989916 99.489232870004344 0 0 0 0 305.71419469022749 -136.1251471812393 0 -136.1251471812393 120.85813111268271 0 0 0 0 -10.271244011872568 -14.23008335307577 0 -14.23008335307577 129.71769096852677 0 0 0 0 -147.74360746917864 -78.446700841825077 0 -78.446700841825077 48.67100507770374 0 0 0 0 -1.4856197316569577 -9.4190115784075061 0 -9.4190115784075061 57.088737807526961 0 0 0 0 268.9671903950707 1.0569460457782043 0 1.0569460457782043 32.410163574400485 0 0 0 0 -0.054974550260918242 1.6585085862472155 0 1.6585085862472155 6.0176901008329189 0 0 0 0 299.56771211682826 -184.46223623771039 0 -184.46223623771039 101.55651230936746 0 0 0 0 293.89022420442052 -200.20716645628454 0 -200.20716645628454 149.13261417871036 0 0 0 0 282.97722223488381 -169.46789850455298 0 -169.46789850455298 160.96404336366686 0 0 0 0 285.18582696350131 -208.4276675167057 0 -208.4276675167057 177.22571164816327 0 0 0 0 260.88837959319926 -208.53218859375465 0 -208.53218859375465 197.15022738049083 0 0 0 0 285.03862215894878 -196.45173674584476 0 -196.45173674584476 153.43871157160993 0 0 0 0 347.05247040412178 -205.26091364282547 0 -205.26091364282547 127.10990379600662 0 0 0 0 314.90128881225064 -167.41011929403612 0 -167.41011929403612 95.383284769948659 0 0 0 0 263.21434968851372 -160.80646470338706 0 -160.80646470338706 104.41556795338875 0 0 0 0 280.05436572073086 -156.38214328142544 0 -156.38214328142544 55.132294925218957 0 0 0 0 183.47761231148115 -121.9424255434119 0 -121.9424255434119 67.404637548735991 0 0 0 0 302.00037074846205 -182.9924983206738 0 -182.9924983206738 63.511350797345585 0 0 0 0 304.77504857352233 -174.53843079070725 0 -174.53843079070725 67.68246840476786 0 0 0 0 299.97110622429682 -171.61512106047667 0 -171.61512106047667 101.58574671288373 0 0 0 0 247.39976871525414 -164.97735765616017 0 -164.97735765616017 66.325548706351185 0 0 0 0 310.17614885242347 -203.76906768404569 0 -203.76906768404569 66.46464949766505 0 0 0 0 125.11088952982254 -120.9825114447633 0 -120.9825114447633 91.387645567056097 0 0 0 0 253.50256282336431 -155.0643615146364 0 -155.0643615146364 63.383223043612816 0 0 0 0 206.24697984132672 -183.56190780257043 0 -183.56190780257043 127.06736336219637 0 0 0 0 214.70818840958054 -182.69597687090663 0 -182.69597687090663 71.039797580822324 0 0 0 0 253.6063352417932 -218.15404586027444 0 -218.15404586027444 130.86476278740406 0 0 0 0 330.48026964792462 -269.99245545922804 0 -269.99245545922804 118.53968677812236 0 0 0 0 420.32506667635835 -187.19513249650288 0 -187.19513249650288 16.721452345365833 0 0 0 0 397.70751637320609 -174.01269345271248 0 -174.01269345271248 20.73450341868238 0 0 0 0 428.85267534896229 -35.625671541961196 0 -35.625671541961196 -1.4439619211125319 0 0 0 0 326.56864904781833 -30.789982786730889 0 -30.789982786730889 62.338586965724062 0 0 0 0 217.57400924044305 -8.3503745459120182 0 -8.3503745459120182 0.089610863759844506 0 0 0 0 206.28189088730505 -56.292192883576718 0 -56.292192883576718 22.209077523031738 0 0 0 0 344.23638100488824 -74.305824423187005 0 -74.305824423187005 10.502471964195138 0 0 0 0 351.4542976729083 -153.20264925027203 0 -153.20264925027203 19.999622973087753 0 0 0 0 331.12693447059428 -166.93852070069079 0 -166.93852070069079 16.614652191629812 0 0 0 0 291.19105368202509 -134.88712605640558 0 -134.88712605640558 23.881073087494087 0 0 0 0 332.83196536600099 -176.19260851522245 0 -176.19260851522245 36.50719315335482 0 0 0 0 -132.82854778850879 -21.89325018282625 0 -21.89325018282625 726.91064472666039 0 0 0 0 127.24019861331362 287.06532551684768 0 287.06532551684768 -293.72040815206674 0 0 0 0 -104.43979960683646 372.52957252665146 0 372.52957252665146 56.010413593116937 0 0 0 0 11.077993794132453 -29.31545426540788 0 -29.31545426540788 -55.836548408379258 0 0 0 0 3.6049370729766697 -9.6245447096017021 0 -9.6245447096017021 30.977048826764765 0 0 0 0 72.622086012478576 52.20527446607889 0 52.20527446607889 44.418463752756907 0 0 0 0 9.9354217730151504 2.2703868332982893 0 2.2703868332982893 140.67300358633474 0 0 0 0 0.16269434323591447 -11.999262491295253 0 -11.999262491295253 49.046693595767415 0 0 0 0 91.148165717894699 -41.063214270339813 0 -41.063214270339813 84.168311113252457 0 0 0 0 -4.4251881698692159 -18.141840425592818 0 -18.141840425592818 168.59839093589667 0 0 0 0 -51.177564305307897 136.3543612024132 0 136.3543612024132 81.595851856262925 0 0 0 0 0.4010574402873317 16.880853842754732 0 16.880853842754732 122.19464587721632 0 0 0 0 -168.78668968042166 -31.291266493944931 0 -31.291266493944931 368.35615245697954 0 0 0 0 -43.394760951094327 190.52857643749144 0 190.52857643749144 414.63452214109202 0 0 0 0 -42.545320608131078 5.3310090242857768 0 5.3310090242857768 169.03713108357806 0 0 0 0 27.886519096717166 -127.27187957233218 0 -127.27187957233218 204.49198671738623 0 0 0 0 -27.335387868538874 -5.8689211483688268 0 -5.8689211483688268 487.67858369730311 0 0 0 0 -25.600136286462657 17.642419204672478 0 17.642419204672478 265.84263568063125 0 0 0 0 -133.02051302269729 90.583806820392965 0 90.583806820392965 -39.606431823934145 0 0 0 0 -3.0093468152226706 -31.403887053289509 0 -31.403887053289509 55.571205326537893 0 0 0 0 -67.794249477423364 -9.8818694339861395 0 -9.8818694339861395 77.537618296525579 0 0 0 0 -6.6702604444588154 -2.8710254734979728 0 -2.8710254734979728 2.777217104465775 0 0 0 0 -18.187702213480247 10.131005363831507 0 10.131005363831507 29.309297122829573 0 0 0 0 0.69223090570050871 -4.9259848482101134 0 -4.9259848482101134 7.8688676373621291 0 0 0 0 138.23089413763228 -61.256909816080224 0 -61.256909816080224 78.363303874075427 0 0 0 0 40.60288210440558 9.2798582923578579 0 9.2798582923578579 54.9505368161158 0 0 0 0 1.5455404339181769 -10.078427400096416 0 -10.078427400096416 32.287129069033426 0 0 0 0 -10.002530269303216 -1.3225294580528733 0 -1.3225294580528733 35.960262758208508 0 0 0 0 -9.5277729514021274 2.9773849112840161 0 2.9773849112840161 33.721104216148973 0 0 0 0 -3.800438877383709 2.4761352115342428 0 2.4761352115342428 0.20521490007991616 0 0 0 0 21.769525733960791 50.450114429719179 0 50.450114429719179 -1.1703071871688735 0 0 0 0 -10.140831368557883 14.888931516568846 0 14.888931516568846 18.124937054468319 0 0 0 0 -214.57104286725553 72.182597622796493 0 72.182597622796493 -8.9505284070078233 0 0 0 0 -150.86193537195743 122.17068995572026 0 122.17068995572026 12.209917927217248 0 0 0 0 264.0472451451933 -134.73836851678152 0 -134.73836851678152 77.90262089762291 0 0 0 0 288.28654239899151 -160.82500661157064 0 -160.82500661157064 100.84816287405738 0 0 0 0 288.68676133653571 -148.93071644609699 0 -148.93071644609699 116.63301370838417 0 0 0 0 311.61648340186002 -159.20328213656103 0 -159.20328213656103 49.60672576449997 0 0 0 0 312.62199583362008 -156.54393929476328 0 -156.54393929476328 45.759046998662598 0 0 0 0 298.61041843389285 -120.78827451097914 0 -120.78827451097914 40.583499736865633 0 0 0 0 199.61624454044431 -109.37375310836433 0 -109.37375310836433 61.394292405320812 0 0 0 0 148.41231586952199 -91.756617174074563 0 -91.756617174074563 75.91575815014221 0 0 0 0 199.11651767630246 -101.99489973701566 0 -101.99489973701566 67.758948210806921 0 0 0 0 75.034999391897145 -94.494531824969272 0 -94.494531824969272 130.51475237392788 0 0 0 0 140.60077344394631 -135.20612921491283 0 -135.20612921491283 145.14140786778171 0 0 0 0 264.47044699056016 -140.23135192422797 0 -140.23135192422797 73.457329854863929 0 0 0 0 -21.929175162903473 15.779394875840262 0 15.779394875840262 45.666688332004099 0 0 0 0 76.200984495506418 -17.943370583458091 0 -17.943370583458091 172.1937459549772 0 0 0 0 227.38316828562347 -166.99455758251952 0 -166.99455758251952 154.20232245314037 0 0 0 0 2.4666280197315515 -4.2693911047752007 0 -4.2693911047752007 13.310555879987017 0 0 0 0 -37.182762877375808 47.467246525942755 0 47.467246525942755 24.648471970196624 0 0 0 0 -38.438736147141753 45.314763584332923 0 45.314763584332923 22.280963947079726 0 0 0 0 262.57835820960463 -124.785822355454 0 -124.785822355454 135.30160375534615 0 0 0 0 284.84086616216882 -169.27957704766959 0 -169.27957704766959 131.01654652081197 0 0 0 0 264.58422782383423 -224.22667326349801 0 -224.22667326349801 263.6893075115413 0 0 0 0 259.65263139041599 -142.73130890654011 0 -142.73130890654011 226.4921555095134 0 0 0 0 285.64799606442102 -222.98890018806287 0 -222.98890018806287 190.71329313869711 0 0 0 0 -16.65173572403009 18.478419656786937 0 18.478419656786937 53.476244679433925 0 0 0 0 -47.552900817438911 25.964092067235285 0 25.964092067235285 85.366545372302426 0 0 0 0 272.52587202696668 -267.50195324306333 0 -267.50195324306333 189.08412524508094 0 0 0 0 -41.668461866849611 41.237012932857397 0 41.237012932857397 28.661367558948768 0 0 0 0 -37.851987952293712 47.77796072971978 0 47.77796072971978 24.936847110699091 0 0 0 0 -41.798953497580442 43.446824327440481 0 43.446824327440481 40.690996032268231 0 0 0 0 -37.499096893108799 50.541211438900973 0 50.541211438900973 25.639766747907743 0 0 0 0 -38.328359257229295 49.760483487379133 0 49.760483487379133 34.202749527918058 0 0 0 0 -58.514059060414183 59.826005037983123 0 59.826005037983123 47.941530259701267 0 0 0 0 -47.914959411234577 36.054160381702786 0 36.054160381702786 48.876083589319023 0 0 0 0 -58.353917971789542 50.70162659658763 0 50.70162659658763 92.719793680113071 0 0 0 0 -63.32473445280948 36.371322167799008 0 36.371322167799008 99.618779312842435 0 0 0 0 -63.521808375494857 68.578970483336889 0 68.578970483336889 98.705258534657332 0 0 0 0 -81.929327979427853 55.912981004611083 0 55.912981004611083 98.451323856557792 0 0 0 0 -76.828272772253513 40.019835846188471 0 40.019835846188471 140.78296446643435 0 0 0 0 -26.141197982460199 7.8015237250310747 0 7.8015237250310747 100.40946300353323 0 0 0 0 -62.763657273855387 31.287806290136984 0 31.287806290136984 86.538237060060055 0 0 0 0 -117.94694878679002 -2.4426355613150008 0 -2.4426355613150008 98.497628112487291 0 0 0 0 -101.23630297198324 63.632063145867392 0 63.632063145867392 -6.1249363604019891 0 0 0 0 -20.977494929732757 68.654315988551843 0 68.654315988551843 -5.0217366174856579 0 0 0 0 -85.666163137788317 109.54451276277086 0 109.54451276277086 23.351385214305537 0 0 0 0 -152.67568118510417 84.418599249868748 0 84.418599249868748 125.00444229212007 0 0 0 0 -100.92725433811347 68.842011570470277 0 68.842011570470277 156.15246341350758 0 0 0 0 -76.051258001653878 31.726505667566926 0 31.726505667566926 151.30616980461673 0 0 0 0 -45.701080055090415 -24.360020533591978 0 -24.360020533591978 209.2420195373852 0 0 0 0 -113.7012203392037 38.391365253005915 0 38.391365253005915 182.29646606019469 0 0 0 0 -100.36355624999078 49.371208677629511 0 49.371208677629511 201.48207514276146 0 0 0 0 -53.700287322024451 -12.671287384719108 0 -12.671287384719108 245.51746597324836 0 0 0 0 -92.816136864516011 30.825173330731559 0 30.825173330731559 176.3676566218719 0 0 0 0 -83.170701171400196 53.209530673644849 0 53.209530673644849 200.6817945601797 0 0 0 0 -84.266713772195544 -13.948937517775448 0 -13.948937517775448 271.80222587708522 0 0 0 0 -144.11393526814163 -21.327535692858874 0 -21.327535692858874 476.8116896952497 0 0 0 0 -60.85372424541174 55.414625409810924 0 55.414625409810924 368.71514907336314 0 0 0 0 1.546887080268057 -0.16109600276623937 0 -0.16109600276623937 0.30044803218475313 0 0 0 0 9.5840029051492195 -57.214208724306332 0 -57.214208724306332 288.09753985774478 0 0 0 0 14.104515088305561 33.410695581860182 0 33.410695581860182 273.49997921554541 0 0 0 0 -76.313837833074103 -3.2659593690668771 0 -3.2659593690668771 109.57642196401957 0 0 0 0 -56.29911327029231 7.7668430609651296 0 7.7668430609651296 100.51640968983338 0 0 0 0 -129.54549158502778 -6.5202278232845856 0 -6.5202278232845856 166.9056086657074 0 0 0 0 -95.86100704986552 40.941315495807657 0 40.941315495807657 143.66788903930319 0 0 0 0 -98.865492465332181 21.733451372655963 0 21.733451372655963 191.01032820237378 0 0 0 0 -190.94220112505457 -231.36432028482591 0 -231.36432028482591 136.12991090254036 0 0 0 0 -117.88666892953967 -118.10006844829786 0 -118.10006844829786 53.237918930133674 0 0 0 0 -141.50641043807946 -82.870842102221104 0 -82.870842102221104 311.8330197650339 0 0 0 0 4.7918912858341471 -30.970031680200265 0 -30.970031680200265 37.935728545825185 0 0 0 0 -230.357363736548 -97.80949280315599 0 -97.80949280315599 85.129400068452981 0 0 0 0 -286.25157639776285 147.57672774877847 0 147.57672774877847 386.43117876140968 0 0 0 0 746.52137963200585 78.371381129556539 0 78.371381129556539 -71.774611153268779 0 0 0 0 1.6827144551452209 -25.517093985943653 0 -25.517093985943653 40.491299235272592 0 0 0 0 -42.336664481138655 -18.057587814072349 0 -18.057587814072349 96.022546311178303 0 0 0 0 80.851413493848668 -185.71701745399332 0 -185.71701745399332 -75.369137435520315 0 0 0 0 147.77161365909433 -347.9080724249834 0 -347.9080724249834 502.51886003340019 0 0 0 0 367.47098460287498 -277.26584128162813 0 -277.26584128162813 265.01397599902884 0 0 0 0 -83.432604740462367 157.30235289464781 0 157.30235289464781 15.323850409258739 0 0 0 0 321.92519612391334 -326.90427752467076 0 -326.90427752467076 504.24968352679025 0 0 0 0 -12.527924011692154 -2.6907269722657219 0 -2.6907269722657219 20.977052530860618 0 0 0 0 -15.199066061361636 -2.3760821364688471 0 -2.3760821364688471 31.312180961469977 0 0 0 0 36.143540203732954 -77.190819729806663 0 -77.190819729806663 52.86259175252053 0 0 0 0 -126.08151676642774 -93.360452230050214 0 -93.360452230050214 347.81322595480287 0 0 0 0 -120.51973546293539 -1.6991709667290706 0 -1.6991709667290706 130.98046221655193 0 0 0 0 28.129025801682928 109.52303522675447 0 109.52303522675447 381.78476123951987 0 0 0 0 -13.289122601692892 -4.0629737721791734 0 -4.0629737721791734 26.118689842465315 0 0 0 0 -104.35746366869608 78.682243598990681 0 78.682243598990681 41.891492893162308 0 0 0 0 -0.50838684677090251 -3.8506182914637872 0 -3.8506182914637872 12.363058966598103 0 0 0 0 2374.6445615895163 -484.7869988769562 0 -484.7869988769562 -555.46115915857808 0 0 0 0 1817.8889789585405 -602.09529388639021 0 -602.09529388639021 -378.92232194445387 0 0 0 0 1817.7570604241678 -641.5097953226541 0 -641.5097953226541 558.73954430712547 0 0 0 0 576.75412363861005 -992.34593036109618 0 -992.34593036109618 1431.1488109353995 0 0 0 0 1373.7947361891083 -106.17208929208755 0 -106.17208929208755 -359.44552510795984 0 0 0 0 365.1714400400806 -914.89009411528787 0 -914.89009411528787 1004.0033742793548 0 0 0 0 1441.2918264663526 -780.35910842058911 0 -780.35910842058911 82.526916002385406 0 0 0 0 95.843185800566516 -467.20519101108675 0 -467.20519101108675 508.29573911759508 0 0 0 0 330.69019823601775 -497.84977643996353 0 -497.84977643996353 501.56843478280553 0 0 0 0 545.40724377813058 -409.85580040210152 0 -409.85580040210152 35.539036641063149 0 0 0 0 609.47408842705408 -481.86124794787429 0 -481.86124794787429 83.729076106348657 0 0 0 0 429.18975341864916 -213.93002091833114 0 -213.93002091833114 53.530390468223231 0 0 0 0 -3.6765520660752506 -4.5621214939257868 0 -4.5621214939257868 67.795306018635529 0 0 0 0 970.2970195613434 159.71961403068417 0 159.71961403068417 -374.82483497654641 0 0 0 0 -96.976211294788186 154.28394975444553 0 154.28394975444553 -8.2933342329624793 0 0 0 0 391.28292997696917 -29.919631691365794 0 -29.919631691365794 -65.368661847827752 0 0 0 0 441.17295774354716 -104.95606361261889 0 -104.95606361261889 -42.530506335293467 0 0 0 0 338.81445302972406 -92.89408509973191 0 -92.89408509973191 16.640447602374479 0 0 0 0 373.73443492959768 -164.93136228441472 0 -164.93136228441472 129.1919906619969 0 0 0 0 452.84093819955126 -196.70977213443041 0 -196.70977213443041 64.110067177723977 0 0 0 0 443.95817063774666 -233.97180506547329 0 -233.97180506547329 74.881470338939835 0 0 0 0 308.6230775761378 -231.34819885538991 0 -231.34819885538991 190.04100277902398 0 0 0 0 288.3814482251455 -218.05315216738018 0 -218.05315216738018 198.08188059389477 0 0 0 0 282.77201231272829 -210.2866125771634 0 -210.2866125771634 213.61971855268348 0 0 0 0 -20.043270525870867 -18.845243950027907 0 -18.845243950027907 95.927737818373885 0 0 0 0 -15.365219386117124 22.863612703101687 0 22.863612703101687 60.685977290699626 0 0 0 0 281.11181044209479 -287.6580547258327 0 -287.6580547258327 320.91778133063417 0 0 0 0 318.6101126737758 -474.48857573059468 0 -474.48857573059468 642.49626183942746 0 0 0 0 338.26968321148797 -287.4270082352914 0 -287.4270082352914 243.18860283452523 0 0 0 0 344.4272338942601 -312.12467756819206 0 -312.12467756819206 298.49973408163169 0 0 0 0 317.0413396139993 -382.31471274572777 0 -382.31471274572777 383.96374009535066 0 0 0 0 399.68871684030546 -308.4891391938072 0 -308.4891391938072 345.42362729306478 0 0 0 0 400.63430224714466 -365.77793043622296 0 -365.77793043622296 256.69486499836694 0 0 0 0 27.056386513638245 41.584849767568812 0 41.584849767568812 162.73399725183845 0 0 0 0 -15.900398123815366 125.3359404876137 0 125.3359404876137 383.52379409172863 0 0 0 0 -0.11696209429277876 4.6177783604871365 0 4.6177783604871365 356.1996785166848 0 0 0 0 23.954947692808894 36.90095898121217 0 36.90095898121217 153.48339292071796 0 0 0 0 0.11473934414151585 -10.19559920480242 0 -10.19559920480242 15.769139427728078 0 0 0 0 -12.660845980929114 60.564295116630092 0 60.564295116630092 149.40674586057321 0 0 0 0 21.722689500022629 -33.402995446558634 0 -33.402995446558634 -8.3378142684159684 0 0 0 0 -0.46634065018606441 -0.19384597176562579 0 -0.19384597176562579 0.12950444689957408 0 0 0 0 6.6821063690639093 -3.3718770361374482 0 -3.3718770361374482 4.2966634416952729 0 0 0 0 39.569835233314791 -74.940478872245876 0 -74.940478872245876 -18.490410550075467 0 0 0 0 77.781534226801853 86.522835396659502 0 86.522835396659502 12.3076292903188 0 0 0 0 -1.5528519715084459 1.5365944029963998 0 1.5365944029963998 1.8010235094108964 0 0 0 0 0.45463376527520394 0.99114839814694733 0 0.99114839814694733 2.4761997706251009 0 0 0 0 -32.614629111180534 107.3166733667822 0 107.3166733667822 124.67177824251849 0 0 0 0 101.58330059087049 301.13948579240832 0 301.13948579240832 413.39444079097302 0 0 0 0 137.66710315950678 -124.79365017755481 0 -124.79365017755481 507.77311914195889 0 0 0 0 -60.280206225807618 25.200746753049316 0 25.200746753049316 670.02128080592229 0 0 0 0 31.452926721341157 -190.74812818216014 0 -190.74812818216014 734.70798161506536 0 0 0 0 128.30401264661739 201.02085287726368 0 201.02085287726368 617.49097766958585 0 0 0 0 1.5751475635585941 2.7155733960224495 0 2.7155733960224495 3.3400889259542055 0 0 0 0 43.277363697216913 -87.552639857453869 0 -87.552639857453869 365.35472603628295 0 0 0 0 -14.384185586903385 119.84321887531223 0 119.84321887531223 404.8393139502441 0 0 0 0 -19.4397628435275 18.119206020652882 0 18.119206020652882 413.93885620043147 0 0 0 0 122.1306102126871 129.72976919439679 0 129.72976919439679 287.36020304680278 0 0 0 0 327.56423873400661 35.136490266835608 0 35.136490266835608 310.56086256771232 0 0 0 0 86.170589878097161 -30.17373217549175 0 -30.17373217549175 294.70096502802699 0 0 0 0 41.343970693317303 -15.738335839763749 0 -15.738335839763749 308.1760502317278 0 0 0 0 -21.266742022359267 47.684408223896753 0 47.684408223896753 332.2389570872474 0 0 0 0 41.700995384268055 8.578024409529462 0 8.578024409529462 169.01149551055278 0 0 0 0 -42.247929394304549 20.755776661229902 0 20.755776661229902 477.51724368831492 0 0 0 0 35.266872280822554 19.221208200207911 0 19.221208200207911 307.83718138200436 0 0 0 0 -66.102422590777621 52.008471760185785 0 52.008471760185785 387.12060292426622 0 0 0 0 -72.321553743342321 88.089333603315026 0 88.089333603315026 464.07576123232138 0 0 0 0 -71.750606428973938 83.755496071578818 0 83.755496071578818 451.60622930678073 0 0 0 0 -73.965976530082898 37.412216029770207 0 37.412216029770207 473.44369497703156 0 0 0 0 -72.895113281918526 82.099061856439221 0 82.099061856439221 505.19701897611094 0 0 0 0 12.745594872153791 8.1471360302566609 0 8.1471360302566609 559.98696863715304 0 0 0 0 -75.335805947939662 34.492024654449779 0 34.492024654449779 505.59118681939435 0 0 0 0 -4.4251845222024357 164.51659422215016 0 164.51659422215016 335.15614745020139 0 0 0 0 -0.029222377356048424 0.14055726032833782 0 0.14055726032833782 1.2269558891052839 0 0 0 0 -5.5385186182185073 138.63497543105041 0 138.63497543105041 171.58558905399696 0 0 0 0 -67.145540152677768 102.54094489956333 0 102.54094489956333 478.2556434389262 0 0 0 0 -64.599179748533274 80.638110183426761 0 80.638110183426761 346.60878441363457 0 0 0 0 21.532975951917479 113.57319083214679 0 113.57319083214679 197.43161246101954 0 0 0 0 45.176721042944109 -23.856915231939638 0 -23.856915231939638 -94.285551999404561 0 0 0 0 23.88008689498767 95.563825493780314 0 95.563825493780314 -1.3302731309086084 0 0 0 0 0.15584876875098286 -0.93885486259159734 0 -0.93885486259159734 -17.339241714449599 0 0 0 0 61.919605704783663 27.183362106399727 0 27.183362106399727 30.592498254176462 0 0 0 0 44.362963568261591 16.232872341100347 0 16.232872341100347 50.540170982829295 0 0 0 0 58.059149166374866 -30.070523513713852 0 -30.070523513713852 -18.246001952749793 0 0 0 0 -7.0018935359985335 -35.525740332494024 0 -35.525740332494024 19.849454935494578 0 0 0 0 -14.387829034659859 -94.564840338658541 0 -94.564840338658541 -36.784341987251537 0 0 0 0 60.001893352324402 56.033134196186438 0 56.033134196186438 102.51424652928836 0 0 0 0 50.253136786315366 -21.449094803552725 0 -21.449094803552725 94.436527723051768 0 0 0 0 100.05651886585491 -36.613755992264487 0 -36.613755992264487 17.288752896303777 0 0 0 0 103.6164626334227 2.9549116180087367 0 2.9549116180087367 24.457097502512624 0 0 0 0 68.536479382110798 -19.598777322131355 0 -19.598777322131355 26.209566172416089 0 0 0 0 77.805783917561982 -33.376270822787774 0 -33.376270822787774 -7.6483442305470817 0 0 0 0 46.295504338620603 -29.964898940379499 0 -29.964898940379499 18.941165370255476 0 0 0 0 51.553906878898985 -30.004186414342257 0 -30.004186414342257 -25.029305195290362 0 0 0 0 54.661866424976246 -43.04227563997847 0 -43.04227563997847 -1.3400912392899045 0 0 0 0 62.946996555512222 -40.511346356797731 0 -40.511346356797731 -3.0060937000380363 0 0 0 0 -0.052848189161202708 -0.28372036299650816 0 -0.28372036299650816 2.0650925549936687 0 0 0 0 -0.031557290737648111 2.226778797108901 0 2.226778797108901 -42.372597126988694 0 0 0 0 -105.66057911977956 -51.028571789058333 0 -51.028571789058333 31.622709708433831 0 0 0 0 -1.5859564625303655 1.0248617407705751 0 1.0248617407705751 32.420942928700242 0 0 0 0 48.98386832596259 -41.527532756530491 0 -41.527532756530491 -10.377958530501928 0 0 0 0 0.30025195064816046 -44.081715851891204 0 -44.081715851891204 4.9018894733308116 0 0 0 0 -23.491109138971566 14.052993594144937 0 14.052993594144937 -12.393670468271011 0 0 0 0 -15.724270371896363 -10.538846798477607 0 -10.538846798477607 71.535683681344381 0 0 0 0 88.145501044354006 -61.608543027388805 0 -61.608543027388805 20.565856375964358 0 0 0 0 0.057280137547178568 -0.29020669201051064 0 -0.29020669201051064 0.85738812762349426 0 0 0 0 57.387380681422457 -56.359131186009108 0 -56.359131186009108 -4.7121013950381894 0 0 0 0 53.199469365574792 -15.136084835568909 0 -15.136084835568909 -34.93300272776105 0 0 0 0 49.487472427281268 -50.210583833119017 0 -50.210583833119017 25.232247246312909 0 0 0 0 49.492746133210389 -45.955198947296594 0 -45.955198947296594 0.14583912353555206 0 0 0 0 44.393054443091955 -39.372068267024588 0 -39.372068267024588 19.31302644466632 0 0 0 0 35.007230189558513 -37.859953488310566 0 -37.859953488310566 19.10602834058227 0 0 0 0 44.514634074965997 -51.267628835383221 0 -51.267628835383221 25.313558940851181 0 0 0 0 38.016898985269023 -49.376570585169247 0 -49.376570585169247 60.820181929913815 0 0 0 0 1.6175850521313464 8.8402777311421232 0 8.8402777311421232 84.95285962620801 0 0 0 0 14.961288770963529 2.0035552742299387 0 2.0035552742299387 49.45277566293953 0 0 0 0 12.282320661886516 3.4754567684722133 0 3.4754567684722133 105.12199460623378 0 0 0 0 14.932211650941056 0.41616714574047364 0 0.41616714574047364 108.63811070314841 0 0 0 0 49.508754427275392 -73.987247015287721 0 -73.987247015287721 119.37908998085186 0 0 0 0 0.011232006141344061 -52.656937283611377 0 -52.656937283611377 176.84147034276975 0 0 0 0 9.4364148781280246 10.075634998614987 0 10.075634998614987 182.97613680598442 0 0 0 0 -96.419434248000186 36.332329677730741 0 36.332329677730741 13.368134490796365 0 0 0 0 -46.856327049844595 -5.5858822077570949 0 -5.5858822077570949 -2.474596946114616 0 0 0 0 -90.314308969843182 28.143108288983058 0 28.143108288983058 9.6426418014161754 0 0 0 0 -131.53781536619667 117.38974738700199 0 117.38974738700199 -71.752630483650137 0 0 0 0 -104.02820657946972 1.915342641834286 0 1.915342641834286 -25.971438219392439 0 0 0 0 -67.789924299235679 45.459260155053926 0 45.459260155053926 -64.292454177033505 0 0 0 0 -0.99730022166763588 -1.0871340380900847 0 -1.0871340380900847 3.5191999729966597 0 0 0 0 -27.27326330280016 -55.529600245892652 0 -55.529600245892652 235.3353825099839 0 0 0 0 -163.82285587536944 91.621479749781429 0 91.621479749781429 -40.945191525039263 0 0 0 0 -1.0832004585606485 -2.1465486466583172 0 -2.1465486466583172 2.9125557943842466 0 0 0 0 -165.96429149814537 101.22753323374491 0 101.22753323374491 -1.2890422453929204 0 0 0 0 -25.257447696249415 30.443284374268842 0 30.443284374268842 69.665064212000289 0 0 0 0 -25.283103207082149 31.928648869841709 0 31.928648869841709 -11.131317946856143 0 0 0 0 -2.5163458676190515 25.820885732442548 0 25.820885732442548 28.042978364916053 0 0 0 0 10.802047482345358 4.0145428811229067 0 4.0145428811229067 48.84771536255721 0 0 0 0 5.2414748019770627 -9.6697453232991393 0 -9.6697453232991393 19.757966150500579 0 0 0 0 -13.668242793822401 -9.8673268083075527 0 -9.8673268083075527 29.59668640277232 0 0 0 0 -21.287820226889067 14.497163316817023 0 14.497163316817023 9.3405379851465113 0 0 0 0 24.974565567512798 -32.264789428867516 0 -32.264789428867516 43.309766341295472 0 0 0 0 19.690971292718359 -25.827020837386954 0 -25.827020837386954 16.209088673080259 0 0 0 0 8.0108232458021575 -9.1743382175191073 0 -9.1743382175191073 11.93065877474146 0 0 0 0 31.958006039625673 -25.167433574344614 0 -25.167433574344614 7.8692808753839927 0 0 0 0 35.023595472498613 -24.488329500549298 0 -24.488329500549298 7.4706596085743513 0 0 0 0 -11.737954693725953 10.334696756701305 0 10.334696756701305 15.141208815955906 0 0 0 0 28.355725411143965 7.4885221902513877 0 7.4885221902513877 12.758738141572394 0 0 0 0 -51.677250685139541 -3.232891352759907 0 -3.232891352759907 23.049531990342075 0 0 0 0 -45.62562824344468 10.141100125936646 0 10.141100125936646 13.877149795240257 0 0 0 0 -81.653749891991652 46.28825181065622 0 46.28825181065622 26.573413442762103 0 0 0 0 -45.011802740585665 79.485028469505778 0 79.485028469505778 28.062403363612248 0 0 0 0 -99.249682472938787 28.853638334101561 0 28.853638334101561 59.056085436226567 0 0 0 0 56.418855775651274 -20.475101964480928 0 -20.475101964480928 2.4053634922602214 0 0 0 0 21.924395782354225 4.9872789322544122 0 4.9872789322544122 15.904451789727318 0 0 0 0 54.019510619322318 18.450994405517122 0 18.450994405517122 10.999225505947834 0 0 0 0 79.79981822923844 -24.736710067416425 0 -24.736710067416425 3.0872113408186124 0 0 0 0 147.24545177707842 5.4740138999331975 0 5.4740138999331975 117.94151052317466 0 0 0 0 65.064004356592406 -9.5068680964322994 0 -9.5068680964322994 117.41162205666478 0 0 0 0 99.488284377187824 -23.699840963781753 0 -23.699840963781753 26.950828738088603 0 0 0 0 -33.932314989319934 -29.801254626880109 0 -29.801254626880109 135.250625423374 0 0 0 0 77.68757549033198 65.63555692571299 0 65.63555692571299 2.780726175988093 0 0 0 0 -1.5060733796051022 0.23679068026009986 0 0.23679068026009986 -0.52266377103376982 0 0 0 0 -23.194185757050377 95.515408803650644 0 95.515408803650644 21.835417534210137 0 0 0 0 -107.53523675719572 129.08753894699294 0 129.08753894699294 263.21070177963702 0 0 0 0 0.23619974675307276 1.6349979250080651 0 1.6349979250080651 82.678365669678897 0 0 0 0 -47.607505238924659 27.824702001642436 0 27.824702001642436 233.66643998071686 0 0 0 0 -47.539428648415651 38.325855069662794 0 38.325855069662794 227.09682897921448 0 0 0 0 -9.4840132381956153 35.679907386862851 0 35.679907386862851 45.172003657469759 0 0 0 0 -3.5129604090210478 -6.2889204378661816 0 -6.2889204378661816 30.503907934064046 0 0 0 0 -73.35911864587024 -0.6622757118602749 0 -0.6622757118602749 90.484927967219846 0 0 0 0 -1.4057313660323254 7.5651957102819409 0 7.5651957102819409 17.052010676539965 0 0 0 0 -62.66018414562916 19.615907942687045 0 19.615907942687045 46.845375163044082 0 0 0 0 -51.917112078914556 43.180951175141672 0 43.180951175141672 1.20813492995876 0 0 0 0 -48.839367681262388 32.559062654821901 0 32.559062654821901 -2.1836439585895278 0 0 0 0 -14.64551449979675 -1.2239309626489501 0 -1.2239309626489501 17.876397363783468 0 0 0 0 -9.8586686474063185 9.5995016226552252 0 9.5995016226552252 37.550414355806424 0 0 0 0 -0.049043258372080345 7.2122911821606976 0 7.2122911821606976 26.682138187708915 0 0 0 0 65.091150696312468 385.73397977849254 0 385.73397977849254 230.25009701022645 0 0 0 0 -4.2842427768847884 -8.2695966879471712 0 -8.2695966879471712 5.9734784489077128 0 0 0 0 101.63679811049155 -30.614988207089482 0 -30.614988207089482 83.731736885260034 0 0 0 0 -52.432349187552518 40.045416414468491 0 40.045416414468491 -12.532924486673437 0 0 0 0 -0.94205784181984598 4.2292722246256744 0 4.2292722246256744 30.328806841978803 0 0 0 0 -10.20364717415714 -140.25405696337111 0 -140.25405696337111 328.25316791694786 0 0 0 0 -13.386384094152163 16.273960471897226 0 16.273960471897226 28.590271723471233 0 0 0 0 -0.018185676486041302 12.966390598185228 0 12.966390598185228 32.955897603604626 0 0 0 0 -101.84409971760215 16.085983188997488 0 16.085983188997488 73.429737327620387 0 0 0 0 -4.2052602360272431 11.81317497717464 0 11.81317497717464 22.354041160288034 0 0 0 0 -6.3797413932343261 11.303220899346343 0 11.303220899346343 22.671213940571761 0 0 0 0 -181.55182286595027 98.463973630037799 0 98.463973630037799 5.2607142700871918 0 0 0 0 -85.443582152705403 95.538061092618591 0 95.538061092618591 1.0187253045878606 0 0 0 0 -7.9635182656541019 15.000663449438434 0 15.000663449438434 21.538541703761439 0 0 0 0 -16.37064780603955 2.7358811676224377 0 2.7358811676224377 13.391658498653875 0 0 0 0 -0.93572341237911605 7.0411135372990472 0 7.0411135372990472 19.455963602977477 0 0 0 0 -21.947793867526343 67.35007771968958 0 67.35007771968958 -25.260688387494156 0 0 0 0 1.2198306470161517 13.557041157347271 0 13.557041157347271 20.658524938228766 0 0 0 0 -3.7852592269742242 3.8469944104988656 0 3.8469944104988656 7.9214627037226251 0 0 0 0 -1.9360602765777912 -45.244609140543616 0 -45.244609140543616 217.06174636841752 0 0 0 0 -1.8872347776026004 -46.503545200540884 0 -46.503545200540884 237.12325902620796 0 0 0 0 13.546110246554047 19.173018031101734 0 19.173018031101734 20.381403437994265 0 0 0 0 -170.50266353896222 134.96972736192401 0 134.96972736192401 76.861369377933443 0 0 0 0 69.86574380078855 -0.20989542872121092 0 -0.20989542872121092 101.88833974392037 0 0 0 0 50.318987614231446 -163.55355195935954 0 -163.55355195935954 119.8981445163954 0 0 0 0 -428.53769800008831 -152.0612226601661 0 -152.0612226601661 331.17972496419679 0 0 0 0 67.879421650934091 -147.19080304715317 0 -147.19080304715317 319.89231950373505 0 0 0 0 296.72187692195894 -369.56172952257475 0 -369.56172952257475 376.05414495035075 0 0 0 0 250.75071323002976 -269.00312445394229 0 -269.00312445394229 167.35300027875928 0 0 0 0 4.8822642682903279 -142.04667653681281 0 -142.04667653681281 479.50468783441465 0 0 0 0 0.39020644472770982 -112.83013431467043 0 -112.83013431467043 351.27758775936672 0 0 0 0 -64.817270011952132 -31.149008240987314 0 -31.149008240987314 452.3868238889554 0 0 0 0 -38.146913146644238 -33.106018521977603 0 -33.106018521977603 488.49938976950943 0 0 0 0 -38.878337746799161 -38.625094077327958 0 -38.625094077327958 447.94270075199893 0 0 0 0 8.6995252954247917 -107.56987669943192 0 -107.56987669943192 590.57467420579633 0 0 0 0 129.74823616113099 -293.5064620073972 0 -293.5064620073972 665.74964780290611 0 0 0 0 5.8226871446568111 -93.159019720042124 0 -93.159019720042124 667.80262460687663 0 0 0 0 17.681652599623703 62.703120158264937 0 62.703120158264937 569.71878549276153 0 0 0 0 -51.507048481376842 86.850221954955487 0 86.850221954955487 622.09708240329564 0 0 0 0 -49.439538717889718 52.522557713760762 0 52.522557713760762 470.65726210951107 0 0 0 0 -51.767790555237752 61.941246732203581 0 61.941246732203581 436.69883242307696 0 0 0 0 -69.05765072750728 81.389779848075705 0 81.389779848075705 493.89136775753286 0 0 0 0 -13.484410906403355 166.96901591771166 0 166.96901591771166 408.72342198748083 0 0 0 0 -29.00788605015623 113.13369643557235 0 113.13369643557235 340.02285790501628 0 0 0 0 85.193205538438633 279.63791944248078 0 279.63791944248078 366.84458048093074 0 0 0 0 3.3591639830710847 228.03830297672539 0 228.03830297672539 600.66898812173167 0 0 0 0 3.5552665842460556 142.26830670958589 0 142.26830670958589 358.00622347451281 0 0 0 0 -86.449737668073794 59.493988857779186 0 59.493988857779186 358.52971209149109 0 0 0 0 -86.492239389768656 61.744518209248781 0 61.744518209248781 324.8656004438526 0 0 0 0 -82.730052656952466 64.296691666124389 0 64.296691666124389 325.29874168074093 0 0 0 0 -61.207155683632664 90.62360978833749 0 90.62360978833749 330.77277985191904 0 0 0 0 -77.060326318480293 58.121661545141251 0 58.121661545141251 295.86729129869491 0 0 0 0 -55.726564250233423 87.097211927699391 0 87.097211927699391 298.92254126179068 0 0 0 0 -43.064547038875844 126.38627575926512 0 126.38627575926512 379.32974542665761 0 0 0 0 -77.733081687091271 75.941761035268428 0 75.941761035268428 375.20485366991488 0 0 0 0 -71.551998856164573 91.385157388314838 0 91.385157388314838 457.06355890928535 0 0 0 0 -73.140626927851372 67.481010756382602 0 67.481010756382602 376.78506146278596 0 0 0 0 -84.337785422101661 6.9146031020209193 0 6.9146031020209193 495.1949036300939 0 0 0 0 -95.870847825645797 19.373769470956177 0 19.373769470956177 399.05892858910374 0 0 0 0 -106.18719918754186 40.433174743491691 0 40.433174743491691 357.13439973103232 0 0 0 0 -103.35814780604414 46.468045739544323 0 46.468045739544323 412.53405026216933 0 0 0 0 -103.55348361087067 50.219520768881921 0 50.219520768881921 375.92712272354402 0 0 0 0 -103.55266633354586 25.85872808865679 0 25.85872808865679 369.64032706769649 0 0 0 0 -95.875985108958048 22.337871380004799 0 22.337871380004799 370.73234321397831 0 0 0 0 -72.872608792098617 -9.1990234304921614 0 -9.1990234304921614 332.32509780555847 0 0 0 0 -90.274552437153034 29.710029717592988 0 29.710029717592988 417.16606577404309 0 0 0 0 -65.246735462460492 -41.941960243682843 0 -41.941960243682843 391.06481331116811 0 0 0 0 -16.494182892618937 -51.642135273308668 0 -51.642135273308668 318.33005618586321 0 0 0 0 -1.7638690952089746 -53.766002409902285 0 -53.766002409902285 232.34240780018445 0 0 0 0 -73.059958781282148 -8.8286128380714217 0 -8.8286128380714217 349.4197348569578 0 0 0 0 -78.352882361522461 11.422817501603276 0 11.422817501603276 309.08539739312255 0 0 0 0 -37.646490017466022 -4.7597306098614354 0 -4.7597306098614354 224.22312576386321 0 0 0 0 -78.342858750425876 11.737414709554287 0 11.737414709554287 302.5966667982575 0 0 0 0 -59.89630721930007 34.951152723515406 0 34.951152723515406 234.31057159622469 0 0 0 0 -95.389830491767952 88.089767075522104 0 88.089767075522104 279.57461474226147 0 0 0 0 -56.653326906550774 46.147693664534017 0 46.147693664534017 223.7667740225661 0 0 0 0 -105.6769145335461 55.514921045629308 0 55.514921045629308 363.56274701474467 0 0 0 0 -103.2050982085766 29.46358033127035 0 29.46358033127035 355.32953028536576 0 0 0 0 -106.32177847087473 47.584880851034541 0 47.584880851034541 321.36499538033968 0 0 0 0 -79.035812495204254 44.359874925168697 0 44.359874925168697 326.14412135467137 0 0 0 0 -103.02551419205179 102.91012169984606 0 102.91012169984606 366.25706648360938 0 0 0 0 -104.76010575322562 30.786029112234246 0 30.786029112234246 534.00583590687893 0 0 0 0 -116.70262357896536 36.758945521811256 0 36.758945521811256 383.94093787469319 0 0 0 0 -106.6853290483408 51.783428920715778 0 51.783428920715778 403.88094226206886 0 0 0 0 -104.49984403090457 -10.557275159750134 0 -10.557275159750134 425.66793235354999 0 0 0 0 -80.932806071417872 -25.152340285945684 0 -25.152340285945684 317.94273231038824 0 0 0 0 -112.21462949853799 16.019318840371852 0 16.019318840371852 338.84929022128927 0 0 0 0 -42.433144369071215 -82.343921293897438 0 -82.343921293897438 491.76564596079697 0 0 0 0 -67.534140837010455 -23.908904125710251 0 -23.908904125710251 356.33223695345805 0 0 0 0 -68.844329297178774 -46.916428269527387 0 -46.916428269527387 367.60549864557106 0 0 0 0 -117.43464082932496 43.076189810439246 0 43.076189810439246 365.29809618741274 0 0 0 0 -117.66616363490266 41.552041395661945 0 41.552041395661945 358.09188325615833 0 0 0 0 -123.08888330056448 47.531952171149896 0 47.531952171149896 375.30123044110951 0 0 0 0 -122.07337111320521 44.418276983662508 0 44.418276983662508 359.28998203611263 0 0 0 0 -114.93072187970211 25.518853340494388 0 25.518853340494388 325.38969389931299 0 0 0 0 -117.66275637738454 18.450395804917207 0 18.450395804917207 371.70157005766123 0 0 0 0 -91.399092292922433 11.783581730007427 0 11.783581730007427 326.77467922008327 0 0 0 0 -107.31063409705712 48.203925132751465 0 48.203925132751465 358.54548310565951 0 0 0 0 -90.58656714288918 44.208776280574966 0 44.208776280574966 315.16128249244866 0 0 0 0 -107.83607201376617 36.711612413651892 0 36.711612413651892 317.82110307522817 0 0 0 0 -114.19152865905107 33.83103939772991 0 33.83103939772991 357.05642191991865 0 0 0 0 -80.615722037835894 26.368555098495563 0 26.368555098495563 245.73398878667285 0 0 0 0 -55.77092187628682 -17.515615038733813 0 -17.515615038733813 150.46103319769463 0 0 0 0 -85.73609890850048 42.7662297808929 0 42.7662297808929 266.48895606951555 0 0 0 0 -87.607954016932126 28.989267501914583 0 28.989267501914583 246.36106050547096 0 0 0 0 -79.445001738013843 -0.23541346004640218 0 -0.23541346004640218 233.26282540868851 0 0 0 0 -70.509406303622995 33.569795827464986 0 33.569795827464986 211.03772762947483 0 0 0 0 -62.419974548865412 20.759014988521812 0 20.759014988521812 174.39144919809769 0 0 0 0 -32.476630038850999 57.215844109858153 0 57.215844109858153 137.66703128392692 0 0 0 0 -29.428301264745187 28.471656776731834 0 28.471656776731834 85.406015709764688 0 0 0 0 10.028018553052334 -72.582423863030272 0 -72.582423863030272 397.19864604441682 0 0 0 0 10.535405485472438 -185.74204304201703 0 -185.74204304201703 129.70608495816123 0 0 0 0 -12.787042598122753 -16.853314191903337 0 -16.853314191903337 200.00589972926537 0 0 0 0 12.202339470632978 -69.563912752233591 0 -69.563912752233591 261.66091210534796 0 0 0 0 -79.328132953467502 -13.104425277924747 0 -13.104425277924747 296.08422554697609 0 0 0 0 2.2621825133305515 16.428672336330237 0 16.428672336330237 1.4316457454260672 0 0 0 0 2.2176563260360136 6.0809972981219573 0 6.0809972981219573 9.1335429628956604 0 0 0 0 -16.272622735508776 85.790910288604209 0 85.790910288604209 -45.275274712723331 0 0 0 0 -16.588410310038626 -6.5360396206160658 0 -6.5360396206160658 -0.18914233506075107 0 0 0 0 -41.686650341486711 45.700270367407938 0 45.700270367407938 132.99027280579321 0 0 0 0 -24.646093973354255 20.754419535049237 0 20.754419535049237 15.005232359486399 0 0 0 0 -20.444590450078977 33.949040006613359 0 33.949040006613359 36.411160015331916 0 0 0 0 13.791837597960694 28.787598635826726 0 28.787598635826726 35.796476869323669 0 0 0 0 -44.851878149174354 29.211217533229501 0 29.211217533229501 120.18980595795438 0 0 0 0 49.725770729772194 24.936639820443816 0 24.936639820443816 0.95130588889878709 0 0 0 0 23.541491189948829 57.448963226517662 0 57.448963226517662 97.076880390930455 0 0 0 0 18.932531262975772 -24.802474696545687 0 -24.802474696545687 -11.247736642253585 0 0 0 0 33.46316758447756 5.0733996060007485 0 5.0733996060007485 6.9922166066535283 0 0 0 0 46.638810727445161 -30.064602080557961 0 -30.064602080557961 -14.603488691907842 0 0 0 0 64.93651355518341 -62.197960925477673 0 -62.197960925477673 -41.745230586151592 0 0 0 0 123.3909060800288 -30.563299334116891 0 -30.563299334116891 -73.48658505702042 0 0 0 0 130.91589254580231 -46.957314224200672 0 -46.957314224200672 -56.004696478252299 0 0 0 0 139.33424324033513 46.82216134837654 0 46.82216134837654 -32.816044174600393 0 0 0 0 78.200491857769521 57.691617043426959 0 57.691617043426959 38.104082213394577 0 0 0 0 133.96900601659218 37.749598030553898 0 37.749598030553898 -48.015819689739146 0 0 0 0 87.786612612539102 -17.787621086958097 0 -17.787621086958097 -75.467005285288906 0 0 0 0 88.842468441649544 10.799434192595072 0 10.799434192595072 6.0092628646234516 0 0 0 0 88.282663467102793 99.627910642317147 0 99.627910642317147 40.783000921801431 0 0 0 0 113.5891281301765 149.4370374752325 0 149.4370374752325 117.72167150513269 0 0 0 0 161.76156523918962 128.95033263838559 0 128.95033263838559 -40.635310473733625 0 0 0 0 62.038541677999092 241.82797055767151 0 241.82797055767151 347.24616889395475 0 0 0 0 74.744799764239588 196.34666909456428 0 196.34666909456428 293.42639361228794 0 0 0 0 48.7856915696957 132.78848290753376 0 132.78848290753376 184.40346066400525 0 0 0 0 51.184796901335176 173.85090963789844 0 173.85090963789844 184.37122688713134 0 0 0 0 45.187186542299969 120.18223060973105 0 120.18223060973105 162.25616908159282 0 0 0 0 11.613021558332548 161.83218596305232 0 161.83218596305232 322.27680117838463 0 0 0 0 -7.231565115011108 104.5290951889765 0 104.5290951889765 211.43531737904414 0 0 0 0 -34.533242582950152 109.27844554370677 0 109.27844554370677 300.51479365602063 0 0 0 0 -48.556588511932205 51.59883978808648 0 51.59883978808648 206.33991964126471 0 0 0 0 -38.465722036570241 94.968270123797993 0 94.968270123797993 248.78524110940634 0 0 0 0 -54.390056619256029 62.336243283454678 0 62.336243283454678 249.31358833346167 0 0 0 0 -14.914771607222974 78.922887731256196 0 78.922887731256196 184.64980473443575 0 0 0 0 -27.381583127084014 41.927426893766096 0 41.927426893766096 121.07720632944256 0 0 0 0 14.795508839541981 63.357185621913231 0 63.357185621913231 95.457587311131647 0 0 0 0 21.756589656943106 83.754884404537734 0 83.754884404537734 148.49171091061726 0 0 0 0 -4.1790601266408665 -2.2485713790427155 0 -2.2485713790427155 0.87551046002734267 0 0 0 0 95.324603886591831 39.170793656543538 0 39.170793656543538 -177.32397374158609 0 0 0 0 290.32122073976666 -305.64963094334234 0 -305.64963094334234 -817.07852462779556 0 0 0 0 565.94390171630766 67.0233516885055 0 67.0233516885055 -94.556963168332004 0 0 0 0 -22.706377887905546 294.90970650750387 0 294.90970650750387 -25.792745877959533 0 0 0 0 212.92623776308665 183.34477480003261 0 183.34477480003261 22.712610275659245 0 0 0 0 -129.39240167722346 -185.50778693123721 0 -185.50778693123721 -85.87069894895285 0 0 0 0 149.04285228336812 371.10849677515216 0 371.10849677515216 296.37260774377501 0 0 0 0 189.92933235349665 309.74223335945862 0 309.74223335945862 12.501285663573071 0 0 0 0 140.9766748712841 107.20600892705261 0 107.20600892705261 -38.941781041794457 0 0 0 0 174.55429220183851 114.13245655091305 0 114.13245655091305 -85.227724407552159 0 0 0 0 170.21222199069234 35.981870404706569 0 35.981870404706569 -569.48619055601011 0 0 0 0 -69.655934935662117 -131.30818024714245 0 -131.30818024714245 -127.41417323811038 0 0 0 0 169.46755650984824 36.891914605999773 0 36.891914605999773 -204.14392288899398 0 0 0 0 81.470967158811618 -82.32219435274601 0 -82.32219435274601 -132.89832972400472 0 0 0 0 39.379466300165404 -24.098233884036745 0 -24.098233884036745 -22.096951206884114 0 0 0 0 -58.087994728377907 -28.776212377808406 0 -28.776212377808406 86.670484800722988 0 0 0 0 5.0458682470083822 -6.9124665638824467 0 -6.9124665638824467 3.7705170773013208 0 0 0 0 -76.876133290269365 -36.97018849037272 0 -36.97018849037272 7.147102164090029 0 0 0 0 6.1075329094260269 34.093642347688728 0 34.093642347688728 78.873690930370685 0 0 0 0 -6.1556419099002824 -9.0160174854827346 0 -9.0160174854827346 24.55173431980802 0 0 0 0 -2.1901971124398187 -17.999693759535148 0 -17.999693759535148 33.680781760660466 0 0 0 0 -0.23363821102509519 -17.350574765616329 0 -17.350574765616329 58.548600193375023 0 0 0 0 -6.6999714743550385 -11.837199096728 0 -11.837199096728 34.776675732660806 0 0 0 0 -0.38657601037296185 -0.60762750378955843 0 -0.60762750378955843 9.1978780849105704 0 0 0 0 3.4485441171618243 -9.5577709812226317 0 -9.5577709812226317 25.644600971807051 0 0 0 0 -7.5697105017261492 -8.3455627188232029 0 -8.3455627188232029 -4.8484231997281313 0 0 0 0 -1.9057651080082394 -15.433866185485385 0 -15.433866185485385 -15.817055342322419 0 0 0 0 -3.872336053213786 -8.6664287539535962 0 -8.6664287539535962 8.7726538189829384 0 0 0 0 -139.86609672634495 -453.06907525489805 0 -453.06907525489805 -86.599436745120329 0 0 0 0 -8.7373180099982619 -13.669890627286804 0 -13.669890627286804 38.433158286570688 0 0 0 0 -0.078482359254758549 -2.8626353714494712 0 -2.8626353714494712 0.91540885694635676 0 0 0 0 -283.24811373681041 -18.87353401317705 0 -18.87353401317705 333.38418191352685 0 0 0 0 -135.78990887306509 89.50645754240395 0 89.50645754240395 284.51652545093384 0 0 0 0 -67.784744616532862 -103.27469396386368 0 -103.27469396386368 -14.30738614081929 0 0 0 0 145.10611085626442 -123.58046373578327 0 -123.58046373578327 -65.10368308131001 0 0 0 0 -1.2446566132733086 -1.2446495959719215 0 -1.2446495959719215 2.705324368816548 0 0 0 0 43.44328821156796 20.743991344512324 0 20.743991344512324 -14.720491013649735 0 0 0 0 -206.06473278833161 -173.9387234836031 0 -173.9387234836031 94.908157548023155 0 0 0 0 1.7388547059424742 -43.522784752456573 0 -43.522784752456573 160.55318056824035 0 0 0 0 28.633777047491094 70.718086896864406 0 70.718086896864406 110.29724586749217 0 0 0 0 -7.3968919067319803 29.942172440394643 0 29.942172440394643 63.286086147592869 0 0 0 0 -21.276461661453141 54.089821431829478 0 54.089821431829478 63.165812341321725 0 0 0 0 -135.7432149709108 114.9066569781935 0 114.9066569781935 221.5684679535625 0 0 0 0 -62.775132879003195 23.480093822683557 0 23.480093822683557 122.49853793695365 0 0 0 0 13.174099096484497 101.72063348544179 0 101.72063348544179 83.619288727961248 0 0 0 0 10.996726177332846 69.24349635562794 0 69.24349635562794 -8.6265251326258294 0 0 0 0 26.387729312226384 267.89126801371458 0 267.89126801371458 227.74151416259701 0 0 0 0 -91.496197651250895 198.21060398920963 0 198.21060398920963 373.94630028315078 0 0 0 0 -2.4076069940347224 210.51206473277125 0 210.51206473277125 117.61803003257955 0 0 0 0 1.0330372997229915 320.16358287995536 0 320.16358287995536 169.11398697720142 0 0 0 0 32.379641130430628 413.8642006720911 0 413.8642006720911 442.9593582029047 0 0 0 0 134.13003920553911 481.16299876610719 0 481.16299876610719 156.93471578360186 0 0 0 0 215.24957957364313 412.46839294835809 0 412.46839294835809 381.74701840262424 0 0 0 0 84.078043483257716 246.2247318669688 0 246.2247318669688 185.50161530735204 0 0 0 0 404.64739727570031 445.35422028214089 0 445.35422028214089 346.14730823450373 0 0 0 0 97.740581224724792 528.12982465153618 0 528.12982465153618 1043.4454990348604 0 0 0 0 99.730839408130123 458.28637293296924 0 458.28637293296924 471.75513380661141 0 0 0 0 -85.102290325359718 -53.958772130979924 0 -53.958772130979924 1358.9051954084425 0 0 0 0 -85.690291677631649 -99.805660806610831 0 -99.805660806610831 691.4797167478464 0 0 0 0 1175.9491364930836 -210.29944230265028 0 -210.29944230265028 431.05601087183459 0 0 0 0 95.931136024853004 -192.60342894383211 0 -192.60342894383211 441.91054422076559 0 0 0 0 79.137666605302229 219.74787499840386 0 219.74787499840386 495.89282287430251 0 0 0 0 133.83467626500715 427.63481418469746 0 427.63481418469746 767.63451784290373 0 0 0 0 244.79743153149275 390.56421866002347 0 390.56421866002347 479.18697263739887 0 0 0 0 281.51954709909842 227.59452184740803 0 227.59452184740803 554.22239196604642 0 0 0 0 6.3997459771517242 249.72978094177961 0 249.72978094177961 1541.9740073340799 0 0 0 0 551.36142609601893 683.58150029979151 0 683.58150029979151 1020.9832292208448 0 0 0 0 48.015525850358244 42.335761426133104 0 42.335761426133104 887.41106943108753 0 0 0 0 -6.1066360043041641 119.89883850662591 0 119.89883850662591 828.66263296373654 0 0 0 0 7.6380011215731436 6.404862837097113 0 6.404862837097113 7.1167235310539922 0 0 0 0 206.44557255206564 -474.57299242576119 0 -474.57299242576119 1032.8542795826215 0 0 0 0 99.575835868152353 -235.50827813951764 0 -235.50827813951764 883.46146522377239 0 0 0 0 371.4145269292494 377.28067504346836 0 377.28067504346836 227.8780176785076 0 0 0 0 -8.8115165453618829 -182.38476778080803 0 -182.38476778080803 1372.7994336396368 0 0 0 0 3.2308263335511125 2.2415154663143966 0 2.2415154663143966 -2.0745962206491413 0 0 0 0 352.54997679365079 165.28781268313469 0 165.28781268313469 85.214967484149383 0 0 0 0 364.7337509326062 -0.59066154385800473 0 -0.59066154385800473 -377.56007075635716 0 0 0 0 -14.543676550307282 -21.517286902555497 0 -21.517286902555497 -4.6294599602551898 0 0 0 0 0.28616425431470915 3.8367362310882314 0 3.8367362310882314 2.2379132100353445 0 0 0 0 -20.835115357393988 -15.917552551487461 0 -15.917552551487461 -9.6044553793326486 0 0 0 0 -331.78108749085732 108.52743409705727 0 108.52743409705727 72.612406223182916 0 0 0 0 -190.32634924297707 606.25544306549818 0 606.25544306549818 -22.691261488376767 0 0 0 0 180.82984516114493 442.14110351936688 0 442.14110351936688 43.522826375716249 0 0 0 0 165.91980670900375 257.28401173849852 0 257.28401173849852 109.28855026801466 0 0 0 0 -111.7984092164852 181.73023240904877 0 181.73023240904877 -275.36319634715437 0 0 0 0 -7.3599408833047875 -0.91899583664965689 0 -0.91899583664965689 3.4108729207248416 0 0 0 0 -89.044136748444544 -34.549286004759779 0 -34.549286004759779 -7.2454757434752537 0 0 0 0 -345.58636437827272 266.32209909798257 0 266.32209909798257 52.063693097617943 0 0 0 0 -380.24595002793018 148.45356096269643 0 148.45356096269643 707.15053685921157 0 0 0 0 -164.7869888406442 -104.69945302685483 0 -104.69945302685483 240.3538063583037 0 0 0 0 -261.69933052279066 89.941487287669588 0 89.941487287669588 290.24826365416811 0 0 0 0 411.58104266652009 466.06613875751282 0 466.06613875751282 575.53737628081581 0 0 0 0 529.39286754758723 220.76783922180766 0 220.76783922180766 488.61428555235761 0 0 0 0 210.11173980596891 -121.95962343224164 0 -121.95962343224164 362.1132714466803 0 0 0 0 -48.3327891175486 189.25697393545488 0 189.25697393545488 603.79891590039188 0 0 0 0 4.7450043985893888 4.5155878745045186 0 4.5155878745045186 3.8053942279720445 0 0 0 0 818.00632461513715 -11.288440459178673 0 -11.288440459178673 -101.32373864079273 0 0 0 0 525.23800177950511 510.34150274442072 0 510.34150274442072 -323.5311345750597 0 0 0 0 151.03877095613063 304.74149142600618 0 304.74149142600618 -36.77090283211146 0 0 0 0 184.93772432147125 411.36738567582506 0 411.36738567582506 166.51861990155862 0 0 0 0 161.83317699260579 159.03836923059134 0 159.03836923059134 -143.51867014232266 0 0 0 0 177.45584512052778 80.42560233175027 0 80.42560233175027 -17.342224733467447 0 0 0 0 36.536903527849518 190.48691591535317 0 190.48691591535317 99.930469971812272 0 0 0 0 3.7864152698894031 73.649132679267495 0 73.649132679267495 10.380928594910074 0 0 0 0 83.484374905916638 121.88441046863591 0 121.88441046863591 -1.3920221350854263 0 0 0 0 16.79380802040896 8.0365347729893983 0 8.0365347729893983 0.99388054967130302 0 0 0 0 9.9015096666848841 11.658502473372934 0 11.658502473372934 12.353786829686328 0 0 0 0 8.4119702280777346 42.210730016311572 0 42.210730016311572 -50.173056897852803 0 0 0 0 -150.16761036745083 61.546770784247201 0 61.546770784247201 9.4531683847017121 0 0 0 0 3.5704135940891319 3.9388095573958708 0 3.9388095573958708 8.1246323456434766 0 0 0 0 8.2397836054679594 2.9663778003460379 0 2.9663778003460379 4.1239770210658833 0 0 0 0 -3.3125513120917276 3.3906966497161193 0 3.3906966497161193 13.916562960654119 0 0 0 0 5.8319875008516728 -2.3748371708423051 0 -2.3748371708423051 -0.050960023487732542 0 0 0 0 23.422349004232501 2.9459679351566592 0 2.9459679351566592 -21.65820882783737 0 0 0 0 2.0573977550666314 -4.4720194187248126 0 -4.4720194187248126 5.3659725781762972 0 0 0 0 12.120972261156055 -2.904592317217535 0 -2.904592317217535 -7.8054750736050664 0 0 0 0 1.5238514981472702 -0.81935279611701617 0 -0.81935279611701617 6.9212226100917178 0 0 0 0 -0.055084050497244519 2.4366299194908123 0 2.4366299194908123 -3.152111699179045 0 0 0 0 73.961573618533635 13.009952876185707 0 13.009952876185707 -44.525838923989795 0 0 0 0 -0.018354036919049577 -29.564226528776999 0 -29.564226528776999 -127.13029093838122 0 0 0 0 -4.2179088392744575 -13.141275436591968 0 -13.141275436591968 10.926071289926767 0 0 0 0 -30.434037043376975 -26.676657825126313 0 -26.676657825126313 0.21285224052553531 0 0 0 0 2.4933937432545714 1.0733320198625762 0 1.0733320198625762 -2.1930238671884581 0 0 0 0 167.31431184424491 -20.349283684918191 0 -20.349283684918191 -61.349926144248457 0 0 0 0 90.811406389760577 12.663651580856822 0 12.663651580856822 -72.339763324816886 0 0 0 0 59.207237576592661 -51.963003454424324 0 -51.963003454424324 -27.318607253982918 0 0 0 0 12.914127447145802 -22.180477271424024 0 -22.180477271424024 -21.264405879133847 0 0 0 0 4.1043682628035185 -57.255556748488743 0 -57.255556748488743 -9.0974655853933655 0 0 0 0 103.96415323423537 -85.067509260934457 0 -85.067509260934457 -1.3840205437591067 0 0 0 0 4.5513996451498997 250.18533702741843 0 250.18533702741843 413.48747674952756 0 0 0 0 -128.37044730904722 -20.292994145966077 0 -20.292994145966077 531.41251657426619 0 0 0 0 157.0803536627443 -75.213992942190089 0 -75.213992942190089 -114.24548405107635 0 0 0 0 255.09748485654109 -151.02213245178064 0 -151.02213245178064 575.96445945093001 0 0 0 0 50.097706811843864 -11.96086100550383 0 -11.96086100550383 905.76266989749274 0 0 0 0 165.83311427217745 318.7063624690818 0 318.7063624690818 854.78019607925671 0 0 0 0 461.36140883216603 201.71347404784319 0 201.71347404784319 408.75299574834207 0 0 0 0 1222.6274974943663 -1317.0343879144784 0 -1317.0343879144784 1506.0658793609873 0 0 0 0 1.4233829264882729 2.0449180788695003 0 2.0449180788695003 8.8819251326692097 0 0 0 0 18.066186767674481 512.27816246326256 0 512.27816246326256 590.49996838195511 0 0 0 0 -170.62660474604195 106.38231471412291 0 106.38231471412291 1055.6440575269808 0 0 0 0 -62.498288542486989 -369.61120411902812 0 -369.61120411902812 1847.5288547966047 0 0 0 0 9.4895366897262647 -15.506432735841372 0 -15.506432735841372 17.861576400409831 0 0 0 0 250.12221858207181 -31.318733584488655 0 -31.318733584488655 18.34547412408574 0 0 0 0 -1.9060592480228804 1.899082480258528 0 1.899082480258528 0.9212144504006119 0 0 0 0 -150.60722366667687 -13.053355510754045 0 -13.053355510754045 72.623603802392608 0 0 0 0 0.67379862992324036 2.3301954831460705 0 2.3301954831460705 24.166381950528745 0 0 0 0 46.412257117603531 -184.84644325269255 0 -184.84644325269255 222.39015560915868 0 0 0 0 0.26149971424547402 -5.7841599698731443 0 -5.7841599698731443 23.663789818652731 0 0 0 0 2.0945968295137671 -9.5824153080512531 0 -9.5824153080512531 15.632685206553163 0 0 0 0 30.017461139475927 -109.27894849957374 0 -109.27894849957374 -10.734978105538175 0 0 0 0 -10.456376689116496 2.5891053359955549 0 2.5891053359955549 1.4750897174089914 0 0 0 0 44.263896613935231 -25.920269444904989 0 -25.920269444904989 -67.365453536491259 0 0 0 0 31.020028833917138 13.274529156886274 0 13.274529156886274 -54.116798747447319 0 0 0 0 65.932557440502592 -19.296788103732979 0 -19.296788103732979 -23.781224041013047 0 0 0 0 10.749403062605779 -9.29834994389239 0 -9.29834994389239 25.495619611057919 0 0 0 0 13.407783325678523 -15.887178645747582 0 -15.887178645747582 11.769239420192775 0 0 0 0 10.876693786842225 -4.4269443864614004 0 -4.4269443864614004 21.930779924223316 0 0 0 0 7.1141777256680143 -8.4239739998556615 0 -8.4239739998556615 23.891063027156633 0 0 0 0 14.03497100853474 -4.9376436645034119 0 -4.9376436645034119 24.329424285264395 0 0 0 0 6.8937251956301679 -6.4942520099630201 0 -6.4942520099630201 27.326304123504087 0 0 0 0 -2.6035560526818484 0.37110405989753303 0 0.37110405989753303 24.456746433162891 0 0 0 0 19.240598926203347 -7.6610459508156055 0 -7.6610459508156055 24.55947986227693 0 0 0 0 18.47907428223516 -1.9434195681096753 0 -1.9434195681096753 28.470911802163755 0 0 0 0 21.594599667136208 -12.379617844009772 0 -12.379617844009772 33.219826010987163 0 0 0 0 15.013719913353498 -8.3227848904371058 0 -8.3227848904371058 25.85941792835365 0 0 0 0 21.189673345857045 -9.1702090034741559 0 -9.1702090034741559 22.87166599673219 0 0 0 0 0.8279460397163545 -2.5065453522813996 0 -2.5065453522813996 19.634871234731975 0 0 0 0 0.54485052125239575 -1.035523312909433 0 -1.035523312909433 1.8830293184121274 0 0 0 0 2.7423285955953816 6.9937684050455573 0 6.9937684050455573 10.656780668854481 0 0 0 0 12.554131082684762 -5.6722502949050977 0 -5.6722502949050977 0.52252134253649274 0 0 0 0 -2.580120557345515 0.62008168444542378 0 0.62008168444542378 25.307254233739854 0 0 0 0 -204.83113010528814 -16.882716262916801 0 -16.882716262916801 132.53056079029921 0 0 0 0 -84.139354137509144 37.968665639637038 0 37.968665639637038 -20.221667841724411 0 0 0 0 -91.001451289484976 26.89726227214851 0 26.89726227214851 62.874521099773119 0 0 0 0 -87.641002166315957 29.818660248303786 0 29.818660248303786 22.094758001425362 0 0 0 0 -43.373318063662737 22.916925417128368 0 22.916925417128368 -34.294507881684694 0 0 0 0 -143.94618449365407 62.820847826078534 0 62.820847826078534 34.704363852273673 0 0 0 0 -71.610215632712425 117.84387035970576 0 117.84387035970576 -55.919279829133302 0 0 0 0 1.4876047492659481 2.380989083161694 0 2.380989083161694 3.0453964781287084 0 0 0 0 2.5999938355531347 1.7756823242942517 0 1.7756823242942517 8.3550142151134992 0 0 0 0 -33.566892316267513 43.534471508479328 0 43.534471508479328 -20.228237475384958 0 0 0 0 8.5364375526638483 7.1235617904614514 0 7.1235617904614514 12.934555953009124 0 0 0 0 -106.52786323606961 -11.346384301345097 0 -11.346384301345097 28.215280719072325 0 0 0 0 -113.01334510080051 15.913787197234342 0 15.913787197234342 91.773602497036336 0 0 0 0 -7.8110823525148589 13.149964707736217 0 13.149964707736217 46.727740725031254 0 0 0 0 -2.900812752406202 -5.5930002420990377 0 -5.5930002420990377 26.857666725967078 0 0 0 0 0.1850856721200671 -26.888752180515439 0 -26.888752180515439 39.16803524880379 0 0 0 0 -161.30683849483376 71.30708458639856 0 71.30708458639856 187.7093036644219 0 0 0 0 -24.500785340530001 12.049446918554167 0 12.049446918554167 73.162220983838779 0 0 0 0 0.0095694371477694773 -4.5434174071262987 0 -4.5434174071262987 6.1459514470763708 0 0 0 0 34.55342666024103 -6.205460225486604 0 -6.205460225486604 -2.7142559089115821 0 0 0 0 2.1086887423110738 -1.2464445135519782 0 -1.2464445135519782 21.141555459384108 0 0 0 0 15.051793432535078 -6.8313727556233061 0 -6.8313727556233061 22.072650170419365 0 0 0 0 2.4596531152519265 -4.4273483148457444 0 -4.4273483148457444 7.9344919906492422 0 0 0 0 -9.4626257762359955 4.3859965025367273 0 4.3859965025367273 28.015543155153864 0 0 0 0 2.2449209116789461 2.4137129638111219 0 2.4137129638111219 40.287617378853611 0 0 0 0 5.743498953739163 -10.487031778637174 0 -10.487031778637174 27.64333393531706 0 0 0 0 0.84182674371550092 -12.507347868857323 0 -12.507347868857323 32.691263445693039 0 0 0 0 2.1110147761773987 -14.650399981030205 0 -14.650399981030205 36.141451382849482 0 0 0 0 -5.0440482614212669 0.58828577301756013 0 0.58828577301756013 30.475457153528623 0 0 0 0 -1.0947820055892445 -3.3105924064640391 0 -3.3105924064640391 24.551092874404958 0 0 0 0 5.1066014058582638 -10.495445092482335 0 -10.495445092482335 22.43939854677302 0 0 0 0 1.055100578285419 -26.68317959131673 0 -26.68317959131673 64.73607317871938 0 0 0 0 5.9925368932072161 -19.483333655254683 0 -19.483333655254683 22.590023143076905 0 0 0 0 8.3604703374517157 -4.4022827812332253 0 -4.4022827812332253 19.294889604105265 0 0 0 0 11.677144713688449 -12.259204156254782 0 -12.259204156254782 36.194237996227457 0 0 0 0 25.604268481971303 -5.7852414256776683 0 -5.7852414256776683 29.684339406085201 0 0 0 0 -1.0089824013660413 -1.7101475763096659 0 -1.7101475763096659 21.778639214824523 0 0 0 0 24.786007771711411 -12.194309796599555 0 -12.194309796599555 19.973710239537468 0 0 0 0 -0.71033783872617917 -2.9371261982966814 0 -2.9371261982966814 5.0172061584260774 0 0 0 0 1.6818351220936165 -7.7425418503335095 0 -7.7425418503335095 21.01726302591851 0 0 0 0 1.5594466167030987 -3.5456950116713415 0 -3.5456950116713415 10.291748644283871 0 0 0 0 1.4623497487799586 -3.3376788339622649 0 -3.3376788339622649 12.993669882810991 0 0 0 0 1.8756745092907749 -0.34027032900382892 0 -0.34027032900382892 10.96853674970744 0 0 0 0 6.5095008664611669 8.013392660592217 0 8.013392660592217 21.116596278097859 0 0 0 0 -1.4518416135924781 -2.3859750402116333 0 -2.3859750402116333 33.728793818167105 0 0 0 0 -1.4656456398042685 1.9830133075635388 0 1.9830133075635388 9.3259438477593903 0 0 0 0 -4.4025543396264766 -2.1115331313485513 0 -2.1115331313485513 38.420936546870507 0 0 0 0 1.1478978436544001 -3.3840485864820096 0 -3.3840485864820096 18.708778493270643 0 0 0 0 -0.11812961569393465 -0.091546618018753634 0 -0.091546618018753634 6.6842241441585344 0 0 0 0 -0.72714973458914756 -26.076718159980373 0 -26.076718159980373 4.7114353063516319 0 0 0 0 -9.6645512027644145 -10.616628203832079 0 -10.616628203832079 35.095952698786277 0 0 0 0 -0.78323525917639536 -10.156789598917264 0 -10.156789598917264 21.154480537776465 0 0 0 0 -1.6104923462576153 -12.793849522640812 0 -12.793849522640812 39.156298166533816 0 0 0 0 4.1989073520983506 -12.959322975379962 0 -12.959322975379962 11.16679849335307 0 0 0 0 9.997036309696341 -9.9982215339987306 0 -9.9982215339987306 14.221291093039326 0 0 0 0 1.4112537499258906 -6.791651280989754 0 -6.791651280989754 22.433015803166199 0 0 0 0 -4.9744518941989391 -6.4559693393187416 0 -6.4559693393187416 37.302153790150385 0 0 0 0 7.5760012242748207 -15.634259080848594 0 -15.634259080848594 13.640321398903183 0 0 0 0 -12.561427272084984 -14.309660171886208 0 -14.309660171886208 14.350306665888638 0 0 0 0 2.8884860213984211 -5.1690888480516151 0 -5.1690888480516151 18.903248159011127 0 0 0 0 -2.2219582160794289 -11.607480720544118 0 -11.607480720544118 37.189119693895918 0 0 0 0 -1.9167642610104849 -14.557719895383343 0 -14.557719895383343 52.80901350584827 0 0 0 0 14.792501219754286 -21.004955844528013 0 -21.004955844528013 19.818243406421971 0 0 0 0 13.140657767059793 -9.2384662289405242 0 -9.2384662289405242 15.877170318621211 0 0 0 0 18.546439783078313 -20.098360213203705 0 -20.098360213203705 -7.0868122409665375 0 0 0 0 4.0115687376395481 -5.1505214457810098 0 -5.1505214457810098 3.3881767173796362 0 0 0 0 5.3837035531432775 -3.4857439328479813 0 -3.4857439328479813 21.493888728466118 0 0 0 0 2.8562795079942997 -12.332852024471748 0 -12.332852024471748 2.3963401190020477 0 0 0 0 3.7341606072664035 -22.497970312633697 0 -22.497970312633697 2.4703769289772026 0 0 0 0 4.5161796250214934 -15.769715899309091 0 -15.769715899309091 8.2071620978663162 0 0 0 0 19.960824225054239 -7.295311454203329 0 -7.295311454203329 9.1606883989734342 0 0 0 0 -0.1565856932393217 -20.958291598133655 0 -20.958291598133655 35.465881824755343 0 0 0 0 2.76142731799996 -7.0533661159861367 0 -7.0533661159861367 18.697622663268703 0 0 0 0 19.305973328839173 11.455922355205985 0 11.455922355205985 -12.901030389752123 0 0 0 0 4.2680126195897206 -4.4318101589665275 0 -4.4318101589665275 0.75603072766136137 0 0 0 0 5.2707115515440819 -10.486765762951109 0 -10.486765762951109 21.309196018090006 0 0 0 0 26.021108828803335 -10.277354988400475 0 -10.277354988400475 21.309399750766715 0 0 0 0 -2.0543533115496757 -21.36872142978973 0 -21.36872142978973 38.198636243672809 0 0 0 0 -21.348949169629122 -5.9053332506882725 0 -5.9053332506882725 21.416059691371629 0 0 0 0 22.179229545919952 -5.6065717713208869 0 -5.6065717713208869 -6.1377554364007665 0 0 0 0 0.55024179718020605 3.8174899717705557 0 3.8174899717705557 32.884280225582188 0 0 0 0 4.2121123005044865 6.1690583344025072 0 6.1690583344025072 94.595032501434616 0 0 0 0 1.5539633125561068 37.509437802188131 0 37.509437802188131 74.652852011626237 0 0 0 0 10.162239394607241 -26.416036335300305 0 -26.416036335300305 48.296309276338434 0 0 0 0 0.5341809737474783 -1.1318655465595668 0 -1.1318655465595668 0.50034413912632303 0 0 0 0 7.2650429271361645 -17.334382370972889 0 -17.334382370972889 37.088326246637735 0 0 0 0 19.487141402440557 -37.726043131271581 0 -37.726043131271581 64.609568292900803 0 0 0 0 42.186773723700753 -7.4721384269505506 0 -7.4721384269505506 40.490459165428547 0 0 0 0 32.565153071905115 -3.659436191603163 0 -3.659436191603163 56.720058287814027 0 0 0 0 10.844471016619991 -2.1072053275638609 0 -2.1072053275638609 88.433973086332117 0 0 0 0 16.164019633702992 -24.510022297501564 0 -24.510022297501564 78.556163996688156 0 0 0 0 -6.3140409328010492 -187.92631467610408 0 -187.92631467610408 9.9736114390980219 0 0 0 0 -3.1664503147004552 -23.383431155415934 0 -23.383431155415934 38.367638353996284 0 0 0 0 9.2900005329274791 -11.844668285117223 0 -11.844668285117223 60.737482408851065 0 0 0 0 16.940632956262561 -49.849681755982601 0 -49.849681755982601 89.074667430730187 0 0 0 0 5.3696556653758307 -11.043785915506305 0 -11.043785915506305 38.731038616839214 0 0 0 0 0.82619975014774738 -1.4510987150941901 0 -1.4510987150941901 14.425619546064837 0 0 0 0 -0.63706350267011658 -19.264949288546632 0 -19.264949288546632 37.881201637195772 0 0 0 0 0.43657236191387305 0.50889341186516646 0 0.50889341186516646 1.0811105576759701 0 0 0 0 15.706238413955361 -16.401945322024403 0 -16.401945322024403 9.8601473086455371 0 0 0 0 11.894504024828166 24.983130273212737 0 24.983130273212737 64.052123441011645 0 0 0 0 -22.145046381629072 -25.231777342705755 0 -25.231777342705755 75.95226536968039 0 0 0 0 -1.0650231810868718 -1.5626564000849612 0 -1.5626564000849612 12.756779890605685 0 0 0 0 0.06842945243381493 -3.4254087692949753 0 -3.4254087692949753 11.66303475310437 0 0 0 0 -4.6122889608213882 -30.632068732142216 0 -30.632068732142216 18.221010846260469 0 0 0 0 0.21393707924841276 0.47473244565607331 0 0.47473244565607331 18.987811701597707 0 0 0 0 -6.6234654557638351 3.8832115525510744 0 3.8832115525510744 47.07262475603784 0 0 0 0 1.9376533745807691 -15.972968180938437 0 -15.972968180938437 19.727454714597542 0 0 0 0 9.341353047726443 -7.7947427355393302 0 -7.7947427355393302 54.748910439113388 0 0 0 0 -1.3781353425983776 -6.1444090875783104 0 -6.1444090875783104 3.253554179690525 0 0 0 0 -6.2084913346625399 -49.563937202387024 0 -49.563937202387024 49.044768852734705 0 0 0 0 -24.794486955505818 -2.0597560011883616 0 -2.0597560011883616 23.02864987013163 0 0 0 0 -31.751727068597347 -26.26406687904182 0 -26.26406687904182 40.324757682697964 0 0 0 0 -14.04657232433717 -11.308403894506355 0 -11.308403894506355 8.3132860144934213 0 0 0 0 51.871230005866892 7.2448094610736007 0 7.2448094610736007 -131.82280803749927 0 0 0 0 247.16207704180738 -106.25924972588655 0 -106.25924972588655 59.531955578611814 0 0 0 0 55.35365433698712 -37.501220973763338 0 -37.501220973763338 140.84548591904604 0 0 0 0 80.446272375255376 -71.698747584006924 0 -71.698747584006924 -43.19035716146027 0 0 0 0 3.1424385234606085 -0.99978555240227251 0 -0.99978555240227251 0.70437700006402792 0 0 0 0 -28.296252008890406 70.619306435990438 0 70.619306435990438 506.84555214531429 0 0 0 0 -30.473185371896761 3.9670333437388763 0 3.9670333437388763 5.8224115601769881 0 0 0 0 47.56862601119019 -44.053588295944792 0 -44.053588295944792 33.916303260819404 0 0 0 0 -33.913160986765661 -15.306319639550566 0 -15.306319639550566 -4.7043606155421003 0 0 0 0 -42.080677492490395 -20.455984202479158 0 -20.455984202479158 42.746550958021544 0 0 0 0 -17.960858119189652 24.508508862461895 0 24.508508862461895 -5.7597000819914683 0 0 0 0 -1.8956947892666545 0.97322249173481623 0 0.97322249173481623 1.8248461413069066 0 0 0 0 16.361064402989541 -35.096205106277921 0 -35.096205106277921 49.424700193936587 0 0 0 0 12.660487172946883 -7.7906430787533623 0 -7.7906430787533623 12.208184970485192 0 0 0 0 10.574241609821911 -6.7903912467045302 0 -6.7903912467045302 22.959468406479573 0 0 0 0 8.3209202998095861 -20.998833219360677 0 -20.998833219360677 -4.9758188501145924 0 0 0 0 8.5742032292192008 -4.3576987959433069 0 -4.3576987959433069 1.6940579595181759 0 0 0 0 -24.943621143394921 110.45180263500879 0 110.45180263500879 269.16173279073337 0 0 0 0 -26.267408791183698 23.845266342628747 0 23.845266342628747 164.43676011722346 0 0 0 0 37.499901145290096 -17.221025083079439 0 -17.221025083079439 120.19124524726431 0 0 0 0 -50.097265034858964 -133.28399098986571 0 -133.28399098986571 49.102069471395225 0 0 0 0 -15.805607180405786 34.373503060305666 0 34.373503060305666 73.631610667114728 0 0 0 0 -49.927762215726034 43.32241550319668 0 43.32241550319668 79.975083060657198 0 0 0 0 3.4077961702585302 -27.580412704156004 0 -27.580412704156004 44.936913306849874 0 0 0 0 23.009166513628315 -6.1812733421393204 0 -6.1812733421393204 56.126855725102359 0 0 0 0 23.284610167550795 -7.3985904118317194 0 -7.3985904118317194 57.433584143000189 0 0 0 0 11.377190702633925 -18.037956457766995 0 -18.037956457766995 58.068997016562207 0 0 0 0 5.8846821260594879 -11.315705660104868 0 -11.315705660104868 51.569741349696415 0 0 0 0 15.444091402547485 -1.4497746325055232 0 -1.4497746325055232 74.410359399276786 0 0 0 0 9.3765112153819246 -11.120702453139529 0 -11.120702453139529 77.618938463132508 0 0 0 0 34.680028322987255 10.975794360914733 0 10.975794360914733 71.962250027689151 0 0 0 0 18.083613884607786 -17.826222092528951 0 -17.826222092528951 42.414327762060566 0 0 0 0 -50.014235319839599 -15.987496142777673 0 -15.987496142777673 146.74903996277135 0 0 0 0 4.3670876459145802 -58.595041126991418 0 -58.595041126991418 58.303496035296121 0 0 0 0 23.552397349500097 -12.856682581994392 0 -12.856682581994392 124.6455462700178 0 0 0 0 6.0485014810593984 -32.012513635671453 0 -32.012513635671453 51.179879410786157 0 0 0 0 9.4599502300138099 -13.792050444130155 0 -13.792050444130155 132.35284505819436 0 0 0 0 -1.5931319721109665 -5.318971092436783 0 -5.318971092436783 18.655049802648136 0 0 0 0 -10.324231813238043 -5.1304813368697069 0 -5.1304813368697069 49.150316153651147 0 0 0 0 -24.265905631665873 4.4112638772203354 0 4.4112638772203354 51.812902284563052 0 0 0 0 -5.4506316219620317 0.6766855246014245 0 0.6766855246014245 12.248059997612273 0 0 0 0 -7.6027337577105314 7.2949309389260151 0 7.2949309389260151 39.266326719396119 0 0 0 0 -10.294933509866837 -4.880908310005907 0 -4.880908310005907 50.508486526741763 0 0 0 0 -6.7734986004227835 4.1378364681904714 0 4.1378364681904714 51.816605063693714 0 0 0 0 -11.684326774531655 42.422941090640961 0 42.422941090640961 97.927461654940998 0 0 0 0 7.3574193144413584 -1.4520525199477561 0 -1.4520525199477561 49.458751295904221 0 0 0 0 -16.250968010094482 22.527724747472433 0 22.527724747472433 24.015421481625168 0 0 0 0 -5.0142190987608046 1.7484011324413586 0 1.7484011324413586 9.3879031448159367 0 0 0 0 10.937445271470196 -6.9041355864040952 0 -6.9041355864040952 17.156162289351613 0 0 0 0 -20.618523812987767 2.0416483951615447 0 2.0416483951615447 68.999351668438379 0 0 0 0 44.873412163040484 -11.937163954746211 0 -11.937163954746211 22.599457968724892 0 0 0 0 0.60654075371219918 6.9737647398472689 0 6.9737647398472689 -3.9224840153372327 0 0 0 0 -6.0812850076278693 12.119973192569887 0 12.119973192569887 60.91172041707614 0 0 0 0 -5.5321832946338674 14.175785571616871 0 14.175785571616871 37.634363713086259 0 0 0 0 -7.8335387824250535 -9.9685681341193515 0 -9.9685681341193515 31.187056623280085 0 0 0 0 18.509185852938174 29.772104269068222 0 29.772104269068222 62.112220340975909 0 0 0 0 33.420675156411107 1.7749928283155896 0 1.7749928283155896 63.880297079391312 0 0 0 0 -31.401298611886887 -0.65412328120146412 0 -0.65412328120146412 114.43107957494794 0 0 0 0 -24.336162310565541 -28.937253143146336 0 -28.937253143146336 43.04364735094714 0 0 0 0 0.077579271711689435 -12.104559476390271 0 -12.104559476390271 48.802564307601301 0 0 0 0 -65.468647969166625 -44.178435039082615 0 -44.178435039082615 86.657087408326333 0 0 0 0 -31.501745528461925 -218.41155771962076 0 -218.41155771962076 32.183926834723025 0 0 0 0 18.649472391401332 -46.74867410700972 0 -46.74867410700972 87.692703175758652 0 0 0 0 -28.154524061313168 0.73625225943396799 0 0.73625225943396799 41.985587715389556 0 0 0 0 -15.313103568170845 -22.366937627182779 0 -22.366937627182779 55.885193766145676 0 0 0 0 -23.235666941561817 -56.506225122015167 0 -56.506225122015167 35.756509326117794 0 0 0 0 0.95014779258252013 -14.790597900055388 0 -14.790597900055388 58.345463005772899 0 0 0 0 -174.50511828890933 28.825096708596902 0 28.825096708596902 75.628815840056632 0 0 0 0 -209.2759758811562 -237.18596852217934 0 -237.18596852217934 33.18089097844495 0 0 0 0 85.792136693134125 99.838708958974166 0 99.838708958974166 -72.276791209893418 0 0 0 0 66.420307440906186 11.311359906278085 0 11.311359906278085 2.8882358352420852 0 0 0 0 9.6556442127046012 72.038010868149286 0 72.038010868149286 305.08247351706086 0 0 0 0 107.20523949882488 136.92286825354677 0 136.92286825354677 161.59083316157921 0 0 0 0 273.26489955302281 -148.19889203112689 0 -148.19889203112689 -191.02222002673079 0 0 0 0 102.96038133396098 13.285168578444427 0 13.285168578444427 0.60108762126765214 0 0 0 0 13.048252852294127 -64.026103842043085 0 -64.026103842043085 282.40890991331253 0 0 0 0 3.071175450586173 2.4564146423565489 0 2.4564146423565489 2.2843157890434043 0 0 0 0 139.38646650584332 107.48833178588393 0 107.48833178588393 21.583743122522719 0 0 0 0 43.038514167297762 46.471014693874167 0 46.471014693874167 19.500405386119382 0 0 0 0 51.490791618319463 59.659963878671988 0 59.659963878671988 15.676793161830574 0 0 0 0 -0.29217064875047249 -15.58474091889822 0 -15.58474091889822 61.239020703692916 0 0 0 0 -287.09607447944029 47.383041563225561 0 47.383041563225561 263.34842733189726 0 0 0 0 -258.60706392712859 -82.55114310681347 0 -82.55114310681347 148.33050418749917 0 0 0 0 -83.629299144527295 -61.295442073096638 0 -61.295442073096638 -7.5003426870680414 0 0 0 0 -125.85943685274947 -25.23308454961807 0 -25.23308454961807 37.412793172814418 0 0 0 0 -90.874168288065562 35.876124304471887 0 35.876124304471887 62.060371499392204 0 0 0 0 16.046997615234545 112.46615799321444 0 112.46615799321444 110.25260850941413 0 0 0 0 -125.02955512900476 260.97721107573307 0 260.97721107573307 464.88434670030256 0 0 0 0 6.2855035987226984 -22.341631944087567 0 -22.341631944087567 45.422531115484162 0 0 0 0 10.319803660550249 -14.067738990446514 0 -14.067738990446514 56.744130361505086 0 0 0 0 3.0956882836776458 -17.25788057041791 0 -17.25788057041791 59.282186478020776 0 0 0 0 1.4981591062488633 -24.243629607723051 0 -24.243629607723051 47.364665092885843 0 0 0 0 5.1083211146531653 -31.920768880817377 0 -31.920768880817377 48.781812038068892 0 0 0 0 0.25131330336535029 -24.171884978757589 0 -24.171884978757589 64.848896609379153 0 0 0 0 -12.315493155482955 -28.968365753691614 0 -28.968365753691614 52.280161422950187 0 0 0 0 -16.284954320135 10.988725540264568 0 10.988725540264568 38.91977211512858 0 0 0 0 -12.553243013009251 -3.6947390437708236 0 -3.6947390437708236 -17.605979455591296 0 0 0 0 -26.895175917705728 -29.063797485345276 0 -29.063797485345276 -36.693173214123817 0 0 0 0 5.2976414613501674 -7.5248848051269306 0 -7.5248848051269306 21.903400297909684 0 0 0 0 1.8884557188155311 -14.243142407956299 0 -14.243142407956299 17.633298136940482 0 0 0 0 2.6532239316638879 -26.21714540218818 0 -26.21714540218818 46.336071256369905 0 0 0 0 -2.0015711714777353 -19.049619251891272 0 -19.049619251891272 39.23166743767797 0 0 0 0 8.2256414643336484 -4.0523198192004202 0 -4.0523198192004202 25.538161555756233 0 0 0 0 2.9162738769214229 -44.923948376686894 0 -44.923948376686894 -16.5774936467933 0 0 0 0 -12.042859925486596 -3.2277876961161382 0 -3.2277876961161382 60.10779723847736 0 0 0 0 8.6808786505461519 -1.7518987663216024 0 -1.7518987663216024 6.5306949025630701 0 0 0 0 1.4796472515582459 -8.8000730773183022 0 -8.8000730773183022 28.891932364836066 0 0 0 0 16.94451280184559 23.796222727862187 0 23.796222727862187 24.700188921153313 0 0 0 0 10.674382590280686 33.815512219225639 0 33.815512219225639 28.862077242898522 0 0 0 0 135.3222900155929 -11.329764401747525 0 -11.329764401747525 -86.437162733578589 0 0 0 0 1.9192409987016052 -1.4890639527411622 0 -1.4890639527411622 1.8343908691201705 0 0 0 0 -429.12027448259323 294.31363206084643 0 294.31363206084643 167.77837356808595 0 0 0 0 107.90205970136867 -0.70212742713920306 0 -0.70212742713920306 -40.117150201185723 0 0 0 0 11.766279685235077 25.326956867211265 0 25.326956867211265 43.052637316468463 0 0 0 0 6.7779872482642798 -1.0898609082025814 0 -1.0898609082025814 -0.68917906744383117 0 0 0 0 22.122825263378672 7.922091486689169 0 7.922091486689169 30.882907287101261 0 0 0 0 25.950750477765098 23.090028809732758 0 23.090028809732758 14.743934176047333 0 0 0 0 44.664821522198963 -2.7240784717978386 0 -2.7240784717978386 -3.7768697559949942 0 0 0 0 36.802892768261245 15.683451631717617 0 15.683451631717617 6.34994526009541 0 0 0 0 15.354307080368017 -2.9441417469788576 0 -2.9441417469788576 14.005069042585092 0 0 0 0 39.628930290396966 6.7421104714740068 0 6.7421104714740068 7.7418679389666067 0 0 0 0 73.161063863020445 29.93655084373313 0 29.93655084373313 -1.053997331939172 0 0 0 0 41.540768057763216 22.731380631565116 0 22.731380631565116 -1.7647888672654517 0 0 0 0 24.577218431210895 33.342210265429458 0 33.342210265429458 11.581389984698035 0 0 0 0 40.774650224137545 40.361278763699829 0 40.361278763699829 5.1200475911027752 0 0 0 0 -27.039613692019998 34.882248384616105 0 34.882248384616105 22.168321991237462 0 0 0 0 -40.839040126428017 24.669526202371344 0 24.669526202371344 18.307241010479629 0 0 0 0 14.814319583543238 59.677823514910415 0 59.677823514910415 24.758132558170473 0 0 0 0 -46.380650282498209 -47.302093066216912 0 -47.302093066216912 -29.334879569592886 0 0 0 0 -37.185666278391295 14.362754675152246 0 14.362754675152246 15.00834072008729 0 0 0 0 -64.866839207129942 5.3873894650023431 0 5.3873894650023431 42.74796232166409 0 0 0 0 -51.671711134669295 6.3174450927763246 0 6.3174450927763246 10.945521993970033 0 0 0 0 -88.197646327712391 -27.936061465472449 0 -27.936061465472449 10.010806272621267 0 0 0 0 -40.378800303646585 -6.5100349050480872 0 -6.5100349050480872 1.5599702436593361 0 0 0 0 -31.308847988744219 -1.4668586842017248 0 -1.4668586842017248 -4.5587627982604317 0 0 0 0 -42.662771629915142 -5.7985002681380138 0 -5.7985002681380138 4.7969487590016797 0 0 0 0 -15.016347229821008 15.223197628292837 0 15.223197628292837 3.7798323251772672 0 0 0 0 -14.124828106703234 24.761998117974144 0 24.761998117974144 25.133795735368039 0 0 0 0 -6.902109930638062 23.973240387465921 0 23.973240387465921 8.9492561532533728 0 0 0 0 12.194446654869864 34.660217790733441 0 34.660217790733441 10.370693039818434 0 0 0 0 12.538372798165824 33.257706090604188 0 33.257706090604188 14.497449328162475 0 0 0 0 25.521212118577896 26.402879991689588 0 26.402879991689588 18.066926293162396 0 0 0 0 -4.104265283215895 -9.4579127037359285 0 -9.4579127037359285 51.918420801448519 0 0 0 0 1.6747634204631225 19.226776275783777 0 19.226776275783777 51.408205761545105 0 0 0 0 4.3927884806393962 17.874384426690085 0 17.874384426690085 -3.1142066870233975 0 0 0 0 -4.2918904987227506 9.9817355179984588 0 9.9817355179984588 11.995889963334776 0 0 0 0 8.20878738067033 6.977941393257538 0 6.977941393257538 4.9505542566190286 0 0 0 0 8.4401131672029805 -8.0069957098166924 0 -8.0069957098166924 3.6421087406633887 0 0 0 0 -14.949264226715968 3.4013677367038326 0 3.4013677367038326 14.800091776560294 0 0 0 0 14.332487577389884 0.30667998873104807 0 0.30667998873104807 12.710091997170821 0 0 0 0 -15.39829077343893 14.261504325419082 0 14.261504325419082 14.18226042058086 0 0 0 0 109.71552257822259 -128.26377869184944 0 -128.26377869184944 1.0270420114538865 0 0 0 0 2.1188481083815613 1.894481225473271 0 1.894481225473271 2.0328374737609352 0 0 0 0 614.33185170487195 -107.71605358127272 0 -107.71605358127272 -35.096801100560697 0 0 0 0 -62.416984360143942 -61.868683178247011 0 -61.868683178247011 28.56694595850422 0 0 0 0 183.18502316593367 -46.381910520722158 0 -46.381910520722158 -72.289929282094818 0 0 0 0 164.08691322279446 -40.221818875754252 0 -40.221818875754252 -71.264701765801874 0 0 0 0 193.00642904323831 -96.173114324577909 0 -96.173114324577909 -51.74081027408829 0 0 0 0 114.24890467867317 -73.608763858617749 0 -73.608763858617749 -56.320534234051593 0 0 0 0 -4.8075891837324889 -92.321045858494472 0 -92.321045858494472 -4.6285713541437872 0 0 0 0 121.14577164497723 -87.268855589194573 0 -87.268855589194573 -30.602834723948035 0 0 0 0 -6.5695455090371979 -53.414694659106317 0 -53.414694659106317 3.6513651359709911 0 0 0 0 -68.579250416294599 -3.4510025494237198 0 -3.4510025494237198 10.559601625791402 0 0 0 0 -22.882018442729986 -43.272733979523764 0 -43.272733979523764 -0.26805231982143596 0 0 0 0 -106.17281684180853 -55.413163773890119 0 -55.413163773890119 23.942232688859804 0 0 0 0 -195.57855364121315 40.150531609804602 0 40.150531609804602 -26.005747070070356 0 0 0 0 -113.63671356615845 64.753790196203227 0 64.753790196203227 -74.492653353605419 0 0 0 0 -228.02114538239425 170.57577960176422 0 170.57577960176422 -131.06559995445423 0 0 0 0 4.4066488781203867 10.272508075795372 0 10.272508075795372 12.339068095038982 0 0 0 0 -29.991899751103119 46.017009272960422 0 46.017009272960422 -9.4347281953960191 0 0 0 0 -106.4529938401065 33.231488533616357 0 33.231488533616357 -3.7426007405738346 0 0 0 0 -69.462125803267554 105.61186462381738 0 105.61186462381738 -25.382939502975205 0 0 0 0 5.0531257809817136 8.4991193394473754 0 8.4991193394473754 10.686954360914058 0 0 0 0 12.862364720064775 22.98189395164809 0 22.98189395164809 -1.6010950235649943 0 0 0 0 -0.12277309879394949 2.4368324654715252 0 2.4368324654715252 43.381436872092308 0 0 0 0 17.07906814663211 -3.702524438391265 0 -3.702524438391265 6.940579399572016 0 0 0 0 12.432470351068607 -14.571630901573371 0 -14.571630901573371 94.735343558495515 0 0 0 0 32.017272615809041 -2.9644823164126137 0 -2.9644823164126137 38.864437971391453 0 0 0 0 16.155918731908372 2.2654601442845888 0 2.2654601442845888 58.65549701495911 0 0 0 0 25.935267333853091 3.5593736148875905 0 3.5593736148875905 103.25770728467978 0 0 0 0 6.2353271598574516 -2.5319446039720788 0 -2.5319446039720788 102.34375610458665 0 0 0 0 -5.9395568665559892 3.2192325809082831 0 3.2192325809082831 157.9111763224937 0 0 0 0 71.679127221922883 -14.028653186005613 0 -14.028653186005613 94.645964107621694 0 0 0 0 35.134485907029259 28.210484416420513 0 28.210484416420513 161.45709361162153 0 0 0 0 -4.3072843062134467 -2.8319591614854289 0 -2.8319591614854289 205.72270395900705 0 0 0 0 -1.3706941281423894 -17.198308191720571 0 -17.198308191720571 157.41231689988376 0 0 0 0 -5.4848429868716835 -8.9455980616185116 0 -8.9455980616185116 143.10528370552493 0 0 0 0 -10.566985713121142 -5.5189728679397376 0 -5.5189728679397376 147.23736805294175 0 0 0 0 18.802782639687109 -14.496724670738331 0 -14.496724670738331 48.716820035146156 0 0 0 0 -4.3704125746651528 0.019352918239746941 0 0.019352918239746941 133.3406770984875 0 0 0 0 -3.3303429692381883 -18.004159255986451 0 -18.004159255986451 124.91460472259496 0 0 0 0 19.816104508598642 -55.947238055930939 0 -55.947238055930939 139.57087837484141 0 0 0 0 17.354875419119196 25.455145204556175 0 25.455145204556175 137.86458934289112 0 0 0 0 0.20403846423386085 17.357483323743509 0 17.357483323743509 187.33628358924761 0 0 0 0 39.611372600883669 49.773882406370831 0 49.773882406370831 131.49955469740962 0 0 0 0 30.997834541416182 4.9541123045564746 0 4.9541123045564746 57.763826190363034 0 0 0 0 102.88948501480195 -75.549267847527517 0 -75.549267847527517 84.747580668667069 0 0 0 0 33.735167446887083 -11.204212628814275 0 -11.204212628814275 140.42214488904574 0 0 0 0 -1.8054447697289433 -29.75745996895057 0 -29.75745996895057 131.3021652688476 0 0 0 0 15.235665116052076 -7.3872685674505192 0 -7.3872685674505192 4.5123313584044809 0 0 0 0 1.7383889236672521 0.47418906953069495 0 0.47418906953069495 0.060822738494408668 0 0 0 0 25.925581903015058 -64.120046725263819 0 -64.120046725263819 159.72235340240877 0 0 0 0 -8.9445019514237742 -6.4162366948876297 0 -6.4162366948876297 3.4434463800737376 0 0 0 0 -6.7422727604783859 7.4101340588167659 0 7.4101340588167659 1.3965947708857129 0 0 0 0 -25.009809796537851 0.72682751632714826 0 0.72682751632714826 8.9576672630792018 0 0 0 0 10.774280122208779 3.104567429079907 0 3.104567429079907 -3.5247008794322028 0 0 0 0 -21.668231600825777 2.7034775560932758 0 2.7034775560932758 39.105581767013064 0 0 0 0 -3.7635026073025797 -1.9934692384061492 0 -1.9934692384061492 13.190598251314498 0 0 0 0 -21.160180011701733 -4.1380611795102595 0 -4.1380611795102595 48.781744417923619 0 0 0 0 -8.8736680245689001 -29.013004580148845 0 -29.013004580148845 4.3828070928238958 0 0 0 0 -2.0637102534782636 -4.4101902007978282 0 -4.4101902007978282 39.551031101063813 0 0 0 0 -10.003932518605083 -3.2840779071430006 0 -3.2840779071430006 35.076035259713535 0 0 0 0 -16.607092733803057 7.9707014951800375 0 7.9707014951800375 43.713338229543297 0 0 0 0 -15.462322722439865 -1.0295273007577634 0 -1.0295273007577634 2.1773776230147632 0 0 0 0 -15.006883881179306 20.607916225366353 0 20.607916225366353 14.986215045850258 0 0 0 0 -3.461501013384872 -1.2882497664032115 0 -1.2882497664032115 6.2453839178310773 0 0 0 0 2.2063192632738264 22.975890188528865 0 22.975890188528865 3.0938381851883605 0 0 0 0 -4.911848512634009 5.2658804169141149 0 5.2658804169141149 -22.370940545886697 0 0 0 0 -1.7982307340192007 0.36068396312666096 0 0.36068396312666096 1.1487184835639326 0 0 0 0 5.0123326770289776 -0.44522690486638794 0 -0.44522690486638794 0.76172480879275417 0 0 0 0 33.406431743829444 -70.747113507804897 0 -70.747113507804897 171.82433373850654 0 0 0 0 21.453017699341501 -28.893282563003595 0 -28.893282563003595 57.729506992292443 0 0 0 0 36.113368979517873 20.729621903708903 0 20.729621903708903 15.707035899969924 0 0 0 0 0.48147946045291373 0.30601555035559613 0 0.30601555035559613 1.5306408607159483 0 0 0 0 -15.139959392404307 30.398145272993133 0 30.398145272993133 151.13382772616751 0 0 0 0 -12.240077894717711 4.9300759550797011 0 4.9300759550797011 119.35388722553034 0 0 0 0 -3.7014175475585986 26.280198366912373 0 26.280198366912373 60.870716938983833 0 0 0 0 -0.50007527928841522 0.57862199978879403 0 0.57862199978879403 -0.13198847570468031 0 0 0 0 17.941263218141316 7.2812190983859182 0 7.2812190983859182 -40.799454645559308 0 0 0 0 -3.3373864292162523 -0.30459014101870707 0 -0.30459014101870707 15.719729175863904 0 0 0 0 30.816294973140835 29.749180110753514 0 29.749180110753514 68.912820826182724 0 0 0 0 33.640401895636074 15.344019706841209 0 15.344019706841209 21.365063072735211 0 0 0 0 1.7921433302296634 -8.0187161554349586 0 -8.0187161554349586 77.085014173862874 0 0 0 0 0.54217475153311057 7.222492156062799 0 7.222492156062799 45.310752350022085 0 0 0 0 -0.12347130869835965 -22.884426815027837 0 -22.884426815027837 43.687575845779065 0 0 0 0 -8.4268583018249963 -1.9610961463258718 0 -1.9610961463258718 53.965536038318533 0 0 0 0 42.400804004417409 -23.745967521965213 0 -23.745967521965213 41.688534402892401 0 0 0 0 -4.7157386881558487 -12.877696588577237 0 -12.877696588577237 13.17887705378962 0 0 0 0 10.871599124812112 2.1710277287638746 0 2.1710277287638746 21.200622393429512 0 0 0 0 -0.017694207719428538 0.94598248316106037 0 0.94598248316106037 8.993591880564054 0 0 0 0 -1.7273608294167575 4.002135485468898 0 4.002135485468898 80.098406119522338 0 0 0 0 -0.057849541769807195 0.16691327702173453 0 0.16691327702173453 0.054102983724606535 0 0 0 0 15.330372926998301 -14.010735753152403 0 -14.010735753152403 -39.375063670988311 0 0 0 0 -11.405769977479038 7.1781892646686174 0 7.1781892646686174 92.351809512852924 0 0 0 0 -9.8945836528666611 1.6550828794715926 0 1.6550828794715926 103.43887014510983 0 0 0 0 0.0012749095931229701 -2.2127468617109116 0 -2.2127468617109116 89.497812791603792 0 0 0 0 -6.5615420957711894 -7.5802403686175239 0 -7.5802403686175239 104.53523844109441 0 0 0 0 -0.019480800696311976 -10.079949085561189 0 -10.079949085561189 102.45741393389471 0 0 0 0 -7.158802124751162 -13.082465037652582 0 -13.082465037652582 101.24884075145746 0 0 0 0 -7.3901449160679569 -12.61918101383344 0 -12.61918101383344 106.42084097903353 0 0 0 0 -10.023729396516707 -10.865472248809965 0 -10.865472248809965 105.88146827383025 0 0 0 0 -11.042883919648332 -11.937675603352545 0 -11.937675603352545 113.61895270528294 0 0 0 0 9.8591766131339398 -48.143087123520672 0 -48.143087123520672 175.87088414365098 0 0 0 0 -9.7850419588707958 -11.422130654478678 0 -11.422130654478678 110.43542210750456 0 0 0 0 -7.3143281544129763 -21.640616030359524 0 -21.640616030359524 111.32063744247307 0 0 0 0 -6.3032835562787461 -20.450082766628839 0 -20.450082766628839 88.751068158977432 0 0 0 0 22.878725574459857 -16.015357902033429 0 -16.015357902033429 53.504263940936653 0 0 0 0 0.55222775302077309 -6.8558229605041561 0 -6.8558229605041561 55.932303827445139 0 0 0 0 2.4314406492667469 -10.10660475996292 0 -10.10660475996292 37.359339995397022 0 0 0 0 5.9111352856730548 8.5637096975769964 0 8.5637096975769964 16.683049822189787 0 0 0 0 -5.1304964386461016 10.425885401426058 0 10.425885401426058 64.211006203891884 0 0 0 0 -5.0216596382828769 5.1738069907223689 0 5.1738069907223689 118.25322474347195 0 0 0 0 -0.010830989979610781 -0.10029884811822853 0 -0.10029884811822853 0.26103141369742389 0 0 0 0 0.02317854465316917 -13.712794978557053 0 -13.712794978557053 98.515928751716274 0 0 0 0 0.4800028108148674 -32.684317233297904 0 -32.684317233297904 365.21237246501551 0 0 0 0 107.38512892004906 -27.75624885680736 0 -27.75624885680736 14.965112735637376 0 0 0 0 7.0552230380212073 44.151128062152566 0 44.151128062152566 196.90241435622738 0 0 0 0 -35.630962281226971 83.738052049491671 0 83.738052049491671 40.98354598878359 0 0 0 0 32.207889440967804 41.050841242569732 0 41.050841242569732 21.878295446687844 0 0 0 0 53.784325935517643 74.797986216493882 0 74.797986216493882 24.267884863140807 0 0 0 0 6.2659537065105155 16.788372200113372 0 16.788372200113372 41.633525150624337 0 0 0 0 -0.1464785234067163 0.27532760303127191 0 0.27532760303127191 -0.27297773514305845 0 0 0 0 -7.3086152588648261 -26.369787187783004 0 -26.369787187783004 -2.4216266182338586 0 0 0 0 -15.037060820883966 5.4253505329252221 0 5.4253505329252221 16.53500499672009 0 0 0 0 19.780878755310027 50.175293473213969 0 50.175293473213969 48.566948778068763 0 0 0 0 -0.64808821920645832 0.60348086173927129 0 0.60348086173927129 -0.80363533558448808 0 0 0 0 -7.4785478962925538 7.1876848558204074 0 7.1876848558204074 8.7895796100056032 0 0 0 0 -18.955362576633206 -0.88118395430865348 0 -0.88118395430865348 7.3658622109942371 0 0 0 0 -14.839797293291895 15.216892726224614 0 15.216892726224614 20.85439564135595 0 0 0 0 -13.11686561416591 3.9867356783724972 0 3.9867356783724972 16.989462500467198 0 0 0 0 -21.013306329064207 3.6605606427765451 0 3.6605606427765451 54.430865298075787 0 0 0 0 -13.45424876084595 22.909915502419608 0 22.909915502419608 28.184710171342886 0 0 0 0 -12.879964259376933 -30.436531037729765 0 -30.436531037729765 53.256879244101583 0 0 0 0 -0.098055220956280151 13.407374700289438 0 13.407374700289438 -5.2702739369269693 0 0 0 0 -8.7445804415175346 24.774355422981898 0 24.774355422981898 -7.9821088945755037 0 0 0 0 9.9849513294400936 3.641532135399757 0 3.641532135399757 6.9775098846148467 0 0 0 0 -0.33510683544423597 0.021855243067847141 0 0.021855243067847141 -0.12028372043211988 0 0 0 0 0.0015340676333226834 6.2908943832356199 0 6.2908943832356199 59.856784971663728 0 0 0 0 -9.181093368196656 31.805918669597304 0 31.805918669597304 22.970320836560859 0 0 0 0 7.7089225119535039 40.556620498624397 0 40.556620498624397 72.159901005143183 0 0 0 0 -9.5656128684044628 4.1111146917787664 0 4.1111146917787664 24.126272276655072 0 0 0 0 -6.0552111656770595 -14.482122214327319 0 -14.482122214327319 115.88885746661981 0 0 0 0 34.431585481535762 -62.403126286437328 0 -62.403126286437328 110.95798195324551 0 0 0 0 -1.1603785992849334 10.130958876972727 0 10.130958876972727 120.88213679628097 0 0 0 0 12.998964488728365 19.451292064944937 0 19.451292064944937 3.5352997476147721 0 0 0 0 -0.94756794081973794 -5.223423049748817 0 -5.223423049748817 4.813328464460028 0 0 0 0 0.23578307408181676 0.40679567955859852 0 0.40679567955859852 0.75478287395566213 0 0 0 0 11.05880381203005 -20.932916070298234 0 -20.932916070298234 46.50375674458337 0 0 0 0 10.227268525301326 -24.536393515460077 0 -24.536393515460077 46.629403629602166 0 0 0 0 -1.0327829087934892 0.071921635202357947 0 0.071921635202357947 0.9329901089189292 0 0 0 0 -4.481479689947605 6.8473954910878092 0 6.8473954910878092 1.2752281867578859 0 0 0 0 0.70824877745781478 1.1905399643442962 0 1.1905399643442962 2.0907398477274057 0 0 0 0 -7.7739687872931356 0.93922195802224451 0 0.93922195802224451 6.8695187161647482 0 0 0 0 -1.3176555302110273 13.148283263297344 0 13.148283263297344 -30.653443731594962 0 0 0 0 -13.318880222549168 13.011352335906849 0 13.011352335906849 3.6033738632249879 0 0 0 0 -3.6847374859101336 7.9390903996609268 0 7.9390903996609268 2.7700903090881184 0 0 0 0 -1.8686822959443248 3.6304944117728155 0 3.6304944117728155 4.9285591452953668 0 0 0 0 -3.6251515057879828 8.3488210115101538 0 8.3488210115101538 5.284869472761784 0 0 0 0 -3.4373636692637319 6.6902853846404469 0 6.6902853846404469 8.8563998882582382 0 0 0 0 -1.5107184915217431 1.6666194708232069 0 1.6666194708232069 10.005273888338706 0 0 0 0 -2.6883145392496886 1.0506560507637914 0 1.0506560507637914 10.222915104677668 0 0 0 0 -0.91447546513158051 2.9997991675453193 0 2.9997991675453193 6.873436147217717 0 0 0 0 1.0889655162568488 2.5344982872063326 0 2.5344982872063326 2.3397188530831272 0 0 0 0 25.10634012172568 28.578140690173313 0 28.578140690173313 22.120538963616127 0 0 0 0 -1.4987986380014604 4.2890733355970951 0 4.2890733355970951 10.921448074077489 0 0 0 0 -1.5231743261465454 4.5899715961859329 0 4.5899715961859329 8.4677991797216237 0 0 0 0 -6.391478718347571 16.686494123248849 0 16.686494123248849 43.496284766035387 0 0 0 0 18.028288609773881 28.907987123529892 0 28.907987123529892 34.613897432689555 0 0 0 0 3.8489146952475282 8.3332668434745329 0 8.3332668434745329 12.474071718405554 0 0 0 0 -1.4735284622674953 4.4584336671396159 0 4.4584336671396159 7.3155315052135848 0 0 0 0 -3.131057267025426 1.829366319521796 0 1.829366319521796 7.8223194393794984 0 0 0 0 -2.5375504191447549 3.8786153274651554 0 3.8786153274651554 11.733431237574678 0 0 0 0 -2.5407127159522358 -1.6358356163267729 0 -1.6358356163267729 4.7621024289398406 0 0 0 0 -1.5541384248302572 2.0482895879823104 0 2.0482895879823104 6.2890401275834904 0 0 0 0 -2.7958833392112865 3.147257300617639 0 3.147257300617639 12.681844973412808 0 0 0 0 -1.8581340100172383 4.8837521441018907 0 4.8837521441018907 13.609062478484702 0 0 0 0 -1.4628870131941767 4.0775968133966671 0 4.0775968133966671 11.251729613693897 0 0 0 0 -2.1518381747141575 2.5179694481339538 0 2.5179694481339538 11.394764598924667 0 0 0 0 -4.428319415960857 -8.7648466374666896 0 -8.7648466374666896 37.084859125869116 0 0 0 0 -4.2750849479161843 8.7606119385309285 0 8.7606119385309285 24.1094469964155 0 0 0 0 -6.014047729482737 -1.4190597656714488 0 -1.4190597656714488 20.55996116422989 0 0 0 0 -14.352830335288672 -28.141714709112421 0 -28.141714709112421 53.627290407195687 0 0 0 0 -4.7783409378792481 2.1315560365164004 0 2.1315560365164004 8.8562279507261792 0 0 0 0 -40.201001028648534 51.709666359587573 0 51.709666359587573 30.839101302321069 0 0 0 0 -4.3438430048663577 8.5816419587354176 0 8.5816419587354176 24.225877464545192 0 0 0 0 -0.16913854013774632 6.6066588270169859 0 6.6066588270169859 14.734999360310216 0 0 0 0 0.68669610764593769 -1.7345854431342218 0 -1.7345854431342218 -3.0908750854598566 0 0 0 0 3.7383123395702569 5.8505509973620065 0 5.8505509973620065 8.7839543737936765 0 0 0 0 -17.809465130830631 -12.378213934367523 0 -12.378213934367523 -16.683667495693953 0 0 0 0 -4.9912790217973892 1.0695926690150941 0 1.0695926690150941 21.873985207439695 0 0 0 0 -7.7941988424322517 0.37477567663881928 0 0.37477567663881928 68.624150608869968 0 0 0 0 4.1728594360692455 -32.647011019897036 0 -32.647011019897036 37.360188283259049 0 0 0 0 -7.047502874006625 -16.211126618429262 0 -16.211126618429262 44.653826280147769 0 0 0 0 -21.756272991788137 -17.077562907332322 0 -17.077562907332322 40.871066041028826 0 0 0 0 -15.531714312035319 -9.4981032934156246 0 -9.4981032934156246 42.519468170052278 0 0 0 0 -1.8186058255620541 -0.35220864061400903 0 -0.35220864061400903 4.4455622671515229 0 0 0 0 11.293576211117937 -20.579773459707212 0 -20.579773459707212 40.822805238305591 0 0 0 0 2.0289684160188699 -12.752017334685661 0 -12.752017334685661 38.876211942959344 0 0 0 0 6.3148214985119466 -24.387500627613917 0 -24.387500627613917 52.359495988610433 0 0 0 0 -6.4454426830662896 -16.85728160290455 0 -16.85728160290455 48.379331859803642 0 0 0 0 -16.462685001855903 -12.670982828727574 0 -12.670982828727574 46.875518073720741 0 0 0 0 -16.663979287639251 -11.804515732603249 0 -11.804515732603249 43.256680880207568 0 0 0 0 -6.2009438098050964 -15.61413832558901 0 -15.61413832558901 46.516513103386387 0 0 0 0 -9.1276913761837477 -6.7282945879833278 0 -6.7282945879833278 35.705734530347399 0 0 0 0 -17.969314951863225 -11.104993724278756 0 -11.104993724278756 50.141876326186321 0 0 0 0 -10.824497079544869 -8.6169784809826524 0 -8.6169784809826524 72.338284604542423 0 0 0 0 -11.231081613623573 -2.4160783400766377 0 -2.4160783400766377 48.312158489708963 0 0 0 0 -5.8846677741882232 -7.4961084826114188 0 -7.4961084826114188 24.206936437320309 0 0 0 0 -18.800365429822762 -4.2886521947943947 0 -4.2886521947943947 35.664405881005223 0 0 0 0 -16.385938404889089 -11.601458534860285 0 -11.601458534860285 43.270741749824083 0 0 0 0 -15.576430004661802 -9.7076265905798209 0 -9.7076265905798209 22.425056580585078 0 0 0 0 -10.826698838519974 -6.5937783104037493 0 -6.5937783104037493 32.101844809986176 0 0 0 0 -4.5603836439854213 -6.6681249133640961 0 -6.6681249133640961 28.358543886473626 0 0 0 0 16.198219753686146 22.53999934648391 0 22.53999934648391 79.141658133201418 0 0 0 0 10.755435186692921 6.8503874861635268 0 6.8503874861635268 66.689686432393501 0 0 0 0 15.22671810038446 7.5700025375408586 0 7.5700025375408586 66.471780588268302 0 0 0 0 5.8692829566202818 4.7438745685540198 0 4.7438745685540198 68.160474043193972 0 0 0 0 8.265625823456503 10.108793519000756 0 10.108793519000756 71.886423505900893 0 0 0 0 3.3032229890441158 12.526944262208417 0 12.526944262208417 80.082007627788698 0 0 0 0 17.851023949932824 10.817988700968272 0 10.817988700968272 68.814155502070207 0 0 0 0 14.511295078284093 12.96475111489417 0 12.96475111489417 73.188178750424413 0 0 0 0 5.7732194086738673 17.202611173266632 0 17.202611173266632 84.741977280180436 0 0 0 0 -2.8433531719588245 7.841337393347203 0 7.841337393347203 79.523669420872466 0 0 0 0 0.037873176079049387 18.537353708961518 0 18.537353708961518 8.871270652800014 0 0 0 0 11.557829941122691 15.848375615547411 0 15.848375615547411 82.554197272387682 0 0 0 0 -14.030858513136764 -15.810047242834116 0 -15.810047242834116 38.65590124046139 0 0 0 0 -4.1046409956529022 -0.95342592017394168 0 -0.95342592017394168 24.724030362346184 0 0 0 0 13.543096154295199 18.747327006130945 0 18.747327006130945 72.256973480689339 0 0 0 0 4.866786805932767 9.309530120879657 0 9.309530120879657 12.7884898658974 0 0 0 0 6.0436363926961665 22.027163622019657 0 22.027163622019657 17.550373592833665 0 0 0 0 -2.2236058047637925 6.6434727619052865 0 6.6434727619052865 10.378832590722595 0 0 0 0 3.0668546061888655 14.017989836869376 0 14.017989836869376 16.46627318245055 0 0 0 0 -4.3007071169759001 8.5221019556629471 0 8.5221019556629471 23.842879248666577 0 0 0 0 -7.0276692653451356 1.5650752751699599 0 1.5650752751699599 29.310209417695688 0 0 0 0 -4.2392610286933632 8.7325509423681069 0 8.7325509423681069 23.745681956759654 0 0 0 0 -11.014168469212169 -2.7783852436911758 0 -2.7783852436911758 36.667088525467932 0 0 0 0 -3.6841822386304557 3.466642391809728 0 3.466642391809728 12.991362205764744 0 0 0 0 10.441013217814543 4.0111259313707706 0 4.0111259313707706 8.1122552562192141 0 0 0 0 14.863400773954936 13.767597053809368 0 13.767597053809368 7.1828684342617635 0 0 0 0 17.949703905797833 10.301149847611669 0 10.301149847611669 3.3118434856587555 0 0 0 0 12.747645697037115 8.4433240602884325 0 8.4433240602884325 13.769102080201264 0 0 0 0 -4.6350249797706056 32.021508400735911 0 32.021508400735911 -16.337784429240855 0 0 0 0 12.643597184441809 6.1670502211530334 0 6.1670502211530334 -1.1742894353473616 0 0 0 0 5.4980801560339909 -1.312719402414686 0 -1.312719402414686 2.1053915789672715 0 0 0 0 6.6815888160347399 -20.883931621086958 0 -20.883931621086958 18.722952848125715 0 0 0 0 5.0722422253431532 14.532499946226153 0 14.532499946226153 38.370979607207119 0 0 0 0 25.889013102568128 16.068500674766256 0 16.068500674766256 77.455739869037643 0 0 0 0 31.070402604326802 28.919484234957054 0 28.919484234957054 5.0521265945426421 0 0 0 0 86.248246782955903 41.556751647651254 0 41.556751647651254 53.444142449247011 0 0 0 0 29.496902078586857 -48.270802956678381 0 -48.270802956678381 184.76286893931683 0 0 0 0 26.521152698183272 106.96658538257179 0 106.96658538257179 33.04104251015815 0 0 0 0 0.12561916075716117 -2.5556384110088715 0 -2.5556384110088715 2.9743595366524005 0 0 0 0 10.769202867898116 6.3892915420783538 0 6.3892915420783538 -1.3083771913370583 0 0 0 0 5.401210638468509 5.1552221172618715 0 5.1552221172618715 12.261614286324829 0 0 0 0 10.487414496550628 5.1192673964105779 0 5.1192673964105779 6.947035927005345 0 0 0 0 4.9450475285048014 -7.6579270626534708 0 -7.6579270626534708 2.607452631011256 0 0 0 0 -6.9831813289322326 5.334731170158193 0 5.334731170158193 26.434001896341215 0 0 0 0 -23.829449208769802 -5.4545640845026355 0 -5.4545640845026355 36.205595961895597 0 0 0 0 4.3043449975932617 13.319514994633209 0 13.319514994633209 14.739089760318166 0 0 0 0 -1.931302955653905 -1.0934816262379172 0 -1.0934816262379172 20.646860985842068 0 0 0 0 4.6277083760563116 17.974676511713824 0 17.974676511713824 27.452132565464126 0 0 0 0 -0.26224645199354235 2.7245514354257523 0 2.7245514354257523 1.346994249171928 0 0 0 0 1.0755767903638116 9.3589805145165883 0 9.3589805145165883 25.836642965175997 0 0 0 0 13.024028720460706 16.251456616104406 0 16.251456616104406 26.141670323107974 0 0 0 0 -9.2107010722845075 19.281382489054522 0 19.281382489054522 43.622272608685307 0 0 0 0 -32.652615550703558 -1.7797734135529026 0 -1.7797734135529026 34.659309694594413 0 0 0 0 -16.323214512076447 3.1444543298275676 0 3.1444543298275676 24.730227132604341 0 0 0 0 -15.910116236163276 -5.7078289350465639 0 -5.7078289350465639 24.231093613161647 0 0 0 0 2.4453218360551379 -6.7419569791449021 0 -6.7419569791449021 15.259443449647279 0 0 0 0 -2.6020927065702608 11.404394537879853 0 11.404394537879853 31.868749964982271 0 0 0 0 -16.472520912371806 1.5123833091420238 0 1.5123833091420238 28.446177184203407 0 0 0 0 175.25229483882362 55.489843385235872 0 55.489843385235872 139.07758738617122 0 0 0 0 18.546351012346129 628.86709894369278 0 628.86709894369278 826.79078964103246 0 0 0 0 -4.2202620478102517 29.994780607514258 0 29.994780607514258 28.51906927023083 0 0 0 0 -12.987729032682637 -0.66984692241385346 0 -0.66984692241385346 7.8423566332203336 0 0 0 0 -40.272931245971449 -35.702263759623747 0 -35.702263759623747 -7.8694100282154977 0 0 0 0 -60.915621404631111 22.135190521818004 0 22.135190521818004 54.05322087512468 0 0 0 0 -93.482293203791869 -49.945223047550826 0 -49.945223047550826 16.973541877450771 0 0 0 0 0.46383444319885836 -4.642450901235776 0 -4.642450901235776 11.513029046970587 0 0 0 0 -110.20549146508438 -9.0828688158726436 0 -9.0828688158726436 39.687638344614243 0 0 0 0 -254.99742585763443 258.4384547585214 0 258.4384547585214 412.7922030542104 0 0 0 0 66.626692801029606 132.02611542446948 0 132.02611542446948 287.56319628636993 0 0 0 0 -76.579823721541288 848.40285660632071 0 848.40285660632071 958.15126192374737 0 0 0 0 -0.59172377300689161 0.93872900722776365 0 0.93872900722776365 3.1025941107827748 0 0 0 0 -450.09949431877999 303.97909547896415 0 303.97909547896415 406.74642435694113 0 0 0 0 -15.12242124108004 -318.70162318348594 0 -318.70162318348594 998.66434394656062 0 0 0 0 67.035096394535032 -167.09469572672242 0 -167.09469572672242 480.75977253400197 0 0 0 0 86.79508507986661 -227.9212387622174 0 -227.9212387622174 584.9132552152696 0 0 0 0 -105.06779007351307 49.8671657986215 0 49.8671657986215 245.31146747754246 0 0 0 0 65.700546817941728 -130.99568611892755 0 -130.99568611892755 515.65917136802454 0 0 0 0 39.83252028458412 101.52405744327189 0 101.52405744327189 452.44322403546539 0 0 0 0 200.35148117023419 13.996551950345747 0 13.996551950345747 283.10522778876475 0 0 0 0 -11.53056732631029 132.72419410885414 0 132.72419410885414 238.9186805600184 0 0 0 0 12.272166060418478 -72.732041963453412 0 -72.732041963453412 275.10349412783398 0 0 0 0 -1.0661821484240193 -20.397814071577159 0 -20.397814071577159 617.36689005963854 0 0 0 0 32.667752856355548 8.6160301645140862 0 8.6160301645140862 336.94504561020585 0 0 0 0 8.5573594022689576 -12.601986224159191 0 -12.601986224159191 173.98733365222324 0 0 0 0 -5.3933330621975983 60.299692903419782 0 60.299692903419782 135.9410854986636 0 0 0 0 22.897780474079354 54.549722710347851 0 54.549722710347851 51.216703548183432 0 0 0 0 16.483647405221745 95.57756324140064 0 95.57756324140064 190.43732562498917 0 0 0 0 47.583967695419005 81.688755740404304 0 81.688755740404304 149.70025097616599 0 0 0 0 32.459775737862401 77.793091319239466 0 77.793091319239466 228.87388753965934 0 0 0 0 62.709742046145493 23.994963706005365 0 23.994963706005365 210.35854699579431 0 0 0 0 11.286156718482516 33.761868960169522 0 33.761868960169522 334.38540765318612 0 0 0 0 59.185649707337916 -135.59694759785634 0 -135.59694759785634 221.59086549385756 0 0 0 0 32.530492611738055 -173.04636814770492 0 -173.04636814770492 522.30764777807599 0 0 0 0 32.948615208795445 -112.14513482337861 0 -112.14513482337861 207.63712548822514 0 0 0 0 -58.929733107280299 -66.978800460274215 0 -66.978800460274215 181.51436416243087 0 0 0 0 -0.664527779855689 13.840468055932433 0 13.840468055932433 107.05426662403625 0 0 0 0 43.438786244406401 -85.452019191608997 0 -85.452019191608997 115.05235436779913 0 0 0 0 -71.506705479244147 -19.079796227952102 0 -19.079796227952102 23.641600152230239 0 0 0 0 -132.13701389038579 -104.38216805723641 0 -104.38216805723641 113.50440642828471 0 0 0 0 -98.873402450166964 -83.793644765850331 0 -83.793644765850331 105.84500459211631 0 0 0 0 52.263028452579221 45.940482110910125 0 45.940482110910125 20.74715262844984 0 0 0 0 -388.19429259033222 -62.982625991440727 0 -62.982625991440727 89.716486872537644 0 0 0 0 -72.723101218057195 -29.284626861091965 0 -29.284626861091965 98.030465718178675 0 0 0 0 -1.3911004979208874 -4.5805530610503835 0 -4.5805530610503835 73.539676615634164 0 0 0 0 -143.08815597209286 72.451713333197404 0 72.451713333197404 67.38196253795104 0 0 0 0 -108.10920258640635 -9.930502210452687 0 -9.930502210452687 128.55261119511852 0 0 0 0 3.2034491086833441 79.095910347779864 0 79.095910347779864 157.20712560140237 0 0 0 0 -9.3664014083851725 132.00981671328191 0 132.00981671328191 106.37848347931867 0 0 0 0 -84.184131308619271 239.09054150357406 0 239.09054150357406 332.61009520148218 0 0 0 0 -55.692338076427404 7.3511172684229678 0 7.3511172684229678 386.55596447347489 0 0 0 0 4.6886125350697228 -42.191977348387809 0 -42.191977348387809 -147.08921278818161 0 0 0 0 298.47351187203367 390.51323304633843 0 390.51323304633843 -233.3702553435578 0 0 0 0 -13.947418649569158 33.606020621482457 0 33.606020621482457 57.928098134492757 0 0 0 0 26.882587982105136 -1.9264316238168249 0 -1.9264316238168249 68.217265060084173 0 0 0 0 -1.9150093342561338 -2.7886143416335596 0 -2.7886143416335596 71.617253376435826 0 0 0 0 -229.64302392616355 293.24851689494972 0 293.24851689494972 474.6739507343882 0 0 0 0 3.45549382590211 2.5125635570022098 0 2.5125635570022098 1.8276363751015765 0 0 0 0 -117.81587396542136 71.36258365419053 0 71.36258365419053 -93.701022561959689 0 0 0 0 -163.14365424339394 12.711614281317452 0 12.711614281317452 -123.46804299936048 0 0 0 0 -4.366606338375286 -2.4782024795374298 0 -2.4782024795374298 21.127863282879161 0 0 0 0 -1.2951238721543632 53.151907186707831 0 53.151907186707831 -90.924578875848965 0 0 0 0 5.012328084526871 10.052888476471708 0 10.052888476471708 170.92780495228362 0 0 0 0 10.273975720862381 89.736694686725968 0 89.736694686725968 198.60081257614729 0 0 0 0 7.8675081692366007 116.26089083955776 0 116.26089083955776 154.71321596711641 0 0 0 0 83.16610891204121 105.97477799665216 0 105.97477799665216 132.88546589307953 0 0 0 0 5.328443248976555 73.59132307362961 0 73.59132307362961 148.21310779073974 0 0 0 0 44.07668639619169 64.288038042453991 0 64.288038042453991 129.80149036365037 0 0 0 0 35.2492308922333 33.733987249775964 0 33.733987249775964 89.595006682931853 0 0 0 0 58.246131208014617 38.159090852335794 0 38.159090852335794 38.258604421906057 0 0 0 0 40.708761791491042 33.511286272696452 0 33.511286272696452 -3.3711833971101441 0 0 0 0 22.900263299870971 -8.6884019991193782 0 -8.6884019991193782 51.002705224585952 0 0 0 0 -7.9149563650507844 46.539560351942782 0 46.539560351942782 -1.4471788629452931 0 0 0 0 -7.1820548235006143 17.436065462214117 0 17.436065462214117 1.2468215175570023 0 0 0 0 6.8909842600223783 32.382790810326696 0 32.382790810326696 -47.818366526131285 0 0 0 0 10.025424232818814 7.3301312696981142 0 7.3301312696981142 4.6570932027406684 0 0 0 0 1.5561925958527354 18.201948793575866 0 18.201948793575866 -29.45624392060563 0 0 0 0 -40.43260159253623 6.3039966773867491 0 6.3039966773867491 55.956865570362424 0 0 0 0 -25.808897095884273 16.515436648352988 0 16.515436648352988 108.35020747320959 0 0 0 0 -25.800296887988679 15.177680173415865 0 15.177680173415865 89.475865279629943 0 0 0 0 -12.226289516275301 18.073566781291447 0 18.073566781291447 83.432977008645139 0 0 0 0 -5.5280950974329244 7.8062165130249923 0 7.8062165130249923 78.03575285016268 0 0 0 0 -8.4109850317879591 0.98652334694270394 0 0.98652334694270394 73.358763258875115 0 0 0 0 18.713497813576851 38.557954595213232 0 38.557954595213232 69.488920227392555 0 0 0 0 -38.610969609869244 -12.212300882150885 0 -12.212300882150885 68.334380285472434 0 0 0 0 -30.234653135497865 8.9394021272528335 0 8.9394021272528335 91.381435722883907 0 0 0 0 -18.277542501569769 5.8386639834061498 0 5.8386639834061498 76.231293322780402 0 0 0 0 -17.827400223612656 2.0925536372233182 0 2.0925536372233182 90.854597438752535 0 0 0 0 -17.594688589685191 1.4556957803742989 0 1.4556957803742989 91.567550141277025 0 0 0 0 10.095383512039916 -12.659681839053519 0 -12.659681839053519 60.856095820665359 0 0 0 0 -35.030526798417668 17.041393311490538 0 17.041393311490538 68.828184193509514 0 0 0 0 -1.6759886719609454 -0.76356981736317664 0 -0.76356981736317664 0.032828758683422166 0 0 0 0 -0.5431679622789094 2.2777744829654694 0 2.2777744829654694 57.192686456342926 0 0 0 0 -2.2541843758583582 -40.569757799356012 0 -40.569757799356012 2.4791264225787017 0 0 0 0 6.6962950215803971 -1.3991749499837169 0 -1.3991749499837169 55.976090679730987 0 0 0 0 24.268164758600562 3.5995173647606862 0 3.5995173647606862 -0.39520753943361342 0 0 0 0 -1.3282999597508933 30.440518477589649 0 30.440518477589649 63.923021910450188 0 0 0 0 -8.0783443289117702 -9.7421140896413334 0 -9.7421140896413334 22.110100786556018 0 0 0 0 -10.38763621187568 -6.6898909555223582 0 -6.6898909555223582 24.139352335483522 0 0 0 0 -59.205481038678954 -26.117058849922614 0 -26.117058849922614 83.729488703254901 0 0 0 0 35.13271138602363 25.099240647290571 0 25.099240647290571 -4.166279364406364 0 0 0 0 -2.9858279803875991 4.1430172727524095 0 4.1430172727524095 32.51205964522876 0 0 0 0 -5.2402221656250276 47.367223037879739 0 47.367223037879739 7.3153768995325663 0 0 0 0 -10.431697791065744 5.6642339417339826 0 5.6642339417339826 20.386662159216939 0 0 0 0 -44.107063550868702 52.59252125769126 0 52.59252125769126 22.954236544348532 0 0 0 0 -12.059387362471657 24.692096363371093 0 24.692096363371093 18.088486886132159 0 0 0 0 5.8433976282322533 2.8769223549843446 0 2.8769223549843446 46.996041047386825 0 0 0 0 38.960578668478547 11.145258614866179 0 11.145258614866179 11.834576975194068 0 0 0 0 35.212316673693294 -46.251157670296379 0 -46.251157670296379 89.989664421984344 0 0 0 0 9.2093080563208787 -7.701129376233439 0 -7.701129376233439 46.407413159335192 0 0 0 0 -84.5017510342891 78.57142083978033 0 78.57142083978033 100.94748436022201 0 0 0 0 64.250064786766416 7.1396447728475323 0 7.1396447728475323 16.178133951125346 0 0 0 0 -49.804356991109671 -28.315192993155506 0 -28.315192993155506 84.237067114395359 0 0 0 0 -1.2636561016075163 3.8517871572044076 0 3.8517871572044076 0.56816039436012034 0 0 0 0 33.719091231242345 -78.614883470663699 0 -78.614883470663699 103.91017342374835 0 0 0 0 16.905983210204113 66.750322609033901 0 66.750322609033901 105.71110299256543 0 0 0 0 13.036630708406619 27.942131684718333 0 27.942131684718333 34.249332968007366 0 0 0 0 -23.365959452990523 -5.9985878591724031 0 -5.9985878591724031 162.51457043967093 0 0 0 0 -14.018718728724313 15.163648307691659 0 15.163648307691659 9.1077354687451511 0 0 0 0 -73.701199653738513 19.871944871636515 0 19.871944871636515 84.098068679290009 0 0 0 0 -115.69111300271322 15.091863281955739 0 15.091863281955739 96.201456041366328 0 0 0 0 20.714633248156133 7.5278061241770047 0 7.5278061241770047 56.290350677605602 0 0 0 0 -89.908307026564216 93.098979369184235 0 93.098979369184235 -5.4710219993139617 0 0 0 0 -28.635058331692335 1.8576549913850613 0 1.8576549913850613 80.30281008440943 0 0 0 0 -9.2706360460130384 1.8798388051618531 0 1.8798388051618531 82.77143161555432 0 0 0 0 -6.1221362168543045 -11.240150505953636 0 -11.240150505953636 18.180957426688273 0 0 0 0 -7.5212572169669762 -2.8971506117146504 0 -2.8971506117146504 29.227914690022345 0 0 0 0 -7.3906172273019433 -1.3191563630115759 0 -1.3191563630115759 55.703155376232871 0 0 0 0 -6.1716775258264533 -1.5612712680012919 0 -1.5612712680012919 85.242769174728892 0 0 0 0 -23.887364755180762 5.2923511225211612 0 5.2923511225211612 45.021917927220073 0 0 0 0 -36.392411900578963 -15.96365558054822 0 -15.96365558054822 18.691854475415312 0 0 0 0 -13.445062137904713 -11.875934269414628 0 -11.875934269414628 45.78942890975793 0 0 0 0 -10.895468106829963 -22.847144640855877 0 -22.847144640855877 7.4311275082826285 0 0 0 0 -37.17484521844608 -18.252922008228779 0 -18.252922008228779 13.259391339495778 0 0 0 0 -14.291177420604109 3.3233463367642599 0 3.3233463367642599 77.426563786102662 0 0 0 0 -6.9113932128709124 -11.568130022142469 0 -11.568130022142469 26.840494148243131 0 0 0 0 -9.5157097852393449 -1.9201328887423728 0 -1.9201328887423728 37.33375197351355 0 0 0 0 -24.516239253143894 -23.191914824195919 0 -23.191914824195919 54.193666734616272 0 0 0 0 -2.3873414988815966 -3.3746697225396929 0 -3.3746697225396929 20.115133519575465 0 0 0 0 -6.2875276011764072 -7.0702531005372293 0 -7.0702531005372293 19.97851400188847 0 0 0 0 -4.4112917871644797 4.7769859244536388 0 4.7769859244536388 1.5411717346902094 0 0 0 0 -18.889810317688898 8.2650595535233151 0 8.2650595535233151 -12.503259329396315 0 0 0 0 -7.0714337823012201 -3.516591336889789 0 -3.516591336889789 9.6754533567580516 0 0 0 0 -6.8496519817995249 -6.2831488796800841 0 -6.2831488796800841 71.00528623968421 0 0 0 0 -1.4741795158910804 -0.056908888367615873 0 -0.056908888367615873 85.042247302473697 0 0 0 0 -7.3946925964578805 -10.361884373802511 0 -10.361884373802511 8.9836547566881251 0 0 0 0 -14.223799831598058 -22.158669571865175 0 -22.158669571865175 48.962360902485671 0 0 0 0 -13.581406285681624 1.4141720558618545 0 1.4141720558618545 58.92202383831318 0 0 0 0 -14.978176920383703 11.267963733327633 0 11.267963733327633 62.612793855885684 0 0 0 0 -14.406723695955407 -2.5258929489282309 0 -2.5258929489282309 72.992512165918015 0 0 0 0 -7.9009253096764951 3.239942610860453 0 3.239942610860453 48.557605070214777 0 0 0 0 -32.110064834738751 10.121148164473198 0 10.121148164473198 74.916819755264441 0 0 0 0 -3.880160074831454 4.2952793116699226 0 4.2952793116699226 55.745197713886057 0 0 0 0 -15.171772730613156 13.09396612416549 0 13.09396612416549 45.802057136388612 0 0 0 0 -1.3450587539611134 4.0862675149615413 0 4.0862675149615413 44.57108145622874 0 0 0 0 -7.8911165530626022 -0.11938316153100459 0 -0.11938316153100459 40.784473862669984 0 0 0 0 -20.816322587072591 6.8173024379429989 0 6.8173024379429989 43.790669284571777 0 0 0 0 -14.23708896392418 1.9553745639423141 0 1.9553745639423141 42.446279259789662 0 0 0 0 -11.827579951535881 6.6201866710944159 0 6.6201866710944159 46.381171609187732 0 0 0 0 -8.1748776300306645 0.44748076849828067 0 0.44748076849828067 48.867903366844985 0 0 0 0 -6.5536350426995114 5.6568543106859579 0 5.6568543106859579 47.04457411916519 0 0 0 0 -12.388961808665369 12.598944261552603 0 12.598944261552603 24.107581446604627 0 0 0 0 -2.226856590688385 -38.175466047594455 0 -38.175466047594455 91.10387253366207 0 0 0 0 -10.768683282872189 5.2272439620464866 0 5.2272439620464866 35.061918843566673 0 0 0 0 -11.217030423121287 5.3471255984177333 0 5.3471255984177333 35.03029422837426 0 0 0 0 -14.510314413202632 7.7311171129668423 0 7.7311171129668423 25.796639617106038 0 0 0 0 -17.994796310219272 -1.2110661049573537 0 -1.2110661049573537 81.0005338103947 0 0 0 0 2.9403306803756095 -19.094999469412869 0 -19.094999469412869 29.260053097805212 0 0 0 0 9.3857321089635661 -14.667233257216139 0 -14.667233257216139 38.150761026443433 0 0 0 0 -9.2740538552972627 14.918925102965417 0 14.918925102965417 28.895485878305465 0 0 0 0 -2.8115639008742619 -13.701279889453872 0 -13.701279889453872 86.365558437575601 0 0 0 0 -11.287980053737407 4.9774575636444496 0 4.9774575636444496 18.706908405659064 0 0 0 0 -1.5502781170785056 0.81054859305731952 0 0.81054859305731952 65.466049397517054 0 0 0 0 -2.836604455658744 -10.325361365408753 0 -10.325361365408753 29.249090606463142 0 0 0 0 -1.6176225324461484 -0.83473708320161677 0 -0.83473708320161677 55.533385622416972 0 0 0 0 -6.6262669046375473 -10.242989616455802 0 -10.242989616455802 14.900593253937629 0 0 0 0 0.10253776776147561 8.3543909515647101 0 8.3543909515647101 36.536919758029399 0 0 0 0 -2.9794474481119835 8.5419819038106652 0 8.5419819038106652 21.864337255014107 0 0 0 0 -12.076550580921776 -12.702832657521867 0 -12.702832657521867 45.343847133102827 0 0 0 0 -6.9761068903971477 -8.3822877272978076 0 -8.3822877272978076 103.43702962502539 0 0 0 0 -13.826828579731682 -4.3848102122137789 0 -4.3848102122137789 56.778583242448804 0 0 0 0 -5.2574815316730135 -4.6219739037321546 0 -4.6219739037321546 -1.3000787482818108 0 0 0 0 -0.46363052497923007 -1.4394043308250275 0 -1.4394043308250275 95.776750778823043 0 0 0 0 -0.5962710305385599 -2.7529297533910722 0 -2.7529297533910722 89.634709380276036 0 0 0 0 8.8241678915144917 1.9228568178077694 0 1.9228568178077694 91.362325935420813 0 0 0 0 11.819050480843032 -5.9157774494669866 0 -5.9157774494669866 72.836450283298291 0 0 0 0 -5.5261976191130202 -24.838989910944292 0 -24.838989910944292 77.070841820263013 0 0 0 0 -9.4185789640678195 -9.1514739779304364 0 -9.1514739779304364 105.14902448011708 0 0 0 0 0.27106689089475822 -11.403907160274684 0 -11.403907160274684 104.76300828758394 0 0 0 0 -3.5758115227438338 -42.481284334131487 0 -42.481284334131487 131.26071234994788 0 0 0 0 -20.072038924700081 4.8683204495173413 0 4.8683204495173413 134.97801440436888 0 0 0 0 -14.075984738280226 16.859960398447583 0 16.859960398447583 86.131379637972714 0 0 0 0 -9.2594502737182438 -8.1748668600375822 0 -8.1748668600375822 94.731715981091838 0 0 0 0 -40.196192159134512 4.5627436619142827 0 4.5627436619142827 94.024831026530592 0 0 0 0 -4.1799542061677055 -13.027736522960293 0 -13.027736522960293 8.650522270562476 0 0 0 0 -1.6544926889517102 -7.5320651176561224 0 -7.5320651176561224 66.220979590722237 0 0 0 0 -91.265647326426318 -48.987012056353706 0 -48.987012056353706 183.23735137561744 0 0 0 0 -40.469772615721126 24.249907160236035 0 24.249907160236035 46.761050113134843 0 0 0 0 22.074525293340457 -54.592350387367333 0 -54.592350387367333 3.1672290060887462 0 0 0 0 13.709079943955214 -4.2275809369148192 0 -4.2275809369148192 48.664226403023349 0 0 0 0 13.91713033505534 9.6113684445185754 0 9.6113684445185754 94.533719484585163 0 0 0 0 -44.925172737769714 -22.446695068865665 0 -22.446695068865665 77.833518994521 0 0 0 0 0.5675912636145124 -6.2864626255401497 0 -6.2864626255401497 64.999028582312292 0 0 0 0 -82.013101088404767 -3.7460919544937497 0 -3.7460919544937497 83.559651133466105 0 0 0 0 0.77524357986801029 -6.626911332342047 0 -6.626911332342047 60.862577067078291 0 0 0 0 -14.835139780105948 17.135866573335079 0 17.135866573335079 67.075411223097035 0 0 0 0 -0.023350648200278101 6.8336804499122081 0 6.8336804499122081 48.630060443552793 0 0 0 0 0.51068754898530155 0.19678800527890417 0 0.19678800527890417 -1.2042000858007711 0 0 0 0 1.2160969331810634 4.8996212267156807 0 4.8996212267156807 25.806357266144914 0 0 0 0 5.0920590104840073 -11.903531175738863 0 -11.903531175738863 69.22428326588124 0 0 0 0 4.3971146602353315 -12.529157761657189 0 -12.529157761657189 96.278481127417763 0 0 0 0 -1.4789655553480543 -8.1697818073007511 0 -8.1697818073007511 121.51947003011082 0 0 0 0 -1.8314932161468676 -2.6577054164645233 0 -2.6577054164645233 43.708148656452977 0 0 0 0 -4.7234647122456508 -1.4107123619837694 0 -1.4107123619837694 45.579951726183936 0 0 0 0 -6.9115441187188367 2.9204012533809873 0 2.9204012533809873 46.687057259354333 0 0 0 0 -4.6007800601462847 -4.1349346827209956 0 -4.1349346827209956 52.346454842292587 0 0 0 0 -32.676138417810591 0.77146939088197541 0 0.77146939088197541 58.177363190254255 0 0 0 0 -10.886005842602344 -2.7019014887737285 0 -2.7019014887737285 69.347995985161106 0 0 0 0 -5.5060843983204961 -5.3238841991224035 0 -5.3238841991224035 59.03653637568641 0 0 0 0 0.67588292615042178 -10.438997247070802 0 -10.438997247070802 57.88273183479032 0 0 0 0 -2.7740766751844199 -13.269967556901292 0 -13.269967556901292 15.693535090650983 0 0 0 0 5.2414873171451291 -31.469250174588524 0 -31.469250174588524 166.86433043724537 0 0 0 0 -13.183015889441037 -10.982257254903743 0 -10.982257254903743 84.494921274410444 0 0 0 0 -20.020715028403629 -66.46212185244076 0 -66.46212185244076 136.32965282531222 0 0 0 0 -77.030178291521224 -67.749252686036925 0 -67.749252686036925 186.07252928140224 0 0 0 0 -91.77200662083871 39.756241399319606 0 39.756241399319606 46.119369121966884 0 0 0 0 -5.4168686694675898 -141.07755291053036 0 -141.07755291053036 157.34139438682178 0 0 0 0 35.377577322697789 85.861785387283817 0 85.861785387283817 285.78765162682976 0 0 0 0 108.36885957390314 -59.853981362484774 0 -59.853981362484774 35.245189941354511 0 0 0 0 1.1474354154223563 -1.0766102051536777 0 -1.0766102051536777 2.8149826467001162 0 0 0 0 -7.0817652846657779 -8.9490302328922553 0 -8.9490302328922553 61.394497147373841 0 0 0 0 -4.493719896485266 -10.300644297483757 0 -10.300644297483757 1.3723819619120263 0 0 0 0 6.0416762084566926 -1.6801793320664729 0 -1.6801793320664729 52.085720861181471 0 0 0 0 -4.1544852253956437 -10.439584056344408 0 -10.439584056344408 36.74633656888625 0 0 0 0 -5.8757493487269556 -11.660884280021492 0 -11.660884280021492 51.126445655063435 0 0 0 0 31.62851808983293 40.423380455352344 0 40.423380455352344 60.060757254599594 0 0 0 0 6.7239653709509319 8.7735739729495492 0 8.7735739729495492 8.1380819868973795 0 0 0 0 -11.708592096330385 -28.39672838817205 0 -28.39672838817205 200.59024652191874 0 0 0 0 -15.995694103547823 -21.811809969614842 0 -21.811809969614842 203.28042418367113 0 0 0 0 -26.524918711033138 -17.439384885266918 0 -17.439384885266918 267.56901962710253 0 0 0 0 -36.840926016816184 -57.176431372092338 0 -57.176431372092338 281.87453597211788 0 0 0 0 -4.2287371681570818 -24.580530132188869 0 -24.580530132188869 264.44945106096566 0 0 0 0 -5.0425872890468248 -51.730742736981483 0 -51.730742736981483 245.95722759541604 0 0 0 0 -36.314299432573762 -32.006372580552124 0 -32.006372580552124 359.7656936889689 0 0 0 0 41.81238161217675 -103.74435800865831 0 -103.74435800865831 284.56245306624623 0 0 0 0 149.39116323291705 6.378703994463649 0 6.378703994463649 129.83826543598843 0 0 0 0 52.630082425986643 -37.749748065871245 0 -37.749748065871245 -23.478500018329214 0 0 0 0 10.786019147223897 -40.134462565052672 0 -40.134462565052672 169.19836869119899 0 0 0 0 -53.618053625718062 17.655426386765612 0 17.655426386765612 158.46704760329521 0 0 0 0 1.1309342189469658 0.28385768061089323 0 0.28385768061089323 0.62519236336587625 0 0 0 0 35.737304519047768 -58.898671914455917 0 -58.898671914455917 115.47234315735841 0 0 0 0 -23.336078872523331 -53.47648164641214 0 -53.47648164641214 223.31678852974437 0 0 0 0 -23.76090497779262 -24.892443013130105 0 -24.892443013130105 217.91310083052849 0 0 0 0 12.943622919734525 -45.876422565233952 0 -45.876422565233952 173.21798824158031 0 0 0 0 -57.44307818821062 -54.063981557032093 0 -54.063981557032093 194.53915643285291 0 0 0 0 1.6098756187893701 -2.1381194714185057 0 -2.1381194714185057 3.6368959497177755 0 0 0 0 8.2464625353200063 521.67928211233811 0 521.67928211233811 1891.241199799832 0 0 0 0 -433.49998662057567 314.62142965548264 0 314.62142965548264 959.38629451474844 0 0 0 0 84.609338576216231 835.23615682923992 0 835.23615682923992 1914.80680552782 0 0 0 0 -268.80223424626456 815.66958109434927 0 815.66958109434927 2349.2836888747834 0 0 0 0 -198.51906417505927 601.90239176726027 0 601.90239176726027 2335.2889214037714 0 0 0 0 -225.26380012288712 508.70069151600728 0 508.70069151600728 2209.452159700857 0 0 0 0 1.61644837719773 1.3666831377770592 0 1.3666831377770592 -1.0682451509873871 0 0 0 0 952.32427070087783 140.43396518455847 0 140.43396518455847 474.05422610345704 0 0 0 0 588.55597411616782 1207.1026040952001 0 1207.1026040952001 451.4894483136959 0 0 0 0 484.55726079671103 1147.134157476321 0 1147.134157476321 2153.492879955862 0 0 0 0 -102.95456711115253 1167.3599386681672 0 1167.3599386681672 2300.4910640933304 0 0 0 0 737.82016951388619 2011.6204172990656 0 2011.6204172990656 2033.0064015882162 0 0 0 0 -293.57407438276948 1442.207827092765 0 1442.207827092765 2553.7906042529794 0 0 0 0 -202.69786804828152 1786.3698940918293 0 1786.3698940918293 3489.1898099702448 0 0 0 0 -600.43655476019069 1438.0641530625362 0 1438.0641530625362 3503.0112304909967 0 0 0 0 -946.7149537594895 655.23732294820365 0 655.23732294820365 2816.5167422606319 0 0 0 0 -481.38656015299915 617.85868360457789 0 617.85868360457789 2739.8525585071038 0 0 0 0 -43.365846296037375 1020.4089861375251 0 1020.4089861375251 2525.7050684811547 0 0 0 0 -764.49288215116235 1048.8914805942986 0 1048.8914805942986 2862.3589742666372 0 0 0 0 126.37306009487692 -573.82871805763352 0 -573.82871805763352 3495.3686115020319 0 0 0 0 9.9856530678690287 9.5674461546878646 0 9.5674461546878646 13.533123382338772 0 0 0 0 1124.8260874883201 145.55902670827254 0 145.55902670827254 49.633484265956213 0 0 0 0 -8.4653163865618506 6.0473333481913869 0 6.0473333481913869 11.053064263774147 0 0 0 0 76.390833855208484 -2.4846722020956804 0 -2.4846722020956804 -69.213179163194582 0 0 0 0 19.904317985641683 140.6063534112327 0 140.6063534112327 15.773448731803398 0 0 0 0 -38.045706752127188 94.758631804163656 0 94.758631804163656 87.481486045318889 0 0 0 0 -5.8611351143130177 10.446355933584073 0 10.446355933584073 50.27116553009833 0 0 0 0 -42.490072086997998 -1.8183401596688782 0 -1.8183401596688782 102.48113990201819 0 0 0 0 41.178486708919309 -162.15507915967828 0 -162.15507915967828 340.28776447025029 0 0 0 0 48.339035458471869 -44.298326721927651 0 -44.298326721927651 77.987484993063845 0 0 0 0 -17.781130029362885 -53.638662484197994 0 -53.638662484197994 114.50303952118702 0 0 0 0 -33.70245049947755 -1.3513990179872053 0 -1.3513990179872053 134.16283383916743 0 0 0 0 0.34361821269480419 0.77998927623882253 0 0.77998927623882253 -0.17484207060834933 0 0 0 0 84.660725104246694 112.49131559439411 0 112.49131559439411 22.551785080380796 0 0 0 0 -21.950414190503807 108.14475537339604 0 108.14475537339604 265.46789218965569 0 0 0 0 -62.740421364808071 164.01905563238324 0 164.01905563238324 327.91593854913663 0 0 0 0 -46.532013698912124 147.71356040016508 0 147.71356040016508 -86.96925476504839 0 0 0 0 1.0148819667131379 -4.5477355162714588 0 -4.5477355162714588 13.070002492915435 0 0 0 0 -111.51170452897964 -48.674126944562886 0 -48.674126944562886 189.36502701883001 0 0 0 0 -1.5965300751695768 -9.9280460709476035 0 -9.9280460709476035 59.965614454323145 0 0 0 0 -1.323605741567917 7.7694804850652872 0 7.7694804850652872 73.508121466918965 0 0 0 0 -12.848771471494842 -40.327735369821312 0 -40.327735369821312 140.54775091146803 0 0 0 0 -10.320403289952651 -42.36751006366103 0 -42.36751006366103 103.61643036226178 0 0 0 0 -11.58654161870254 6.0434347768314183 0 6.0434347768314183 124.55904093923164 0 0 0 0 -8.9141641217901437 -3.0197226057789095 0 -3.0197226057789095 50.545455239248099 0 0 0 0 -47.533106205577496 74.243340512548457 0 74.243340512548457 -30.007507396199799 0 0 0 0 -109.95170866046465 87.691645356768277 0 87.691645356768277 -17.70326131771435 0 0 0 0 19.91200898909301 -33.169460558594437 0 -33.169460558594437 45.43100853296346 0 0 0 0 -83.62052966724093 18.628772684836122 0 18.628772684836122 71.791567127336748 0 0 0 0 -4.5763851763377126 1.3803423432460988 0 1.3803423432460988 38.074898471950178 0 0 0 0 -129.70255941641517 55.828846827935195 0 55.828846827935195 100.22398157071439 0 0 0 0 -81.871013528492767 47.740236442536116 0 47.740236442536116 32.255057443893747 0 0 0 0 -111.31039050636036 22.094285051753104 0 22.094285051753104 113.22883289627498 0 0 0 0 -114.27132870826154 9.9876055944660038 0 9.9876055944660038 69.422974721484934 0 0 0 0 -171.92417829505757 -4.486752859367698 0 -4.486752859367698 105.44782121357275 0 0 0 0 -100.80951680752378 13.470652705269458 0 13.470652705269458 107.75310022366375 0 0 0 0 -8.8681415460766519 4.7565486579224086 0 4.7565486579224086 58.470588667646041 0 0 0 0 -46.620413306639421 26.825154551654123 0 26.825154551654123 24.115286467364058 0 0 0 0 -12.299805011402499 37.290548267683306 0 37.290548267683306 43.097195695670081 0 0 0 0 4.208843891068085 -20.555175677252308 0 -20.555175677252308 37.752008990967454 0 0 0 0 6.0088506150425252 -16.521030715793231 0 -16.521030715793231 61.288410417860604 0 0 0 0 -20.621967496232173 -16.070573706878349 0 -16.070573706878349 60.889087875730183 0 0 0 0 159.38606611479554 12.638717763329623 0 12.638717763329623 17.368000049815237 0 0 0 0 2.2906206477579261 4.0617883427687147 0 4.0617883427687147 -4.0016693846345106 0 0 0 0 18.310567154196285 -6.2550007807579533 0 -6.2550007807579533 21.778293734401544 0 0 0 0 8.1435464827818578 -53.335443826439587 0 -53.335443826439587 78.809441633042297 0 0 0 0 -135.21431994243903 -54.372688172021299 0 -54.372688172021299 116.64301682270161 0 0 0 0 -98.959157124063495 -33.986142373265466 0 -33.986142373265466 116.63470320872148 0 0 0 0 -84.338787448170478 -14.173833911754627 0 -14.173833911754627 85.144784725176578 0 0 0 0 32.165052562008725 -21.757125411210026 0 -21.757125411210026 15.038840579339322 0 0 0 0 242.83262820589925 -752.28836722943424 0 -752.28836722943424 2681.4106060496561 0 0 0 0 12.934119212014727 -6.0298108596111391 0 -6.0298108596111391 3.9387741074256155 0 0 0 0 -202.74268215751283 1212.4745442594794 0 1212.4745442594794 3494.969336947207 0 0 0 0 88.37609334251708 -265.81618768148019 0 -265.81618768148019 1361.1671875194661 0 0 0 0 816.73875703109218 -195.18513742836512 0 -195.18513742836512 -624.07197555070888 0 0 0 0 13.350619491440753 -6.9565024480615136 0 -6.9565024480615136 5.2369579520550928 0 0 0 0 -176.62146831407205 702.54991762786767 0 702.54991762786767 3501.9089359093778 0 0 0 0 -202.34929867999745 -315.74574231543374 0 -315.74574231543374 -68.366412816751108 0 0 0 0 -176.97047568457816 704.38594231895695 0 704.38594231895695 3493.2492546432854 0 0 0 0 -226.26157649456673 -21.921251577990915 0 -21.921251577990915 181.28697630915849 0 0 0 0 -103.42650202632012 168.42393283472484 0 168.42393283472484 461.65352102751876 0 0 0 0 -298.29897861860923 -195.52160282300611 0 -195.52160282300611 491.9398226961348 0 0 0 0 143.98858112593757 74.638664654492459 0 74.638664654492459 141.63325005580555 0 0 0 0 -27.805782629178111 59.08376416475221 0 59.08376416475221 140.67707915816572 0 0 0 0 -166.29063754787239 31.548539358191192 0 31.548539358191192 214.54090596869355 0 0 0 0 -89.80460136248621 110.88276008512184 0 110.88276008512184 142.45293458754895 0 0 0 0 -128.60110888002964 67.962108828447526 0 67.962108828447526 50.506161368568428 0 0 0 0 -138.95615102646479 97.092802036539069 0 97.092802036539069 64.371554472963908 0 0 0 0 -139.75459811949304 48.502732685428782 0 48.502732685428782 79.341621388564818 0 0 0 0 -132.67114357422361 57.646187988997553 0 57.646187988997553 46.082577790599316 0 0 0 0 -81.057610618711806 73.368429203052074 0 73.368429203052074 -11.977892479975708 0 0 0 0 -199.51917933628647 143.79655784131319 0 143.79655784131319 -17.569067350541445 0 0 0 0 -120.42429946169977 81.360446656981367 0 81.360446656981367 -33.425271745421924 0 0 0 0 -26.591894319888979 38.733006293870858 0 38.733006293870858 59.064413545784191 0 0 0 0 -97.758161656379571 55.925396139140503 0 55.925396139140503 67.73430319246836 0 0 0 0 -47.315682069884133 92.836751915325294 0 92.836751915325294 -21.0571257147094 0 0 0 0 -34.612045410893217 -16.111467928808906 0 -16.111467928808906 28.05556387512479 0 0 0 0 -92.894730012601258 48.985690042663919 0 48.985690042663919 0.2321147845214 0 0 0 0 -123.13825340505036 125.57668786601425 0 125.57668786601425 -74.447299222782021 0 0 0 0 -167.41594837841603 141.02108148837215 0 141.02108148837215 -53.111823346625897 0 0 0 0 -73.021208972599197 48.018271641758474 0 48.018271641758474 -46.612788568076212 0 0 0 0 -194.04198715480925 63.50474971786025 0 63.50474971786025 -29.659871748772275 0 0 0 0 -131.70509233379562 86.367010956877493 0 86.367010956877493 -159.48188015919004 0 0 0 0 143.92413312904546 51.330115467164433 0 51.330115467164433 -159.55686667605187 0 0 0 0 -221.23796460320318 -105.2470230373583 0 -105.2470230373583 125.99494889000198 0 0 0 0 -4.5151531016356996 5.1465450142925917 0 5.1465450142925917 17.686276257254463 0 0 0 0 -23.415285512681749 -245.96238767869363 0 -245.96238767869363 130.11346003745166 0 0 0 0 -103.44581967224281 -9.2787560232172837 0 -9.2787560232172837 90.772090768463386 0 0 0 0 -11.370229337099005 -3.9506079126528135 0 -3.9506079126528135 7.9152297330216754 0 0 0 0 12.567872411157943 -14.224233161335007 0 -14.224233161335007 -9.2616188452074937 0 0 0 0 174.53825868497552 76.927590338367736 0 76.927590338367736 213.58654932834179 0 0 0 0 115.85248296383679 47.665074767777696 0 47.665074767777696 37.857166651054285 0 0 0 0 -87.153629503040065 51.814347460560384 0 51.814347460560384 -60.003842756195809 0 0 0 0 -179.9461304914621 66.691603587052668 0 66.691603587052668 -2.7124082630543853 0 0 0 0 -4.9564626706678983 2.4583142198139711 0 2.4583142198139711 -1.4968236733777758 0 0 0 0 -11.306109475520126 5.2557876906020198 0 5.2557876906020198 27.454851317491432 0 0 0 0 -12.238529061737227 -2.6746693020839558 0 -2.6746693020839558 40.941914306266085 0 0 0 0 -5.5155254105393396 -185.20329251827934 0 -185.20329251827934 69.62633138037927 0 0 0 0 16.59561619603781 -51.264435653676628 0 -51.264435653676628 57.39574483657816 0 0 0 0 64.100298686754286 -140.81080178535922 0 -140.81080178535922 30.137564924662001 0 0 0 0 -71.413276202736824 -43.80526717583416 0 -43.80526717583416 278.70837700468837 0 0 0 0 1.6313419188431906 -19.770653441130975 0 -19.770653441130975 56.01562084991113 0 0 0 0 5.1415464108548008 -28.282818337021126 0 -28.282818337021126 62.572990275002667 0 0 0 0 0.72025725660654771 -31.111150638013058 0 -31.111150638013058 5.5915771928677316 0 0 0 0 -31.596679950157522 -70.206972893764032 0 -70.206972893764032 129.27370003033138 0 0 0 0 24.251726696980995 -32.650116097262071 0 -32.650116097262071 68.169862099573947 0 0 0 0 -14.873970963532821 -5.7693403061696955 0 -5.7693403061696955 34.376276822978781 0 0 0 0 11.02173720953353 -32.277280339907207 0 -32.277280339907207 14.663790486782155 0 0 0 0 38.26688879712674 -65.553909211033897 0 -65.553909211033897 115.09767932657269 0 0 0 0 -44.592000729797292 -115.83483038135819 0 -115.83483038135819 116.64811459380144 0 0 0 0 58.691472942412815 -116.70146946747991 0 -116.70146946747991 130.89287453790894 0 0 0 0 -84.997310546421886 -77.298596518252452 0 -77.298596518252452 146.76577076148533 0 0 0 0 -1.1066085617345891 -18.353938012469477 0 -18.353938012469477 70.748471580245848 0 0 0 0 -129.85848325553934 -131.34451930073374 0 -131.34451930073374 107.47617432713741 0 0 0 0 -2.5189639259468866 -4.0940415195933184 0 -4.0940415195933184 54.802473418660838 0 0 0 0 -1.4757393620528882 -3.0111941059231802 0 -3.0111941059231802 70.695869127366734 0 0 0 0 36.413019858146441 95.064018765376204 0 95.064018765376204 -33.296247094374849 0 0 0 0 -263.42951751031126 -7.7161737000378707 0 -7.7161737000378707 135.22156923485454 0 0 0 0 -32.029964368019137 -34.246417789931002 0 -34.246417789931002 36.431999455890036 0 0 0 0 10.636723247026566 -145.51651450285863 0 -145.51651450285863 133.90605664721807 0 0 0 0 -9.7757843293584301 -52.311433134185791 0 -52.311433134185791 73.99472228938248 0 0 0 0 58.913104836983621 -156.37363286840264 0 -156.37363286840264 165.30343897419516 0 0 0 0 199.93721014108223 -246.0789497847145 0 -246.0789497847145 121.95988437936467 0 0 0 0 34.649039811680041 -173.68126188862516 0 -173.68126188862516 236.82886466490163 0 0 0 0 -292.17826113197407 -251.13903745879361 0 -251.13903745879361 373.69340492645279 0 0 0 0 566.03757803535314 -305.56427881550189 0 -305.56427881550189 44.245379110274371 0 0 0 0 -7.5618897360794408 -0.7599435005399755 0 -0.7599435005399755 6.1901080545222555 0 0 0 0 -153.33605128517911 65.984010110842064 0 65.984010110842064 55.349729633133393 0 0 0 0 314.19687810063533 -198.40767638434772 0 -198.40767638434772 26.955926065857057 0 0 0 0 -1.8131679096541085 0.35195766399878892 0 0.35195766399878892 11.526814044988328 0 0 0 0 -14.756664807877598 -112.65144632191368 0 -112.65144632191368 58.92691665829625 0 0 0 0 292.198909832943 202.49669141582308 0 202.49669141582308 -96.744854156917427 0 0 0 0 162.47315403431753 -92.403299238016189 0 -92.403299238016189 79.760123659740202 0 0 0 0 283.3467301051287 165.55985378614423 0 165.55985378614423 -209.60244694340508 0 0 0 0 -174.00855915028808 206.48047557181053 0 206.48047557181053 116.7305101181264 0 0 0 0 0.24419935684420579 -6.1505266862422019 0 -6.1505266862422019 2.3551700481987154 0 0 0 0 117.70048904659325 -84.589285451693286 0 -84.589285451693286 -221.99253592739115 0 0 0 0 11.804323198071415 -154.47702786869195 0 -154.47702786869195 39.590696636711073 0 0 0 0 -217.97914620164192 223.36304009429296 0 223.36304009429296 -116.75535711788689 0 0 0 0 -209.69333735802934 -45.959727881228901 0 -45.959727881228901 73.624706979317125 0 0 0 0 -182.03118498567559 -56.501900749805827 0 -56.501900749805827 155.13324301794637 0 0 0 0 77.267086883953354 -129.28251767039001 0 -129.28251767039001 136.86832360492554 0 0 0 0 -126.25925795609294 180.50599787761894 0 180.50599787761894 76.96501790653565 0 0 0 0 -0.93331166218574746 -0.21480076050593766 0 -0.21480076050593766 4.0366183961072011 0 0 0 0 130.7355315094976 5.8072740895149764 0 5.8072740895149764 -138.73453137844626 0 0 0 0 -3.6470153318402678 1.207590235769473 0 1.207590235769473 6.4882166895594651 0 0 0 0 -225.61548291147906 380.98634239003877 0 380.98634239003877 23.446121971108369 0 0 0 0 -100.31778410168965 540.30163010601609 0 540.30163010601609 64.419144690778921 0 0 0 0 -0.6224983398054651 -0.12259979424867851 0 -0.12259979424867851 4.4775448698017044 0 0 0 0 239.58972209305608 -79.879109445791983 0 -79.879109445791983 -657.51464085460611 0 0 0 0 -515.81496482522675 525.2939309888352 0 525.2939309888352 382.31863354984671 0 0 0 0 307.10318029107896 226.20612724415696 0 226.20612724415696 164.67988016801246 0 0 0 0 171.22727092114036 -79.349335120990872 0 -79.349335120990872 -46.255467812937241 0 0 0 0 170.3513966022428 -119.89650385033474 0 -119.89650385033474 724.38267948600696 0 0 0 0 152.2024053274466 -354.3368762140035 0 -354.3368762140035 911.2894515396838 0 0 0 0 -553.36628066635024 31.619830819367053 0 31.619830819367053 319.85236639180221 0 0 0 0 336.33323802100233 -404.45236984777875 0 -404.45236984777875 82.069755372085638 0 0 0 0 101.57199987512274 -83.210253205001209 0 -83.210253205001209 4.1602470167927095 0 0 0 0 259.51124390608715 -106.42296994660501 0 -106.42296994660501 -90.604526706330944 0 0 0 0 -1.9369456730602077 -2.5058182873422865 0 -2.5058182873422865 13.120338575780238 0 0 0 0 124.20878556256048 50.575022787299531 0 50.575022787299531 -46.124760690552648 0 0 0 0 -265.17509417064866 168.04374961833309 0 168.04374961833309 -41.518596356501803 0 0 0 0 -184.72619431037265 25.558307241182774 0 25.558307241182774 77.178184554824838 0 0 0 0 -11.032372533824855 -21.774799332961265 0 -21.774799332961265 -36.330665628745919 0 0 0 0 -25.29438028717027 -43.362629477414885 0 -43.362629477414885 107.2706905671148 0 0 0 0 23.503080829274101 -1640.8238744196733 0 -1640.8238744196733 3495.9312903298705 0 0 0 0 59.384688783642787 -67.006586743384105 0 -67.006586743384105 28.229045945052349 0 0 0 0 93.833302835114409 24.272032939086785 0 24.272032939086785 12.39439263928216 0 0 0 0 -221.6093761329291 -379.50169715236007 0 -379.50169715236007 705.70960214063234 0 0 0 0 -2.2820022131134503 -4.3566502497800279 0 -4.3566502497800279 16.893093733131025 0 0 0 0 1277.4710827750873 -1705.9119418273685 0 -1705.9119418273685 1834.28652850449 0 0 0 0 -0.68218370835046693 -4.3801258487256227 0 -4.3801258487256227 9.2572525729318613 0 0 0 0 122.41767765341854 70.381321836939605 0 70.381321836939605 128.84313648479292 0 0 0 0 61.153953769979637 24.146968009335978 0 24.146968009335978 517.61068564731977 0 0 0 0 1770.0370906718731 -1952.4355619200087 0 -1952.4355619200087 1605.1458491302619 0 0 0 0 1990.6378067781127 -1655.5890097038427 0 -1655.5890097038427 936.34173425666086 0 0 0 0 -158.2280809799399 -838.2841623475997 0 -838.2841623475997 2248.8394268904594 0 0 0 0 477.00334952308708 -1232.4311394196982 0 -1232.4311394196982 1254.5272785541529 0 0 0 0 558.60343457946612 -580.27236595712748 0 -580.27236595712748 395.08773234605178 0 0 0 0 -166.59104698878204 -766.07118934634536 0 -766.07118934634536 1904.5045367559651 0 0 0 0 191.24870629855667 -270.15610347621987 0 -270.15610347621987 1635.1200392719165 0 0 0 0 -0.30959364839018694 -246.94162889276231 0 -246.94162889276231 1796.1157123395715 0 0 0 0 -303.24299449084765 -525.65861887920619 0 -525.65861887920619 3495.5029439337268 0 0 0 0 251.41055663538046 -287.23181437945823 0 -287.23181437945823 846.0202916640701 0 0 0 0 306.06707924791539 -463.55914193464923 0 -463.55914193464923 659.32289223307453 0 0 0 0 318.10043246286193 -113.48992052361427 0 -113.48992052361427 587.95918728816196 0 0 0 0 245.18481992773414 -43.581572944121945 0 -43.581572944121945 599.94020894708956 0 0 0 0 0.25717343174849949 -1.0718701055425015 0 -1.0718701055425015 3.9631482831334779 0 0 0 0 22.497809188724773 -188.61864024511306 0 -188.61864024511306 18.933670319915109 0 0 0 0 446.11327157699395 537.06640427696948 0 537.06640427696948 488.29934058495564 0 0 0 0 4.5950261068859923 -247.5830350583492 0 -247.5830350583492 431.68583846841648 0 0 0 0 67.715963670657828 -337.44038722936239 0 -337.44038722936239 836.73685274118179 0 0 0 0 68.681582415628782 116.08146944831924 0 116.08146944831924 255.12900237646622 0 0 0 0 206.20886983931086 137.41802138945582 0 137.41802138945582 149.2160096568964 0 0 0 0 126.97236839897914 41.369233220442652 0 41.369233220442652 110.33030119318619 0 0 0 0 206.74505505381148 158.08679494591286 0 158.08679494591286 117.74665049822829 0 0 0 0 223.22012888428617 159.93366005364021 0 159.93366005364021 86.738511041215588 0 0 0 0 190.31839421987479 264.3945864927789 0 264.3945864927789 236.35153029466028 0 0 0 0 148.89329164503943 239.94500686713911 0 239.94500686713911 238.89630467849929 0 0 0 0 157.99084474546498 222.81408313885186 0 222.81408313885186 243.05396521949405 0 0 0 0 175.65085056631642 286.53699821735518 0 286.53699821735518 390.89455543699955 0 0 0 0 371.60878863882454 241.6605885773206 0 241.6605885773206 178.22087669075563 0 0 0 0 -1.0019846274221247 0.054069841637060634 0 0.054069841637060634 2.5192839693216822 0 0 0 0 -20.131561151258182 -32.12912494716231 0 -32.12912494716231 365.05176107216994 0 0 0 0 452.7471578413207 102.8915234968439 0 102.8915234968439 265.89221182341043 0 0 0 0 165.25599818131741 115.14747770335998 0 115.14747770335998 357.7528232583586 0 0 0 0 6.2068799443501916 2.9174958424853337 0 2.9174958424853337 1.8993520992816748 0 0 0 0 72.473467241835351 162.17438795722046 0 162.17438795722046 352.72933507954338 0 0 0 0 484.93939914355224 244.37655311891649 0 244.37655311891649 297.63208127697953 0 0 0 0 -172.86975398234677 353.0277116818686 0 353.0277116818686 646.55479977029495 0 0 0 0 480.37718750359227 478.63393901495238 0 478.63393901495238 -94.259145116074251 0 0 0 0 -77.635368609423722 86.635337821321627 0 86.635337821321627 -305.50401243235399 0 0 0 0 -298.79951513656306 136.88747050355909 0 136.88747050355909 20.254542369673402 0 0 0 0 388.61069187797216 -402.01236707074634 0 -402.01236707074634 201.10462635145723 0 0 0 0 18.896120544844404 9.6720583671580158 0 9.6720583671580158 4.7702844949386041 0 0 0 0 72.368056948695539 45.656018872213281 0 45.656018872213281 -57.459353547190858 0 0 0 0 -64.964514615434609 -48.809945861366373 0 -48.809945861366373 188.24555925398727 0 0 0 0 133.19777998755558 176.42639332045627 0 176.42639332045627 297.58573884901034 0 0 0 0 112.738052783596 23.903832103405193 0 23.903832103405193 92.368150149334724 0 0 0 0 120.36951069053703 15.106804637077857 0 15.106804637077857 97.915018169347832 0 0 0 0 4.6884227100053977 -30.845918886709569 0 -30.845918886709569 80.533147713290873 0 0 0 0 79.566799081719182 -48.13927379981078 0 -48.13927379981078 1.5461230210348731 0 0 0 0 18.743725818530947 -54.158664924488221 0 -54.158664924488221 87.486304084146923 0 0 0 0 110.25379382220217 -171.76598619582001 0 -171.76598619582001 204.93612452098023 0 0 0 0 328.8920782213163 -121.71476417822873 0 -121.71476417822873 6.5803044440654048 0 0 0 0 0.68197505556861238 -2.6718983242905852 0 -2.6718983242905852 7.8612383351086486 0 0 0 0 527.22139108430383 -251.51596163294153 0 -251.51596163294153 23.600354148055885 0 0 0 0 139.72788620345182 -40.688076067332986 0 -40.688076067332986 0.27801755152256646 0 0 0 0 199.4940957772501 -67.283504960107507 0 -67.283504960107507 -16.272894575869486 0 0 0 0 208.57550987346622 -14.118068164725173 0 -14.118068164725173 56.593168799714135 0 0 0 0 73.199616161423364 -60.469397083717467 0 -60.469397083717467 46.498435797336242 0 0 0 0 154.77805528860154 -117.48537936688717 0 -117.48537936688717 75.832380918358012 0 0 0 0 283.63155525996171 -269.96850104018631 0 -269.96850104018631 178.78708591966551 0 0 0 0 71.2505995383558 154.16198473499981 0 154.16198473499981 56.445211570093306 0 0 0 0 168.25463486561603 -49.787052843074889 0 -49.787052843074889 103.68322652899133 0 0 0 0 -494.37726865562604 -19.041939752925714 0 -19.041939752925714 338.71854389170949 0 0 0 0 -421.68371410976852 249.06106040404029 0 249.06106040404029 195.4050253017067 0 0 0 0 -144.98418793533892 59.338883914833787 0 59.338883914833787 247.38797197650456 0 0 0 0 -144.02661710437769 162.32275653867964 0 162.32275653867964 153.15963131569924 0 0 0 0 -794.62819465599614 -365.41643177389642 0 -365.41643177389642 210.87580725268367 0 0 0 0 2.31027764460692 -8.3613594662336048 0 -8.3613594662336048 18.08634778601035 0 0 0 0 -12.82262153224201 264.42117077650164 0 264.42117077650164 -209.5779530863183 0 0 0 0 383.0714792297083 -361.90801088469652 0 -361.90801088469652 256.35742587173081 0 0 0 0 508.70813714245924 256.94157954339926 0 256.94157954339926 -210.35612624945497 0 0 0 0 1.0488254455433534 -2.0068103345941064 0 -2.0068103345941064 12.171726954957766 0 0 0 0 776.02055981383546 -499.43407617593857 0 -499.43407617593857 -307.63978560932173 0 0 0 0 -439.68515355690306 318.85298663458752 0 318.85298663458752 963.28356584100402 0 0 0 0 737.96227137764697 125.03950109045704 0 125.03950109045704 79.694806170064112 0 0 0 0 5.0888020561167195 -141.44979228798013 0 -141.44979228798013 -22.07961794333869 0 0 0 0 -293.74145631709962 -160.53533392191889 0 -160.53533392191889 28.169387492927058 0 0 0 0 3.5757334385600505 -9.9592961294069333 0 -9.9592961294069333 17.067219576457966 0 0 0 0 361.15022583085556 -253.92401985067681 0 -253.92401985067681 -183.21101827498114 0 0 0 0 10.920838393437407 -540.96996356029058 0 -540.96996356029058 -139.85323751006081 0 0 0 0 349.25031975982984 -233.90526288646197 0 -233.90526288646197 -215.28725908107299 0 0 0 0 178.19670682947071 -63.458408883196398 0 -63.458408883196398 -23.503796203011007 0 0 0 0 320.99451297835276 48.467140857779441 0 48.467140857779441 -17.524070666773319 0 0 0 0 200.66101616427841 -65.443793178920032 0 -65.443793178920032 -57.200043884611773 0 0 0 0 204.72025358264955 -63.834198538565261 0 -63.834198538565261 -91.823667660435149 0 0 0 0 489.64669800456977 123.80652927231893 0 123.80652927231893 -36.546119512724943 0 0 0 0 188.75615576633436 -217.91789830529191 0 -217.91789830529191 -87.819857389504932 0 0 0 0 221.55760508602953 136.12511308946307 0 136.12511308946307 105.12415269687563 0 0 0 0 319.00992246660871 195.07392960946999 0 195.07392960946999 158.24859751159306 0 0 0 0 567.52011823124576 264.86110791864678 0 264.86110791864678 175.55780569738317 0 0 0 0 492.51626133442812 -140.92924542797104 0 -140.92924542797104 420.08382556385914 0 0 0 0 1116.9926560066015 44.089282453477608 0 44.089282453477608 444.22271977228888 0 0 0 0 507.15334603858491 363.12673917715074 0 363.12673917715074 466.42608666363708 0 0 0 0 532.27778738351662 56.898611440892637 0 56.898611440892637 625.05256705201964 0 0 0 0 637.9646565325047 404.91338866191143 0 404.91338866191143 1156.6038951572884 0 0 0 0 549.77396378005619 300.24179238039511 0 300.24179238039511 486.25096558968801 0 0 0 0 1.9259015860117259 -4.1641621491891847 0 -4.1641621491891847 6.9016367945016217 0 0 0 0 1172.0035616622672 -234.07096797323914 0 -234.07096797323914 -158.05373346511442 0 0 0 0 347.66795456428008 -169.6453626229727 0 -169.6453626229727 -119.23708897624601 0 0 0 0 363.66452940928048 152.34212788231571 0 152.34212788231571 -12.592877901196857 0 0 0 0 97.010277135525939 -264.37076178274492 0 -264.37076178274492 920.97281192385424 0 0 0 0 -633.06632385170633 -176.65935462759194 0 -176.65935462759194 929.67699895863734 0 0 0 0 137.1421417348779 360.54785677810787 0 360.54785677810787 527.05043168026077 0 0 0 0 420.03419627287258 -87.148321012221913 0 -87.148321012221913 654.07762781158908 0 0 0 0 246.83223448857825 385.57239564015617 0 385.57239564015617 855.70319783756258 0 0 0 0 143.4709034045668 -437.41325918528827 0 -437.41325918528827 1507.1145950759401 0 0 0 0 300.91258759732091 49.033749891612501 0 49.033749891612501 43.668404967572314 0 0 0 0 110.75435197544789 367.86097401923655 0 367.86097401923655 381.10656291538544 0 0 0 0 59.880103035236971 171.98555813172652 0 171.98555813172652 144.55838661703274 0 0 0 0 327.7701962273004 28.808333449211204 0 28.808333449211204 507.64247834795117 0 0 0 0 597.87673241373523 -534.19702322088142 0 -534.19702322088142 1557.9865324018515 0 0 0 0 721.02961712068736 84.345714254133014 0 84.345714254133014 -43.235524379927313 0 0 0 0 1.913116900275309 -3.2416958688367803 0 -3.2416958688367803 11.37057144078606 0 0 0 0 1210.255904668496 -228.72592573299659 0 -228.72592573299659 153.87732729899597 0 0 0 0 787.08398998114171 -303.51813380633587 0 -303.51813380633587 48.915071907634683 0 0 0 0 427.86616517140465 -382.99766394170592 0 -382.99766394170592 485.88634550383404 0 0 0 0 403.75739008657683 -268.60943446615806 0 -268.60943446615806 124.88134922218569 0 0 0 0 103.396647159846 -262.77016241541838 0 -262.77016241541838 225.22595411591158 0 0 0 0 225.36172266268477 -317.83105650820556 0 -317.83105650820556 213.64251882060796 0 0 0 0 89.813517016807054 -112.52739381948999 0 -112.52739381948999 121.39705896266454 0 0 0 0 133.21565029016165 -315.42372437414815 0 -315.42372437414815 406.25934735305509 0 0 0 0 -1.2096257309598109 2.9312622372337125 0 2.9312622372337125 8.5999046842215421 0 0 0 0 -22.450804332348525 -108.91796560117484 0 -108.91796560117484 814.64062156313526 0 0 0 0 137.25870421000945 -223.46495103652751 0 -223.46495103652751 377.34242864848238 0 0 0 0 -59.609695972586451 -34.841230839975196 0 -34.841230839975196 678.33364052097272 0 0 0 0 1.8334482798117442 -0.32376101061781526 0 -0.32376101061781526 -0.31085615759846963 0 0 0 0 233.15203421231763 -293.99444466756961 0 -293.99444466756961 1271.4100622073411 0 0 0 0 232.2027778930692 -239.59874405626971 0 -239.59874405626971 38.147763242871285 0 0 0 0 327.39805588278875 15.075812202877529 0 15.075812202877529 185.24904276641257 0 0 0 0 450.99830990432747 -539.3364465871191 0 -539.3364465871191 831.60348327104566 0 0 0 0 -0.94628555280148952 1.0014402169173531 0 1.0014402169173531 4.7673886639920298 0 0 0 0 367.60060575961688 -595.41185372282848 0 -595.41185372282848 923.14623195281138 0 0 0 0 309.91913124504845 252.68581604712472 0 252.68581604712472 240.46830844455087 0 0 0 0 282.8522536650562 272.30956398122578 0 272.30956398122578 505.26100638515413 0 0 0 0 -62.306060825763723 34.825925966288899 0 34.825925966288899 120.28856047362206 0 0 0 0 13.277281597430374 291.02482039857023 0 291.02482039857023 383.9995119564723 0 0 0 0 126.12078020482113 238.38995972912124 0 238.38995972912124 192.56704215981028 0 0 0 0 106.28215020936022 259.2519492101938 0 259.2519492101938 240.99190964457571 0 0 0 0 415.96828410255603 260.68833522066564 0 260.68833522066564 131.09239437549957 0 0 0 0 170.20822366459743 318.81858968028121 0 318.81858968028121 270.2321371576495 0 0 0 0 149.93969423283806 48.203587341861834 0 48.203587341861834 12.60891624047872 0 0 0 0 -1.7242508948447655 -1.8893294158039793 0 -1.8893294158039793 5.644924741878997 0 0 0 0 -1.8233116724340857 2.7286489002815375 0 2.7286489002815375 -0.79989773113835483 0 0 0 0 -14.997143225437128 16.307953360043598 0 16.307953360043598 -5.2660010980624747 0 0 0 0 104.73457292263993 236.51808267202674 0 236.51808267202674 240.31067631136801 0 0 0 0 7.9324296865679571 -35.849420722123227 0 -35.849420722123227 48.831274293915385 0 0 0 0 1.1581366013913268 -0.11251265261060173 0 -0.11251265261060173 -0.43637153637212067 0 0 0 0 36.274907148846978 26.522804375585906 0 26.522804375585906 -5.6154876028315357 0 0 0 0 47.189458828944623 -60.151826425311583 0 -60.151826425311583 44.23628994416913 0 0 0 0 -46.464677093007957 -32.705487554099591 0 -32.705487554099591 107.15737401129377 0 0 0 0 -0.95760144838857286 -3.1426686243191124 0 -3.1426686243191124 4.3826330827627329 0 0 0 0 41.155789808354939 16.810985131719974 0 16.810985131719974 74.677176441984557 0 0 0 0 16.979422832028149 -145.38553853611825 0 -145.38553853611825 362.42655561134143 0 0 0 0 128.77313519539663 -177.4940691708855 0 -177.4940691708855 278.52484147938048 0 0 0 0 165.40396055102303 -273.89627107955675 0 -273.89627107955675 318.84481091081943 0 0 0 0 -413.42042218638187 79.092502217698382 0 79.092502217698382 366.16068106344846 0 0 0 0 -0.82446338096133298 -2.4192882550806503 0 -2.4192882550806503 2.3300779006473036 0 0 0 0 -465.40807857611298 -60.361957411477078 0 -60.361957411477078 119.67834375870552 0 0 0 0 -119.07316942406987 -141.75933237778486 0 -141.75933237778486 12.049266183539885 0 0 0 0 -101.73720958568674 20.345884281865438 0 20.345884281865438 -150.38093216280265 0 0 0 0 -258.33574710419975 231.63184318042272 0 231.63184318042272 310.61115250906005 0 0 0 0 -128.12209590949487 27.005514397512343 0 27.005514397512343 121.15062276835305 0 0 0 0 100.64609578938871 38.244705739746223 0 38.244705739746223 406.82191857437874 0 0 0 0 -578.66485202078911 -327.87657959464286 0 -327.87657959464286 -291.90694939943432 0 0 0 0 -682.37945103460152 -659.7036814995663 0 -659.7036814995663 106.65258298794924 0 0 0 0 278.9747412955096 690.60010075899106 0 690.60010075899106 577.09977149881752 0 0 0 0 3.0314712504275292 -1.8722065982292149 0 -1.8722065982292149 1.3083584040112655 0 0 0 0 51.026384623492049 378.57567878298823 0 378.57567878298823 -179.98939694200089 0 0 0 0 -272.65348796160379 226.95774658976552 0 226.95774658976552 709.82261084594029 0 0 0 0 -16.180074930347644 -9.8660894529410612 0 -9.8660894529410612 19.158460594169185 0 0 0 0 17.785803551138088 -113.71566581807656 0 -113.71566581807656 158.69270226254866 0 0 0 0 -152.07947325983332 -748.43476103440025 0 -748.43476103440025 -269.82984443109126 0 0 0 0 -128.78442483402523 397.39934234258021 0 397.39934234258021 153.4497450395238 0 0 0 0 -162.58809534820921 -65.997953056200686 0 -65.997953056200686 185.40040741115402 0 0 0 0 24.726164554608886 87.130152925582593 0 87.130152925582593 62.270127887318154 0 0 0 0 -9.9269761886814258 -241.45336761489779 0 -241.45336761489779 144.72896664352595 0 0 0 0 -82.67605061301083 -47.032396919935309 0 -47.032396919935309 219.19187077292133 0 0 0 0 -2.7652073130253365 -1.6458450616627758 0 -1.6458450616627758 53.40564685058294 0 0 0 0 -62.213630177174309 40.942825148167685 0 40.942825148167685 44.886783402583433 0 0 0 0 -4.477310252588028 3.7230628180301819 0 3.7230628180301819 40.7686977600886 0 0 0 0 -57.135967090053782 41.040211260676244 0 41.040211260676244 40.109566263302668 0 0 0 0 -20.979215183309066 -13.24481240305704 0 -13.24481240305704 37.303687313415026 0 0 0 0 -4.5625780434989522 -6.2105600298446335 0 -6.2105600298446335 60.702454953679648 0 0 0 0 -20.230693300333087 2.6234900788922459 0 2.6234900788922459 48.348748088574212 0 0 0 0 8.3086953864348647 -20.593078837228532 0 -20.593078837228532 54.878408161976274 0 0 0 0 -43.836760562382551 76.371344331846274 0 76.371344331846274 -43.389349818666126 0 0 0 0 -0.97930721343680283 -1.2687432274201018 0 -1.2687432274201018 11.695247708826678 0 0 0 0 -304.21012507378089 -182.87914251277201 0 -182.87914251277201 137.51193305577732 0 0 0 0 -422.59683808111498 -97.153041911807946 0 -97.153041911807946 75.440757042305961 0 0 0 0 -431.79340779523767 114.25385074422246 0 114.25385074422246 52.967407827688646 0 0 0 0 138.61165839881255 -66.801872298969172 0 -66.801872298969172 -233.2880855090886 0 0 0 0 -514.20494609937646 -151.90553837961565 0 -151.90553837961565 79.995360189098562 0 0 0 0 -555.66625545356328 342.31375170768433 0 342.31375170768433 -273.89904203274239 0 0 0 0 -6.7828043025514999 0.41861977910186132 0 0.41861977910186132 -1.8405763328630542 0 0 0 0 14.817236894141843 -28.056408699561871 0 -28.056408699561871 62.820978842217301 0 0 0 0 -17.683099483064154 6.0358441801399749 0 6.0358441801399749 130.86424515602266 0 0 0 0 -4.8200029129612432 11.160467246359076 0 11.160467246359076 33.20946110652585 0 0 0 0 -9.8369052247197573 8.1665753298748314 0 8.1665753298748314 87.36862822650437 0 0 0 0 -19.570398020499169 -6.4047869321620965 0 -6.4047869321620965 83.339374378221692 0 0 0 0 -10.317693757218422 3.3423284435011738 0 3.3423284435011738 67.392111359280534 0 0 0 0 -2.7162092130452713 -4.2171330521913433 0 -4.2171330521913433 16.540807584504606 0 0 0 0 -13.955820514785216 -39.629695357061792 0 -39.629695357061792 117.4923983527151 0 0 0 0 56.794476737173682 -538.65619966607665 0 -538.65619966607665 -248.41222073690733 0 0 0 0 -14.969163508449165 -7.3444542719044286 0 -7.3444542719044286 69.063732856486851 0 0 0 0 -21.063535196677549 -22.181790467023347 0 -22.181790467023347 144.24235947331181 0 0 0 0 -11.314160959854348 106.24299293516606 0 106.24299293516606 -89.486405997595284 0 0 0 0 -121.41391744966677 -118.92656314288615 0 -118.92656314288615 321.42001497869751 0 0 0 0 -3.0109943667974353 -15.685478753965381 0 -15.685478753965381 79.841139601913568 0 0 0 0 -858.08356076186828 506.93793710671025 0 506.93793710671025 888.14914128170312 0 0 0 0 -3.5180057892192824 -10.981216734191907 0 -10.981216734191907 12.440545842265081 0 0 0 0 -1094.1992687737365 221.21582862125797 0 221.21582862125797 735.88514549483261 0 0 0 0 -1.8990871731018575 -8.1768074378893072 0 -8.1768074378893072 70.897043119089631 0 0 0 0 -19.781681846010741 -5.4713122296107031 0 -5.4713122296107031 89.604659121290752 0 0 0 0 -12.08231693838113 -11.535053810619768 0 -11.535053810619768 78.196354429255976 0 0 0 0 -10.324146868809294 -11.552027040685061 0 -11.552027040685061 20.467383325871197 0 0 0 0 -16.857850452879333 -5.5719813361765773 0 -5.5719813361765773 85.885324350587325 0 0 0 0 -15.82935932434016 2.6034319036768032 0 2.6034319036768032 100.88221085538854 0 0 0 0 -3.5891741569651572 0.48558149470227363 0 0.48558149470227363 67.884657212118327 0 0 0 0 -5.5487655822873467 7.8534617149345927 0 7.8534617149345927 48.058911149255309 0 0 0 0 -0.20383496957592229 0.30979308605128608 0 0.30979308605128608 67.430036202098563 0 0 0 0 -3.9240547119008049 -12.672238276045846 0 -12.672238276045846 89.41241443848412 0 0 0 0 -9.8129421713004916 -5.4611246597293146 0 -5.4611246597293146 35.123722050467592 0 0 0 0 -3.0078473735754896 8.5285654996111049 0 8.5285654996111049 19.705624998504224 0 0 0 0 0.13290936260652642 -6.6175988835594524 0 -6.6175988835594524 68.388982207681593 0 0 0 0 25.507386376307522 53.859848042324302 0 53.859848042324302 43.204001088111909 0 0 0 0 -13.333600648388085 -11.514307340250525 0 -11.514307340250525 67.68942612355022 0 0 0 0 -12.740083337917287 -14.599887946793388 0 -14.599887946793388 69.510184344981099 0 0 0 0 -10.418671125188467 -21.431184707053035 0 -21.431184707053035 101.27817801538549 0 0 0 0 6.6134792231653634 -30.00365865872368 0 -30.00365865872368 61.875603427935857 0 0 0 0 -2.281571161258853 -12.635832041341928 0 -12.635832041341928 61.829270063943113 0 0 0 0 -0.99657890769505486 0.83714477032619072 0 0.83714477032619072 1.3719254455935328 0 0 0 0 -0.68043187570356167 -11.944705769346911 0 -11.944705769346911 57.727683163248003 0 0 0 0 -4.3525120832767925 -16.018704269641603 0 -16.018704269641603 102.60120418737279 0 0 0 0 -8.1120471421117006 9.8453804234839879 0 9.8453804234839879 13.635022634818185 0 0 0 0 0.043883525712175242 -2.5417088976005289 0 -2.5417088976005289 37.285061124333879 0 0 0 0 -9.9569927951749833 -2.217544441591599 0 -2.217544441591599 44.248548014519656 0 0 0 0 -3.4599742176857529 -4.6944238090696615 0 -4.6944238090696615 1.5174878039484181 0 0 0 0 6.6781973725502937 -20.71214355656177 0 -20.71214355656177 46.581449926990899 0 0 0 0 0.46875668761900258 1.1365960154013095 0 1.1365960154013095 7.3023241151477976 0 0 0 0 3.6407971113812891 -12.934748391184257 0 -12.934748391184257 30.381061810472602 0 0 0 0 -3.1047581680433041 6.5236232091301645 0 6.5236232091301645 108.36470349802403 0 0 0 0 -6.8900502500376604 -10.140273029312993 0 -10.140273029312993 114.96742857171193 0 0 0 0 19.333505009136616 32.318143677111948 0 32.318143677111948 144.72754609475669 0 0 0 0 0.94593055060482811 -36.712443575675934 0 -36.712443575675934 171.05216484764242 0 0 0 0 3.7062051366015112 -4.3882240351640576 0 -4.3882240351640576 102.8238909973079 0 0 0 0 14.788219353727641 -9.4470953096679295 0 -9.4470953096679295 87.521923816908384 0 0 0 0 -8.1674706073163179 5.9195802869435283 0 5.9195802869435283 98.563039300137461 0 0 0 0 -3.25733028520767 -3.9240966804788435 0 -3.9240966804788435 92.972804920004734 0 0 0 0 -88.921896365167186 16.121378715161882 0 16.121378715161882 229.81723431465798 0 0 0 0 -29.277926486771094 -22.247290527848236 0 -22.247290527848236 95.04218023463909 0 0 0 0 -5.3069439394524984 11.629881393195149 0 11.629881393195149 19.267430067944858 0 0 0 0 -68.894943679313087 -4.1618316560634412 0 -4.1618316560634412 149.72416316306044 0 0 0 0 -3.0101644447087121 0.2860244091696913 0 0.2860244091696913 92.616718879052428 0 0 0 0 -41.891995875990119 -44.655663992500649 0 -44.655663992500649 61.454335617148899 0 0 0 0 34.64776306718025 -19.129062805560352 0 -19.129062805560352 75.657441445437144 0 0 0 0 7.8211560437266598 23.400921750504494 0 23.400921750504494 44.224607894310793 0 0 0 0 -16.958199911921838 -9.0970105744490866 0 -9.0970105744490866 98.508162874558366 0 0 0 0 -23.2305107174966 -14.845269103343526 0 -14.845269103343526 93.257724205614068 0 0 0 0 -14.611822772018968 -3.3563282028626418 0 -3.3563282028626418 86.4840066429133 0 0 0 0 -12.421668834169395 28.786613448119169 0 28.786613448119169 155.50645287137013 0 0 0 0 -35.886853670035634 -42.977562893538561 0 -42.977562893538561 142.82178551938841 0 0 0 0 -32.447016410412743 -66.448131917884893 0 -66.448131917884893 40.320653639784723 0 0 0 0 -14.894309982721552 -42.200950770196869 0 -42.200950770196869 64.510508450424823 0 0 0 0 15.665653453728737 -11.24652904116374 0 -11.24652904116374 67.196944693059777 0 0 0 0 -12.838020704994506 -49.401489156778553 0 -49.401489156778553 28.151874445669819 0 0 0 0 -61.517173845129946 -7.5601882033079164 0 -7.5601882033079164 56.529021059704064 0 0 0 0 29.463541154505947 17.668870901834453 0 17.668870901834453 51.195235105182292 0 0 0 0 -96.009894547320073 -21.010551912568189 0 -21.010551912568189 139.66579619567801 0 0 0 0 18.282668572273906 -11.072074867392075 0 -11.072074867392075 117.04900020406421 0 0 0 0 2.1542559427496464 0.073366019975040331 0 0.073366019975040331 -0.39248249436923288 0 0 0 0 -39.527253955895048 68.957686369363728 0 68.957686369363728 284.9380394722757 0 0 0 0 -0.98988938384490543 0.55483915681771556 0 0.55483915681771556 46.525659745202148 0 0 0 0 -14.37636753640345 -11.380615769263386 0 -11.380615769263386 58.106823620430077 0 0 0 0 -199.46384687154341 57.856554273319489 0 57.856554273319489 346.22814297041623 0 0 0 0 93.622659428104271 146.53735880837849 0 146.53735880837849 -71.077802917985537 0 0 0 0 8.8428126630578845 -14.370658084892057 0 -14.370658084892057 35.717086171902338 0 0 0 0 -0.13965320856441288 -5.724984341703804 0 -5.724984341703804 44.045487933106841 0 0 0 0 -16.042206776683315 5.2587827721226859 0 5.2587827721226859 50.858205178927165 0 0 0 0 -2.9500349832667165 -4.143083670979685 0 -4.143083670979685 51.635792719796314 0 0 0 0 -146.51711612868303 -76.443720366549314 0 -76.443720366549314 55.589619528262119 0 0 0 0 -16.777250108649241 -91.142343013773825 0 -91.142343013773825 -66.870344744260365 0 0 0 0 -14.466080209411416 -3.196793915314629 0 -3.196793915314629 86.187339819081899 0 0 0 0 3.1723891033710743 7.0779549531816883 0 7.0779549531816883 60.853455456061056 0 0 0 0 12.930753234930023 5.2587663316826365 0 5.2587663316826365 52.613781294334331 0 0 0 0 -3.3164752525301235 -10.531574227064397 0 -10.531574227064397 40.843645313673022 0 0 0 0 -5.6248083028610836 -19.857251001521945 0 -19.857251001521945 53.449848052178822 0 0 0 0 0.55193936586277803 -0.037073115076509566 0 -0.037073115076509566 8.9280804774950511 0 0 0 0 3.1989872295329747 -6.0331301019250532 0 -6.0331301019250532 62.952651408904785 0 0 0 0 0.10486173780873287 -4.331003213646909 0 -4.331003213646909 82.984470634070021 0 0 0 0 0.60928381795690711 4.1003756311147299 0 4.1003756311147299 88.075449897860381 0 0 0 0 -341.73823306831525 -28.414968918184456 0 -28.414968918184456 177.38819160116873 0 0 0 0 -353.66072751214097 25.298172713757936 0 25.298172713757936 376.00814375771483 0 0 0 0 -162.91850889320813 144.28848363710244 0 144.28848363710244 354.95539692347575 0 0 0 0 -437.75698665771807 60.628710153566203 0 60.628710153566203 478.42345796750891 0 0 0 0 -0.077497091227681558 1.3190163454033668 0 1.3190163454033668 -0.32777317514071025 0 0 0 0 -63.888388517880003 72.285933164794528 0 72.285933164794528 115.98005335612379 0 0 0 0 -289.95241259293073 7.0098791009805836 0 7.0098791009805836 156.47024777137835 0 0 0 0 -120.19654037243868 -100.72978227560111 0 -100.72978227560111 -29.861251738750205 0 0 0 0 -298.98498281454113 -24.423999324646161 0 -24.423999324646161 71.721622305241453 0 0 0 0 -8.5586423476211166 -11.61262026698023 0 -11.61262026698023 92.096726741925522 0 0 0 0 -131.28113870248808 -124.3018535767978 0 -124.3018535767978 166.20610645099856 0 0 0 0 -5.4153669691081943 -4.3721368684315918 0 -4.3721368684315918 87.615989973222952 0 0 0 0 73.017034468587553 -61.271478281263001 0 -61.271478281263001 34.301257469253457 0 0 0 0 0.53061445572773547 -5.0996182604344966 0 -5.0996182604344966 11.790404618724212 0 0 0 0 17.409633684860637 -13.871112389455448 0 -13.871112389455448 77.438382325351995 0 0 0 0 -5.1881821636881398 -1.1871905564384364 0 -1.1871905564384364 92.836871580877755 0 0 0 0 3.6715266040864663 -15.243415392007591 0 -15.243415392007591 102.32419369019453 0 0 0 0 -14.051121414777754 -7.3241089337809626 0 -7.3241089337809626 101.60563818014271 0 0 0 0 -319.91211020819378 71.180823317549084 0 71.180823317549084 428.51481977043409 0 0 0 0 -319.71681538297082 88.885201431956716 0 88.885201431956716 138.36085724564657 0 0 0 0 -0.1010697726545855 -0.098608399752630804 0 -0.098608399752630804 2.2838718079054079 0 0 0 0 375.6400836408518 -194.57775992599693 0 -194.57775992599693 -78.403323138245582 0 0 0 0 -146.52367244681682 -50.671058529515904 0 -50.671058529515904 328.66710537596975 0 0 0 0 -82.74222061030207 19.244601675529793 0 19.244601675529793 35.638162121992536 0 0 0 0 -92.721268914710151 102.13512054924371 0 102.13512054924371 77.745349207993968 0 0 0 0 -82.390975376328413 129.59180222894634 0 129.59180222894634 5.8360453836274928 0 0 0 0 11.55724527888583 -11.01665293915994 0 -11.01665293915994 85.35963219201949 0 0 0 0 29.011939367346713 8.2216205327622447 0 8.2216205327622447 83.706984221531457 0 0 0 0 6.8317857662189887 -0.57401108600104322 0 -0.57401108600104322 19.814723554302045 0 0 0 0 12.323541778244362 6.7335784717715796 0 6.7335784717715796 116.19314802859662 0 0 0 0 -12.070905299842639 19.955274787329877 0 19.955274787329877 28.853232572194429 0 0 0 0 -83.815143565931123 82.697877809986039 0 82.697877809986039 45.374276904958151 0 0 0 0 -6.0400991978959411 4.2832158621434901 0 4.2832158621434901 93.33354382189971 0 0 0 0 -122.67404312384747 118.14308759489245 0 118.14308759489245 13.288669141359151 0 0 0 0 7.416973868398486 77.217957575972378 0 77.217957575972378 -79.651727010738 0 0 0 0 15.322540937273175 154.95828629229663 0 154.95828629229663 -393.84127812300721 0 0 0 0 -6.3138859472904763 -0.56449958111223442 0 -0.56449958111223442 8.7731182648543644 0 0 0 0 -265.01753168956975 392.01499379976349 0 392.01499379976349 -108.63213894134515 0 0 0 0 -169.36264931974426 217.00486233447089 0 217.00486233447089 154.88048745470996 0 0 0 0 -152.08643677425596 185.07518710920976 0 185.07518710920976 -33.924024242949827 0 0 0 0 -274.02641027498095 174.48117374273954 0 174.48117374273954 147.89608633302032 0 0 0 0 -228.22767861314134 105.49037956780239 0 105.49037956780239 167.72912169988081 0 0 0 0 -150.1562092435986 -12.985025487291978 0 -12.985025487291978 595.55949585107828 0 0 0 0 -329.92280619439782 167.90620468831628 0 167.90620468831628 416.2034258644735 0 0 0 0 -144.69263375938431 281.60127753848565 0 281.60127753848565 99.219574762837965 0 0 0 0 -234.32831994020421 295.57888065005136 0 295.57888065005136 -382.74982768593691 0 0 0 0 -69.477008553528776 398.74252490314484 0 398.74252490314484 -318.90554600286691 0 0 0 0 -344.07210331360147 175.97032636193603 0 175.97032636193603 51.3912751759608 0 0 0 0 -13.254166086199803 -15.291177852018563 0 -15.291177852018563 99.539435091405039 0 0 0 0 -26.140122771948882 -3.0391589645016666 0 -3.0391589645016666 89.228369316112321 0 0 0 0 -18.657612474203763 0.60706540985582613 0 0.60706540985582613 4.8915971598974872 0 0 0 0 -44.216527443911673 11.263663902967096 0 11.263663902967096 121.95706970336994 0 0 0 0 -34.514321958238725 -7.6845113587901039 0 -7.6845113587901039 119.16242163507582 0 0 0 0 -39.505971560350076 11.736428757379656 0 11.736428757379656 116.96055839861651 0 0 0 0 -49.241699163545263 20.00086210748541 0 20.00086210748541 93.194525560714396 0 0 0 0 -38.631441107474529 12.59524930596308 0 12.59524930596308 92.654231622699172 0 0 0 0 -46.416661074536023 5.4624001686563588 0 5.4624001686563588 104.6983691535263 0 0 0 0 -34.756516139792097 11.30961233226715 0 11.30961233226715 91.499026271691378 0 0 0 0 -33.635799057708937 -1.2030606837403184 0 -1.2030606837403184 99.216835205191273 0 0 0 0 -37.755807518801703 2.8084353460199907 0 2.8084353460199907 96.97511862249894 0 0 0 0 -21.43093569434922 -3.2473718686997799 0 -3.2473718686997799 41.132278756562791 0 0 0 0 -6.3992829509988951 9.3082142949224362 0 9.3082142949224362 59.14261596343249 0 0 0 0 24.236801516511264 8.4692408627956866 0 8.4692408627956866 65.949072644620173 0 0 0 0 -2.2037724050003931 11.250246666789309 0 11.250246666789309 52.690921932073152 0 0 0 0 18.67711833098565 -15.403348275922326 0 -15.403348275922326 101.78275636026865 0 0 0 0 41.253757529561426 34.97117277428697 0 34.97117277428697 80.107499875231952 0 0 0 0 41.688343607645294 32.178914070052542 0 32.178914070052542 1.8571161489417136 0 0 0 0 -0.040766594875690565 2.0621352869594389 0 2.0621352869594389 21.034681987612288 0 0 0 0 -2.6879453666817881 39.950055502225041 0 39.950055502225041 75.080990231233955 0 0 0 0 -59.452843779052273 18.818721964833003 0 18.818721964833003 99.327362222967167 0 0 0 0 4.369112222430938 22.908226975028143 0 22.908226975028143 72.386349067351361 0 0 0 0 22.059350147683745 36.038364839940186 0 36.038364839940186 61.954656546797196 0 0 0 0 7.7747771214549175 18.499119748446901 0 18.499119748446901 69.341932036028084 0 0 0 0 1.6848010397179154 33.624560375176543 0 33.624560375176543 28.363026363914283 0 0 0 0 -11.413661912139105 30.588423999673068 0 30.588423999673068 67.680891196472658 0 0 0 0 9.9535387795925132 28.649691617628001 0 28.649691617628001 59.733190421957694 0 0 0 0 -49.682382966384466 67.491491518856492 0 67.491491518856492 74.952064147462806 0 0 0 0 -52.921377240885704 90.030906143396805 0 90.030906143396805 23.651709276498877 0 0 0 0 -11.95586372807611 76.699525422359784 0 76.699525422359784 102.05894379243728 0 0 0 0 -72.918106391061883 74.845810294694274 0 74.845810294694274 93.753398113435651 0 0 0 0 -19.857146590458342 53.707722951656933 0 53.707722951656933 81.654194160304542 0 0 0 0 -44.731833714235108 51.612365892433445 0 51.612365892433445 86.355915837259545 0 0 0 0 -25.370212330341019 74.309382251585475 0 74.309382251585475 112.84141844253509 0 0 0 0 -51.172839898025131 28.167787432799059 0 28.167787432799059 141.44154409063776 0 0 0 0 -60.048007441559093 68.801656180668942 0 68.801656180668942 90.289655929667788 0 0 0 0 -50.93657365342915 33.315354038211808 0 33.315354038211808 113.13063519131765 0 0 0 0 -45.207482064280157 28.577251828662611 0 28.577251828662611 60.410341763628821 0 0 0 0 0.28972673071076827 1.1581363809100367 0 1.1581363809100367 47.896565198112512 0 0 0 0 7.0653721046583087 -1.8455836273496971 0 -1.8455836273496971 41.25084815147784 0 0 0 0 -4.2673509657826205 -9.4564224303571933 0 -9.4564224303571933 36.826250370863875 0 0 0 0 -2.6310075983492425 -7.2113616424339853 0 -7.2113616424339853 45.088657175612752 0 0 0 0 0.30495757273673263 1.4691071574301446 0 1.4691071574301446 23.792674203076643 0 0 0 0 -4.2742150280841997 -2.1163838074826344 0 -2.1163838074826344 59.927262463039369 0 0 0 0 0.32049391995508358 -0.23499695413920563 0 -0.23499695413920563 53.159363447215583 0 0 0 0 6.0502611214469653 2.1642849517120339 0 2.1642849517120339 46.827028005649481 0 0 0 0 4.1183407662219906 1.9072076801530784 0 1.9072076801530784 47.289215766060806 0 0 0 0 -17.754826817054436 -14.649449368105707 0 -14.649449368105707 60.57686924007794 0 0 0 0 -0.5974180349929632 1.8355278863509117 0 1.8355278863509117 49.183104599130729 0 0 0 0 -6.1357190120138512 -5.0999098504307767 0 -5.0999098504307767 40.75420753315484 0 0 0 0 11.405634870424365 -51.044038005089533 0 -51.044038005089533 -13.858238479529973 0 0 0 0 -1.0995616265564436 -1.5915600222533612 0 -1.5915600222533612 13.336794947159948 0 0 0 0 -17.762210649616463 -10.699382060649441 0 -10.699382060649441 75.820049828751507 0 0 0 0 -32.073393435682192 91.473436895747 0 91.473436895747 -101.80942532861627 0 0 0 0 48.463109375262775 5.9444835267931921 0 5.9444835267931921 55.602199431516055 0 0 0 0 -56.670028425334749 -21.41690554541492 0 -21.41690554541492 49.719258400296894 0 0 0 0 -3.1580060178982468 -3.8752854772369858 0 -3.8752854772369858 4.9000824817778792 0 0 0 0 -26.435361227004705 56.144258513128079 0 56.144258513128079 92.060911198495887 0 0 0 0 -6.4770281687447095 -2.5749742753796454 0 -2.5749742753796454 55.078419122899504 0 0 0 0 21.400946042656102 47.120285260705884 0 47.120285260705884 90.636830001461931 0 0 0 0 23.819863655875452 31.473153290438859 0 31.473153290438859 78.333925557511975 0 0 0 0 15.604621456165432 33.613804111511399 0 33.613804111511399 79.711098785021022 0 0 0 0 15.157384888141296 32.958341282198383 0 32.958341282198383 6.2694484575427367 0 0 0 0 36.633670981598698 33.007473524598026 0 33.007473524598026 99.025871648111206 0 0 0 0 105.29205191114988 -17.3527718344194 0 -17.3527718344194 47.373729306920723 0 0 0 0 21.915855128449873 34.825498411273969 0 34.825498411273969 13.022623289373652 0 0 0 0 33.625536154380825 59.538911198091228 0 59.538911198091228 122.80095078441082 0 0 0 0 0.18854559223117695 -7.5959575467868508 0 -7.5959575467868508 -1.535909126589047 0 0 0 0 20.006616511135917 47.699076297249576 0 47.699076297249576 113.53752823963077 0 0 0 0 -2.5140860207883708 -1.3980849535086524 0 -1.3980849535086524 43.388857846736201 0 0 0 0 -3.9928860762625842 -0.55836199715906787 0 -0.55836199715906787 13.153310738760865 0 0 0 0 -16.797875182699499 12.023204032660942 0 12.023204032660942 63.130674236357663 0 0 0 0 6.101698881660468 1.9343768762591935 0 1.9343768762591935 47.090077185235714 0 0 0 0 4.1003513628858173 0.7067825945318873 0 0.7067825945318873 52.978590648242971 0 0 0 0 -5.7376272071121006 -7.0831099622531823 0 -7.0831099622531823 46.802703749582051 0 0 0 0 -4.4758593975520853 2.3793166486930204 0 2.3793166486930204 131.9689463531322 0 0 0 0 4.5386851224347993 2.9442703658351093 0 2.9442703658351093 55.07919571774255 0 0 0 0 3.7365892292238527 0.39398677283634242 0 0.39398677283634242 59.632582310783619 0 0 0 0 -21.757361414835714 -53.530063795762544 0 -53.530063795762544 141.58062544550558 0 0 0 0 1.9594549748208578 6.3050044370616973 0 6.3050044370616973 13.91949250865521 0 0 0 0 34.438181682619955 12.120331996498862 0 12.120331996498862 64.478031154038035 0 0 0 0 9.6192385677362022 10.686694453860554 0 10.686694453860554 10.060246334358851 0 0 0 0 -25.698390945101913 23.817850305233151 0 23.817850305233151 147.38818774552783 0 0 0 0 4.0824471695896136 3.339238783082692 0 3.339238783082692 56.888025695079705 0 0 0 0 7.7419563023199771 4.1303017800782982 0 4.1303017800782982 47.302104370928646 0 0 0 0 328.18678319630385 343.83396720010933 0 343.83396720010933 474.96690152108204 0 0 0 0 14.688004556435772 131.72368052284583 0 131.72368052284583 1002.3738028383959 0 0 0 0 107.0425433040848 -4.9373406492813956 0 -4.9373406492813956 129.51893293282046 0 0 0 0 216.35838953853465 164.82187665881065 0 164.82187665881065 293.65419282966468 0 0 0 0 143.37338690336941 27.20692031330691 0 27.20692031330691 155.36262279085349 0 0 0 0 68.72062027084894 16.860657065772102 0 16.860657065772102 243.49364303789844 0 0 0 0 9.4082758379902742 -41.937069476531178 0 -41.937069476531178 255.82193519994325 0 0 0 0 -8.5554074955494386 -26.384859025677542 0 -26.384859025677542 270.86802468383394 0 0 0 0 75.575601317661096 1.0569503787264694 0 1.0569503787264694 263.15970530014602 0 0 0 0 -28.616667948799318 11.558611488944734 0 11.558611488944734 296.38898657655227 0 0 0 0 20.040907953315639 -40.287517106538871 0 -40.287517106538871 193.08453106564411 0 0 0 0 38.035814040958599 39.829637949273092 0 39.829637949273092 343.5797859178565 0 0 0 0 76.491011523797511 1.7484548212014488 0 1.7484548212014488 278.59276816403144 0 0 0 0 55.403343947132925 31.733744499822023 0 31.733744499822023 428.85704476908722 0 0 0 0 17.865900848041775 74.927289187849965 0 74.927289187849965 314.57116267890524 0 0 0 0 79.149966852387024 87.093157057301141 0 87.093157057301141 282.31160892894513 0 0 0 0 13.875486126926319 71.831241120260529 0 71.831241120260529 286.6253601313656 0 0 0 0 4.5399874478000317 -4.7790686664224609 0 -4.7790686664224609 4.6491703319400912 0 0 0 0 32.334561257498081 183.2638159485432 0 183.2638159485432 564.70126509202601 0 0 0 0 259.72990326183663 179.46954098866991 0 179.46954098866991 1130.1737832978106 0 0 0 0 31.188528785599829 -131.73125057545258 0 -131.73125057545258 527.00328577303299 0 0 0 0 4.8206678042489264 -4.5345681895113188 0 -4.5345681895113188 3.5209719754470825 0 0 0 0 -99.853352953226477 406.84354192203682 0 406.84354192203682 1206.8997050229736 0 0 0 0 -47.719538621892184 113.25732384783623 0 113.25732384783623 643.73023835194908 0 0 0 0 93.910910476698803 115.40697884869314 0 115.40697884869314 318.47728192523209 0 0 0 0 6.5405136387985863 -57.305044256827387 0 -57.305044256827387 437.16911406107101 0 0 0 0 149.17608319423834 150.04281918620836 0 150.04281918620836 236.92584048371464 0 0 0 0 -277.69958749025591 -36.102985695968528 0 -36.102985695968528 1126.8940002231757 0 0 0 0 -69.327198879736358 70.122192668943171 0 70.122192668943171 137.02127091213333 0 0 0 0 -328.72865417413811 -292.42518600820313 0 -292.42518600820313 1325.9286713061301 0 0 0 0 -287.73964488955812 -387.48166914333706 0 -387.48166914333706 1242.2001981696885 0 0 0 0 -1605.4154149810897 -382.22598482231115 0 -382.22598482231115 3500.6199446911378 0 0 0 0 -906.24527927887675 -640.90411547108124 0 -640.90411547108124 2321.9330180964462 0 0 0 0 -1004.2278488493751 -1087.6029251504206 0 -1087.6029251504206 3212.6055842862916 0 0 0 0 -824.86838194985398 -422.00618351203957 0 -422.00618351203957 2850.137822226694 0 0 0 0 -1609.1435328801481 -516.36286393513728 0 -516.36286393513728 2849.7997179333979 0 0 0 0 -4.947733024821523 0.75183758605831486 0 0.75183758605831486 5.6563575717631096 0 0 0 0 -1094.2872192194632 -22.313380360043084 0 -22.313380360043084 3321.2337164158234 0 0 0 0 -643.20032132985216 399.22376749928662 0 399.22376749928662 3502.6050822578691 0 0 0 0 -1220.398167197535 -298.87646551818034 0 -298.87646551818034 3429.3081792957491 0 0 0 0 -300.60584658318612 302.8205721491322 0 302.8205721491322 2803.8910029903782 0 0 0 0 -140.99232275749091 401.41736208893417 0 401.41736208893417 2795.0592849738459 0 0 0 0 -498.37661262580832 228.99670804504422 0 228.99670804504422 2767.1907315647959 0 0 0 0 -187.0563329914512 267.76374942195253 0 267.76374942195253 2137.5293650309177 0 0 0 0 -632.78252331247722 -92.356373213380721 0 -92.356373213380721 2126.7029644445429 0 0 0 0 -439.2829685522297 27.763988744380185 0 27.763988744380185 2108.3769630303868 0 0 0 0 11.705870462198618 134.68262358485299 0 134.68262358485299 2187.4113028884458 0 0 0 0 -225.25278900765488 -55.304246333402261 0 -55.304246333402261 1569.1603980248765 0 0 0 0 163.26802900571192 -1.0887026807467919 0 -1.0887026807467919 1428.7729445539735 0 0 0 0 -166.51542844242738 137.69176351637043 0 137.69176351637043 1669.6765136673857 0 0 0 0 7.4272846728467812 92.252775091295916 0 92.252775091295916 2271.5247483553539 0 0 0 0 280.66737490851392 44.976903155249602 0 44.976903155249602 1686.5585172236497 0 0 0 0 355.47827955397497 514.90941955899325 0 514.90941955899325 2516.1165130462832 0 0 0 0 235.82267662110627 251.54576726595405 0 251.54576726595405 3498.9286127996338 0 0 0 0 544.5680308076835 708.53668922856741 0 708.53668922856741 2910.8194614331078 0 0 0 0 -322.85800672659207 266.58903796496452 0 266.58903796496452 2652.4568220981982 0 0 0 0 742.60472648779364 -417.01279019095955 0 -417.01279019095955 3015.876819242083 0 0 0 0 57.420506521511015 107.96306052132422 0 107.96306052132422 2271.828013081773 0 0 0 0 257.75182434341843 -175.73270381204338 0 -175.73270381204338 2569.4068639401521 0 0 0 0 -319.26543192793361 -160.4412159750209 0 -160.4412159750209 3407.7933380870236 0 0 0 0 -665.52220182907786 260.31210885244946 0 260.31210885244946 3078.5765448853999 0 0 0 0 -395.05483544767412 -129.75916420311842 0 -129.75916420311842 3397.1711397673262 0 0 0 0 -5.0800286035559985 -0.60909254238622168 0 -0.60909254238622168 7.1239273885035885 0 0 0 0 223.27614672952382 250.10077110450948 0 250.10077110450948 3500.578080163506 0 0 0 0 70.213034543989124 -237.30125797617075 0 -237.30125797617075 2771.0288919767809 0 0 0 0 -409.09702165992167 173.31764103341266 0 173.31764103341266 2849.6479426176702 0 0 0 0 -824.1405779722852 437.4770457769755 0 437.4770457769755 2882.7426556284045 0 0 0 0 -262.78975153869851 150.96685322288613 0 150.96685322288613 2430.2541239276034 0 0 0 0 -561.90842719141472 403.56780718178561 0 403.56780718178561 2534.4242477322987 0 0 0 0 -242.92164851442749 312.16043873140006 0 312.16043873140006 2467.0190821689612 0 0 0 0 -239.44851494225304 311.41806445072689 0 311.41806445072689 2279.9609901792719 0 0 0 0 103.05502106977019 -5.1173520110278332 0 -5.1173520110278332 2109.1499020160554 0 0 0 0 -250.57438830235424 129.30966145126877 0 129.30966145126877 2454.9193091385823 0 0 0 0 -14.864478721026899 170.61439621131285 0 170.61439621131285 2071.5399190726821 0 0 0 0 -66.530235893334975 301.52421175110794 0 301.52421175110794 1817.6442523751393 0 0 0 0 -51.910828710087117 477.85330927548057 0 477.85330927548057 2026.7238008339482 0 0 0 0 -51.672647987161326 322.89452897643787 0 322.89452897643787 2123.5770074460015 0 0 0 0 -63.404421971287775 540.25027743779356 0 540.25027743779356 1776.0629779207666 0 0 0 0 -57.145936983954016 378.60137458222744 0 378.60137458222744 1817.3859695617866 0 0 0 0 -172.45289297311786 134.85186615836574 0 134.85186615836574 227.89652101969114 0 0 0 0 -4.6610916155179893 26.491365218675128 0 26.491365218675128 67.444922567427056 0 0 0 0 43.333024566001768 66.628590331484702 0 66.628590331484702 80.521578835172477 0 0 0 0 -5.2016836153079566 53.575677382682443 0 53.575677382682443 81.642205594866027 0 0 0 0 -44.994775145480162 76.268774558146106 0 76.268774558146106 90.281534339321297 0 0 0 0 -43.522491965626614 37.498611595357943 0 37.498611595357943 117.0116500050226 0 0 0 0 1.1988447037525409 25.518964167708411 0 25.518964167708411 102.75038508961454 0 0 0 0 -2.3069406970851567 5.9705296992731647 0 5.9705296992731647 29.478519944871813 0 0 0 0 -65.828652858989244 35.956054306986516 0 35.956054306986516 135.19005184160415 0 0 0 0 58.774030509936892 -108.75944247901498 0 -108.75944247901498 160.50370342080714 0 0 0 0 378.26989576229676 187.13932705676416 0 187.13932705676416 -116.31253372003812 0 0 0 0 216.27108558648155 -304.1621948908105 0 -304.1621948908105 -225.42343532817904 0 0 0 0 2.5242254412631806 -1.1072973067247887 0 -1.1072973067247887 0.97540608299424747 0 0 0 0 -361.11736531274266 -7.4336663337344362 0 -7.4336663337344362 1034.6311888229029 0 0 0 0 160.00543048880911 -235.27181177537568 0 -235.27181177537568 176.73226882172276 0 0 0 0 121.35161766070246 -565.88039105330972 0 -565.88039105330972 922.0026181231151 0 0 0 0 -46.577777345613299 -210.49322325202229 0 -210.49322325202229 182.42696379334666 0 0 0 0 251.20194207084933 -441.28192717167985 0 -441.28192717167985 822.78645695743762 0 0 0 0 415.67682764245524 -749.89930868688043 0 -749.89930868688043 818.85217192866548 0 0 0 0 -216.89362464478359 -720.54623466681369 0 -720.54623466681369 1364.5403124465811 0 0 0 0 -194.28739638208719 -867.48182404217368 0 -867.48182404217368 1874.5353343979441 0 0 0 0 -589.20933812352825 -1092.2406624274663 0 -1092.2406624274663 2588.307547968403 0 0 0 0 705.75230878349544 -1689.2358151277476 0 -1689.2358151277476 2061.2899117434536 0 0 0 0 -566.94958116070825 -1238.6106060269753 0 -1238.6106060269753 2751.7569019897564 0 0 0 0 -77.3213413847417 -1956.6578475980641 0 -1956.6578475980641 3493.2237702059501 0 0 0 0 2408.2196145630551 -2289.5286858285835 0 -2289.5286858285835 1605.0853802328093 0 0 0 0 784.33407768929339 -861.9076193341225 0 -861.9076193341225 609.06514233036432 0 0 0 0 18.339235555655591 5.2781807393548661 0 5.2781807393548661 3492.1757638550289 0 0 0 0 1466.9541017909921 105.40548388097159 0 105.40548388097159 -726.21340403675276 0 0 0 0 10.756835090949549 -1.3253088598112868 0 -1.3253088598112868 11.753760760561551 0 0 0 0 29.654372027005131 7.2932098940649386 0 7.2932098940649386 -2.5700136439088652 0 0 0 0 -158.65112631621994 144.0363033419053 0 144.0363033419053 3486.5981223635172 0 0 0 0 614.31633388694252 -379.65743339900655 0 -379.65743339900655 281.67354751797393 0 0 0 0 11.719438660478721 10.115166602215616 0 10.115166602215616 8.9604129587581554 0 0 0 0 27.121382732948291 8.3837542829879936 0 8.3837542829879936 42.232369265344914 0 0 0 0 175.21847040216198 -479.38333859158229 0 -479.38333859158229 -527.8876955426822 0 0 0 0 5.8357842170264425 9.8844431972515778 0 9.8844431972515778 66.447081963851275 0 0 0 0 -63.509482022968996 182.44340981535333 0 182.44340981535333 803.95197796633875 0 0 0 0 467.01840907333508 -396.98090410790246 0 -396.98090410790246 -245.44796450464128 0 0 0 0 6.4802076443912711 41.647355929391097 0 41.647355929391097 77.140809496630027 0 0 0 0 19.511689823657282 12.465197941436795 0 12.465197941436795 0.61610602065711362 0 0 0 0 21.166439669881584 29.865764057692104 0 29.865764057692104 83.1014760007738 0 0 0 0 -34.072993325969975 573.01733048218739 0 573.01733048218739 3498.8167861152097 0 0 0 0 -0.42592736052760038 1.8964585701493561 0 1.8964585701493561 20.51192502652259 0 0 0 0 698.75274863668687 1317.1458401008369 0 1317.1458401008369 2535.7236611693734 0 0 0 0 -97.879827043837878 222.42728740572693 0 222.42728740572693 1816.4347004319843 0 0 0 0 -356.55104963570028 -598.96543294541152 0 -598.96543294541152 3493.3020096996497 0 0 0 0 9.7004227584093865 9.5996788818728369 0 9.5996788818728369 -5.5536619598676982 0 0 0 0 7.1963832181440921 33.888492301059159 0 33.888492301059159 82.557074496996393 0 0 0 0 12.486465883178681 22.272695377773744 0 22.272695377773744 45.394226545557103 0 0 0 0 27.502120598201145 35.180067641867026 0 35.180067641867026 33.96379096147939 0 0 0 0 4.3277380508269694 8.4996498731182815 0 8.4996498731182815 7.5775592258661879 0 0 0 0 -199.56947676101663 920.91720622084392 0 920.91720622084392 6828.27288212652 0 0 0 0 471.10466161821705 2085.5484677569079 0 2085.5484677569079 829.99160770873823 0 0 0 0 237.77813468111634 -106.62548095673492 0 -106.62548095673492 151.59601198705604 0 0 0 0 2159.08463882865 2930.3337938236973 0 2930.3337938236973 3801.457267655549 0 0 0 0 1.5626870119739014 -3.3271479176431278 0 -3.3271479176431278 27.711205293248241 0 0 0 0 1008.0213177872579 3622.9037440829943 0 3622.9037440829943 3495.161922789066 0 0 0 0 -4.0738243484395618 14.857201575879941 0 14.857201575879941 5.7891288423816309 0 0 0 0 -0.00055025122082952294 29.976051540525077 0 29.976051540525077 68.776843386538076 0 0 0 0 1689.9723725100002 3444.4830011110525 0 3444.4830011110525 4475.1384787019888 0 0 0 0 -17.793413868656899 34.191338973714949 0 34.191338973714949 122.45214537863194 0 0 0 0 1109.8742380406641 891.90772606489691 0 891.90772606489691 2970.3099478052036 0 0 0 0 3.6640958376829085 10.377003918245762 0 10.377003918245762 10.616626424397122 0 0 0 0 -15.224797678888233 -1.7793957379260839 0 -1.7793957379260839 43.108899742913422 0 0 0 0 4.0885016776701377 9.3010419036704661 0 9.3010419036704661 47.613309062566884 0 0 0 0 7.7082946509204646 30.283424052111968 0 30.283424052111968 49.176763277666396 0 0 0 0 1.2530691162394874 21.225117381303789 0 21.225117381303789 22.006376759145496 0 0 0 0 12.199302439537178 30.369843393974747 0 30.369843393974747 48.310846342836157 0 0 0 0 9.2024695622712898 10.43485600880922 0 10.43485600880922 44.548026000818481 0 0 0 0 42.820798280153667 80.12744543089957 0 80.12744543089957 84.241327576746698 0 0 0 0 -6.0004743883357659 -2.7780962097289006 0 -2.7780962097289006 10.809932582260242 0 0 0 0 4.7812265035299788 29.404823459671206 0 29.404823459671206 39.841351672599558 0 0 0 0 80.959498346593932 79.509633736990509 0 79.509633736990509 46.38509792161949 0 0 0 0 0.15197429472297586 1.5516588690520621 0 1.5516588690520621 25.34520724605909 0 0 0 0 -7.0052064241405851 -0.43841327116570028 0 -0.43841327116570028 9.7290166452684161 0 0 0 0 59.851769308460462 67.167038741598844 0 67.167038741598844 78.555248382587934 0 0 0 0 40.735146186912061 90.214398421383521 0 90.214398421383521 79.176048134964731 0 0 0 0 -8.0211982046203048 61.737344295731418 0 61.737344295731418 90.744360104878524 0 0 0 0 24.131746981490778 124.49778483951764 0 124.49778483951764 194.69072047414829 0 0 0 0 -48.183762792685684 38.793388058930532 0 38.793388058930532 151.79141145106269 0 0 0 0 180.65206135272888 195.97870006230005 0 195.97870006230005 138.11760344394042 0 0 0 0 -61.890954463918206 110.87947082626442 0 110.87947082626442 373.6351175493794 0 0 0 0 78.394921838647292 99.631472009665003 0 99.631472009665003 47.589742565859524 0 0 0 0 -8.0352472802617694 1.8558813257560929 0 1.8558813257560929 7.7156217697741614 0 0 0 0 -0.28781277002619277 12.425872181542985 0 12.425872181542985 11.264511148396195 0 0 0 0 -1.8832943438183065 -7.7434575070701612 0 -7.7434575070701612 16.823598278092334 0 0 0 0 25.865050124260051 78.960978524230995 0 78.960978524230995 283.61564317534157 0 0 0 0 -0.38955722674100102 -0.28733972126608798 0 -0.28733972126608798 1.2408378061273266 0 0 0 0 -1.0462971993405468 -0.060102548146998558 0 -0.060102548146998558 3.727096333587907 0 0 0 0 115.11881719647272 -5.3775269087499282 0 -5.3775269087499282 7.3448066081641628 0 0 0 0 -24.668489966094967 51.368544360147098 0 51.368544360147098 482.40534070105628 0 0 0 0 4.4641667755590682 0.41879935856458594 0 0.41879935856458594 0.0018432294226364832 0 0 0 0 135.63182512532671 280.56129922493699 0 280.56129922493699 238.27963115654546 0 0 0 0 156.21848039414203 137.75813736090257 0 137.75813736090257 -91.358129000855229 0 0 0 0 -14.849045227822444 44.515860341604252 0 44.515860341604252 267.23224921935048 0 0 0 0 29.914762752992296 16.435155193347942 0 16.435155193347942 8.6786016124441101 0 0 0 0 -1.8567544304070793 47.354190077404553 0 47.354190077404553 -119.65535513710461 0 0 0 0 97.517794326996864 212.44257286641945 0 212.44257286641945 -195.82519833705919 0 0 0 0 239.03191822806366 -40.818910221264133 0 -40.818910221264133 -145.53808308736569 0 0 0 0 -115.21051545260252 270.67338198461675 0 270.67338198461675 -106.03100209926413 0 0 0 0 231.05179886152612 -96.717246060665246 0 -96.717246060665246 -472.98338988329419 0 0 0 0 337.3015626447293 370.04575340107266 0 370.04575340107266 -1066.1527988856924 0 0 0 0 -17.541383065161426 -31.364823338823044 0 -31.364823338823044 74.178357710834433 0 0 0 0 -5.0736547508400642 -1.3651011075051223 0 -1.3651011075051223 -1.2856618887389808 0 0 0 0 -44.438052679510861 19.195290822384823 0 19.195290822384823 181.66126897985941 0 0 0 0 -61.4377118644029 -61.412438223131403 0 -61.412438223131403 137.60434322774245 0 0 0 0 314.20460409891507 -12.840503501191847 0 -12.840503501191847 76.854591156769857 0 0 0 0 0.62391957243926299 -35.018399568556561 0 -35.018399568556561 -58.260329195124996 0 0 0 0 5.5682544750908427 -3.8174337144249884 0 -3.8174337144249884 29.310886399240552 0 0 0 0 -7.4128047133101518 10.800181890860358 0 10.800181890860358 36.863492421354749 0 0 0 0 4.8524300646377014 -57.611980594162105 0 -57.611980594162105 -5.2422786098779852 0 0 0 0 -15.97549244212496 -61.48782889871336 0 -61.48782889871336 5.8009773575931831 0 0 0 0 17.330756637434618 21.292792305777759 0 21.292792305777759 18.718533634952717 0 0 0 0 -1.3674965711379059 -2.559147833357581 0 -2.559147833357581 29.46704000194751 0 0 0 0 -639.16703415225493 -327.34128641505959 0 -327.34128641505959 404.29657453339314 0 0 0 0 -845.66563401548774 -86.925754260964823 0 -86.925754260964823 131.91591850815439 0 0 0 0 -0.48337666999266582 -5.8277753461418591 0 -5.8277753461418591 36.11903543604187 0 0 0 0 -2.7556529981633968 4.902591452593807 0 4.902591452593807 7.9033828569803575 0 0 0 0 -619.55545662563691 -599.62001832582428 0 -599.62001832582428 -116.42248156326696 0 0 0 0 -98.573151623767444 20.05171989918108 0 20.05171989918108 97.202352937078103 0 0 0 0 -4.7832803498658905 86.771034997100401 0 86.771034997100401 153.64689521877335 0 0 0 0 -78.749366840218499 16.657906789146182 0 16.657906789146182 167.79028310349531 0 0 0 0 32.637450764948881 -100.98692758988 0 -100.98692758988 22.161430091685361 0 0 0 0 32.066946525307401 -47.121109177653409 0 -47.121109177653409 -6.5257655386958504 0 0 0 0 208.35214318362523 -188.82035696061212 0 -188.82035696061212 94.417207028278426 0 0 0 0 -158.47414913071589 33.5475549122757 0 33.5475549122757 216.99042876972089 0 0 0 0 -144.69533376000129 -220.53838116060038 0 -220.53838116060038 430.41579364319477 0 0 0 0 -84.161551210123434 -419.80575567541655 0 -419.80575567541655 768.65637923589202 0 0 0 0 608.25765768548081 -351.15957100293053 0 -351.15957100293053 104.11008784974183 0 0 0 0 995.95059467488318 229.40452137484317 0 229.40452137484317 -273.93591512199237 0 0 0 0 -38.123950538495137 7.1902297437776497 0 7.1902297437776497 114.81455668690251 0 0 0 0 397.13261943048929 351.26506739154502 0 351.26506739154502 -187.52647945427088 0 0 0 0 5.4342198694521358 66.438314109654129 0 66.438314109654129 -12.331316867348562 0 0 0 0 6.2535309337417857 -27.526241715574997 0 -27.526241715574997 58.115559046429553 0 0 0 0 -94.532386931430665 175.75241060254598 0 175.75241060254598 127.67749126645049 0 0 0 0 91.639979832043537 -6.9808740973671775 0 -6.9808740973671775 -96.887650480374987 0 0 0 0 -84.878986302705016 36.423909319179529 0 36.423909319179529 208.6054707599576 0 0 0 0 -24.411607620177165 218.49609318981902 0 218.49609318981902 -32.097165561837755 0 0 0 0 8.9965585102155039 0.74192382442838856 0 0.74192382442838856 -7.2419985342413913 0 0 0 0 -52.912634794180576 191.47849459950817 0 191.47849459950817 -25.74637360055749 0 0 0 0 112.03476906371725 58.946140378716791 0 58.946140378716791 -44.937779664775462 0 0 0 0 35.721559344915377 22.996747002737706 0 22.996747002737706 12.212320302518826 0 0 0 0 -54.26166683880183 52.359563140214505 0 52.359563140214505 -14.219759732686924 0 0 0 0 -25.238678113300693 3.785152728347839 0 3.785152728347839 42.824336901709557 0 0 0 0 -59.276627737304807 23.376296775477385 0 23.376296775477385 41.997403144911914 0 0 0 0 -7.8413482351230614 5.8347935506930586 0 5.8347935506930586 24.186848020499557 0 0 0 0 9.2119106604031913 -66.072965751723814 0 -66.072965751723814 107.62603973859382 0 0 0 0 -29.92791567578297 -10.038706362528501 0 -10.038706362528501 35.164872992590062 0 0 0 0 39.340184034619597 -7.1330924820827022 0 -7.1330924820827022 9.0654948939204587 0 0 0 0 9.7793429999246655 25.70124092045171 0 25.70124092045171 36.139907552794739 0 0 0 0 -19.59859276143429 3.2843828466645819 0 3.2843828466645819 30.260582761659705 0 0 0 0 4.476591440757602 3.0662704891296926 0 3.0662704891296926 26.039357289633699 0 0 0 0 -0.77363767939360883 4.5238987366994827 0 4.5238987366994827 10.673865120465212 0 0 0 0 -6.4289965379530258 13.098073018589503 0 13.098073018589503 23.33274321245176 0 0 0 0 -0.038727295837254871 5.7177700211209563 0 5.7177700211209563 34.189369343773215 0 0 0 0 -0.91937987612797212 1.0470502001552831 0 1.0470502001552831 26.10315429439239 0 0 0 0 -1.4774994817078095 6.5258565895345555 0 6.5258565895345555 33.927482350026423 0 0 0 0 -2.2770341902414657 2.5432888309951522 0 2.5432888309951522 32.346438670366297 0 0 0 0 -6.3086894357331076 6.7527973661810492 0 6.7527973661810492 16.463861008882866 0 0 0 0 -216.70946745447873 179.68299799748638 0 179.68299799748638 -42.378896982478182 0 0 0 0 -18.352204890910798 15.527092727155832 0 15.527092727155832 11.381129064800916 0 0 0 0 1.2651743404065341 13.262047653947334 0 13.262047653947334 31.782499313960656 0 0 0 0 4.4178134366473367 16.850827245184849 0 16.850827245184849 17.840679209467339 0 0 0 0 -11.117044802412011 -8.4863389702638869 0 -8.4863389702638869 34.467801171773317 0 0 0 0 -291.92938968197268 6.2505847601514688 0 6.2505847601514688 10.095666580459692 0 0 0 0 -412.96725863350002 313.45126485913897 0 313.45126485913897 168.81188985623066 0 0 0 0 -344.78578124104797 205.7232771448289 0 205.7232771448289 251.68390896196433 0 0 0 0 -672.56670749596651 126.57560798482382 0 126.57560798482382 175.67390797456392 0 0 0 0 -281.06197437039009 203.93298532138579 0 203.93298532138579 -26.775920553161995 0 0 0 0 -226.61622723412302 326.16647797805035 0 326.16647797805035 76.740293837923673 0 0 0 0 -294.78975307372275 208.76238475168429 0 208.76238475168429 0.49934255032712827 0 0 0 0 -92.347720410642978 135.69864654712001 0 135.69864654712001 -126.57633838199945 0 0 0 0 -118.5607835948822 48.536768304011275 0 48.536768304011275 75.187433010427412 0 0 0 0 -134.64451912981758 251.71327602639667 0 251.71327602639667 -6.5708891993272118 0 0 0 0 6.305948904719485 22.307720654107793 0 22.307720654107793 55.54716387097686 0 0 0 0 -274.53096624749742 265.37205833628832 0 265.37205833628832 19.916952029318054 0 0 0 0 -273.67161106846447 273.63594682104372 0 273.63594682104372 -136.7845665760542 0 0 0 0 -6.024260065185377 3.5506732981794968 0 3.5506732981794968 17.991448358208842 0 0 0 0 68.157515671210604 23.476396539130747 0 23.476396539130747 -18.353899204052027 0 0 0 0 2.5629557691816784 7.2497721641968447 0 7.2497721641968447 2.9031526701820614 0 0 0 0 1.2673934519264947 109.51700148300137 0 109.51700148300137 102.82516718322859 0 0 0 0 13.174141487603777 -20.633563675887928 0 -20.633563675887928 50.178666709943627 0 0 0 0 -0.004336973244706499 9.8444302111772792 0 9.8444302111772792 52.567450249982187 0 0 0 0 -30.655089389784735 6.2021567792692167 0 6.2021567792692167 128.97366284314057 0 0 0 0 112.1169215057962 3.1606189774470295 0 3.1606189774470295 50.591121142314421 0 0 0 0 -7.1347593027938903 -1.7244951670442594 0 -1.7244951670442594 14.192716530564816 0 0 0 0 503.34765087152755 710.63047973952735 0 710.63047973952735 3047.0716334885819 0 0 0 0 -29.739389119231419 35.65809510173176 0 35.65809510173176 130.80695451462344 0 0 0 0 -205.68425790764172 783.97573572250042 0 783.97573572250042 4232.4334017590527 0 0 0 0 564.29804143353113 1660.2643077712578 0 1660.2643077712578 3320.9197685375639 0 0 0 0 2.3238662202542848 3.0036281752220528 0 3.0036281752220528 -0.97656625614575177 0 0 0 0 -33.705556722310803 -19.63741669168553 0 -19.63741669168553 37.881327020219032 0 0 0 0 -2.963714001466542 17.615974612462423 0 17.615974612462423 35.826067456446992 0 0 0 0 -29.425367662046995 7.3401079528931632 0 7.3401079528931632 100.3491287102861 0 0 0 0 -2.6791845672994832 1.2804248625436507 0 1.2804248625436507 1.4258333875947213 0 0 0 0 -23.343054580674561 55.167279976749512 0 55.167279976749512 113.22906641805986 0 0 0 0 -28.441236418496032 35.599011871441661 0 35.599011871441661 92.305730544467679 0 0 0 0 -36.130018192460284 2.1240508128480542 0 2.1240508128480542 65.279822054962779 0 0 0 0 -16.039708635178403 -1.3450091323352051 0 -1.3450091323352051 33.071134085376443 0 0 0 0 40.902437851387731 23.010154936103731 0 23.010154936103731 52.288976211293743 0 0 0 0 2.1028274691266233 1059.6836284652591 0 1059.6836284652591 3975.0062532784596 0 0 0 0 -118.13790114732183 315.22867311506366 0 315.22867311506366 3058.7032388604689 0 0 0 0 -47.240898168221861 821.87661044056767 0 821.87661044056767 3028.0300543268581 0 0 0 0 -235.67394784485259 831.92841888214821 0 831.92841888214821 3201.0628031741039 0 0 0 0 -103.11512042641516 1058.247710742015 0 1058.247710742015 3302.7398039778514 0 0 0 0 57.442378299113443 1129.2538194716954 0 1129.2538194716954 2389.6227941962193 0 0 0 0 411.3063600523019 205.56366469845216 0 205.56366469845216 1634.8579988429658 0 0 0 0 10.212689682550181 14.847790009527893 0 14.847790009527893 9.1423279250790817 0 0 0 0 -615.59049874854566 -377.1014144452588 0 -377.1014144452588 3482.6863946620915 0 0 0 0 245.04590931526582 626.13211250874042 0 626.13211250874042 1551.3510934782132 0 0 0 0 167.70701406051677 -498.89852214885468 0 -498.89852214885468 3500.4979946511062 0 0 0 0 -218.7257278545394 800.44834940816895 0 800.44834940816895 1920.9394311252058 0 0 0 0 -37.703662139912467 600.32038482782662 0 600.32038482782662 2120.6754950092391 0 0 0 0 102.38650356179232 733.74187017907104 0 733.74187017907104 2113.2537939866488 0 0 0 0 -757.51471932351603 -445.64423955959501 0 -445.64423955959501 3497.6289251912885 0 0 0 0 86.435075151695855 -137.06865114245602 0 -137.06865114245602 2274.536108237211 0 0 0 0 44.903647292611367 -203.89044877948049 0 -203.89044877948049 3721.08785586759 0 0 0 0 280.07508422033646 474.67816589318375 0 474.67816589318375 -78.533699460297157 0 0 0 0 7.9025885071106678 5.5559346571280006 0 5.5559346571280006 4.4925881538057126 0 0 0 0 196.70727232726222 656.89115732538312 0 656.89115732538312 4155.4326151032483 0 0 0 0 203.65875825491867 577.01123304222347 0 577.01123304222347 3177.7814372095986 0 0 0 0 -277.67655652772919 958.20668001404215 0 958.20668001404215 3237.4552984956917 0 0 0 0 186.21032309898601 1339.4854920117903 0 1339.4854920117903 2043.8368424841983 0 0 0 0 166.31485007515076 -499.94451024131155 0 -499.94451024131155 3499.8488808988786 0 0 0 0 373.6924553662077 728.95172005368886 0 728.95172005368886 517.18030649217485 0 0 0 0 195.59678570085543 -334.53672990310565 0 -334.53672990310565 24.747383240931867 0 0 0 0 -537.33187378241655 -66.235354470182187 0 -66.235354470182187 1101.4710652287683 0 0 0 0 6.1721365415059983 5.1372147951605296 0 5.1372147951605296 4.6257413889472341 0 0 0 0 392.65003738057794 165.26637486666732 0 165.26637486666732 -426.70466807536593 0 0 0 0 321.36915617302498 396.77400971385964 0 396.77400971385964 -8.3334383126232296 0 0 0 0 89.568796632267066 653.39074864251779 0 653.39074864251779 1685.059013449029 0 0 0 0 -644.55440161695572 454.68268488739568 0 454.68268488739568 3494.0405386169118 0 0 0 0 -249.64085951156517 1061.8842156745056 0 1061.8842156745056 2767.8344634119621 0 0 0 0 -54.034556215842258 111.16194913623258 0 111.16194913623258 3005.8929060247719 0 0 0 0 15.004850525193275 12.442377010324183 0 12.442377010324183 7.4373544900143962 0 0 0 0 145.74683455359354 220.81081818462371 0 220.81081818462371 1676.2805183519752 0 0 0 0 -190.59059005413837 235.58476144680935 0 235.58476144680935 2149.1965752721189 0 0 0 0 -233.38056050598644 -209.51271213899508 0 -209.51271213899508 2491.5632898122267 0 0 0 0 810.50384272730298 443.93825527648005 0 443.93825527648005 3502.144966755739 0 0 0 0 -246.70142933545975 -166.09726113880652 0 -166.09726113880652 4227.2451962457044 0 0 0 0 787.81394349371203 202.13682786422578 0 202.13682786422578 351.98465925147411 0 0 0 0 121.34149154446936 354.64303985563492 0 354.64303985563492 4738.0506418730338 0 0 0 0 7.491673433218585 5.5651783435773119 0 5.5651783435773119 5.3462760260316529 0 0 0 0 778.79625455040798 1231.8026043031437 0 1231.8026043031437 2829.2908758395643 0 0 0 0 1043.5935920356103 441.67073497255933 0 441.67073497255933 3061.7105242989273 0 0 0 0 1454.1470403334979 1231.809479949301 0 1231.809479949301 4029.3806506676947 0 0 0 0 341.9252879546417 385.34581307314329 0 385.34581307314329 2063.059824994154 0 0 0 0 843.93858798025258 361.99638889034395 0 361.99638889034395 1684.4685382551888 0 0 0 0 805.42107074505259 676.9774675826734 0 676.9774675826734 1300.2704688953709 0 0 0 0 -241.56243879858721 -325.50193492865765 0 -325.50193492865765 1357.5339204699276 0 0 0 0 249.87875878742875 318.4282998441995 0 318.4282998441995 1995.3598313241728 0 0 0 0 517.42521054786494 -42.524125637730322 0 -42.524125637730322 1199.4531184322266 0 0 0 0 423.26145005263123 815.33784777995061 0 815.33784777995061 2531.5341932398042 0 0 0 0 424.68199538026693 221.1044985486933 0 221.1044985486933 1637.9273798078138 0 0 0 0 545.95826309042036 435.71774815658046 0 435.71774815658046 1360.820772227833 0 0 0 0 569.68402761377456 175.05635477773285 0 175.05635477773285 845.44779366335206 0 0 0 0 1.3997945838001939 3.8740603836433145 0 3.8740603836433145 -1.5047426845502905 0 0 0 0 221.67802752383068 -297.07049489616111 0 -297.07049489616111 -686.9075422106298 0 0 0 0 42.927691793915074 131.23906394953065 0 131.23906394953065 -380.33035798242236 0 0 0 0 131.29904905924377 292.45373682373975 0 292.45373682373975 -311.89705580254304 0 0 0 0 200.36872147543363 405.23705206115847 0 405.23705206115847 -163.98310015487004 0 0 0 0 -111.72480701305722 279.10741519177918 0 279.10741519177918 -77.360788829741068 0 0 0 0 5.4947781330091789 15.433904105634902 0 15.433904105634902 0.95266767351912662 0 0 0 0 79.599289616484384 898.01889582800322 0 898.01889582800322 2829.8944579935969 0 0 0 0 420.36784308058259 759.37989775390088 0 759.37989775390088 2319.5250517354161 0 0 0 0 51.670991113070158 274.04521586431292 0 274.04521586431292 2015.9180080553942 0 0 0 0 -691.80604805135579 -272.42062855748281 0 -272.42062855748281 2730.1972527831367 0 0 0 0 -701.81706059422754 -343.10365707675146 0 -343.10365707675146 2240.0544450231064 0 0 0 0 -607.98941054410523 182.9072778970658 0 182.9072778970658 3499.5504247519402 0 0 0 0 95.881625493975577 527.81502021845336 0 527.81502021845336 2545.5756852663044 0 0 0 0 -478.08469876297397 138.02421331186679 0 138.02421331186679 2854.520112788241 0 0 0 0 -65.198507339824616 702.38158209228641 0 702.38158209228641 3499.1462135164102 0 0 0 0 344.21069898013189 327.96177411685585 0 327.96177411685585 1820.985674453992 0 0 0 0 433.44147530508582 497.92592555122428 0 497.92592555122428 1678.1846239627594 0 0 0 0 237.29513413341044 223.85717953865424 0 223.85717953865424 1457.420739254112 0 0 0 0 317.4756699884399 384.9957689280543 0 384.9957689280543 1219.8834520702367 0 0 0 0 202.7131558673891 168.86630766070812 0 168.86630766070812 987.63178953983697 0 0 0 0 -63.834844471545523 87.759735023205394 0 87.759735023205394 1782.2351563204957 0 0 0 0 -171.28806922269098 -101.18615398727343 0 -101.18615398727343 1344.604925886757 0 0 0 0 -80.675702088940255 184.30042007003249 0 184.30042007003249 1810.4476374335536 0 0 0 0 209.13912786194061 289.6519747534694 0 289.6519747534694 856.9651876496664 0 0 0 0 63.29571469187681 564.99194618594265 0 564.99194618594265 65.261687130583596 0 0 0 0 -552.00432297852876 -564.78216503321346 0 -564.78216503321346 592.51851211484609 0 0 0 0 -668.03087265333943 -488.18322843791157 0 -488.18322843791157 2138.5073576743507 0 0 0 0 -173.55530293852325 -70.374717493118624 0 -70.374717493118624 1190.1165035946433 0 0 0 0 2.3814187684138233 572.28132998831461 0 572.28132998831461 757.32500527491356 0 0 0 0 -308.37095049987943 309.39647345274989 0 309.39647345274989 765.71789232101946 0 0 0 0 915.24233732396874 1156.6388942965787 0 1156.6388942965787 821.5394402777265 0 0 0 0 -4.0503449006935126 1.2817400191714867 0 1.2817400191714867 5.9597935314928918 0 0 0 0 17.659546925572727 374.85268958964934 0 374.85268958964934 1106.6767230782825 0 0 0 0 15.419345857858843 179.89068803624468 0 179.89068803624468 137.34220579925932 0 0 0 0 -681.70723843401402 -363.76453933972516 0 -363.76453933972516 249.73019107467189 0 0 0 0 -99.199485451847039 368.34191312864095 0 368.34191312864095 893.41149787603808 0 0 0 0 327.28617936634896 143.40591860841869 0 143.40591860841869 436.4689979596842 0 0 0 0 301.43520196418035 105.19063109196759 0 105.19063109196759 734.32388251697557 0 0 0 0 196.8521454440006 361.42847577526663 0 361.42847577526663 458.7626266305258 0 0 0 0 245.06160152208668 222.37241217238397 0 222.37241217238397 605.3817520138291 0 0 0 0 171.17050622236539 395.43193633280134 0 395.43193633280134 631.02293033495698 0 0 0 0 -7.8329290479803149 5.8139711133677281 0 5.8139711133677281 -3.0905211879938648 0 0 0 0 172.57540702141424 419.85755875274299 0 419.85755875274299 509.13739173135991 0 0 0 0 58.873133176511118 212.17733545235023 0 212.17733545235023 529.1746862231339 0 0 0 0 -17.407541371519926 256.91410194782293 0 256.91410194782293 522.06144775592111 0 0 0 0 -80.585543680802402 322.42292838668436 0 322.42292838668436 446.03868762260208 0 0 0 0 31.440950496639744 276.87105599589268 0 276.87105599589268 528.4041594093469 0 0 0 0 -156.31707976901441 36.107799505791718 0 36.107799505791718 283.70749304306446 0 0 0 0 -8.119829734333301 1.2038428810515143 0 1.2038428810515143 12.759841634615242 0 0 0 0 758.62685286756096 50.487126407704636 0 50.487126407704636 330.34433576414449 0 0 0 0 1244.4912198348084 -481.3113540831946 0 -481.3113540831946 755.52468756675626 0 0 0 0 931.69749246879837 527.0915992078626 0 527.0915992078626 617.10195348790512 0 0 0 0 -336.65226932151927 -106.58276387976002 0 -106.58276387976002 678.10651003237217 0 0 0 0 -38.193581585550419 425.92601708637085 0 425.92601708637085 408.85858057949736 0 0 0 0 239.59337528397828 144.85617895663745 0 144.85617895663745 431.27131557850589 0 0 0 0 74.793051702857156 269.08870965051983 0 269.08870965051983 19.586413765809993 0 0 0 0 -22.062390646497079 425.97622684163434 0 425.97622684163434 125.31696316501439 0 0 0 0 28.167221337424053 342.5338053455198 0 342.5338053455198 -52.284708438355665 0 0 0 0 5.1741526306457217 309.69859652762261 0 309.69859652762261 22.786358482739161 0 0 0 0 478.93933748663471 -185.1275636269902 0 -185.1275636269902 203.25161991066489 0 0 0 0 225.87291944307708 472.98928892627737 0 472.98928892627737 239.93652533607747 0 0 0 0 406.90672078649777 194.87184603237802 0 194.87184603237802 377.0250643701329 0 0 0 0 717.46293907384279 245.94966275041952 0 245.94966275041952 -340.51911688703694 0 0 0 0 399.34468259223195 186.89925372547987 0 186.89925372547987 716.07260664714704 0 0 0 0 303.05784677444944 172.41987166660692 0 172.41987166660692 852.67389208479199 0 0 0 0 286.70434375448076 85.911536570605676 0 85.911536570605676 864.58797590898757 0 0 0 0 270.61918786905153 192.31056432388141 0 192.31056432388141 518.00557716841649 0 0 0 0 369.89835700211825 88.124467343534889 0 88.124467343534889 569.22383326730051 0 0 0 0 445.33351588704863 -84.831571324830293 0 -84.831571324830293 484.79047695556255 0 0 0 0 507.26061062371264 -284.86859968845056 0 -284.86859968845056 963.13187717161054 0 0 0 0 268.59657743554999 65.92945603818589 0 65.92945603818589 951.88286280584452 0 0 0 0 392.3965075809574 -309.61797968099927 0 -309.61797968099927 1764.9232315528825 0 0 0 0 21.471229278002966 168.26585094592815 0 168.26585094592815 1670.6102966713261 0 0 0 0 5.5572893254086502 -5.5483812176619658 0 -5.5483812176619658 8.1607652396436094 0 0 0 0 1.428682511517358 1.2859251367666307 0 1.2859251367666307 0.1742470914736316 0 0 0 0 342.02444403438062 604.49659803292207 0 604.49659803292207 650.22458087875202 0 0 0 0 265.71059458439254 61.535924646026615 0 61.535924646026615 952.511709346305 0 0 0 0 188.28662393826608 383.02245389222298 0 383.02245389222298 577.99284494310314 0 0 0 0 -9.4949669145912914 7.2044157744713075 0 7.2044157744713075 -0.92438907537614057 0 0 0 0 271.49462169297612 305.40439488210541 0 305.40439488210541 549.89249260308497 0 0 0 0 -14.600154673939869 -7.5363709061530244 0 -7.5363709061530244 10.357637492190406 0 0 0 0 30.275671363173387 28.769571506185457 0 28.769571506185457 35.872559590552555 0 0 0 0 -2.5965431730502897 -8.5828678218505754 0 -8.5828678218505754 44.826320319991829 0 0 0 0 -90.887004465008204 74.056567996516605 0 74.056567996516605 75.90997595157387 0 0 0 0 375.03630644303848 -21.344269762509612 0 -21.344269762509612 -11.185687713785228 0 0 0 0 322.88438721031889 -242.64244048994624 0 -242.64244048994624 -139.70650369298482 0 0 0 0 695.01123476788416 -177.73308318766794 0 -177.73308318766794 -166.66138650012545 0 0 0 0 546.57436060194959 127.5125437608167 0 127.5125437608167 86.455142791106482 0 0 0 0 1055.9435222853172 203.97038099400561 0 203.97038099400561 65.914369328575049 0 0 0 0 426.21990779566931 -217.86721167949509 0 -217.86721167949509 101.46979200924034 0 0 0 0 1116.2057765279039 -580.89771782015589 0 -580.89771782015589 292.13182323248475 0 0 0 0 145.04276142588606 -201.60327703343683 0 -201.60327703343683 1724.4077526851179 0 0 0 0 127.64336315972378 -40.262321609367064 0 -40.262321609367064 346.45971710058802 0 0 0 0 -131.49437071325519 -347.21789528258159 0 -347.21789528258159 692.4698526765078 0 0 0 0 -179.65809414038995 -148.09608051660689 0 -148.09608051660689 -129.27421600668822 0 0 0 0 -582.06145855686452 -294.62398892183273 0 -294.62398892183273 149.86484141340043 0 0 0 0 477.09768601134533 -325.8920255224034 0 -325.8920255224034 -146.64787098258239 0 0 0 0 34.285491656473823 -349.69852676015216 0 -349.69852676015216 -57.325190255089183 0 0 0 0 350.16891566416052 -324.28023209324419 0 -324.28023209324419 -249.98484876219663 0 0 0 0 19.860687818230872 -277.65476788856358 0 -277.65476788856358 -398.00377036551072 0 0 0 0 -145.84427341078754 -688.70865054380556 0 -688.70865054380556 -346.29920817913376 0 0 0 0 2.6506855471980906 -1.3486688253403294 0 -1.3486688253403294 -2.4365225244684652 0 0 0 0 -57.051276250638239 -447.83804010945187 0 -447.83804010945187 15.062228404654888 0 0 0 0 119.20750950252841 -303.41133463458937 0 -303.41133463458937 117.31879792096515 0 0 0 0 457.53327068519138 -99.681377456922746 0 -99.681377456922746 -34.286902182651829 0 0 0 0 117.92773928626136 -234.61698332686672 0 -234.61698332686672 16.426408374951279 0 0 0 0 -15.149586180194092 -199.63800081507543 0 -199.63800081507543 152.06599639132946 0 0 0 0 15.626597725618012 -262.1226044001055 0 -262.1226044001055 278.77819446880585 0 0 0 0 71.93802273917504 -354.06778886295069 0 -354.06778886295069 397.21856792650942 0 0 0 0 59.977926336196106 -296.87827777983239 0 -296.87827777983239 124.04474413114986 0 0 0 0 217.27042443112805 -465.49869538982421 0 -465.49869538982421 481.03624518669312 0 0 0 0 111.07524354660018 15.321814775708845 0 15.321814775708845 709.62057969021498 0 0 0 0 -8.170473748200493 -209.67532938196609 0 -209.67532938196609 289.30569525015926 0 0 0 0 287.71113101501214 33.759848625789346 0 33.759848625789346 76.481644259897621 0 0 0 0 345.67800920834452 -218.56505879829274 0 -218.56505879829274 -219.49078965589979 0 0 0 0 -101.39456707177715 8.5848771575606406 0 8.5848771575606406 116.11803708030311 0 0 0 0 -338.30548177311357 108.42239680972853 0 108.42239680972853 70.810980844182268 0 0 0 0 4.3538109632957003 75.464062370378088 0 75.464062370378088 38.642339821890346 0 0 0 0 -4.2718017494353484 -3.2811163033797612 0 -3.2811163033797612 97.182483547656773 0 0 0 0 -447.07039323095887 -8.7371659777518289 0 -8.7371659777518289 231.52338767015226 0 0 0 0 -152.76472151598773 -299.57490806307305 0 -299.57490806307305 -121.97126870523061 0 0 0 0 -501.01182000093831 -110.16537529318521 0 -110.16537529318521 -168.13963893141226 0 0 0 0 267.10660916360393 -335.323721849094 0 -335.323721849094 -279.03325941757475 0 0 0 0 -75.360413766796228 -155.34972357465404 0 -155.34972357465404 -21.899981692282381 0 0 0 0 66.839499324136796 -17.33786393774426 0 -17.33786393774426 -11.791121778160232 0 0 0 0 54.208683558862504 12.363863542414038 0 12.363863542414038 13.553834188191104 0 0 0 0 44.602938604524979 12.431096168451404 0 12.431096168451404 29.753451202901488 0 0 0 0 -11.255077078502609 -2.9029516023456381 0 -2.9029516023456381 90.040580499353382 0 0 0 0 -61.140235202974395 3.4345107923854812 0 3.4345107923854812 -120.82454898396827 0 0 0 0 -20.868864951829437 -69.11513674757407 0 -69.11513674757407 9.3432743074654354 0 0 0 0 -56.74539455480798 -150.14297228024145 0 -150.14297228024145 -13.512696481375315 0 0 0 0 -45.698926907871879 51.546061599940003 0 51.546061599940003 239.59884485304212 0 0 0 0 -1.1607896073086503 -0.62971707877424166 0 -0.62971707877424166 3.5238081948673994 0 0 0 0 -3.604961606618386 -5.1086868055020211 0 -5.1086868055020211 71.615709508136774 0 0 0 0 -60.382317291611798 -90.198195284059693 0 -90.198195284059693 25.111197949350753 0 0 0 0 -58.420117929102247 -137.171041529165 0 -137.171041529165 190.91154162921885 0 0 0 0 108.13125807488575 99.431329794241265 0 99.431329794241265 3.2863855356772547 0 0 0 0 -23.762747221167899 8.8995980011750362 0 8.8995980011750362 161.85102540808293 0 0 0 0 -20.63731959879614 -43.157644004562826 0 -43.157644004562826 244.63025645291054 0 0 0 0 70.97119622984053 -63.427734409744062 0 -63.427734409744062 135.39401005324908 0 0 0 0 -17.64652070226316 32.977721371058578 0 32.977721371058578 177.91176440379604 0 0 0 0 -30.122039564279021 22.699097170672303 0 22.699097170672303 170.70733704412487 0 0 0 0 -25.860030370451966 118.28136073616486 0 118.28136073616486 270.45428629141315 0 0 0 0 -7.5014962105875824 3.4537608926349392 0 3.4537608926349392 -0.027663768514770481 0 0 0 0 -39.916639347836451 74.520275840362956 0 74.520275840362956 121.0384117172689 0 0 0 0 21.985058862870346 91.419516604995124 0 91.419516604995124 337.02606667388682 0 0 0 0 34.671554761963762 17.603286401394143 0 17.603286401394143 114.50402222452431 0 0 0 0 -2.5637462090021472 142.61673465388776 0 142.61673465388776 521.71047788523174 0 0 0 0 49.715662097468112 217.75438523755292 0 217.75438523755292 606.51230972022677 0 0 0 0 47.44289855218085 364.30402590269841 0 364.30402590269841 672.76755877048708 0 0 0 0 -3.9100604344012098 0.66343662876775511 0 0.66343662876775511 1.3912439741380282 0 0 0 0 28.826607408120253 8.5662100957179064 0 8.5662100957179064 155.81207415045355 0 0 0 0 48.83381303400347 -96.940608083434199 0 -96.940608083434199 -55.731375041850697 0 0 0 0 52.375307600098949 -68.925180399950477 0 -68.925180399950477 99.875428232793638 0 0 0 0 44.466267103443442 -80.529397454824903 0 -80.529397454824903 195.74881985795946 0 0 0 0 -0.93362795745058169 -1.8996799706539562 0 -1.8996799706539562 5.9564425322142114 0 0 0 0 -102.61806629876321 -87.091956350112014 0 -87.091956350112014 27.153955797482013 0 0 0 0 -70.833352671974581 67.094860791961764 0 67.094860791961764 104.43997853855399 0 0 0 0 -41.368332657115559 -39.919495882410047 0 -39.919495882410047 -20.963205041394758 0 0 0 0 -124.8835692655025 -133.83842823210671 0 -133.83842823210671 51.006219613733265 0 0 0 0 -66.503095388692373 86.503464422570687 0 86.503464422570687 202.61693156863475 0 0 0 0 -81.150911295584706 40.856566327208839 0 40.856566327208839 333.24246674949973 0 0 0 0 -1.1080607948519301 -0.82197031479410043 0 -0.82197031479410043 3.8402618181039401 0 0 0 0 62.611125156430404 -201.63507180268971 0 -201.63507180268971 188.55970518582762 0 0 0 0 -0.4346460266710892 -98.182212013365643 0 -98.182212013365643 371.58369021914768 0 0 0 0 -12.599346098211299 15.629744630241476 0 15.629744630241476 242.12725824888548 0 0 0 0 -115.26728981680253 5.1628167107191985 0 5.1628167107191985 285.5880321587174 0 0 0 0 -118.51105186924678 15.148462908553483 0 15.148462908553483 255.13495465030428 0 0 0 0 -34.847637766723892 -234.70294925056078 0 -234.70294925056078 33.25887860203693 0 0 0 0 -28.604089932141051 -196.8839624767279 0 -196.8839624767279 248.46457906778232 0 0 0 0 44.812455295329073 -4.3063502028890071 0 -4.3063502028890071 263.32097337251253 0 0 0 0 -38.394899242881365 -105.63828209491112 0 -105.63828209491112 337.79904339078348 0 0 0 0 -37.449320927286749 -9.2486455841035422 0 -9.2486455841035422 238.12266382473172 0 0 0 0 -25.916199994640351 -57.560046387781313 0 -57.560046387781313 249.66078836894303 0 0 0 0 -48.294352953173586 -107.31415129500874 0 -107.31415129500874 171.58983319134131 0 0 0 0 -19.895464775433084 -42.453684022794732 0 -42.453684022794732 53.18893661841139 0 0 0 0 -43.89600052221067 -107.6262217034091 0 -107.6262217034091 39.178261030079739 0 0 0 0 -26.069293552593535 6.6186995617172215 0 6.6186995617172215 15.539192250878841 0 0 0 0 -75.982423485776962 -27.707724045569194 0 -27.707724045569194 146.15372408785333 0 0 0 0 10.319163753035355 -24.581447775337438 0 -24.581447775337438 -89.086568785482086 0 0 0 0 3.7282477968073842 -7.9424102258040747 0 -7.9424102258040747 -18.655925314819434 0 0 0 0 -45.04622438247452 -60.452274155540181 0 -60.452274155540181 -15.811663669064728 0 0 0 0 10.831195435576774 -141.73402145584623 0 -141.73402145584623 -154.33116345736744 0 0 0 0 8.5251757166518942 -49.659867024175696 0 -49.659867024175696 26.98225228982702 0 0 0 0 97.327678792436018 -20.808201004574585 0 -20.808201004574585 -242.69578163471488 0 0 0 0 -106.99188353241152 -139.12629229882077 0 -139.12629229882077 20.519177007394319 0 0 0 0 197.53514111335426 -209.33034092054004 0 -209.33034092054004 -208.56438260096184 0 0 0 0 -99.073861712043708 -125.77048751096663 0 -125.77048751096663 -102.75895972175022 0 0 0 0 -0.64530722962601628 -35.788226545617363 0 -35.788226545617363 33.418810205447286 0 0 0 0 -25.888637613269722 -29.355266447120542 0 -29.355266447120542 95.195480252690331 0 0 0 0 -77.887065185411899 -54.103585768907578 0 -54.103585768907578 32.840141727196169 0 0 0 0 -157.5992026923654 -274.75251813554132 0 -274.75251813554132 39.478412445329013 0 0 0 0 -80.952956193714584 31.68902677443964 0 31.68902677443964 271.10258726277971 0 0 0 0 -163.71869693026224 -192.63285318414069 0 -192.63285318414069 257.32947173585126 0 0 0 0 -42.269948761336401 -128.73583503770897 0 -128.73583503770897 173.50941060150217 0 0 0 0 44.634163291297682 23.789247276654351 0 23.789247276654351 -114.77371768080047 0 0 0 0 1.47955533063329 -9.2138442046798161 0 -9.2138442046798161 -13.682241046722524 0 0 0 0 13.089370961733033 -17.335629789613627 0 -17.335629789613627 7.3334840316488297 0 0 0 0 19.082630623186105 -145.35832624631257 0 -145.35832624631257 36.111611458662082 0 0 0 0 -9.5077886745484648 -53.253288590034572 0 -53.253288590034572 -41.42822069248723 0 0 0 0 -10.051908045495111 -59.079391426701477 0 -59.079391426701477 -45.244669819088813 0 0 0 0 -4.2061193819286196 -42.757839150890781 0 -42.757839150890781 25.341116915871584 0 0 0 0 -1.3325445400623721 -66.408126159074527 0 -66.408126159074527 -39.222762844594399 0 0 0 0 0.40199215607028194 -8.1481429126342171 0 -8.1481429126342171 3.3765054022526044 0 0 0 0 -52.583569887549857 210.90560763069971 0 210.90560763069971 201.17506505557685 0 0 0 0 -61.375849005160489 -56.458969188196534 0 -56.458969188196534 -54.663733137555482 0 0 0 0 -24.562774780383734 130.32383828971888 0 130.32383828971888 270.97144706901236 0 0 0 0 -13.054903945626837 -40.606017915656764 0 -40.606017915656764 45.485823626491744 0 0 0 0 3.1014911332135853 74.436611794472583 0 74.436611794472583 176.89991963539796 0 0 0 0 3.3420865635162045 81.061484194359764 0 81.061484194359764 328.69466193594053 0 0 0 0 -65.584464295785892 145.76562986917725 0 145.76562986917725 459.28460067168339 0 0 0 0 -53.946619883303356 174.39591257108805 0 174.39591257108805 279.42622313553966 0 0 0 0 15.343587012768694 -147.57875749011373 0 -147.57875749011373 423.73598066765817 0 0 0 0 -13.333230043839194 21.741971794663755 0 21.741971794663755 243.57017302792883 0 0 0 0 5.1112290929877418 -57.978854492577739 0 -57.978854492577739 175.30500947088876 0 0 0 0 67.82639689930329 76.788932922210734 0 76.788932922210734 81.519550114158847 0 0 0 0 -35.174673308607453 12.041503731401463 0 12.041503731401463 411.90020036809801 0 0 0 0 186.94624401983492 -30.371963279501415 0 -30.371963279501415 101.95319091310785 0 0 0 0 12.617550717036973 -38.224650270129906 0 -38.224650270129906 15.13429228203713 0 0 0 0 -80.711703556900829 5.82718006855157 0 5.82718006855157 188.32753884830299 0 0 0 0 -6.6337440440208155 -0.064243908219401291 0 -0.064243908219401291 11.860025963965226 0 0 0 0 47.341860315873419 -85.488028325685718 0 -85.488028325685718 -22.510555188678609 0 0 0 0 -101.05690916010553 -92.970434896613369 0 -92.970434896613369 176.12175065459542 0 0 0 0 -222.76515478668625 -177.58922339066521 0 -177.58922339066521 -87.068009118700047 0 0 0 0 -2.1891470798676949 -0.23572453943213212 0 -0.23572453943213212 0.0067903916789315844 0 0 0 0 -294.14170321365782 90.699535010848194 0 90.699535010848194 494.79839915949105 0 0 0 0 72.592488162305926 -24.495120418837359 0 -24.495120418837359 218.06027805765564 0 0 0 0 -165.75896727279724 173.82278682010315 0 173.82278682010315 396.30410425370974 0 0 0 0 -70.55826196088401 62.837562986434932 0 62.837562986434932 209.21878475792437 0 0 0 0 -117.91193467099583 168.84184896605348 0 168.84184896605348 343.90794099100003 0 0 0 0 -158.59215955741729 222.7821671928491 0 222.7821671928491 277.1667765689881 0 0 0 0 -118.72925364572438 287.83318932063776 0 287.83318932063776 380.58900680814583 0 0 0 0 58.378256691240658 354.39565259616694 0 354.39565259616694 131.64863516052537 0 0 0 0 -86.900077690033868 166.01695378059321 0 166.01695378059321 379.30185938083088 0 0 0 0 -226.09908942859875 261.31353355523083 0 261.31353355523083 410.04745501520028 0 0 0 0 -438.76059097449161 85.647446454818692 0 85.647446454818692 355.13761048841127 0 0 0 0 -310.19126832531765 -95.567045184149265 0 -95.567045184149265 275.47321707571996 0 0 0 0 -503.39540422132615 -169.82104599774578 0 -169.82104599774578 280.46231830928446 0 0 0 0 -504.53286696558263 -94.353375541654131 0 -94.353375541654131 417.27071258000069 0 0 0 0 -347.30959121783235 -299.11656630844391 0 -299.11656630844391 128.76853089391079 0 0 0 0 -546.53104182391689 -319.05307209891453 0 -319.05307209891453 336.676205237874 0 0 0 0 148.28775089174633 -553.89974710450679 0 -553.89974710450679 679.5481316804985 0 0 0 0 -205.77138451562223 162.00200530236543 0 162.00200530236543 905.3513070156373 0 0 0 0 -277.50745657220887 -46.352885175271695 0 -46.352885175271695 81.199187959414303 0 0 0 0 -358.09322005551439 -286.16377861894944 0 -286.16377861894944 141.4603580397179 0 0 0 0 -116.00154229630061 -144.05212524791204 0 -144.05212524791204 -353.97344630778753 0 0 0 0 130.8739251505076 -500.59937314947092 0 -500.59937314947092 -150.66005736280749 0 0 0 0 401.40386945298724 -206.72869354826116 0 -206.72869354826116 -256.04304716543209 0 0 0 0 -447.60748738404891 -393.84307979509458 0 -393.84307979509458 -31.618673840391239 0 0 0 0 -146.18786110162557 -289.2603861512639 0 -289.2603861512639 -274.77725631391149 0 0 0 0 -595.61983917926045 -213.53737914053545 0 -213.53737914053545 199.14542564105705 0 0 0 0 -501.71583315432144 -95.875690410410243 0 -95.875690410410243 -113.10636358361808 0 0 0 0 -1388.569098007767 -493.16984197768397 0 -493.16984197768397 -40.41662812058803 0 0 0 0 -723.07035053964773 -508.31730109866021 0 -508.31730109866021 -410.08848972937994 0 0 0 0 -464.52605897102876 -121.19229736420129 0 -121.19229736420129 -110.41157006329922 0 0 0 0 -1083.7910237657234 -236.47301529121069 0 -236.47301529121069 -73.248858781780655 0 0 0 0 -471.55831742839291 -445.46881498373295 0 -445.46881498373295 -227.18273625814618 0 0 0 0 -1197.7937918443458 -568.90565080113515 0 -568.90565080113515 -116.4299748398189 0 0 0 0 -15.828049619183119 6.0264422490940373 0 6.0264422490940373 26.598805081021609 0 0 0 0 -2.5392022962070429 -25.683555916456214 0 -25.683555916456214 7.2029057625402011 0 0 0 0 176.00493092023953 51.667155847102549 0 51.667155847102549 -35.415010447519307 0 0 0 0 198.0155512306645 -114.21548834366286 0 -114.21548834366286 121.16599884185416 0 0 0 0 6.8838342304566211 -42.283806067338176 0 -42.283806067338176 82.477458760175224 0 0 0 0 39.036575381715011 -455.20634697742935 0 -455.20634697742935 718.36476641125046 0 0 0 0 -30.307487381936426 -76.84814338355136 0 -76.84814338355136 406.84138272142445 0 0 0 0 -59.402386171394198 -6.9411247156913305 0 -6.9411247156913305 193.45397875082563 0 0 0 0 -40.428513593690241 -28.689929132291581 0 -28.689929132291581 213.46895035461421 0 0 0 0 -50.350773262164694 65.80404882079165 0 65.80404882079165 307.71521936543286 0 0 0 0 -49.491581476465285 75.818820616481389 0 75.818820616481389 243.86030256426602 0 0 0 0 4.2700552159633318 -42.967927196085824 0 -42.967927196085824 87.879729776560779 0 0 0 0 0.80437975917113391 -8.6666210716917647 0 -8.6666210716917647 -7.4781079824407186 0 0 0 0 -104.01809904218089 46.800655050385103 0 46.800655050385103 298.22093394328112 0 0 0 0 -57.027918564167521 52.584144101823767 0 52.584144101823767 217.8041782418004 0 0 0 0 -158.08795207172443 12.049672576831654 0 12.049672576831654 -381.33170352666639 0 0 0 0 -140.99127707867956 -122.32730626255625 0 -122.32730626255625 165.20238470098002 0 0 0 0 -391.47331911385663 -42.96254051717824 0 -42.96254051717824 416.35669306083309 0 0 0 0 -115.1041245175802 -37.880986879616103 0 -37.880986879616103 113.23081573778745 0 0 0 0 -208.0873521392823 -120.33907902535975 0 -120.33907902535975 41.306039692010017 0 0 0 0 -2.1300563440836413 3.1181019756040769 0 3.1181019756040769 155.62702298756994 0 0 0 0 -14.370338593255838 -27.708000313385128 0 -27.708000313385128 212.9231806668904 0 0 0 0 -11.976252921449486 -21.619864684857021 0 -21.619864684857021 184.94656832354303 0 0 0 0 39.94298402760387 -13.238584141703541 0 -13.238584141703541 107.02677144823247 0 0 0 0 40.49499345829372 -83.490870931535028 0 -83.490870931535028 147.82294326380361 0 0 0 0 10.924389788737244 -45.201514342879818 0 -45.201514342879818 162.98868904969277 0 0 0 0 4.7111527320204765 9.0071716300647893 0 9.0071716300647893 17.193913851638513 0 0 0 0 -7.0996409527806463 91.467990496229504 0 91.467990496229504 -25.356946754443925 0 0 0 0 16.088676489653153 -20.877958585493616 0 -20.877958585493616 105.44401027221465 0 0 0 0 29.21284605629171 -32.291257857570599 0 -32.291257857570599 28.487374397795065 0 0 0 0 12.558443820743378 -26.318190458739991 0 -26.318190458739991 95.6813366512215 0 0 0 0 12.973626508103735 -13.460225025348336 0 -13.460225025348336 105.06523842056049 0 0 0 0 4.507485800908853 -25.407445438371724 0 -25.407445438371724 127.13735859555891 0 0 0 0 15.620849495115181 -13.977396290138131 0 -13.977396290138131 72.763524620262615 0 0 0 0 22.018408331634419 -5.977911248592136 0 -5.977911248592136 41.510796653092257 0 0 0 0 12.76354037864985 -1.5442313709572772 0 -1.5442313709572772 87.924050325280405 0 0 0 0 10.077410114609847 -8.7888474153114657 0 -8.7888474153114657 95.81139454912045 0 0 0 0 11.201001704087503 -0.68360965577448951 0 -0.68360965577448951 97.489719011602574 0 0 0 0 18.586398443972939 -8.0213393832891597 0 -8.0213393832891597 72.291246544660908 0 0 0 0 9.6764549643130522 7.4464556277598604 0 7.4464556277598604 125.89242040910904 0 0 0 0 17.992480896277812 1.5235032220298308 0 1.5235032220298308 96.130906272808716 0 0 0 0 12.463978329842575 -16.257253932344611 0 -16.257253932344611 74.057173522705853 0 0 0 0 18.653749672797858 -9.993760449513502 0 -9.993760449513502 79.384770715463674 0 0 0 0 11.181085835462909 -3.5975457114036544 0 -3.5975457114036544 75.846497679885942 0 0 0 0 15.298618667882693 -8.8092784258769825 0 -8.8092784258769825 79.921939351719629 0 0 0 0 21.977257235575962 2.6150498097922537 0 2.6150498097922537 92.835654247799539 0 0 0 0 15.398034578814986 -1.9151843375657336 0 -1.9151843375657336 102.75214734521433 0 0 0 0 22.755721706926977 -10.700800557342063 0 -10.700800557342063 78.621421534946421 0 0 0 0 27.654484829995454 -1.0317193825030699 0 -1.0317193825030699 88.942304418516869 0 0 0 0 29.548426563864268 3.5753797169472818 0 3.5753797169472818 84.23250411778281 0 0 0 0 50.639626463766035 25.914742206638039 0 25.914742206638039 96.79812381483498 0 0 0 0 22.791027992219597 16.784807273297702 0 16.784807273297702 123.04847610973229 0 0 0 0 34.3412889833794 33.977867600302488 0 33.977867600302488 116.87758438340097 0 0 0 0 29.301899483730722 25.660738216720347 0 25.660738216720347 105.4826589320146 0 0 0 0 59.670530209349636 60.661916922603268 0 60.661916922603268 122.67068072809343 0 0 0 0 -3.3615985409815039 -2.8959656908700708 0 -2.8959656908700708 144.43409453375352 0 0 0 0 -2.7514896523052812 41.154990942490258 0 41.154990942490258 153.18507411050814 0 0 0 0 -3.530113137940134 39.465898626705894 0 39.465898626705894 191.17847804610938 0 0 0 0 -41.435904812673471 42.922342972884508 0 42.922342972884508 203.90666578928358 0 0 0 0 -24.330209323817144 86.903663796776527 0 86.903663796776527 197.08606840175344 0 0 0 0 -23.361936858230365 79.602765205345349 0 79.602765205345349 240.11884914447728 0 0 0 0 53.42325832314873 87.740111940482166 0 87.740111940482166 152.35201676482393 0 0 0 0 30.089160697702027 63.495785642917326 0 63.495785642917326 127.34196090217301 0 0 0 0 25.2202211345666 83.424870735834702 0 83.424870735834702 186.93657377557247 0 0 0 0 22.54676895781131 142.78202190618867 0 142.78202190618867 253.14816124444769 0 0 0 0 68.384750155495567 135.55809127464454 0 135.55809127464454 166.27193551795062 0 0 0 0 49.122320922878316 116.3848468606393 0 116.3848468606393 154.74364375961886 0 0 0 0 -58.510634561184816 91.873662541747763 0 91.873662541747763 284.15180159503689 0 0 0 0 123.29225066578692 223.19082513583271 0 223.19082513583271 232.43811213628942 0 0 0 0 -36.113609719320948 154.84762762021091 0 154.84762762021091 410.29688295780215 0 0 0 0 -28.125397588504711 162.41429032600354 0 162.41429032600354 296.41819009184837 0 0 0 0 -52.128842528522 75.499402772638859 0 75.499402772638859 246.47854495152569 0 0 0 0 -59.910842422247697 77.622092422829155 0 77.622092422829155 253.63531115792648 0 0 0 0 -30.014015324401043 92.012029223285936 0 92.012029223285936 235.54075583929807 0 0 0 0 -59.898627527712833 68.34606462726785 0 68.34606462726785 270.90750121015299 0 0 0 0 -73.383506880614732 52.142397422361682 0 52.142397422361682 258.32630707948192 0 0 0 0 -40.894032600013247 33.831784054723812 0 33.831784054723812 268.30831288309855 0 0 0 0 7.4723098394842964 -111.8153856766512 0 -111.8153856766512 310.95516112820042 0 0 0 0 -77.59867711153413 41.665019543756443 0 41.665019543756443 430.76766295940615 0 0 0 0 -34.681318711018321 138.97781059448971 0 138.97781059448971 260.80647678443347 0 0 0 0 -25.398892905185676 67.63727872857271 0 67.63727872857271 158.33882278799501 0 0 0 0 581.75458448462905 217.59742055406241 0 217.59742055406241 2.2384008152964725 0 0 0 0 129.26307971884034 -351.84115119048784 0 -351.84115119048784 276.72313747664157 0 0 0 0 -38.807068550758231 167.34277251747972 0 167.34277251747972 704.30267477100278 0 0 0 0 121.81082090149175 -263.52090395965934 0 -263.52090395965934 542.9417760524193 0 0 0 0 23.59254962142677 -218.35119492425656 0 -218.35119492425656 -209.75067404770743 0 0 0 0 -76.094736951812592 -67.085813502031669 0 -67.085813502031669 85.687537844882172 0 0 0 0 -155.6572645646811 -25.788436679609731 0 -25.788436679609731 29.623363961934956 0 0 0 0 74.482782364751984 189.0478959241882 0 189.0478959241882 491.97350138607908 0 0 0 0 -97.0077761368334 -8.1401697282090026 0 -8.1401697282090026 274.73957510382752 0 0 0 0 -57.571972481781813 -88.472799950322951 0 -88.472799950322951 139.20794910813856 0 0 0 0 -30.241839409626664 -55.185978844492638 0 -55.185978844492638 85.131110021485824 0 0 0 0 -16.064583665403916 -42.140397810921058 0 -42.140397810921058 197.73170569001013 0 0 0 0 121.18059169879598 104.18878782556203 0 104.18878782556203 273.33718267094213 0 0 0 0 258.56739031768484 54.755199817396715 0 54.755199817396715 124.95899648066552 0 0 0 0 232.96037116998014 33.601226317707187 0 33.601226317707187 124.21274090488282 0 0 0 0 121.62361502737167 -23.10788895044243 0 -23.10788895044243 198.03350867468328 0 0 0 0 2.3124056459630111 3.4513544271630572 0 3.4513544271630572 6.3090840391791829 0 0 0 0 340.04235964464715 81.511829460578156 0 81.511829460578156 -22.01612977392324 0 0 0 0 410.42706569689744 291.94595910496173 0 291.94595910496173 83.480816288625647 0 0 0 0 -47.538532459284397 -24.990497945656898 0 -24.990497945656898 210.90987278721877 0 0 0 0 2.4235488998466721 0.66972564025297743 0 0.66972564025297743 -0.87754292940186929 0 0 0 0 267.85102694968805 110.71836875990584 0 110.71836875990584 -247.21526200017979 0 0 0 0 230.23153583945623 -129.3314193635415 0 -129.3314193635415 -209.87961620551869 0 0 0 0 244.38577539365065 76.779717260087637 0 76.779717260087637 -13.791131289435725 0 0 0 0 312.54952787163438 -82.209517909137503 0 -82.209517909137503 -38.140978998766514 0 0 0 0 231.35318491986436 -49.280827552594928 0 -49.280827552594928 31.130055805217125 0 0 0 0 302.59763554337951 -229.81207978200837 0 -229.81207978200837 237.90310691910418 0 0 0 0 315.42096399495313 -127.69308500444095 0 -127.69308500444095 -6.6470549441310141 0 0 0 0 -183.20268065327946 67.80523241339688 0 67.80523241339688 -51.423039625904494 0 0 0 0 388.51042780244097 -70.761024127888049 0 -70.761024127888049 -130.52411484293407 0 0 0 0 221.02545017370858 -256.11518290878394 0 -256.11518290878394 340.93523479382566 0 0 0 0 277.76521880451764 -105.03760462883656 0 -105.03760462883656 120.36583727753532 0 0 0 0 157.29296829852092 -33.19983012058583 0 -33.19983012058583 101.23006118820194 0 0 0 0 259.11957288209214 -65.60447615952944 0 -65.60447615952944 72.239913553185033 0 0 0 0 65.495659024300494 -100.0926491649243 0 -100.0926491649243 327.0883471133493 0 0 0 0 223.71351859122842 -254.57786015769489 0 -254.57786015769489 447.27591524144009 0 0 0 0 273.42893369545595 -101.45630466684406 0 -101.45630466684406 402.04299906435335 0 0 0 0 -3.4672929758022164 -0.37110280614754032 0 -0.37110280614754032 7.0958885830038128 0 0 0 0 -498.63205089902203 -790.11234821833386 0 -790.11234821833386 -113.77387007416837 0 0 0 0 223.22524695803986 695.057961650793 0 695.057961650793 1313.7094894964193 0 0 0 0 -44.525989395115175 192.47479906886747 0 192.47479906886747 630.36102780187139 0 0 0 0 263.03291715023806 -287.60683073645487 0 -287.60683073645487 332.04493722971165 0 0 0 0 361.19805106225067 -619.62101206272382 0 -619.62101206272382 845.89893891192696 0 0 0 0 140.34081196944135 -215.62487361422609 0 -215.62487361422609 828.51947547255577 0 0 0 0 -322.08616619727309 -231.15221325217863 0 -231.15221325217863 1107.9841343755106 0 0 0 0 72.317451337134116 -280.94842005422834 0 -280.94842005422834 835.37401514239991 0 0 0 0 154.00192438978229 -416.94470600244676 0 -416.94470600244676 1217.8944161871295 0 0 0 0 72.525486938107179 -288.61226084702344 0 -288.61226084702344 1112.0042386582791 0 0 0 0 6.1606100155131571 -373.87126598924442 0 -373.87126598924442 3392.3033690659868 0 0 0 0 1354.1637312394068 -1370.9193175435139 0 -1370.9193175435139 1046.0405548791332 0 0 0 0 -214.68300633156559 459.18903510222663 0 459.18903510222663 1910.1491061588822 0 0 0 0 1122.6767386648135 350.82195318698359 0 350.82195318698359 507.47858781983996 0 0 0 0 -371.48971388202699 -43.615938726121385 0 -43.615938726121385 426.38342109973746 0 0 0 0 -505.22067718462199 64.106386733856425 0 64.106386733856425 29.662940042791888 0 0 0 0 -332.14867122574833 859.92740414501168 0 859.92740414501168 -588.03591952457282 0 0 0 0 265.74093834468067 -449.89414163130914 0 -449.89414163130914 -144.22975133178988 0 0 0 0 122.54089336177276 362.45054326632089 0 362.45054326632089 -631.25252350783921 0 0 0 0 -101.30219857948214 861.76054079781534 0 861.76054079781534 -1395.3664756467479 0 0 0 0 -6.3105884138593211 0.97672737967619838 0 0.97672737967619838 4.5777719428218617 0 0 0 0 181.75383045404851 -98.795083848450304 0 -98.795083848450304 631.46325063145559 0 0 0 0 724.28763642702233 -339.14922375622336 0 -339.14922375622336 72.768335442371608 0 0 0 0 210.03271588927964 -82.421356081325939 0 -82.421356081325939 146.03483120479996 0 0 0 0 8.1910602037751232 366.20415403796142 0 366.20415403796142 -274.04376188781043 0 0 0 0 -63.720975719890703 221.18994215136263 0 221.18994215136263 -253.89142986747538 0 0 0 0 396.13996554392452 119.9040314831982 0 119.9040314831982 -533.6691741100949 0 0 0 0 -461.07879039380168 461.59035923632837 0 461.59035923632837 -352.40707653318896 0 0 0 0 3.4250065233316249 10.774661540094115 0 10.774661540094115 12.09481988887741 0 0 0 0 7.2955696511899077 12.306842299240088 0 12.306842299240088 28.40589710023778 0 0 0 0 1.4030905248932157 32.329648927320079 0 32.329648927320079 28.068612710623711 0 0 0 0 8.3189533237373343 14.554032686398152 0 14.554032686398152 21.764054516296028 0 0 0 0 1.7841817198323042 13.425192505685118 0 13.425192505685118 35.542494773311773 0 0 0 0 3.8927278437240602 17.228738472018449 0 17.228738472018449 41.291181392865838 0 0 0 0 18.443845402631268 5.519271125929663 0 5.519271125929663 40.089237152467831 0 0 0 0 13.154628746251547 6.6364120894650114 0 6.6364120894650114 50.675338514367468 0 0 0 0 30.397384663030607 17.452562396400026 0 17.452562396400026 5.6026301566453185 0 0 0 0 -67.452327085460638 -10.196279085746937 0 -10.196279085746937 104.10984347845078 0 0 0 0 -0.45314605433999589 1.9642403093837473 0 1.9642403093837473 5.8446758670942245 0 0 0 0 -1.7350360088657908 5.7425640508336073 0 5.7425640508336073 56.953667825444427 0 0 0 0 0.57435206868387922 -11.19875475285744 0 -11.19875475285744 66.786594043616788 0 0 0 0 8.7918349833371394 -9.7596016535171657 0 -9.7596016535171657 66.374677519030229 0 0 0 0 14.120732785758264 -9.4322470370461815 0 -9.4322470370461815 64.032715303743316 0 0 0 0 6.675267131309738 0.90267084645165596 0 0.90267084645165596 72.576589850415758 0 0 0 0 15.209357186973193 -1.6369533786364627 0 -1.6369533786364627 51.852372962181107 0 0 0 0 9.5143261364974023 8.2660922253926401 0 8.2660922253926401 59.885340825741878 0 0 0 0 9.7704240349939937 16.261734861935111 0 16.261734861935111 31.779249708837597 0 0 0 0 0.71695353001268813 8.4914117280350183 0 8.4914117280350183 51.474209441410494 0 0 0 0 10.337971292524344 4.7243669742729253 0 4.7243669742729253 37.432263735179731 0 0 0 0 -11.146816053950715 9.177392083023733 0 9.177392083023733 38.443434043994785 0 0 0 0 1.8850192063965885 11.920585433828833 0 11.920585433828833 19.731085567848453 0 0 0 0 -1.702510252391221 28.411662156835519 0 28.411662156835519 19.492901905581675 0 0 0 0 1.1935470419176681 14.364619685216894 0 14.364619685216894 6.2267256385894143 0 0 0 0 3.4991387979716819 -4.0010776809795061 0 -4.0010776809795061 49.989906589988095 0 0 0 0 -6.0672947325965652 12.344227939483972 0 12.344227939483972 48.958127205888104 0 0 0 0 -2.8566053526121777 0.76788920770741242 0 0.76788920770741242 25.339270223033964 0 0 0 0 5.5525347806196805 10.006067859838367 0 10.006067859838367 15.350498347150278 0 0 0 0 -10.393108433352381 30.738578253919513 0 30.738578253919513 3.3187329342254088 0 0 0 0 -1.1530810207857733 8.1139572193845666 0 8.1139572193845666 11.541235280418135 0 0 0 0 -18.339784130414955 18.558172853168799 0 18.558172853168799 22.293244228945696 0 0 0 0 4.3945820070493937 20.462236136092542 0 20.462236136092542 2.1930061910388758 0 0 0 0 -10.645801211263915 7.0462321736304148 0 7.0462321736304148 28.457406089626602 0 0 0 0 -96.086073761790658 266.47555073499643 0 266.47555073499643 -665.093719822602 0 0 0 0 -6.3870887734775987 14.160209847044129 0 14.160209847044129 15.385671854972145 0 0 0 0 -113.74600129578357 363.62809420625126 0 363.62809420625126 -853.42451526899822 0 0 0 0 -929.79591605212772 1138.3445014953249 0 1138.3445014953249 -1100.4857474349556 0 0 0 0 0.83071266781108477 1.5035038993890417 0 1.5035038993890417 -3.8108732719504275 0 0 0 0 -227.23834281370273 661.64313372388096 0 661.64313372388096 -359.83361665972188 0 0 0 0 -419.12692818903088 223.69618746403648 0 223.69618746403648 594.69207131631265 0 0 0 0 -601.99757896906567 567.59768888298458 0 567.59768888298458 423.45157163144177 0 0 0 0 -147.53546779443423 81.840706480405061 0 81.840706480405061 300.21898290073659 0 0 0 0 -314.60258352063266 -50.71352305338587 0 -50.71352305338587 68.789129077762482 0 0 0 0 -2.0928969477899386 -19.725928014660894 0 -19.725928014660894 59.579631459822849 0 0 0 0 -290.8853940167304 131.39511568527087 0 131.39511568527087 159.19432758281982 0 0 0 0 -118.05616230688406 150.84779516472372 0 150.84779516472372 1472.8117803053465 0 0 0 0 56.317431011327926 767.54086086316147 0 767.54086086316147 3521.4046059718676 0 0 0 0 1028.8395006652127 -741.99707531605782 0 -741.99707531605782 1028.6868534678069 0 0 0 0 139.61737631311735 -1041.7036416507835 0 -1041.7036416507835 2594.8436539359282 0 0 0 0 -85.241184247134697 -1000.7596240146122 0 -1000.7596240146122 -241.59905456973502 0 0 0 0 9.8968837505448892 -5.8817931681131483 0 -5.8817931681131483 5.4694418894769825 0 0 0 0 -58.450451623662389 -1405.364721385479 0 -1405.364721385479 2380.0463566965991 0 0 0 0 614.84650070033422 1411.1633634087157 0 1411.1633634087157 3122.4068290006289 0 0 0 0 222.20426686664723 -738.49483330683506 0 -738.49483330683506 -355.53192099311855 0 0 0 0 13.389303913872602 -9.40771808403845 0 -9.40771808403845 9.1862531048208922 0 0 0 0 -541.99647612178683 -223.80946440449179 0 -223.80946440449179 741.09904015704524 0 0 0 0 456.38472320851542 270.64051638618912 0 270.64051638618912 702.30313582404415 0 0 0 0 258.62540171927321 -1354.6229811747216 0 -1354.6229811747216 2249.6599070669618 0 0 0 0 40.217205056787861 -167.95864725885622 0 -167.95864725885622 244.80465377453947 0 0 0 0 -45.58116218973737 676.54841816802582 0 676.54841816802582 -237.25843150107721 0 0 0 0 -465.10069412491794 303.73459740136968 0 303.73459740136968 552.13800111850105 0 0 0 0 -455.43134146963348 240.16635504797887 0 240.16635504797887 88.413493800580909 0 0 0 0 -93.146595689205242 -75.822728873054075 0 -75.822728873054075 272.60225858092599 0 0 0 0 -120.40122883145273 -1.215883397716425 0 -1.215883397716425 99.594811618797394 0 0 0 0 14.666933861005418 97.432190888061086 0 97.432190888061086 199.02796082830537 0 0 0 0 -53.938447995683681 35.6137520429739 0 35.6137520429739 72.965660870698613 0 0 0 0 -164.87605242185225 -103.48554072769957 0 -103.48554072769957 239.00764865172096 0 0 0 0 277.44621024108801 -160.91498505833442 0 -160.91498505833442 -360.45715612762433 0 0 0 0 -104.1778223748579 11.135473975242348 0 11.135473975242348 -64.655109758490653 0 0 0 0 313.32025831343526 -220.16522090607759 0 -220.16522090607759 -3.5003416950785322 0 0 0 0 102.8362885105289 3.4644151807660819 0 3.4644151807660819 210.08879915186117 0 0 0 0 551.74014359104876 -504.79340231019887 0 -504.79340231019887 567.61209090875855 0 0 0 0 47.433990807278406 -178.45661831357575 0 -178.45661831357575 1591.223936722803 0 0 0 0 239.48407246882653 173.9265170201179 0 173.9265170201179 413.10845611312106 0 0 0 0 -185.95271122683334 286.77727610471266 0 286.77727610471266 520.74469465175571 0 0 0 0 -7.2919591530744423 -0.37246285567494652 0 -0.37246285567494652 13.867494881163736 0 0 0 0 47.608352682000486 345.87993123070328 0 345.87993123070328 720.29418124474978 0 0 0 0 -656.93983934032985 -168.52412943270429 0 -168.52412943270429 407.29381681665109 0 0 0 0 -478.90043208931775 275.46670953771218 0 275.46670953771218 745.95483359214995 0 0 0 0 -143.4460417785358 192.89147706895164 0 192.89147706895164 638.35614306051139 0 0 0 0 -322.41223276027449 448.72888187665012 0 448.72888187665012 824.22585017914389 0 0 0 0 -152.90333540999563 245.4032016383062 0 245.4032016383062 1148.4447673227969 0 0 0 0 669.81615799249084 375.14684844087787 0 375.14684844087787 209.08991029265235 0 0 0 0 192.57398699011355 687.95572500267008 0 687.95572500267008 841.43905307940258 0 0 0 0 61.10764078448301 -221.91192803457307 0 -221.91192803457307 795.60980396174273 0 0 0 0 496.88175125914677 432.86725848086644 0 432.86725848086644 822.5947668590743 0 0 0 0 265.88788731968089 560.21240713934822 0 560.21240713934822 1322.7640502659233 0 0 0 0 122.97569104838749 109.57320970893579 0 109.57320970893579 1750.3313377833329 0 0 0 0 244.1944213441875 570.50504840981193 0 570.50504840981193 1370.9076455058603 0 0 0 0 208.35593847695236 499.46300607180819 0 499.46300607180819 1377.8565941419643 0 0 0 0 -540.35126828645889 -254.95441319668134 0 -254.95441319668134 77.818715836081537 0 0 0 0 17.025176043146736 -32.000604324980685 0 -32.000604324980685 42.30993154807787 0 0 0 0 160.43064811537624 555.56769493684988 0 555.56769493684988 1634.1800841781078 0 0 0 0 366.45284469045509 649.39420204497947 0 649.39420204497947 1401.3113172803132 0 0 0 0 -3.444913991948038 1.9514797589150277 0 1.9514797589150277 9.7749004175658882 0 0 0 0 -66.1431265495237 26.08109552428175 0 26.08109552428175 70.013442091088706 0 0 0 0 -61.581322902357442 82.427934895205908 0 82.427934895205908 68.646765126173705 0 0 0 0 -94.865723297195473 67.850975052939248 0 67.850975052939248 183.35839143979865 0 0 0 0 -101.19882036968147 73.627269409384098 0 73.627269409384098 255.69378173647419 0 0 0 0 -0.37436714587681763 106.05362097253055 0 106.05362097253055 120.17907151522741 0 0 0 0 -38.855854810954625 28.469591588954472 0 28.469591588954472 -3.4818741164857983 0 0 0 0 -73.192832565963016 52.703541535469867 0 52.703541535469867 94.383162660262315 0 0 0 0 -284.80890280711083 217.60368744677726 0 217.60368744677726 471.05802077775843 0 0 0 0 30.081092502505726 407.47409213183528 0 407.47409213183528 538.72518448327901 0 0 0 0 -1.5566517488334739 107.53569009361286 0 107.53569009361286 165.80838028837752 0 0 0 0 28.100446593033581 104.30479620098231 0 104.30479620098231 165.14792077348193 0 0 0 0 -19.37279783469431 15.269827982260821 0 15.269827982260821 -11.933550887809076 0 0 0 0 -1251.041749569009 -216.53647619567346 0 -216.53647619567346 505.50657250004099 0 0 0 0 -202.66099742953429 324.74444318273345 0 324.74444318273345 531.72539247412328 0 0 0 0 -8.2375910814103293 4.6491118049968563 0 4.6491118049968563 -2.0377749968865189 0 0 0 0 -302.56975449211376 341.57267939002895 0 341.57267939002895 677.21922854879813 0 0 0 0 -365.70927950357441 347.11807630309795 0 347.11807630309795 676.81251818210512 0 0 0 0 -244.97598615103652 -349.79141711978991 0 -349.79141711978991 1213.7936612203011 0 0 0 0 -984.60519381977201 115.26007954067609 0 115.26007954067609 1201.8945135607019 0 0 0 0 62.922235435062362 150.8772296215775 0 150.8772296215775 227.43584370272765 0 0 0 0 -288.70098452664138 325.71664828517351 0 325.71664828517351 261.24473787259194 0 0 0 0 -384.11772240439007 -46.347252411675072 0 -46.347252411675072 976.30205752851543 0 0 0 0 66.402972560220178 -136.4277190932371 0 -136.4277190932371 773.86835147296733 0 0 0 0 40.352337073040005 92.658996888552906 0 92.658996888552906 304.92645238861951 0 0 0 0 -30.200187773407151 -112.24366427656241 0 -112.24366427656241 656.26507819927428 0 0 0 0 -31.128994497832082 50.743535287070699 0 50.743535287070699 281.94584790066983 0 0 0 0 -28.049680268573638 135.72427391062502 0 135.72427391062502 250.01915443603502 0 0 0 0 -91.710524313640917 129.42239966317447 0 129.42239966317447 236.99044207185943 0 0 0 0 -248.8976332437378 102.51600083039011 0 102.51600083039011 261.88198652368555 0 0 0 0 -217.90965243842129 6.1336742365747341 0 6.1336742365747341 344.16551897677346 0 0 0 0 -8.6385111173349287 -16.9181180447722 0 -16.9181180447722 194.00365251177209 0 0 0 0 -564.11798962705871 -356.23056788212671 0 -356.23056788212671 358.87357035818786 0 0 0 0 -165.03923747266163 45.540009387908867 0 45.540009387908867 277.37672489804754 0 0 0 0 492.40708409437252 -609.58793901295212 0 -609.58793901295212 -722.65902003597876 0 0 0 0 -579.22929644534725 341.67440715943121 0 341.67440715943121 3496.6479016230769 0 0 0 0 8.0716646719240828 -7.3163569962201862 0 -7.3163569962201862 7.1526738944643142 0 0 0 0 -38.764379645869326 -563.4473161319911 0 -563.4473161319911 4923.1414664658078 0 0 0 0 853.44014699257821 -1661.127888587243 0 -1661.127888587243 1469.9454061138495 0 0 0 0 1385.805693975276 -1688.6415047043592 0 -1688.6415047043592 3501.5554159617277 0 0 0 0 110.06683996402522 -356.70926683107064 0 -356.70926683107064 317.51485811245038 0 0 0 0 153.33481019234591 -931.06880214193325 0 -931.06880214193325 1793.7931063258366 0 0 0 0 -406.30998977662261 -1384.2086834819893 0 -1384.2086834819893 3451.1511591136041 0 0 0 0 -606.77092900259765 -781.63133325608669 0 -781.63133325608669 2028.6927124620124 0 0 0 0 -832.97799979180843 -786.24974908710465 0 -786.24974908710465 3498.404576338985 0 0 0 0 1157.9139229519706 -519.40611929041916 0 -519.40611929041916 1279.6944041688985 0 0 0 0 110.64049759359273 867.74589616360026 0 867.74589616360026 229.15215487376008 0 0 0 0 21.28184227015986 -42.133608309378729 0 -42.133608309378729 59.566949682018084 0 0 0 0 -385.87463366803718 -163.27960260565669 0 -163.27960260565669 1670.4228251762324 0 0 0 0 -184.68322989320751 -745.99828072461241 0 -745.99828072461241 883.20907981550408 0 0 0 0 0.5740411838953442 2.5263933375476846 0 2.5263933375476846 8.4258744845286628 0 0 0 0 83.410220562112954 296.82533500760837 0 296.82533500760837 -521.71165062699038 0 0 0 0 -34.821799008957896 -91.602975916779542 0 -91.602975916779542 172.86924848455965 0 0 0 0 -46.058039530526003 -67.492951971420553 0 -67.492951971420553 176.55260519706644 0 0 0 0 -43.48572248023001 32.123223927393084 0 32.123223927393084 80.326805424731745 0 0 0 0 -30.559196794118179 -107.61526766996758 0 -107.61526766996758 200.02943273322308 0 0 0 0 -55.319100381677799 -77.480368047211414 0 -77.480368047211414 205.2882355803813 0 0 0 0 -0.15884406276060326 -0.63107423842183241 0 -0.63107423842183241 2.1512905227601777 0 0 0 0 27.069232504401953 -192.36157181709859 0 -192.36157181709859 333.73126441599561 0 0 0 0 296.68710357752389 -186.73752944849912 0 -186.73752944849912 105.32246436424612 0 0 0 0 -222.35844321264722 9.4709305736569149 0 9.4709305736569149 329.91122889161124 0 0 0 0 -432.32768272985868 139.13078409150512 0 139.13078409150512 250.2909597972648 0 0 0 0 -439.40716072442319 -158.02585293684388 0 -158.02585293684388 197.60174707614351 0 0 0 0 4.776311331827559 -13.034442352553739 0 -13.034442352553739 4.6448141725489336 0 0 0 0 -369.98908228245364 -99.80486656965877 0 -99.80486656965877 -55.932055417346419 0 0 0 0 -191.09174285169365 23.899235768077233 0 23.899235768077233 63.575011146836914 0 0 0 0 115.97168148255332 -48.239040867241783 0 -48.239040867241783 0.61309234824875602 0 0 0 0 16.212447754423373 -31.942680421537574 0 -31.942680421537574 37.977593185185896 0 0 0 0 44.054942156579273 -69.775502880993372 0 -69.775502880993372 -5.8362164517366182 0 0 0 0 201.00106545835678 267.38092387588767 0 267.38092387588767 387.66842170646487 0 0 0 0 -377.44255238344749 -497.30476984509824 0 -497.30476984509824 -111.22513206507574 0 0 0 0 13.992044743442268 -15.903719874156572 0 -15.903719874156572 21.15486741908218 0 0 0 0 632.82127716674609 -737.2170210376571 0 -737.2170210376571 854.91978666010982 0 0 0 0 3.3771005276655659 -2.2898281529945428 0 -2.2898281529945428 16.878903406961768 0 0 0 0 -179.46003686851029 740.61891039772308 0 740.61891039772308 3494.2751088372734 0 0 0 0 1486.6160028353113 1138.5322203830335 0 1138.5322203830335 864.23129611728655 0 0 0 0 -350.41072822584368 42.143646650531991 0 42.143646650531991 663.83040162657562 0 0 0 0 80.742814831302169 971.18520754093538 0 971.18520754093538 460.22710636124975 0 0 0 0 0.2117683678087019 -647.33379664943095 0 -647.33379664943095 201.79439278270002 0 0 0 0 -374.53713624466036 983.77097124027023 0 983.77097124027023 979.18716078090074 0 0 0 0 -884.94592415513569 -548.9574414656272 0 -548.9574414656272 3494.0053021302374 0 0 0 0 -0.44008695182348678 2.2023524829057308 0 2.2023524829057308 8.8498783009893884 0 0 0 0 -538.45412059882824 410.78139075468061 0 410.78139075468061 3491.0592011431359 0 0 0 0 -183.67145887379954 -543.12341157011542 0 -543.12341157011542 3501.762251617627 0 0 0 0 -305.84982459861095 -51.278408439617124 0 -51.278408439617124 1765.1565722475716 0 0 0 0 301.997030655706 -348.51868118942366 0 -348.51868118942366 1546.6587299876701 0 0 0 0 -2.5647321967849916 18.91589986971033 0 18.91589986971033 26.567665566474119 0 0 0 0 185.51034434196566 -470.32425998140388 0 -470.32425998140388 1573.3041641113086 0 0 0 0 279.31898800734149 -310.98668822566287 0 -310.98668822566287 571.0759722599978 0 0 0 0 -11.081059870373679 11.568818666918304 0 11.568818666918304 38.04132884287273 0 0 0 0 -282.41292623240844 -184.53298001411258 0 -184.53298001411258 559.66346305094339 0 0 0 0 -586.22443522412595 248.79389816188996 0 248.79389816188996 1649.5287142197558 0 0 0 0 -390.63826457021241 -310.98802036582492 0 -310.98802036582492 99.890189552912489 0 0 0 0 412.43325089442931 -62.715420065207582 0 -62.715420065207582 281.81067104894464 0 0 0 0 -275.03159072600647 -290.33999560114535 0 -290.33999560114535 -341.62008875123138 0 0 0 0 -0.26070590220101764 -1.2017013618147416 0 -1.2017013618147416 18.400559878583437 0 0 0 0 122.95229107988075 -249.52675938738139 0 -249.52675938738139 -191.23327513449476 0 0 0 0 -907.27364501370221 -22.478278845217574 0 -22.478278845217574 287.56601797851181 0 0 0 0 132.76304266914667 -538.76181596879178 0 -538.76181596879178 -1314.214665922269 0 0 0 0 -3.4168480444724985 -1.1152134729559293 0 -1.1152134729559293 0.6007011812305656 0 0 0 0 -5.277310628570004 -12.287287632690862 0 -12.287287632690862 3.8200620647538344 0 0 0 0 -113.69784526596203 -142.24563446102547 0 -142.24563446102547 1002.3311417515069 0 0 0 0 -135.17655938963094 -127.12740468633638 0 -127.12740468633638 -20.169217730837772 0 0 0 0 -472.43918608094998 73.807371018163394 0 73.807371018163394 1581.362359886054 0 0 0 0 1.7897903774469341 -366.14881359930587 0 -366.14881359930587 -561.26015411771732 0 0 0 0 -103.74552419398151 -172.2651992892097 0 -172.2651992892097 -212.96894433162379 0 0 0 0 -7.7239489934094214 -7.8610421650303834 0 -7.8610421650303834 2.8518442547932281 0 0 0 0 129.73260750525822 -23.721222678588674 0 -23.721222678588674 686.09199697183067 0 0 0 0 -62.872524992764966 1536.1286858228486 0 1536.1286858228486 -35.512758589582518 0 0 0 0 57.37999686091473 -109.18057742960082 0 -109.18057742960082 -1.0771238830275252 0 0 0 0 -582.3185794566366 -181.19679495814489 0 -181.19679495814489 655.99471732136954 0 0 0 0 -406.96949251596675 802.49822138055606 0 802.49822138055606 7.5349042737470882 0 0 0 0 584.16101534696895 -1225.9642341474537 0 -1225.9642341474537 1922.0917949201157 0 0 0 0 1.0896812344672622 7.5816322049917915 0 7.5816322049917915 13.6637863346009 0 0 0 0 511.26607911290483 -1438.7600230244921 0 -1438.7600230244921 3496.6629115745309 0 0 0 0 -450.61898092972137 1110.4748874626894 0 1110.4748874626894 3490.3790554179927 0 0 0 0 -483.56672482782466 216.19270701376718 0 216.19270701376718 1810.6069402984867 0 0 0 0 -550.70777760950045 42.468303464543169 0 42.468303464543169 1857.0706780601759 0 0 0 0 166.73242046932955 322.40818368372857 0 322.40818368372857 973.75132821250554 0 0 0 0 -781.54407322743975 -245.65173720239181 0 -245.65173720239181 3501.2568522703396 0 0 0 0 -516.25296600683987 -499.3171579940481 0 -499.3171579940481 1890.5751789229835 0 0 0 0 234.63828348885912 -381.32088664075491 0 -381.32088664075491 186.61900265006989 0 0 0 0 -496.93526324170136 -335.94214990045657 0 -335.94214990045657 1785.3829806724825 0 0 0 0 -193.34937726720386 -330.87515545566566 0 -330.87515545566566 1507.7720044525704 0 0 0 0 -219.02809277907971 -516.87624233457973 0 -516.87624233457973 685.82657774796826 0 0 0 0 71.091441899589199 -99.726551105450199 0 -99.726551105450199 599.31476430926068 0 0 0 0 4.8390925101665978 -1.6042102461852892 0 -1.6042102461852892 2.763281353503924 0 0 0 0 -186.62020483798307 -117.86773415063362 0 -117.86773415063362 -40.724972333227925 0 0 0 0 -4.2480979277286686 -5.4363154512963092 0 -5.4363154512963092 3.9393050445133326 0 0 0 0 387.70140430214133 -835.4492915788469 0 -835.4492915788469 406.52511349084671 0 0 0 0 -26.918652503576965 -154.61743853912412 0 -154.61743853912412 786.04213170596631 0 0 0 0 57.194674117820711 -110.64799790412508 0 -110.64799790412508 632.10397910223401 0 0 0 0 48.88927481770785 -204.67347742307766 0 -204.67347742307766 534.79854291124502 0 0 0 0 0.12507135064408592 -15.463219124737932 0 -15.463219124737932 4.9786534111339691 0 0 0 0 -40.389263712911927 -36.417999387999544 0 -36.417999387999544 65.909478194436815 0 0 0 0 -43.859471572272696 -12.502915129265602 0 -12.502915129265602 44.005866242411685 0 0 0 0 173.53699196667407 -372.18716806326483 0 -372.18716806326483 984.84504239332455 0 0 0 0 199.11949376704752 -359.25123012511904 0 -359.25123012511904 836.1219282225502 0 0 0 0 -4.1857439583516785 2.3280535366024964 0 2.3280535366024964 13.794586270479272 0 0 0 0 399.96180560224389 -551.50740388703707 0 -551.50740388703707 1015.3323727047537 0 0 0 0 256.408005515112 -927.90902469839784 0 -927.90902469839784 1530.2406878676338 0 0 0 0 -2.6047742668533047 1.0948450481867695 0 1.0948450481867695 4.7796539306985721 0 0 0 0 264.14217583527011 -576.5635417723006 0 -576.5635417723006 1168.1392338148289 0 0 0 0 253.05560664738482 -565.65936638718631 0 -565.65936638718631 1210.7264952276364 0 0 0 0 119.04728513881719 -10.974516315509391 0 -10.974516315509391 97.78206900900841 0 0 0 0 2.4152654890857219 -0.39301267126177208 0 -0.39301267126177208 0.9452189712238166 0 0 0 0 -75.650514703463159 -108.5432178247429 0 -108.5432178247429 604.49270073063235 0 0 0 0 275.88480466348568 -180.79496390494387 0 -180.79496390494387 261.25152900091052 0 0 0 0 245.51294424685659 -200.47601731310351 0 -200.47601731310351 533.04178732635773 0 0 0 0 22.13017278105815 -130.11631040291104 0 -130.11631040291104 532.69994361642102 0 0 0 0 58.082028835365932 -9.8132085831489348 0 -9.8132085831489348 157.41950174778322 0 0 0 0 4.4043995362801525 166.33927189983297 0 166.33927189983297 438.32796728692483 0 0 0 0 139.59262802594026 157.51820124743244 0 157.51820124743244 146.89431940267968 0 0 0 0 -18.501151153441242 2.0648086221299309 0 2.0648086221299309 196.38870909775142 0 0 0 0 3.7874134955307799 2.7172485843874608 0 2.7172485843874608 1.6920516153374763 0 0 0 0 137.67966408612278 -307.26118769298773 0 -307.26118769298773 785.73584899830166 0 0 0 0 53.294458486608619 -392.01028524652065 0 -392.01028524652065 1236.2742705883065 0 0 0 0 134.72993914464018 -384.02255567873544 0 -384.02255567873544 786.01688925037888 0 0 0 0 98.618408767972028 -377.67252948931491 0 -377.67252948931491 985.96418087946586 0 0 0 0 45.355589194705999 -111.14987903788278 0 -111.14987903788278 648.33510472167109 0 0 0 0 19.926367473035043 -267.42283467867674 0 -267.42283467867674 405.29281858292961 0 0 0 0 56.35584554936986 -305.26615448861776 0 -305.26615448861776 800.58083743645693 0 0 0 0 29.342182061860967 -48.659860545889387 0 -48.659860545889387 429.00222036701598 0 0 0 0 -87.537540357244097 -159.32819353737796 0 -159.32819353737796 1019.6437050334862 0 0 0 0 56.757139896781837 -137.40134020192818 0 -137.40134020192818 577.2908062197821 0 0 0 0 -71.749891644809395 -42.896541059904848 0 -42.896541059904848 741.14686790155247 0 0 0 0 -125.26449487288482 -276.14474208030151 0 -276.14474208030151 1025.7472277003094 0 0 0 0 -80.062766500877387 -430.33728702943699 0 -430.33728702943699 1424.5174022575884 0 0 0 0 -163.81034943038503 -256.82839501099079 0 -256.82839501099079 1271.4929492113806 0 0 0 0 -76.069898512144391 -214.47849605618467 0 -214.47849605618467 1067.9213195172997 0 0 0 0 215.07939463510411 -39.827772977856512 0 -39.827772977856512 1211.1114737546741 0 0 0 0 -70.011039756758237 -77.69810761187955 0 -77.69810761187955 1288.0977710633451 0 0 0 0 -34.21653907511336 316.8929692604579 0 316.8929692604579 994.84854523593458 0 0 0 0 37.534783043031894 92.764206587380613 0 92.764206587380613 16.405557070989744 0 0 0 0 2.7321046171229666 -0.18744197487738745 0 -0.18744197487738745 8.1496664783484363 0 0 0 0 48.538820437313007 -54.441020970094542 0 -54.441020970094542 556.34388276439859 0 0 0 0 9.2913950301499426 -156.37899857031152 0 -156.37899857031152 1767.491506477978 0 0 0 0 -49.55938061191523 -53.350002328825212 0 -53.350002328825212 1416.0410783363914 0 0 0 0 -61.050989460535675 93.581955742083665 0 93.581955742083665 1662.0407873151999 0 0 0 0 -28.813257680326842 103.12515614058793 0 103.12515614058793 1434.3655447166275 0 0 0 0 1.2067984777950187 59.638267640137201 0 59.638267640137201 1450.6822956712258 0 0 0 0 21.054651442841319 -21.405551825859391 0 -21.405551825859391 19.514273168602983 0 0 0 0 -107.38445611021689 48.167781443306012 0 48.167781443306012 1457.100739936257 0 0 0 0 -97.181430103888033 100.89130367733378 0 100.89130367733378 1561.2846096428402 0 0 0 0 -165.96127418209562 -178.33398553973166 0 -178.33398553973166 1649.2264860590149 0 0 0 0 -122.71077161650601 -300.48577660816591 0 -300.48577660816591 1120.6654877546462 0 0 0 0 2.1007987242337549 -10.147249056535657 0 -10.147249056535657 1378.871964271435 0 0 0 0 -98.871476123698358 -133.80177864859797 0 -133.80177864859797 905.56781905778189 0 0 0 0 164.42183825564291 -361.65903275492201 0 -361.65903275492201 919.10395266340493 0 0 0 0 -51.024469117049648 -271.90241157523087 0 -271.90241157523087 908.19555127705098 0 0 0 0 -71.639583994508484 66.643066573564283 0 66.643066573564283 185.41504648436967 0 0 0 0 -119.59977343169248 -382.85936270318052 0 -382.85936270318052 -358.82424473739593 0 0 0 0 -98.384009297197181 -276.03318150591679 0 -276.03318150591679 812.41439226738294 0 0 0 0 2.798286221822714 -0.75130923780142211 0 -0.75130923780142211 -2.6534199000018788 0 0 0 0 -167.41749674963006 -543.81905456836375 0 -543.81905456836375 209.96760944066773 0 0 0 0 -414.23031803303911 130.84852079542543 0 130.84852079542543 14.371133089778596 0 0 0 0 -201.58060488589331 -372.52706614670751 0 -372.52706614670751 1011.6779901896225 0 0 0 0 -436.55627329719982 -24.727111144889932 0 -24.727111144889932 593.86891527942498 0 0 0 0 4.0598580807347542 -57.30692209622066 0 -57.30692209622066 98.844897913302702 0 0 0 0 1.4679666258820276 -33.638595482581877 0 -33.638595482581877 126.97883103784261 0 0 0 0 6.4016543122759408 -70.933798506765015 0 -70.933798506765015 93.262927665127791 0 0 0 0 -52.574904123915559 -61.900341084045067 0 -61.900341084045067 101.54829248887108 0 0 0 0 12.135775023594988 -7.5795374436638667 0 -7.5795374436638667 116.23657063854625 0 0 0 0 0.046553646111355429 -57.224206930877699 0 -57.224206930877699 159.16939187158277 0 0 0 0 -22.133326011173494 -19.93333134266868 0 -19.93333134266868 248.01987071904296 0 0 0 0 -0.4478054487380374 -0.15790749806436111 0 -0.15790749806436111 -1.4763619449382297 0 0 0 0 39.970924359769356 -31.58925883739721 0 -31.58925883739721 26.144247337564593 0 0 0 0 -240.86124111162442 145.14839845885217 0 145.14839845885217 3496.406245713184 0 0 0 0 0.14110488816003475 -147.0565290270315 0 -147.0565290270315 147.93351262704527 0 0 0 0 -75.57964459302093 -22.056085892254487 0 -22.056085892254487 276.89224374442711 0 0 0 0 1.5521043754787243 55.035938223609293 0 55.035938223609293 3365.8176367720516 0 0 0 0 1.2365300740530241 4.7333543172144346 0 4.7333543172144346 2.8893151419309415 0 0 0 0 -34.720455495038209 120.53787056551664 0 120.53787056551664 162.72302604645665 0 0 0 0 -10.028340547166408 -8.0047722763411002 0 -8.0047722763411002 159.62359978281711 0 0 0 0 -36.960544994484678 -31.311681474115176 0 -31.311681474115176 146.38839050250044 0 0 0 0 40.666259097108195 -64.192758293344923 0 -64.192758293344923 109.25874281411234 0 0 0 0 -2.4410926291092725 -2.5698119336451555 0 -2.5698119336451555 17.20079914827399 0 0 0 0 3.8325769566771641 9.9114023641971585 0 9.9114023641971585 10.522261964818194 0 0 0 0 442.335391460658 1105.0530524680653 0 1105.0530524680653 2512.8387606253309 0 0 0 0 533.59940899140054 18.303076128497196 0 18.303076128497196 10.334443909407128 0 0 0 0 4.9654707704185066 1.2796119876515348 0 1.2796119876515348 4.45930707622108 0 0 0 0 5.5145489503692602 0.077864942250016611 0 0.077864942250016611 3479.2992736770539 0 0 0 0 4.9435015523675929 -1.4225298932418582 0 -1.4225298932418582 3.8695248749805273 0 0 0 0 2.0194763407998835 3.0943319145662826 0 3.0943319145662826 14.278550810064189 0 0 0 0 10.365478400374002 1.2432883327264364 0 1.2432883327264364 10.203074223380781 0 0 0 0 14.133247553823589 -14.647897618754911 0 -14.647897618754911 18.924488517930154 0 0 0 0 -0.49429293004499897 -4.6179257896124852 0 -4.6179257896124852 27.56377693938137 0 0 0 0 10.119168973594622 -28.586101483519087 0 -28.586101483519087 71.171394657828614 0 0 0 0 -7.8887078328025382 -59.83915194850124 0 -59.83915194850124 190.65974067652132 0 0 0 0 94.10711506329244 -63.373169079655781 0 -63.373169079655781 31.785082213114947 0 0 0 0 61.140581712636049 -87.199367911205627 0 -87.199367911205627 -122.38491469997098 0 0 0 0 28.697863463889007 -64.330715510775917 0 -64.330715510775917 -65.937766512550297 0 0 0 0 -115.27447604714916 -219.39850903429397 0 -219.39850903429397 -10.83875813074701 0 0 0 0 112.8018618559654 -189.8267156994043 0 -189.8267156994043 -87.427862826072669 0 0 0 0 13.319690184613231 -33.997876677619317 0 -33.997876677619317 81.410577827744618 0 0 0 0 15.682575537577671 -39.523021445912164 0 -39.523021445912164 93.319126672577113 0 0 0 0 -326.18459071816005 -295.22619269029747 0 -295.22619269029747 138.79149911295099 0 0 0 0 -54.767935739928362 -42.088585938952747 0 -42.088585938952747 36.908314492175123 0 0 0 0 169.95342443966729 -251.71420027850763 0 -251.71420027850763 168.92133649618336 0 0 0 0 556.62039839967474 -46.244523945490073 0 -46.244523945490073 -8.8031640983663237 0 0 0 0 0.9440745761423841 -1.9776161083096362 0 -1.9776161083096362 1.2681406331275298 0 0 0 0 -75.650584327904653 -47.317645937178895 0 -47.317645937178895 226.43449104341562 0 0 0 0 15.417890360739875 -16.673958621577185 0 -16.673958621577185 -22.676722674983466 0 0 0 0 -30.47809196425942 -64.138077638268442 0 -64.138077638268442 247.35768755007302 0 0 0 0 37.115159474322354 1.4542505150384386 0 1.4542505150384386 97.702099849626393 0 0 0 0 505.43080170084841 -321.84133336921514 0 -321.84133336921514 -50.053781585258548 0 0 0 0 0.64387000478119649 -6.2074360180070798 0 -6.2074360180070798 2.3137157109585758 0 0 0 0 168.95915208748897 55.255628694378174 0 55.255628694378174 275.82497126572707 0 0 0 0 250.51372496076101 -406.25071106540145 0 -406.25071106540145 304.69388289612834 0 0 0 0 821.54151522220263 -331.30193949474051 0 -331.30193949474051 119.37132699185167 0 0 0 0 250.43730165854686 -42.315744601612096 0 -42.315744601612096 -41.060428576805862 0 0 0 0 18.882841364244996 -34.610473644868762 0 -34.610473644868762 -30.681839499389753 0 0 0 0 4.2555418778069658 -7.6534469038522612 0 -7.6534469038522612 3.0061108185396677 0 0 0 0 94.475100719927582 -98.531493441408202 0 -98.531493441408202 4.0002298049075762 0 0 0 0 35.623025731607527 -89.06065604430205 0 -89.06065604430205 -5.1823846033657901 0 0 0 0 87.747302947451402 -27.161824975817581 0 -27.161824975817581 -10.139723378350027 0 0 0 0 101.22204643282748 -92.753614655885031 0 -92.753614655885031 21.230311733903363 0 0 0 0 5.9579417074164933 -18.205292937036809 0 -18.205292937036809 33.161040979533652 0 0 0 0 32.175663906424248 -139.7955828672093 0 -139.7955828672093 -136.95366293520783 0 0 0 0 83.006052665030438 -130.46375906270987 0 -130.46375906270987 -37.996646589570446 0 0 0 0 10.160562402819384 -9.0872121553406089 0 -9.0872121553406089 -24.468463771925883 0 0 0 0 -213.0121877396702 371.67357090388396 0 371.67357090388396 671.19386712662526 0 0 0 0 -583.69243117176313 -881.5930632449963 0 -881.5930632449963 3485.2634143537434 0 0 0 0 40.012257265894561 493.78937471838435 0 493.78937471838435 1654.9914079237933 0 0 0 0 3.4300162186725158 -0.67858285925753137 0 -0.67858285925753137 11.378599607290198 0 0 0 0 433.7369273838267 200.92214119427081 0 200.92214119427081 -509.88683883962767 0 0 0 0 -0.36696979483358405 2.591176697640833 0 2.591176697640833 0.030580219556852306 0 0 0 0 419.7995222544323 -137.44853465503547 0 -137.44853465503547 -174.86217283482256 0 0 0 0 794.58698400496746 -1067.1549514875514 0 -1067.1549514875514 361.95094236754812 0 0 0 0 4.9662941312298585 -6.8243792185947747 0 -6.8243792185947747 13.628173873600531 0 0 0 0 3933.4358111716433 -2219.6073714018003 0 -2219.6073714018003 940.21188252902357 0 0 0 0 615.92617285996721 -529.03691745227843 0 -529.03691745227843 630.85273978863552 0 0 0 0 833.09128158893964 -416.31198498099548 0 -416.31198498099548 -20.069971130960766 0 0 0 0 1335.0774536325805 -570.71731202618685 0 -570.71731202618685 293.74188886739284 0 0 0 0 569.98965455160919 -801.04422213370344 0 -801.04422213370344 828.43855108461867 0 0 0 0 1108.8842532718343 -1649.8401542304937 0 -1649.8401542304937 1689.6581124818767 0 0 0 0 30.855368762401838 -1216.892447277165 0 -1216.892447277165 2161.5969711018915 0 0 0 0 868.11585690494985 -2307.6422597997589 0 -2307.6422597997589 3495.2159740113393 0 0 0 0 -109.72968142984421 -1518.6605675659448 0 -1518.6605675659448 3499.0708913476819 0 0 0 0 -483.93201058518576 -617.28267224973206 0 -617.28267224973206 2291.8310953222681 0 0 0 0 558.59660332203657 -1133.3963669805125 0 -1133.3963669805125 1353.214317167196 0 0 0 0 292.85174363122997 -603.02469168534299 0 -603.02469168534299 671.8966661432496 0 0 0 0 828.83193021110901 -871.67462767675897 0 -871.67462767675897 473.97876398524386 0 0 0 0 433.51237584985529 -486.26218820733629 0 -486.26218820733629 415.5964122085752 0 0 0 0 407.19282293450544 -379.79599599734138 0 -379.79599599734138 222.45904139403137 0 0 0 0 293.27045595975324 -296.18210496733082 0 -296.18210496733082 418.78360212211555 0 0 0 0 432.43968968089473 -731.92000202872077 0 -731.92000202872077 520.43906823596626 0 0 0 0 322.54121733035828 -802.66971391407606 0 -802.66971391407606 827.50282604608947 0 0 0 0 55.752034377085209 -179.77009422150149 0 -179.77009422150149 653.36009330734214 0 0 0 0 -18.905186216325319 -52.307480561918055 0 -52.307480561918055 368.38591164330865 0 0 0 0 161.13829729484021 -178.41057741450095 0 -178.41057741450095 315.25566154159606 0 0 0 0 3.8848900175793979 -1.2292414083899104 0 -1.2292414083899104 1.0234441536607513 0 0 0 0 -52.464371303567077 -116.55577622706187 0 -116.55577622706187 476.8269013948111 0 0 0 0 -20.670180290126041 -128.07689657689116 0 -128.07689657689116 434.6689672403445 0 0 0 0 -89.458293506107793 -56.559127892091055 0 -56.559127892091055 418.48328817557376 0 0 0 0 -20.32811038193563 75.583052755588142 0 75.583052755588142 120.83482019991789 0 0 0 0 -29.333035758951837 -75.181518693545513 0 -75.181518693545513 294.42438642374327 0 0 0 0 -49.194352656964384 -26.310034508725948 0 -26.310034508725948 281.33763035793163 0 0 0 0 29.708170922593581 -41.585012014551467 0 -41.585012014551467 84.007231556402985 0 0 0 0 0.48759259493241913 2.2038740505685297 0 2.2038740505685297 6.3726979836666828 0 0 0 0 42.184500642093099 -141.82300323908566 0 -141.82300323908566 378.22350818075211 0 0 0 0 -16.10915320339609 -215.28534180382849 0 -215.28534180382849 908.80609679864574 0 0 0 0 78.861119292046283 -44.894982708398857 0 -44.894982708398857 238.16930455138208 0 0 0 0 2.2479783602040264 6.6577991592437655 0 6.6577991592437655 6.6432928793924759 0 0 0 0 -4.0336156944788399 14.207387372051016 0 14.207387372051016 0.90170512471377151 0 0 0 0 24.351662455429505 -20.28022937507194 0 -20.28022937507194 239.43361198093885 0 0 0 0 63.671877193894034 -32.047526372047287 0 -32.047526372047287 -0.83231674763374031 0 0 0 0 -3.7358221545964625 11.602952599248965 0 11.602952599248965 -22.472434328046802 0 0 0 0 0.43163088252253701 1.7679113005538341 0 1.7679113005538341 4.7569177105979179 0 0 0 0 242.25427535254494 39.1610490931198 0 39.1610490931198 15.14261941035511 0 0 0 0 328.62178321567626 -18.985443490440957 0 -18.985443490440957 756.11531459979597 0 0 0 0 368.63932557109183 -54.131990831388975 0 -54.131990831388975 151.25888935312832 0 0 0 0 405.86415197833412 15.696441314910771 0 15.696441314910771 731.18157850587158 0 0 0 0 340.09906379523682 -180.17439503315836 0 -180.17439503315836 265.5552102157526 0 0 0 0 1.6761922284650801 0.57055152597870062 0 0.57055152597870062 0.63060426499913547 0 0 0 0 237.43878586483515 -35.00744249260606 0 -35.00744249260606 63.256625549367527 0 0 0 0 31.271954688918868 50.202417734351911 0 50.202417734351911 208.13549515371051 0 0 0 0 80.854654072675658 -7.5872430388117209 0 -7.5872430388117209 272.42587733257096 0 0 0 0 344.86964102214961 -48.13190745798056 0 -48.13190745798056 152.38275780440017 0 0 0 0 127.29084013876513 -193.34819489790425 0 -193.34819489790425 305.29486081370851 0 0 0 0 206.23837890929826 -4.5074806762349908 0 -4.5074806762349908 265.38719033292 0 0 0 0 -15.569305104588921 -178.04430013206911 0 -178.04430013206911 262.20522683058516 0 0 0 0 -220.31171309969341 4.7450442761874001 0 4.7450442761874001 217.04918233887292 0 0 0 0 -20.211522862381116 -143.23219468280331 0 -143.23219468280331 27.361408177741396 0 0 0 0 -82.21669509115145 -142.38250032153519 0 -142.38250032153519 349.22261645483377 0 0 0 0 -102.6701128067798 145.73496889528906 0 145.73496889528906 321.00365245926969 0 0 0 0 27.075267590720614 -10.602139817783609 0 -10.602139817783609 298.85396227259116 0 0 0 0 221.80448108309065 -136.40788015675207 0 -136.40788015675207 392.26339384168386 0 0 0 0 237.01666946634032 -217.5043740584515 0 -217.5043740584515 480.68319849207182 0 0 0 0 1.6698319210299815 121.89445386399166 0 121.89445386399166 438.57010777979121 0 0 0 0 94.582787167408242 -103.93286904033448 0 -103.93286904033448 966.81045137933688 0 0 0 0 411.47637602975038 -251.06142493921061 0 -251.06142493921061 460.55307685618754 0 0 0 0 252.79773656979432 309.32781233801052 0 309.32781233801052 373.91213054931723 0 0 0 0 -77.57802789784364 57.735630600513105 0 57.735630600513105 512.70763180579524 0 0 0 0 211.05103918539862 169.14867570572824 0 169.14867570572824 67.379384096289868 0 0 0 0 98.915478079560103 89.863982854139067 0 89.863982854139067 -65.61314621035126 0 0 0 0 -64.018560453808277 104.72464420681354 0 104.72464420681354 54.921011964637728 0 0 0 0 -18.946335081893675 30.901108885389434 0 30.901108885389434 92.4371221295672 0 0 0 0 -106.56304359175556 292.58683031492501 0 292.58683031492501 18.904895438754465 0 0 0 0 -74.03361712996815 80.842634469110635 0 80.842634469110635 142.35834658815293 0 0 0 0 -183.06734680154932 35.56584895281776 0 35.56584895281776 170.47292052785633 0 0 0 0 -220.87444675660527 93.897202568283319 0 93.897202568283319 165.6634806941729 0 0 0 0 0.40504365302615497 94.69184123622108 0 94.69184123622108 61.696949779703573 0 0 0 0 -18.533663973115278 19.792328954440109 0 19.792328954440109 98.462305863007686 0 0 0 0 -8.9666677586559906 41.217121346115164 0 41.217121346115164 77.600704529759241 0 0 0 0 0.032903491809760703 -3.4993591552702128 0 -3.4993591552702128 5.6340530913876137 0 0 0 0 135.49105695722483 188.38192259113202 0 188.38192259113202 227.26071307263192 0 0 0 0 0.91076827849629793 -1.001816007603054 0 -1.001816007603054 0.2407049879154215 0 0 0 0 -5.197885007555568 9.8063465389423072 0 9.8063465389423072 26.92347516000882 0 0 0 0 -3.5923016318981098 6.7471513627044573 0 6.7471513627044573 11.77310312437146 0 0 0 0 3.4474073372565432 -88.008922166419325 0 -88.008922166419325 104.68280659843003 0 0 0 0 -42.429517315296835 -13.249685865812353 0 -13.249685865812353 59.058579216973158 0 0 0 0 -0.08687765652478735 -7.0068996755217086 0 -7.0068996755217086 46.914674685693171 0 0 0 0 1.2745978604815413 -7.6508287906091113 0 -7.6508287906091113 12.532712040180058 0 0 0 0 -297.98449445661026 -89.68580550754632 0 -89.68580550754632 207.6900226207963 0 0 0 0 10.762312266414826 -38.226106877506851 0 -38.226106877506851 108.2659187619592 0 0 0 0 2.9150230675681783 -90.968285472637945 0 -90.968285472637945 90.328878623826313 0 0 0 0 9.8435091120602891 -70.643459525934304 0 -70.643459525934304 75.709174488671124 0 0 0 0 0.007566781200484483 -75.40046819331269 0 -75.40046819331269 102.75950577610638 0 0 0 0 10.75144147686504 -65.112528788259624 0 -65.112528788259624 107.53960190096404 0 0 0 0 -5.2210618010156651 -95.333884278181358 0 -95.333884278181358 242.91107608335733 0 0 0 0 -9.3456057811603017 -68.301311441267899 0 -68.301311441267899 243.61590630066348 0 0 0 0 -6.064818050732125 -43.804794101737571 0 -43.804794101737571 156.53125251230085 0 0 0 0 5.0289275820924182 -93.860000525735813 0 -93.860000525735813 159.10331717944064 0 0 0 0 -0.08884936121666695 -67.565936637478444 0 -67.565936637478444 207.53300462013431 0 0 0 0 4.9109479642507381 -51.914894564208225 0 -51.914894564208225 159.20720429238821 0 0 0 0 0.4645767381026753 -62.853256949865859 0 -62.853256949865859 181.65976849064464 0 0 0 0 -48.573844188448533 4.9063193780530128 0 4.9063193780530128 314.95340506728826 0 0 0 0 -34.598236006080981 15.738325734513637 0 15.738325734513637 141.60398241276562 0 0 0 0 -105.98336429982203 -1.1150113533585682 0 -1.1150113533585682 165.15306550287642 0 0 0 0 -95.730478230913377 -56.940763644437538 0 -56.940763644437538 155.33195794987842 0 0 0 0 4.7047097951404169 -60.514229482178052 0 -60.514229482178052 98.22567061096197 0 0 0 0 8.3031398454853047 11.408165592554724 0 11.408165592554724 123.6713033186752 0 0 0 0 -71.230020078972984 -60.045302241647732 0 -60.045302241647732 58.355648772034328 0 0 0 0 0.42830219795607927 1.7165238003679804 0 1.7165238003679804 0.096833709924069922 0 0 0 0 -27.841028468850862 -2.3827905623220431 0 -2.3827905623220431 117.00628287679865 0 0 0 0 -74.634987984408781 3.8685933576198295 0 3.8685933576198295 154.7831754161798 0 0 0 0 -45.711002438636569 137.30814772447775 0 137.30814772447775 -66.121640092130122 0 0 0 0 -28.427697016688192 5.5447376684778646 0 5.5447376684778646 124.62550659528642 0 0 0 0 -17.606357910605784 35.435838074000671 0 35.435838074000671 92.334960919371838 0 0 0 0 6.610073811221497 20.399531582239433 0 20.399531582239433 84.778345572194667 0 0 0 0 3.3664317635722512 16.977750410878798 0 16.977750410878798 81.820877008023672 0 0 0 0 -4.4243675441793879 2.2937792177673941 0 2.2937792177673941 33.501540501701967 0 0 0 0 35.436475122831446 16.322710832915618 0 16.322710832915618 70.311427815206116 0 0 0 0 47.197546180670201 -35.03251986552641 0 -35.03251986552641 116.10820899840837 0 0 0 0 -0.39941629802194001 7.8877176219029934 0 7.8877176219029934 107.2535228002962 0 0 0 0 64.019993109137573 -86.00733344204491 0 -86.00733344204491 203.71885901797214 0 0 0 0 29.969963554261199 -89.154534848719777 0 -89.154534848719777 194.71976606498356 0 0 0 0 3.6863066173143189 -28.458119488088414 0 -28.458119488088414 173.98878410978068 0 0 0 0 76.640159024553128 -28.371803812377038 0 -28.371803812377038 150.72953421443526 0 0 0 0 30.702736845786923 42.712007870461093 0 42.712007870461093 77.685185636904862 0 0 0 0 22.751416184009095 -6.2881688844354358 0 -6.2881688844354358 122.16723915261537 0 0 0 0 65.783824812261798 -47.889876951143378 0 -47.889876951143378 130.10003505519489 0 0 0 0 74.809404502406068 3.7445059811834653 0 3.7445059811834653 73.753047074220376 0 0 0 0 17.182068614276659 0.95320474814798217 0 0.95320474814798217 149.23366236966103 0 0 0 0 24.977075611970236 41.088854042573075 0 41.088854042573075 81.498451795385336 0 0 0 0 -10.562274541770377 23.700236913117266 0 23.700236913117266 69.371388983426016 0 0 0 0 -57.153397778802386 81.676147461109849 0 81.676147461109849 45.110555288934847 0 0 0 0 -54.239016652190116 26.600996946574014 0 26.600996946574014 100.78672646102495 0 0 0 0 -28.361492856153063 82.599311086414673 0 82.599311086414673 25.544810547020461 0 0 0 0 -32.008311320506465 45.460493571412826 0 45.460493571412826 52.371181926573627 0 0 0 0 -31.812243850400591 52.791920900097466 0 52.791920900097466 73.57194126099057 0 0 0 0 -8.6595023565193294 25.419705270907031 0 25.419705270907031 70.248062090033784 0 0 0 0 32.726492759802525 2.6771109742257977 0 2.6771109742257977 53.128275924120317 0 0 0 0 -33.637299980080613 11.81126310985519 0 11.81126310985519 79.106027631525649 0 0 0 0 18.952972083490735 47.058519529406112 0 47.058519529406112 49.228565880373935 0 0 0 0 -28.827565710486077 59.254333818516898 0 59.254333818516898 67.026176247847616 0 0 0 0 -14.782014831579545 6.5185757028593798 0 6.5185757028593798 88.212050909001846 0 0 0 0 -8.372788463863218 29.545912773281088 0 29.545912773281088 70.050659603325869 0 0 0 0 -42.233435289184854 73.281415355042554 0 73.281415355042554 89.274593746929895 0 0 0 0 7.4132734029280982 36.14890536468738 0 36.14890536468738 8.8291733399528312 0 0 0 0 -34.933932588089192 25.16621814048267 0 25.16621814048267 104.60362395727861 0 0 0 0 -13.993951556070725 18.291178596828289 0 18.291178596828289 21.129298878111243 0 0 0 0 -4.0262035533141898 25.435777629681979 0 25.435777629681979 30.21601898613153 0 0 0 0 -0.49530566454521896 0.14681242383115034 0 0.14681242383115034 4.0210736881522138 0 0 0 0 -5.5307014161811772 16.873468708735402 0 16.873468708735402 -3.041570783893718 0 0 0 0 -2.0249223985301796 28.008445714236586 0 28.008445714236586 86.685369803755748 0 0 0 0 20.482146581802908 12.881251760692976 0 12.881251760692976 85.58221226218302 0 0 0 0 17.018072895323712 -5.9701426591636846 0 -5.9701426591636846 17.22904072597521 0 0 0 0 -20.697078611508005 20.088473142110161 0 20.088473142110161 74.1964279225067 0 0 0 0 -7.8532294419092068 2.4571354293148033 0 2.4571354293148033 41.669056441649445 0 0 0 0 -21.959203593142774 16.592751093921834 0 16.592751093921834 74.637719543469757 0 0 0 0 -19.961982160000844 37.549993966764305 0 37.549993966764305 48.857252130692359 0 0 0 0 -18.722148735114274 26.500064181318521 0 26.500064181318521 91.156180662321276 0 0 0 0 -9.4692051132469715 8.2949774057269678 0 8.2949774057269678 84.349287904351741 0 0 0 0 24.110020335111585 -41.437847626431903 0 -41.437847626431903 81.800849333012593 0 0 0 0 -18.850820268910411 6.1478918348502702 0 6.1478918348502702 90.967641482755425 0 0 0 0 -12.553319115189879 0.1943812275712844 0 0.1943812275712844 151.05327725602547 0 0 0 0 -0.81580822709202039 7.6723144273564685 0 7.6723144273564685 118.64399363462871 0 0 0 0 0.7747035729498748 -16.730010690036579 0 -16.730010690036579 83.747065678673152 0 0 0 0 21.490629754573092 -29.982690811666544 0 -29.982690811666544 47.986846016952768 0 0 0 0 10.209551643280975 21.88539920315452 0 21.88539920315452 41.360324538254645 0 0 0 0 3.1540836186254957 22.777696787426166 0 22.777696787426166 14.285101923487304 0 0 0 0 6.3562207946234821 24.170452995842425 0 24.170452995842425 50.689449673205672 0 0 0 0 37.431113750879376 -34.672871251445031 0 -34.672871251445031 -44.495397451108147 0 0 0 0 8.3960503935161288 19.580814134226088 0 19.580814134226088 3.0947376382889935 0 0 0 0 11.975427155797206 -43.132115901800717 0 -43.132115901800717 160.90807603765279 0 0 0 0 1.7948771852606242 1.5847044944630397 0 1.5847044944630397 -2.2131476480730043 0 0 0 0 47.841995972072255 20.297733591331053 0 20.297733591331053 4.9593501326526166 0 0 0 0 -0.8582924133988854 35.536571727119735 0 35.536571727119735 217.56039410955418 0 0 0 0 47.013213147285569 24.631107074368629 0 24.631107074368629 181.0232120687142 0 0 0 0 70.596877007537302 -34.353219694507175 0 -34.353219694507175 293.03990735468687 0 0 0 0 71.864080758249514 94.63829960777133 0 94.63829960777133 146.45488177781226 0 0 0 0 76.789664203236043 17.986330182626261 0 17.986330182626261 31.820150682673557 0 0 0 0 49.218670433696388 51.490990527367103 0 51.490990527367103 67.465035543311387 0 0 0 0 25.013457686000038 32.497472340401146 0 32.497472340401146 89.783951182005694 0 0 0 0 15.983628877984302 61.387157178570305 0 61.387157178570305 136.65483712166315 0 0 0 0 -19.073731531186695 17.385014296633017 0 17.385014296633017 81.546240489151387 0 0 0 0 -36.350042484984897 45.765882028863416 0 45.765882028863416 106.23728434702207 0 0 0 0 -30.308086080302928 45.017648331886448 0 45.017648331886448 41.977843757282244 0 0 0 0 29.642673159104561 37.465189185422787 0 37.465189185422787 38.526524175111263 0 0 0 0 -73.456698444432959 44.324320030340459 0 44.324320030340459 104.22736295948562 0 0 0 0 -10.595755007795891 23.498959820047887 0 23.498959820047887 65.362351132200729 0 0 0 0 22.020912718252475 32.195715262641897 0 32.195715262641897 54.783081414090702 0 0 0 0 34.034760664672376 4.4367338951178681 0 4.4367338951178681 36.568762573500862 0 0 0 0 -3.5398237720291945 43.907778240158223 0 43.907778240158223 41.47674606345754 0 0 0 0 14.282477031176374 -21.925934219606347 0 -21.925934219606347 44.449433349660069 0 0 0 0 51.794457518592935 -39.167864742539678 0 -39.167864742539678 127.43537500168895 0 0 0 0 13.199801548399591 4.9962985477850452 0 4.9962985477850452 43.114137479802594 0 0 0 0 -26.361050807553752 17.36229124205714 0 17.36229124205714 106.05745959166816 0 0 0 0 -28.76951545015288 -2.7761182075046236 0 -2.7761182075046236 119.24491518364812 0 0 0 0 -89.681695821390122 -33.21949210454477 0 -33.21949210454477 111.20456488144919 0 0 0 0 -10.451430944758933 16.683167543276426 0 16.683167543276426 70.383272830657802 0 0 0 0 -53.632473803971038 21.336380058157374 0 21.336380058157374 99.697885166642664 0 0 0 0 -2.6921656955120992 -0.16223446806125708 0 -0.16223446806125708 28.94004670488988 0 0 0 0 -1.3147541550460886 -38.895900449853798 0 -38.895900449853798 245.36195229119403 0 0 0 0 -5.9371562007845 97.15065486743697 0 97.15065486743697 179.56895984237781 0 0 0 0 -17.81811469904936 0.40862014444064698 0 0.40862014444064698 155.86146459433076 0 0 0 0 34.843908437096218 -111.25714643047831 0 -111.25714643047831 145.19842644473647 0 0 0 0 16.436192377189393 -70.908315473210678 0 -70.908315473210678 156.69981746137637 0 0 0 0 38.933401111180032 -31.975105848585372 0 -31.975105848585372 214.04261943550955 0 0 0 0 0.6071203261620326 -81.91914748423369 0 -81.91914748423369 254.71371442584496 0 0 0 0 38.573471398686181 -133.6461398981628 0 -133.6461398981628 726.59951658234058 0 0 0 0 220.53537643288905 -125.80918302679493 0 -125.80918302679493 154.97106708379579 0 0 0 0 121.53956287159232 -153.61424369478482 0 -153.61424369478482 147.48957417072234 0 0 0 0 -22.554774121276196 -18.329353336965141 0 -18.329353336965141 62.070962147045066 0 0 0 0 101.6058107040095 -178.84424042221872 0 -178.84424042221872 131.88959942169095 0 0 0 0 157.55092335886758 18.121086220215147 0 18.121086220215147 -85.12978564077639 0 0 0 0 43.05449289645729 116.42113948072802 0 116.42113948072802 -65.459453370924166 0 0 0 0 -0.13326738027086349 -0.62897738151730209 0 -0.62897738151730209 1.1554674410435268 0 0 0 0 -0.26836533781110461 -8.4724523638251412 0 -8.4724523638251412 1.6401430617115693 0 0 0 0 50.705997790136308 -181.25892745162855 0 -181.25892745162855 604.51370533103182 0 0 0 0 0.33649508471825273 -1.5511035865522587 0 -1.5511035865522587 3.2698008818572362 0 0 0 0 102.83111431374127 -193.24200880054923 0 -193.24200880054923 176.07965120735753 0 0 0 0 314.55372699768895 -262.39788905609021 0 -262.39788905609021 343.22872946341522 0 0 0 0 190.08765433775201 -3.0957404032087652 0 -3.0957404032087652 228.75339106455795 0 0 0 0 86.355922826624322 -262.89264487119362 0 -262.89264487119362 495.29601893416839 0 0 0 0 3.5228950286353693 0.050973414908185077 0 0.050973414908185077 -2.2489239790279498 0 0 0 0 -54.106225308139699 40.794612449963097 0 40.794612449963097 121.9172558755381 0 0 0 0 77.804153807337855 -194.481031266012 0 -194.481031266012 -39.507575586860185 0 0 0 0 46.007188883274409 5.7993798960815184 0 5.7993798960815184 124.67506166778912 0 0 0 0 -52.589159742433537 33.484456333844719 0 33.484456333844719 154.91012731502997 0 0 0 0 117.15901632354854 9.7453556190885138 0 9.7453556190885138 137.66688832423824 0 0 0 0 125.11025752613141 -108.84689133154734 0 -108.84689133154734 223.44651790222269 0 0 0 0 39.808449189571576 -37.927779123913751 0 -37.927779123913751 231.10791314765811 0 0 0 0 45.581936580771348 -87.125061093560362 0 -87.125061093560362 263.03598450463323 0 0 0 0 109.65684424986165 -163.21617334074108 0 -163.21617334074108 296.50900212940178 0 0 0 0 85.64604429892654 -102.08323863690748 0 -102.08323863690748 242.09504300552362 0 0 0 0 27.774662672042751 -42.943827185354166 0 -42.943827185354166 343.6530670873035 0 0 0 0 -24.48094499291199 -71.66728705267542 0 -71.66728705267542 407.30686215202149 0 0 0 0 -44.044541139875356 -72.301445148457333 0 -72.301445148457333 407.84075403738825 0 0 0 0 -48.389991887696482 -68.963678397776675 0 -68.963678397776675 407.88087159834686 0 0 0 0 -39.139339607833136 -101.18988425854332 0 -101.18988425854332 331.22464308716008 0 0 0 0 -32.509442645208601 -112.72473957173679 0 -112.72473957173679 453.25666117286892 0 0 0 0 -43.698087283522852 -141.12071818686672 0 -141.12071818686672 655.07565385531052 0 0 0 0 37.68827536479219 9.8760901966306847 0 9.8760901966306847 -144.82791077397997 0 0 0 0 40.752232347958596 45.265780128072947 0 45.265780128072947 263.8963140850683 0 0 0 0 -42.260047628053357 80.444418580311321 0 80.444418580311321 219.77079080260592 0 0 0 0 57.010108373075752 14.039476859252318 0 14.039476859252318 -114.45836480914295 0 0 0 0 -4.6151743344595673 -5.973759695305489 0 -5.973759695305489 -12.446305002587906 0 0 0 0 0.17731896999993069 -7.6074569680858986 0 -7.6074569680858986 1.3638461473456118 0 0 0 0 0.34870465635816683 -1.9664793781308276 0 -1.9664793781308276 6.7937278151929377 0 0 0 0 -3.7165873428095608 1.8936247341043781 0 1.8936247341043781 -5.6544326483926852 0 0 0 0 -0.74647605854880983 -1.0660758467692659 0 -1.0660758467692659 2.1524254578688442 0 0 0 0 -39.781372236848881 -24.144373341769096 0 -24.144373341769096 25.863523888314376 0 0 0 0 -9.4834500037814564 -49.476392439071788 0 -49.476392439071788 -74.00512850494124 0 0 0 0 -0.17375098500956701 0.24351977178201878 0 0.24351977178201878 4.0088666604660261 0 0 0 0 6.0957136979849906 3.6164858754782472 0 3.6164858754782472 -25.127190195707954 0 0 0 0 -89.528667781851269 -2.1034677363131777 0 -2.1034677363131777 17.644508554920321 0 0 0 0 16.71012324959645 1.645526499080006 0 1.645526499080006 -48.557474530447507 0 0 0 0 19.186441045228435 -8.1340824064391199 0 -8.1340824064391199 -14.679813962575281 0 0 0 0 84.634567168283269 -116.81390327926783 0 -116.81390327926783 184.96984346162208 0 0 0 0 -0.062164556748174837 -0.025180191065551583 0 -0.025180191065551583 1.8385216598730949 0 0 0 0 52.326025832331027 54.695925782594713 0 54.695925782594713 -20.397709953816957 0 0 0 0 -1.9435721597031232 -14.978611976672255 0 -14.978611976672255 -21.110378934259643 0 0 0 0 -77.699737756368563 85.45236377051333 0 85.45236377051333 131.64048802647449 0 0 0 0 -63.602674051548121 -32.491846826815163 0 -32.491846826815163 9.258858825196512 0 0 0 0 -18.249920152114825 -16.253450963420619 0 -16.253450963420619 -2.6601414755132282 0 0 0 0 -18.634963733986602 -17.505226615947322 0 -17.505226615947322 26.629076514262124 0 0 0 0 -0.012536070579780657 -28.586528905518207 0 -28.586528905518207 147.05779393148259 0 0 0 0 6.7786639146719834 24.625067567768383 0 24.625067567768383 20.584173642098904 0 0 0 0 -49.251149824873821 5.7335047165033757 0 5.7335047165033757 191.56588869360712 0 0 0 0 -49.609337067969676 -60.962698378512869 0 -60.962698378512869 404.86799722314754 0 0 0 0 56.461545427674722 -95.380654332337144 0 -95.380654332337144 252.19725492756697 0 0 0 0 -0.06085033463064228 -64.139141485487926 0 -64.139141485487926 280.48500032973243 0 0 0 0 24.607159007702649 -9.2342737514627515 0 -9.2342737514627515 62.935527105240908 0 0 0 0 -158.97637722193099 -100.76985059597064 0 -100.76985059597064 158.27985603309935 0 0 0 0 0.24215300458945666 -4.4131354760118873 0 -4.4131354760118873 12.303024944156363 0 0 0 0 133.01071133808682 -304.81978800369689 0 -304.81978800369689 227.759996751789 0 0 0 0 176.73919441090408 102.21005187049059 0 102.21005187049059 144.4705868793244 0 0 0 0 5.7894111911018626 -12.676707068292671 0 -12.676707068292671 20.039827115895605 0 0 0 0 11.36081783142302 -13.846848777400737 0 -13.846848777400737 9.1337924045001273 0 0 0 0 15.831424257885601 -17.974578567795106 0 -17.974578567795106 18.747330812704604 0 0 0 0 0.80671036463218027 -1.4187697566076345 0 -1.4187697566076345 3.2869307719341805 0 0 0 0 68.609863334395868 226.0470119556885 0 226.0470119556885 31.645933550408699 0 0 0 0 -18.2347932853354 -22.983567117022176 0 -22.983567117022176 276.95383910529199 0 0 0 0 5.4625569154964069 -74.758039923632168 0 -74.758039923632168 167.05091661577171 0 0 0 0 22.15532352898208 -83.655246138878283 0 -83.655246138878283 90.72786736775015 0 0 0 0 16.201478408832372 -56.419489481326309 0 -56.419489481326309 58.910682637011632 0 0 0 0 0.25115462451958592 -34.444229895947501 0 -34.444229895947501 107.15813584757052 0 0 0 0 13.557756997985052 -59.117281470629678 0 -59.117281470629678 99.306148098701669 0 0 0 0 -1.9732847702298386 -24.487165032223857 0 -24.487165032223857 181.22656470666698 0 0 0 0 -3.2524315275777553 -34.397348644779413 0 -34.397348644779413 111.91235334314115 0 0 0 0 5.037598373705805 -22.007988937941263 0 -22.007988937941263 77.987145011142275 0 0 0 0 4.6819521271181657 -20.993607183921995 0 -20.993607183921995 76.339417120267171 0 0 0 0 -1.3028529973016703 -29.567060945759295 0 -29.567060945759295 84.609451508609709 0 0 0 0 1.2682873914836819 -35.386568228168471 0 -35.386568228168471 95.660721748892684 0 0 0 0 -4.4469661256343898 -8.5098813104341389 0 -8.5098813104341389 81.617598908218497 0 0 0 0 -3.7180680853753074 -0.050776072552253027 0 -0.050776072552253027 60.79612453088339 0 0 0 0 -12.66580238912502 -2.5450079008296598 0 -2.5450079008296598 100.4502687694212 0 0 0 0 -6.0504615184281647 0.76245773299160646 0 0.76245773299160646 61.929795522617496 0 0 0 0 28.976606029175855 45.917916643498756 0 45.917916643498756 62.703898723077145 0 0 0 0 -11.885388346807758 -10.764331651957036 0 -10.764331651957036 140.19809074832301 0 0 0 0 12.017933997416094 0.24363288093081792 0 0.24363288093081792 7.6167587809577526 0 0 0 0 13.806631671131527 11.186323794190685 0 11.186323794190685 -4.2980894870415796 0 0 0 0 7.5824329405420485 23.626761390791671 0 23.626761390791671 24.53828966828587 0 0 0 0 4.5028253629398023 6.4491710235161008 0 6.4491710235161008 -4.1630684062038199 0 0 0 0 -5.2794664793464108 16.651436944848683 0 16.651436944848683 -9.1914116487478168 0 0 0 0 -13.262046961041218 5.0426927288052212 0 5.0426927288052212 19.765849715742135 0 0 0 0 -8.1700276127143763 3.9276315195607339 0 3.9276315195607339 11.171703294783285 0 0 0 0 5.3575655674089173 -3.0570706466659487 0 -3.0570706466659487 29.833340572313887 0 0 0 0 -1.6202021794549069 -11.415358559209608 0 -11.415358559209608 -23.182842799003993 0 0 0 0 -3.0817206928706522 -10.81186723932349 0 -10.81186723932349 20.655736880134668 0 0 0 0 -53.219997663962204 -72.576799809598015 0 -72.576799809598015 -11.377974477029056 0 0 0 0 -83.757975523410096 -96.520964627285139 0 -96.520964627285139 61.031761183781782 0 0 0 0 -128.04778252799088 -7.1290710346802371 0 -7.1290710346802371 330.271190407002 0 0 0 0 36.152549340481528 -81.324536098192766 0 -81.324536098192766 194.08940579176124 0 0 0 0 112.15640239333425 200.66453931927754 0 200.66453931927754 142.64669235158362 0 0 0 0 134.43012973620466 -64.277482936933666 0 -64.277482936933666 -140.63205345787719 0 0 0 0 0.72240140690796617 -3.6980548113897207 0 -3.6980548113897207 0.58562928406053061 0 0 0 0 30.80197194759171 26.072452844966392 0 26.072452844966392 -27.970423892940744 0 0 0 0 9.744063072866453 -46.314988389630457 0 -46.314988389630457 -76.861993334459839 0 0 0 0 1.987257088222659 -12.394958319665193 0 -12.394958319665193 15.231637142810015 0 0 0 0 3.4939088940361289 -8.2601675645144326 0 -8.2601675645144326 8.9309993359020154 0 0 0 0 89.948467468790568 -37.741470642426066 0 -37.741470642426066 -31.741508961971704 0 0 0 0 46.959480541879429 172.44131918196217 0 172.44131918196217 254.34760969581839 0 0 0 0 -59.337395500750461 114.24563271362467 0 114.24563271362467 421.60547553937067 0 0 0 0 -9.2877451880722219 -26.326118703444081 0 -26.326118703444081 736.11069067210519 0 0 0 0 77.229229479996548 39.045532894913777 0 39.045532894913777 241.68430917909427 0 0 0 0 115.06093313472059 -78.713914542033308 0 -78.713914542033308 238.04435194579855 0 0 0 0 16.473937325786892 62.263659913616721 0 62.263659913616721 140.60117594655094 0 0 0 0 -39.533995451110172 -24.605320912396564 0 -24.605320912396564 76.401538870835793 0 0 0 0 34.784457137519098 47.216947360324411 0 47.216947360324411 19.693446920209681 0 0 0 0 49.360265187039658 88.439080319894856 0 88.439080319894856 105.47568946404681 0 0 0 0 -75.466320345742815 90.816546643760375 0 90.816546643760375 83.561762085621012 0 0 0 0 16.319082979152437 19.408206818108667 0 19.408206818108667 1.3919465206892383 0 0 0 0 145.38472872801771 26.64523829432801 0 26.64523829432801 -67.942614910534758 0 0 0 0 15.940850241900989 37.835386926650244 0 37.835386926650244 -42.34974833560409 0 0 0 0 33.780094923778904 81.089279753154074 0 81.089279753154074 11.908955718638026 0 0 0 0 -37.847848978967704 15.159905196858745 0 15.159905196858745 61.907665697734046 0 0 0 0 3.6455074530106315 16.337054078441319 0 16.337054078441319 45.127389111396894 0 0 0 0 -0.3595708720961559 4.5374815414581633 0 4.5374815414581633 7.5992547472549745 0 0 0 0 -23.991105672623689 -14.871330927504459 0 -14.871330927504459 5.9458846524285036 0 0 0 0 23.5373163471927 65.102234983063681 0 65.102234983063681 58.706501109165401 0 0 0 0 -54.730188023784081 14.864284298659186 0 14.864284298659186 113.22101968376592 0 0 0 0 -25.574334509699838 70.913042358210078 0 70.913042358210078 -14.279389604955213 0 0 0 0 -28.931645886774959 93.939043379699797 0 93.939043379699797 233.96872034604894 0 0 0 0 163.4502012789635 92.236129339362378 0 92.236129339362378 8.9037962648562825 0 0 0 0 -1.0225842715802287 -1.5248393760062697 0 -1.5248393760062697 7.384536395711649 0 0 0 0 46.485876426331288 37.343835736654 0 37.343835736654 123.41628879797645 0 0 0 0 44.153334335359432 23.470712136338989 0 23.470712136338989 44.56482242711354 0 0 0 0 -36.39446757814585 -78.304173223907128 0 -78.304173223907128 153.32210831284829 0 0 0 0 -1.9081667762785059 43.246919396441626 0 43.246919396441626 40.088755090153427 0 0 0 0 -28.138564254690209 -75.660976829287392 0 -75.660976829287392 129.51417935792415 0 0 0 0 6.372275014224881 16.519264907984063 0 16.519264907984063 50.665884932580639 0 0 0 0 23.330355881721289 23.334820557094645 0 23.334820557094645 55.710674268528237 0 0 0 0 -14.344143937119952 1.2035749662682065 0 1.2035749662682065 29.190439793295809 0 0 0 0 4.254148262977318 5.5685610229438822 0 5.5685610229438822 41.359484629190661 0 0 0 0 6.9043828809754588 19.784597831832698 0 19.784597831832698 35.520834190556528 0 0 0 0 2.4972416189905751 -3.9184388938261847 0 -3.9184388938261847 1.2695406497086879 0 0 0 0 -16.004875554902355 -13.152566866043344 0 -13.152566866043344 -0.72279802025877871 0 0 0 0 54.371755669382765 36.518365152136539 0 36.518365152136539 30.294585375435418 0 0 0 0 -3.4868295903435556 4.7864172439045696 0 4.7864172439045696 35.245401363760465 0 0 0 0 -25.951164873728203 -10.601754339280888 0 -10.601754339280888 47.089731227839366 0 0 0 0 35.760168235445235 4.3065965872810921 0 4.3065965872810921 35.243350535209174 0 0 0 0 29.758969525404609 -19.327613490750082 0 -19.327613490750082 37.167317620434915 0 0 0 0 12.1795351031069 -19.197578693929245 0 -19.197578693929245 43.916832367147435 0 0 0 0 17.081597737619632 -9.6108495039734407 0 -9.6108495039734407 44.492262283321907 0 0 0 0 8.7329589454383179 -9.7434224433495586 0 -9.7434224433495586 18.789424662565551 0 0 0 0 8.8412298018851576 -7.2878456839966645 0 -7.2878456839966645 15.184091281223374 0 0 0 0 25.147056305140268 28.551888099093048 0 28.551888099093048 18.159975352282345 0 0 0 0 -0.040055692237461749 18.001744809267002 0 18.001744809267002 39.05585005502094 0 0 0 0 -3.5458913533554437 -6.664671009999438 0 -6.664671009999438 55.186443189348211 0 0 0 0 -28.74247937868563 -6.4327054326604411 0 -6.4327054326604411 55.453647301531419 0 0 0 0 11.112971759064729 51.533114878779088 0 51.533114878779088 48.663912159812753 0 0 0 0 -0.39459245427449474 -12.289316128892096 0 -12.289316128892096 31.839582362445071 0 0 0 0 15.247728031854422 -33.290676113239897 0 -33.290676113239897 45.888934938415332 0 0 0 0 -9.8136965247850867 -28.995526124899698 0 -28.995526124899698 67.795103691591066 0 0 0 0 -188.354103774946 26.245398382561689 0 26.245398382561689 99.917252381434082 0 0 0 0 -7.8596129754329684 11.933346375126348 0 11.933346375126348 31.020619591650743 0 0 0 0 -7.0499941081448014 -8.6006360595711158 0 -8.6006360595711158 60.10641946571377 0 0 0 0 34.002527013297367 -10.110949493187945 0 -10.110949493187945 54.379319687449652 0 0 0 0 20.343362860839989 57.919247044621443 0 57.919247044621443 52.847920489373791 0 0 0 0 -6.0943931533847717 -18.044432335394958 0 -18.044432335394958 86.840084921263042 0 0 0 0 -16.500275127216298 -5.5060793950397056 0 -5.5060793950397056 85.330420806189068 0 0 0 0 22.490717095562786 -29.067405070849418 0 -29.067405070849418 78.226598477252992 0 0 0 0 12.681168177815096 -10.049274225468253 0 -10.049274225468253 67.460619000150473 0 0 0 0 -1.529352347673921 -26.272137177351397 0 -26.272137177351397 84.759970405466447 0 0 0 0 -1.7507857212970066 -23.240212654280185 0 -23.240212654280185 45.352867362744291 0 0 0 0 4.1791254741217472 -19.798745673477242 0 -19.798745673477242 44.249544483289355 0 0 0 0 -4.7455891534646071 -14.463758025951392 0 -14.463758025951392 65.645867604343948 0 0 0 0 -13.219497634514028 5.8252079535777739 0 5.8252079535777739 58.27421014016727 0 0 0 0 42.10616855022181 22.923386677641247 0 22.923386677641247 73.815191809597309 0 0 0 0 7.0333248492788698 -23.923696074460167 0 -23.923696074460167 150.16491234634304 0 0 0 0 32.502500844961105 -5.0850778856329271 0 -5.0850778856329271 129.59736253399751 0 0 0 0 16.1537817637236 22.059785652018036 0 22.059785652018036 101.36984608990315 0 0 0 0 15.38630408005065 -17.3588561920551 0 -17.3588561920551 58.235974958501174 0 0 0 0 45.570306313580659 5.6727435450738994 0 5.6727435450738994 86.277248012745986 0 0 0 0 40.619502138655662 6.5238526368248131 0 6.5238526368248131 94.675266438352992 0 0 0 0 26.302200458241714 -15.527254215834546 0 -15.527254215834546 116.84895748111012 0 0 0 0 29.449852964567981 -59.236726906841795 0 -59.236726906841795 92.620582856921828 0 0 0 0 37.843249290719541 -9.6839260967244627 0 -9.6839260967244627 136.85867261806561 0 0 0 0 47.6444035636232 -47.558823598839808 0 -47.558823598839808 140.06656095088329 0 0 0 0 38.019643289015221 -24.780955397749494 0 -24.780955397749494 104.37418178317603 0 0 0 0 51.674278390582913 -30.755327024133294 0 -30.755327024133294 141.38343828239158 0 0 0 0 45.90926812642283 -6.2786616538360249 0 -6.2786616538360249 126.16047025063745 0 0 0 0 66.880458705767523 -13.561134416333516 0 -13.561134416333516 159.34297730932303 0 0 0 0 38.482965855753719 -33.598113291380287 0 -33.598113291380287 190.91890639654594 0 0 0 0 -27.101171223290965 29.106155062775599 0 29.106155062775599 105.99267088513835 0 0 0 0 79.985482247891923 -60.716220116519253 0 -60.716220116519253 150.42766024223965 0 0 0 0 43.215411623194086 -54.501322499243543 0 -54.501322499243543 158.79876791158313 0 0 0 0 26.483877350019426 -58.941230220785656 0 -58.941230220785656 170.92636895252963 0 0 0 0 0.86737617671946055 -14.999173610005528 0 -14.999173610005528 163.84196970952326 0 0 0 0 32.935756576623476 -48.879170167816483 0 -48.879170167816483 71.058913943918014 0 0 0 0 103.55275373462064 -57.622295520137413 0 -57.622295520137413 183.02689429032034 0 0 0 0 -23.537182525407026 36.037929598739737 0 36.037929598739737 110.86386107716129 0 0 0 0 -20.2640369410903 39.12805386208602 0 39.12805386208602 118.397024985945 0 0 0 0 28.709274103823191 -50.333788197225658 0 -50.333788197225658 174.78531063032278 0 0 0 0 25.114768290188294 -71.050416310186847 0 -71.050416310186847 200.20694890231243 0 0 0 0 25.088317296688047 -72.275922690900984 0 -72.275922690900984 153.43971797871927 0 0 0 0 3.531003191760135 -130.85838632110517 0 -130.85838632110517 80.082224348603631 0 0 0 0 7.8258354615309145 -102.03002003100846 0 -102.03002003100846 242.22472993275733 0 0 0 0 -74.842517487906207 -302.26967381256691 0 -302.26967381256691 6.4973865881347592 0 0 0 0 79.145053917239466 35.447198034747998 0 35.447198034747998 -69.304156578851689 0 0 0 0 -301.36120654377225 -199.74436466149473 0 -199.74436466149473 582.66743737916113 0 0 0 0 -348.72981887850256 89.028672644148173 0 89.028672644148173 239.16815620639693 0 0 0 0 -14.563231445730072 46.005165164669577 0 46.005165164669577 123.40720066345602 0 0 0 0 -18.264638410975294 -15.615443276943552 0 -15.615443276943552 42.256334776722724 0 0 0 0 7.6570483662690094 -28.503262352456659 0 -28.503262352456659 -11.83844138020504 0 0 0 0 -13.120623698886448 -35.491008357363171 0 -35.491008357363171 30.391187001499929 0 0 0 0 114.44664293404014 -73.01103502334081 0 -73.01103502334081 -131.62484390392638 0 0 0 0 39.842878298813503 -78.836770991394587 0 -78.836770991394587 119.60769582002831 0 0 0 0 49.790716472661188 -45.797935148111719 0 -45.797935148111719 35.069844921497861 0 0 0 0 243.49256936568327 -288.6567506200372 0 -288.6567506200372 176.006194614587 0 0 0 0 8.957561895145318 -0.7898895427606476 0 -0.7898895427606476 -6.4749595851935737 0 0 0 0 3.4371051720893462 2.8284973497722916 0 2.8284973497722916 0.79357087076552446 0 0 0 0 -185.03947600771312 280.82537243526531 0 280.82537243526531 302.19677698439045 0 0 0 0 -172.47660545723139 -134.92317007271049 0 -134.92317007271049 820.40795259972947 0 0 0 0 490.05730197075854 -159.89257707990328 0 -159.89257707990328 -41.396171387437789 0 0 0 0 11.918714025384823 0.89850723699665025 0 0.89850723699665025 1.6045402946412253 0 0 0 0 11.833298810839892 -182.50438374214718 0 -182.50438374214718 452.22008526108402 0 0 0 0 94.232875824526673 -67.593173370962177 0 -67.593173370962177 507.30099050627905 0 0 0 0 197.43315827836295 -381.30238920667762 0 -381.30238920667762 635.13991941237464 0 0 0 0 4.3665228354493149 -2.8998243570192024 0 -2.8998243570192024 0.97738687814879199 0 0 0 0 54.342278900042402 238.3145364348311 0 238.3145364348311 717.51916012178845 0 0 0 0 -1.5422848893240371 -2.5852619780998793 0 -2.5852619780998793 11.852521256497766 0 0 0 0 2.5364726252431726 -1.2546810110685271 0 -1.2546810110685271 6.0650891988144515 0 0 0 0 92.445186249473409 131.64503472853903 0 131.64503472853903 324.4258483506419 0 0 0 0 -61.708017003931673 -95.608244691797154 0 -95.608244691797154 636.10466108168475 0 0 0 0 -39.279126593696674 -99.551962325567729 0 -99.551962325567729 595.45019987571141 0 0 0 0 -51.187593420817379 3.1340984341936746 0 3.1340984341936746 26.285562449527788 0 0 0 0 -50.863132525781253 24.330965117439519 0 24.330965117439519 14.953765123304038 0 0 0 0 -3.9880185054081814 0.41753576583370489 0 0.41753576583370489 10.804970268008447 0 0 0 0 -36.100323954071968 7.0587070713313551 0 7.0587070713313551 7.1575327683895011 0 0 0 0 -36.455265267931168 6.5947072378576195 0 6.5947072378576195 32.112315315811429 0 0 0 0 -1.0110394329499286 -34.166455322722868 0 -34.166455322722868 40.554103439091705 0 0 0 0 12.660842454354679 -8.5085217309897416 0 -8.5085217309897416 35.605999283623532 0 0 0 0 2.440000396110471 -8.991781072446944 0 -8.991781072446944 14.838240715831574 0 0 0 0 -12.472391728694847 1.3416174522898032 0 1.3416174522898032 25.503315008789471 0 0 0 0 -46.467904253646793 240.5854949584791 0 240.5854949584791 45.632283963102964 0 0 0 0 -10.23125831133575 268.99334505901061 0 268.99334505901061 -61.319907211465761 0 0 0 0 27.609490489544669 -252.60879930158535 0 -252.60879930158535 554.30473762511974 0 0 0 0 -43.408114567471785 9.391700839078112 0 9.391700839078112 -91.511174553040291 0 0 0 0 -69.199129514393235 42.441465177362261 0 42.441465177362261 346.96922408339742 0 0 0 0 -1.6785067859022278 -0.93791222483939762 0 -0.93791222483939762 8.9582967787843302 0 0 0 0 -74.604010680317288 3.9706729154131608 0 3.9706729154131608 29.015301810381061 0 0 0 0 -46.570558617942424 -7.6984514757132274 0 -7.6984514757132274 19.648112940933061 0 0 0 0 -40.909239337013332 8.8439654652393074 0 8.8439654652393074 28.629346518078819 0 0 0 0 1.8242786969585723 -6.4784525074865087 0 -6.4784525074865087 16.233667225969839 0 0 0 0 -26.551127651109709 7.1744066031424154 0 7.1744066031424154 12.143369767596596 0 0 0 0 -35.004004865168667 31.257239729844514 0 31.257239729844514 -14.744732100502006 0 0 0 0 8.577650417958921 -71.354814808870287 0 -71.354814808870287 60.008254558400949 0 0 0 0 68.849910430188856 198.50618137509355 0 198.50618137509355 -317.00631077415892 0 0 0 0 1.7205100409437364 4.9178014991703094 0 4.9178014991703094 -47.707722570034093 0 0 0 0 21.007777044798331 -27.749488068340725 0 -27.749488068340725 -6.518509083907702 0 0 0 0 17.016421109142357 -67.470149761059474 0 -67.470149761059474 52.787030772509752 0 0 0 0 21.659500516964727 -47.773208466591313 0 -47.773208466591313 -22.461838504874322 0 0 0 0 142.94130227862468 -91.265801208503035 0 -91.265801208503035 46.649272753114928 0 0 0 0 0.15053054902231489 -0.20062393266151268 0 -0.20062393266151268 5.1111159321486639 0 0 0 0 -98.197283625205728 -154.67653171117126 0 -154.67653171117126 199.95387402304914 0 0 0 0 31.02468814918393 -23.022262067905103 0 -23.022262067905103 67.817082970956108 0 0 0 0 31.068925399274121 -31.227882645740465 0 -31.227882645740465 44.450048666803923 0 0 0 0 37.499033620064438 -11.027616672385193 0 -11.027616672385193 69.83905853131364 0 0 0 0 21.956895332366912 -18.616940547333797 0 -18.616940547333797 75.355170087299484 0 0 0 0 25.713614141963944 -26.362095427317399 0 -26.362095427317399 66.150007598262164 0 0 0 0 19.129559170249962 -22.223707533660672 0 -22.223707533660672 71.156582602823619 0 0 0 0 17.029777751027723 -24.197571759534185 0 -24.197571759534185 75.116954779085063 0 0 0 0 11.571151352416564 -31.899071826032014 0 -31.899071826032014 69.576143659607624 0 0 0 0 15.704687916917464 -39.261910855362657 0 -39.261910855362657 82.377077993847706 0 0 0 0 25.151750026218906 -43.013302826948348 0 -43.013302826948348 64.165019054886216 0 0 0 0 13.227847155738345 -46.361707456984732 0 -46.361707456984732 63.229883431980852 0 0 0 0 23.132042849508252 -54.478024423668103 0 -54.478024423668103 14.181704199290834 0 0 0 0 20.587904450079805 -63.894802225629974 0 -63.894802225629974 56.429210572998272 0 0 0 0 20.650276491124714 -52.206733376173361 0 -52.206733376173361 60.854577757007064 0 0 0 0 15.139984234077019 -26.124011802006862 0 -26.124011802006862 16.773450009561202 0 0 0 0 22.935497642120936 -35.432084372550889 0 -35.432084372550889 24.589203448966146 0 0 0 0 25.852459749219634 -45.153366649981763 0 -45.153366649981763 33.90939138851536 0 0 0 0 22.226283795784639 -32.949400022011105 0 -32.949400022011105 41.201196827110834 0 0 0 0 39.615098217714149 -13.270960879861377 0 -13.270960879861377 36.826881477914867 0 0 0 0 28.099432072936906 -23.821235391311347 0 -23.821235391311347 28.254646511748433 0 0 0 0 28.966564026645528 -28.071183197387654 0 -28.071183197387654 48.890189020792604 0 0 0 0 29.534226129389481 -26.096166448358417 0 -26.096166448358417 15.773222343908856 0 0 0 0 1.5270614567662051 -7.4565563049909542 0 -7.4565563049909542 30.670411520211928 0 0 0 0 -4.0470145640219926 -5.1455573668936267 0 -5.1455573668936267 25.391557390757953 0 0 0 0 -1.3502977445059514 2.1905170536920195 0 2.1905170536920195 38.775192806613632 0 0 0 0 49.383414118512519 -4.3903740709429258 0 -4.3903740709429258 29.944054443054483 0 0 0 0 26.283004147750034 -13.07765580360865 0 -13.07765580360865 24.315323645096214 0 0 0 0 26.979431739188954 -6.987899351460328 0 -6.987899351460328 48.99607861059485 0 0 0 0 51.276202887274849 12.496019458747469 0 12.496019458747469 60.606720516385394 0 0 0 0 50.998635188883782 2.8786166109639453 0 2.8786166109639453 46.657322689206921 0 0 0 0 35.951563390686715 -11.609570747204998 0 -11.609570747204998 56.334591263395851 0 0 0 0 43.836731451563537 -1.3474164334948 0 -1.3474164334948 68.636113334068796 0 0 0 0 32.875160846450854 -18.420540149447334 0 -18.420540149447334 59.192617027008964 0 0 0 0 42.918836900327733 3.1997543661345844 0 3.1997543661345844 64.519166665675584 0 0 0 0 49.722630283703495 13.287230010026633 0 13.287230010026633 74.840984185197158 0 0 0 0 71.078939745568277 32.111835310512106 0 32.111835310512106 69.355117226208677 0 0 0 0 70.229822999644966 57.459806285645755 0 57.459806285645755 81.876987036826904 0 0 0 0 48.012226220443154 41.201135337778396 0 41.201135337778396 92.981519215289154 0 0 0 0 84.872690410540599 71.933256086063921 0 71.933256086063921 94.756002141112731 0 0 0 0 56.784351583308307 14.856000285919436 0 14.856000285919436 51.958462381531717 0 0 0 0 97.135177852890592 48.093491314059065 0 48.093491314059065 58.824188855625835 0 0 0 0 67.765624870168722 8.4204746193645406 0 8.4204746193645406 29.090361885144375 0 0 0 0 124.26128559709286 36.144488168749376 0 36.144488168749376 7.3139252433902584 0 0 0 0 135.8177041879826 117.07237837240245 0 117.07237837240245 95.468689509725664 0 0 0 0 116.89753817628025 97.342698524793377 0 97.342698524793377 75.904558657915913 0 0 0 0 -0.96876588532813912 -0.82482057312154211 0 -0.82482057312154211 36.256686410008115 0 0 0 0 40.207857909286759 12.191378360963427 0 12.191378360963427 52.277488170169818 0 0 0 0 35.766369790570025 -3.9063388164940989 0 -3.9063388164940989 23.504932994568662 0 0 0 0 61.754298004391899 2.6816926655492352 0 2.6816926655492352 6.7068970536638517 0 0 0 0 66.829158430395182 32.481261969885963 0 32.481261969885963 41.702299875636527 0 0 0 0 -0.86438428830206249 0.90022384974872693 0 0.90022384974872693 20.376522265054518 0 0 0 0 88.122157284571585 22.219880605891376 0 22.219880605891376 -36.670953735552757 0 0 0 0 191.08296579672424 275.56394521968468 0 275.56394521968468 379.21660336440254 0 0 0 0 -4.5108345299931898 -12.904333998369111 0 -12.904333998369111 4.0187374865345191 0 0 0 0 -3.9726972585036897 0.24880103587041447 0 0.24880103587041447 2.5013899450103949 0 0 0 0 0.58244097619104807 2.5397322994436351 0 2.5397322994436351 3.5247233278511771 0 0 0 0 209.22435011477683 219.38571824153769 0 219.38571824153769 125.27655297135061 0 0 0 0 107.21471648598913 153.6684471096587 0 153.6684471096587 85.621344738567132 0 0 0 0 179.85507361638338 95.472222419048194 0 95.472222419048194 21.063679463220979 0 0 0 0 273.3572478003789 -202.37358923029933 0 -202.37358923029933 1056.9363154022285 0 0 0 0 -120.29947671401442 665.31802253881688 0 665.31802253881688 952.17229043086991 0 0 0 0 -151.09843979862853 -91.0315856637244 0 -91.0315856637244 1488.1359554540686 0 0 0 0 59.649035454267505 375.25201651929819 0 375.25201651929819 73.771949022288027 0 0 0 0 8.0846788475964786 311.16736784109526 0 311.16736784109526 697.15406467417779 0 0 0 0 -128.54710668274674 11.781264128134353 0 11.781264128134353 547.16627770354535 0 0 0 0 353.83805068006188 -221.31560486222406 0 -221.31560486222406 199.07406842187629 0 0 0 0 -37.516520322535143 -108.04760527719554 0 -108.04760527719554 676.24095853514154 0 0 0 0 227.33408697572304 -413.26211155273631 0 -413.26211155273631 791.99839404763043 0 0 0 0 1.0637620666675742 -2.263145586777469 0 -2.263145586777469 5.1055817708247559 0 0 0 0 168.99935527935304 40.922214171499945 0 40.922214171499945 -59.686888152908068 0 0 0 0 139.54933582553076 -171.76674708758947 0 -171.76674708758947 198.65679691534024 0 0 0 0 197.88000111204434 -202.34021151415845 0 -202.34021151415845 186.54632724760449 0 0 0 0 -57.953415414905521 -193.42671889987105 0 -193.42671889987105 1222.4706576170065 0 0 0 0 -70.404138209756638 -17.403008922738081 0 -17.403008922738081 974.82361215421588 0 0 0 0 302.51732755244575 299.56915603825837 0 299.56915603825837 -28.48347015955369 0 0 0 0 97.844345711432652 410.04971208978895 0 410.04971208978895 724.91335699144111 0 0 0 0 -135.55321305442067 -181.16959409473202 0 -181.16959409473202 6.9958619159733644 0 0 0 0 -39.445039611746097 2.976342505186949 0 2.976342505186949 -20.993327671021689 0 0 0 0 5.2316756714138117 -7.0702979292843366 0 -7.0702979292843366 9.641239141818204 0 0 0 0 193.44752098707113 11.844806667388184 0 11.844806667388184 4.9919786392274546 0 0 0 0 103.24001521935679 96.594374636282737 0 96.594374636282737 176.06348796142265 0 0 0 0 65.105460325502463 -188.47538159890792 0 -188.47538159890792 -172.52610975020798 0 0 0 0 -144.35294987360248 -53.557877773411747 0 -53.557877773411747 13.346060428622877 0 0 0 0 -152.14048483213264 -13.519869805335475 0 -13.519869805335475 -95.436690350295976 0 0 0 0 -106.52546147661997 -85.648539735309896 0 -85.648539735309896 -4.653109223843785 0 0 0 0 -104.52621855806683 -1.5722011653706431 0 -1.5722011653706431 -36.836375548882643 0 0 0 0 -3.5594404637904518 -65.927761309401831 0 -65.927761309401831 -28.039567312516738 0 0 0 0 19.157332289624264 -1.9501733597244311 0 -1.9501733597244311 -46.604114689223934 0 0 0 0 57.414428446256352 -96.294257291578106 0 -96.294257291578106 -48.891867544669367 0 0 0 0 30.944463076728425 -26.270179142229608 0 -26.270179142229608 13.205620207416359 0 0 0 0 107.85329010106307 -9.2868333734259068 0 -9.2868333734259068 -76.348445420750068 0 0 0 0 -8.3816819007715821 60.177393689762539 0 60.177393689762539 -22.409004078435828 0 0 0 0 14.926614012669233 3.3261124579585157 0 3.3261124579585157 155.34516763968259 0 0 0 0 4.2691048523293915 -43.320000555275811 0 -43.320000555275811 31.069732203861875 0 0 0 0 31.535879821696199 -33.039342737101833 0 -33.039342737101833 -83.693145708268275 0 0 0 0 -20.893419506982355 -28.363222525782476 0 -28.363222525782476 4.8052296122186817 0 0 0 0 -20.139607131315643 -31.430516235483083 0 -31.430516235483083 -32.891065192830865 0 0 0 0 4.2100531392222731 -11.875972218377129 0 -11.875972218377129 21.387180389092961 0 0 0 0 -13.616974995832607 -18.685265711596003 0 -18.685265711596003 30.408933744285605 0 0 0 0 0.57188047945783183 -12.096209929710312 0 -12.096209929710312 -90.225284533233207 0 0 0 0 -62.37595066629774 -88.508849017216562 0 -88.508849017216562 -4.8294279081310378 0 0 0 0 -0.077025448330648061 -2.7618620050039837 0 -2.7618620050039837 1.8523398635811645 0 0 0 0 5.1724155177824276 -24.665063575946313 0 -24.665063575946313 7.223709217007638 0 0 0 0 -7.9083408201813636 3.4910624570916298 0 3.4910624570916298 54.884170128231531 0 0 0 0 -3.6714182687937864 -3.1685476752973045 0 -3.1685476752973045 37.060505278084747 0 0 0 0 2.1574896843449096 13.969421221117955 0 13.969421221117955 160.26944025057855 0 0 0 0 -2.2771036808488123 10.902644283012901 0 10.902644283012901 75.477207343728764 0 0 0 0 -4.3834196021930438 -2.1140944724829751 0 -2.1140944724829751 57.454680892027682 0 0 0 0 2.1574896843449096 13.969421221112498 0 13.969421221112498 160.2694402505731 0 0 0 0 -5.7234937051162937 -2.7635568913335717 0 -2.7635568913335717 51.123899263901336 0 0 0 0 -10.165829558613041 -0.15675202969578095 0 -0.15675202969578095 68.778952102220501 0 0 0 0 -6.7484068235708037 4.6517632929389947 0 4.6517632929389947 60.492753404127143 0 0 0 0 -2.6809926623281264 9.0228996012811251 0 9.0228996012811251 38.417906690675153 0 0 0 0 -9.0512059941715961 30.496310394206375 0 30.496310394206375 84.657640806288327 0 0 0 0 1.035930347165845 -13.328599751144793 0 -13.328599751144793 143.49421402515054 0 0 0 0 4.0195002746564592 8.8171281460602913 0 8.8171281460602913 15.780639807387038 0 0 0 0 0.47267830509023767 11.711188169776278 0 11.711188169776278 14.85133586135278 0 0 0 0 8.5400430900311903 4.0170164308024141 0 4.0170164308024141 174.54422378901472 0 0 0 0 4.189517869290512 17.625609800861639 0 17.625609800861639 13.726461947822827 0 0 0 0 2.1574896843430906 13.969421221110679 0 13.969421221110679 160.26944025058765 0 0 0 0 9.6100223599018939 -25.715623791227983 0 -25.715623791227983 48.477467589204494 0 0 0 0 16.339199638806349 -25.923065884540847 0 -25.923065884540847 114.49152549052087 0 0 0 0 18.332099931031735 -23.680509037287266 0 -23.680509037287266 71.873798704960791 0 0 0 0 -20.036259730697566 4.3624859326155274 0 4.3624859326155274 90.517970440258068 0 0 0 0 4.531782558320856 26.591956178301189 0 26.591956178301189 60.308800127582799 0 0 0 0 -0.11932143243807047 -0.61091658214020583 0 -0.61091658214020583 11.697129233705697 0 0 0 0 17.776360149943685 14.447648975168704 0 14.447648975168704 43.920079195740982 0 0 0 0 -5.8661081564183473 20.104980076813106 0 20.104980076813106 48.976447146144778 0 0 0 0 2.8280222594476072 3.9535364166004001 0 3.9535364166004001 66.222012907906901 0 0 0 0 5.7121631368461427 10.817665522672741 0 10.817665522672741 42.768638059430799 0 0 0 0 -21.49011585288099 -7.1399344443052541 0 -7.1399344443052541 70.68294829322258 0 0 0 0 -4.5835360911542722 11.570152292934722 0 11.570152292934722 31.360302385976603 0 0 0 0 39.878359598913903 17.574869987925922 0 17.574869987925922 -35.854126471545896 0 0 0 0 11.604036360002283 4.489637137754471 0 4.489637137754471 1.0516044037794927 0 0 0 0 77.108251043928249 11.559770128500531 0 11.559770128500531 -43.731694336798682 0 0 0 0 33.920949824252602 -42.785760009566729 0 -42.785760009566729 -73.950856534036575 0 0 0 0 31.962321188850694 -21.22669615671748 0 -21.22669615671748 -41.741817005415214 0 0 0 0 -16.574715034476021 40.644736977723191 0 40.644736977723191 117.56637333246731 0 0 0 0 -12.429472910077948 -20.43995196576725 0 -20.43995196576725 163.16748736506997 0 0 0 0 -52.996793388634046 163.07992518631454 0 163.07992518631454 -57.376645663047384 0 0 0 0 132.8470505453422 77.603061466492363 0 77.603061466492363 -86.689111466192116 0 0 0 0 -72.63204477797467 -8.8305089979476179 0 -8.8305089979476179 111.22538431070279 0 0 0 0 148.22307391028426 59.065294924170303 0 59.065294924170303 39.639917490287189 0 0 0 0 79.061705955424713 39.853353880191207 0 39.853353880191207 11.715319559851196 0 0 0 0 52.963122915167332 -27.596454796905164 0 -27.596454796905164 -35.842575184680754 0 0 0 0 81.738989015912921 18.083954814181197 0 18.083954814181197 -40.489893163816305 0 0 0 0 82.586032462204457 0.59857902256044326 0 0.59857902256044326 8.5008313730941154 0 0 0 0 72.351386007255314 -4.9768538922726293 0 -4.9768538922726293 -26.55942965180293 0 0 0 0 55.85786774693679 93.799706290403265 0 93.799706290403265 62.641952921985649 0 0 0 0 92.684686280748792 48.737633029690187 0 48.737633029690187 61.671309274446685 0 0 0 0 92.214999783346229 60.420677556752707 0 60.420677556752707 253.54924672751804 0 0 0 0 114.10265402221148 26.798723392992542 0 26.798723392992542 72.393324763776036 0 0 0 0 95.637818287694245 61.215262547841121 0 61.215262547841121 75.391080203131423 0 0 0 0 83.721183847464999 27.291512131123454 0 27.291512131123454 192.81484657104011 0 0 0 0 84.417092456065802 12.971572661081154 0 12.971572661081154 56.615034386806656 0 0 0 0 117.6462114756996 174.24155442233314 0 174.24155442233314 275.64912244818333 0 0 0 0 108.50504237940004 115.1786141781995 0 115.1786141781995 158.90010557566711 0 0 0 0 30.278573221316492 140.45466362369552 0 140.45466362369552 587.62594649994571 0 0 0 0 37.135032393054644 71.632878712480306 0 71.632878712480306 256.32721083523575 0 0 0 0 -32.103213130409472 -21.940902376023587 0 -21.940902376023587 514.07019287932781 0 0 0 0 -29.142148640518599 -45.019473302728329 0 -45.019473302728329 693.93952842435101 0 0 0 0 94.758987572670407 131.31861736777046 0 131.31861736777046 225.75985488732113 0 0 0 0 125.75888408612582 -41.145099854307773 0 -41.145099854307773 260.19482007679471 0 0 0 0 24.900398386307188 14.522724051104888 0 14.522724051104888 511.67779662671092 0 0 0 0 9.4872795304868305 -81.484628965750744 0 -81.484628965750744 588.45586277151597 0 0 0 0 50.101095624604568 -210.65132114099106 0 -210.65132114099106 966.21939837566242 0 0 0 0 342.14516124881004 -59.895211354451021 0 -59.895211354451021 269.44671020367241 0 0 0 0 32.86590520020377 152.3076469955231 0 152.3076469955231 683.54588411000304 0 0 0 0 35.840016318262201 7.0574707319537993 0 7.0574707319537993 42.902704045613063 0 0 0 0 -268.27217133518184 -113.65964921347404 0 -113.65964921347404 502.07672130709034 0 0 0 0 1047.7414815014677 1125.2894040614483 0 1125.2894040614483 1795.1847988155205 0 0 0 0 129.97795003462261 -1259.8752419498924 0 -1259.8752419498924 -984.88838309456332 0 0 0 0 -9.8746037621200244 51.01416337538727 0 51.01416337538727 128.36597295300669 0 0 0 0 364.08967933203394 196.69932472771325 0 196.69932472771325 89.233475552624441 0 0 0 0 0.66322858411741203 2.0308787477418235 0 2.0308787477418235 10.881605543758667 0 0 0 0 397.66739256212844 274.9889070876452 0 274.9889070876452 214.58418444637209 0 0 0 0 316.39695053349209 222.8468814963353 0 222.8468814963353 162.11858868824493 0 0 0 0 -170.73288605126208 369.59506263342337 0 369.59506263342337 86.305384681529176 0 0 0 0 -10.593434333642714 50.091421276784715 0 50.091421276784715 126.04012559065373 0 0 0 0 19.508988701104229 -41.762889290672319 0 -41.762889290672319 316.25607782718726 0 0 0 0 142.30338535456559 397.73554534258801 0 397.73554534258801 726.85441059214645 0 0 0 0 -295.80486220169956 -195.89500831123587 0 -195.89500831123587 773.38258309062803 0 0 0 0 -74.574124262455456 49.668369382108722 0 49.668369382108722 231.73916774209647 0 0 0 0 -38.285471785043455 175.62030462179246 0 175.62030462179246 469.61128737403487 0 0 0 0 67.549741177792299 119.68116372206714 0 119.68116372206714 265.60593812399748 0 0 0 0 61.683117937926482 92.305664143867034 0 92.305664143867034 158.10728303651558 0 0 0 0 94.447835512084652 113.31844565795473 0 113.31844565795473 136.16782511127531 0 0 0 0 158.31495783022669 128.5610778754999 0 128.5610778754999 112.96756284491858 0 0 0 0 84.097165124423043 54.642704753197904 0 54.642704753197904 64.182243048926466 0 0 0 0 72.341729383636803 56.51496272883378 0 56.51496272883378 80.671906799107092 0 0 0 0 25.462016991848916 50.185003557764503 0 50.185003557764503 92.43082319079258 0 0 0 0 57.964789691635573 65.783105565260485 0 65.783105565260485 108.53115041277488 0 0 0 0 65.026981598505699 -162.18407949357788 0 -162.18407949357788 223.96861824202733 0 0 0 0 0.94869877696687788 3.5386571220919549 0 3.5386571220919549 36.539724308870007 0 0 0 0 -6.8819991275070294 7.4782815117832797 0 7.4782815117832797 80.942559939074272 0 0 0 0 97.382591556645067 15.410706581467821 0 15.410706581467821 4.0768462122614437 0 0 0 0 2.6127971441608429 4.1473916494228433 0 4.1473916494228433 17.426308908696669 0 0 0 0 21.504950377602121 -0.40419970860011745 0 -0.40419970860011745 64.404761906916974 0 0 0 0 4.7924045228763381 22.42884190776217 0 22.42884190776217 104.39459213722148 0 0 0 0 -111.45339924678524 -10.44977821311295 0 -10.44977821311295 153.58496358900447 0 0 0 0 -9.7447227433585795 47.683403730254213 0 47.683403730254213 78.953229640610516 0 0 0 0 19.813808501106848 50.312245999492006 0 50.312245999492006 69.025668151400168 0 0 0 0 -5.733781220235926 42.876748954084178 0 42.876748954084178 81.988990036676114 0 0 0 0 -10.033066936949638 65.583529637719039 0 65.583529637719039 61.759771145771083 0 0 0 0 -61.701521338788226 78.978451946284622 0 78.978451946284622 72.615216608646733 0 0 0 0 -17.736048673358937 46.945319716935046 0 46.945319716935046 79.18544219969408 0 0 0 0 24.081770544076342 42.925446938637833 0 42.925446938637833 62.320622287341394 0 0 0 0 27.433210915748589 67.751987252358958 0 67.751987252358958 54.003233915296732 0 0 0 0 21.211993363852116 46.727628092725354 0 46.727628092725354 22.482266240029276 0 0 0 0 1.8790352356040569 0.1040598609469896 0 0.1040598609469896 -1.7548583872452355 0 0 0 0 28.968834598455203 46.777949511622865 0 46.777949511622865 85.967704222397515 0 0 0 0 28.109367177078695 51.213488938352384 0 51.213488938352384 140.97817544238933 0 0 0 0 12.892391574188764 54.127415177637886 0 54.127415177637886 89.446228761487873 0 0 0 0 15.884380841269106 46.176279552539199 0 46.176279552539199 114.09763972099609 0 0 0 0 -64.973316773118427 41.051808291085763 0 41.051808291085763 48.657995788031258 0 0 0 0 18.30242131049738 43.141126756891026 0 43.141126756891026 70.022361305382219 0 0 0 0 15.262194485844702 67.974053772595653 0 67.974053772595653 53.608827249176102 0 0 0 0 0.58406228695628282 0.05986089539314321 0 0.05986089539314321 0.068960998874544543 0 0 0 0 -8.1223101201618135 74.740454769365897 0 74.740454769365897 59.299456807872048 0 0 0 0 -42.192623428344291 63.927214136296243 0 63.927214136296243 86.6878435023973 0 0 0 0 -59.849530832863934 116.94869927815307 0 116.94869927815307 -34.898102067512809 0 0 0 0 4.5061008689051993 23.014379730421396 0 23.014379730421396 88.005730298643016 0 0 0 0 -175.02459230280982 111.8962694306756 0 111.8962694306756 112.70181655349734 0 0 0 0 -826.1700034023952 159.63068064817344 0 159.63068064817344 157.33028270574687 0 0 0 0 -68.282736555125666 -117.35598876013682 0 -117.35598876013682 72.464796771686451 0 0 0 0 -76.267132505844529 -142.23043763576061 0 -142.23043763576061 13.435298971817247 0 0 0 0 69.14266079604522 -232.48943353026698 0 -232.48943353026698 -43.340664387404104 0 0 0 0 -513.27599977430827 -444.13773705373751 0 -444.13773705373751 403.31265340727259 0 0 0 0 143.80962644148508 -102.75329727205826 0 -102.75329727205826 -45.241498966192012 0 0 0 0 782.26547623364627 90.21069775360229 0 90.21069775360229 274.07736778962499 0 0 0 0 708.36353411285324 -137.57706283016159 0 -137.57706283016159 398.58328262508439 0 0 0 0 561.44548035639559 -6.2212425883226388 0 -6.2212425883226388 -43.029709978858591 0 0 0 0 377.55072370380162 97.203025842019997 0 97.203025842019997 329.11739998782286 0 0 0 0 313.38440586531942 -303.97722613529186 0 -303.97722613529186 109.16972363869354 0 0 0 0 25.868096105023369 137.35882363654673 0 137.35882363654673 381.75948592367058 0 0 0 0 566.49737616636571 306.34887971642456 0 306.34887971642456 432.35950704102288 0 0 0 0 545.01022070153044 141.61202846647211 0 141.61202846647211 22.037731513075414 0 0 0 0 -260.93129286096325 176.78584203992796 0 176.78584203992796 154.25238513482327 0 0 0 0 88.407113173782534 171.10425263380603 0 171.10425263380603 104.94224974565441 0 0 0 0 179.99022886625539 100.14502407393593 0 100.14502407393593 -59.407997657886881 0 0 0 0 201.63902088676167 154.93336461421131 0 154.93336461421131 -155.88524054958543 0 0 0 0 -356.30467011330177 263.77708738287765 0 263.77708738287765 -59.765617615994415 0 0 0 0 8.9871846502094517 25.206469274945704 0 25.206469274945704 -19.120717255380498 0 0 0 0 115.22134956683922 117.57551938777033 0 117.57551938777033 34.230481906583009 0 0 0 0 243.50354982962824 -95.852560459163215 0 -95.852560459163215 -58.367986537545221 0 0 0 0 306.46848330311991 -112.64049711215921 0 -112.64049711215921 -87.321728215407347 0 0 0 0 314.90109720025521 148.08133047889714 0 148.08133047889714 -124.10876349784667 0 0 0 0 95.544378958846664 -113.89887026674114 0 -113.89887026674114 -59.710707889734294 0 0 0 0 55.782644400903564 -60.886626325613634 0 -60.886626325613634 69.907293246549671 0 0 0 0 0.35353795646226049 15.793966223295811 0 15.793966223295811 47.495506410163472 0 0 0 0 -26.255705409404072 40.418058440736786 0 40.418058440736786 30.299694966539391 0 0 0 0 3.3573742743392097 23.605310290735645 0 23.605310290735645 51.610854276817605 0 0 0 0 5.2965335941827334 45.809173565943638 0 45.809173565943638 66.706964117423922 0 0 0 0 79.807871072655644 96.841328526126745 0 96.841328526126745 -54.93030271646785 0 0 0 0 31.797069965225319 36.36501368759491 0 36.36501368759491 40.52392530906036 0 0 0 0 -21.987968800856834 17.297015594012919 0 17.297015594012919 41.269959664772614 0 0 0 0 3.3444801794360108 17.760672507254171 0 17.760672507254171 48.117871418261018 0 0 0 0 -18.387712729777149 -5.7111035179841565 0 -5.7111035179841565 83.001977797401196 0 0 0 0 28.957551546791933 1.5898479443058022 0 1.5898479443058022 21.417795349152584 0 0 0 0 -4.5193478502715152 32.211824936646735 0 32.211824936646735 64.949058018552023 0 0 0 0 30.38046824951698 -40.262362273046165 0 -40.262362273046165 63.764402847999008 0 0 0 0 7.2144198602206053 24.101048751237649 0 24.101048751237649 48.262282744643073 0 0 0 0 -7.1001759191071869 33.29865153123319 0 33.29865153123319 64.196228756060009 0 0 0 0 -9.4493942228705237 20.332393336961104 0 20.332393336961104 43.605052029120998 0 0 0 0 -0.89599749048267263 12.736092506432712 0 12.736092506432712 12.048430504749149 0 0 0 0 24.839763714209539 -37.388299282432854 0 -37.388299282432854 284.2936744360486 0 0 0 0 145.44571820419696 -68.534148682017985 0 -68.534148682017985 81.153047750209225 0 0 0 0 -20.850991790483022 -86.867622742647654 0 -86.867622742647654 194.11360232865627 0 0 0 0 -3.9371934405244247 79.126837731375417 0 79.126837731375417 111.75224624373732 0 0 0 0 5.6663947414907758 25.135148550411333 0 25.135148550411333 95.93500397161722 0 0 0 0 -298.36714646677751 12.149228055746789 0 12.149228055746789 129.87452014481823 0 0 0 0 104.4856322173024 -125.38541708379307 0 -125.38541708379307 22.552650520316092 0 0 0 0 91.162113654418135 -107.80988392481959 0 -107.80988392481959 7.1618948248360539 0 0 0 0 -0.0032065929217900491 -8.335728728408867 0 -8.335728728408867 6.8064362181103206 0 0 0 0 -11.156512589173065 -7.4723121995484689 0 -7.4723121995484689 9.9504685141873779 0 0 0 0 -6.4699639315395236 -10.69732716204453 0 -10.69732716204453 8.8550739627244184 0 0 0 0 -6.7029922475734018 -11.661562482408044 0 -11.661562482408044 5.4389037411165191 0 0 0 0 -0.016323009381208509 -13.87064326417385 0 -13.87064326417385 3.591485305558308 0 0 0 0 -5.6741876050380426 -17.730753959294816 0 -17.730753959294816 3.4159771626873408 0 0 0 0 0.026328333964193925 -24.016591936488641 0 -24.016591936488641 3.9593159728246974 0 0 0 0 -14.012262469889755 -17.984698360189213 0 -17.984698360189213 3.5150851246435195 0 0 0 0 -15.653416455496007 -20.78322213604406 0 -20.78322213604406 2.8382059359937557 0 0 0 0 -39.371310809403738 -20.431055150940665 0 -20.431055150940665 8.8306883075711085 0 0 0 0 -21.675461040316819 -12.886513117642608 0 -12.886513117642608 8.401490940246731 0 0 0 0 -15.718528923486218 -13.163044887667638 0 -13.163044887667638 8.198017933023948 0 0 0 0 -13.478672032431248 -9.8213443048516638 0 -9.8213443048516638 8.8674542426306289 0 0 0 0 -27.189979170696326 -11.386744809395168 0 -11.386744809395168 8.0246644334110897 0 0 0 0 -26.814748598013551 -8.1495648643103777 0 -8.1495648643103777 8.7433369717473397 0 0 0 0 -18.613536820422365 -4.4148026951443171 0 -4.4148026951443171 11.99842918588547 0 0 0 0 -22.892060281293695 -4.5371690270258114 0 -4.5371690270258114 12.049103287288744 0 0 0 0 0.025122194839156314 -0.87444968003588031 0 -0.87444968003588031 5.3409667318697984 0 0 0 0 -56.75339864986654 -16.095349849958438 0 -16.095349849958438 5.6379202681273455 0 0 0 0 -24.100162343818752 -9.7263405073390459 0 -9.7263405073390459 2.6858354454161599 0 0 0 0 1.1990803414767797 -7.5179464413613459 0 -7.5179464413613459 8.7207933452737052 0 0 0 0 -1.2228940728910942 4.0958505778689869 0 4.0958505778689869 14.873553069366608 0 0 0 0 -39.040838699935499 1.8038999955417694 0 1.8038999955417694 -3.6744432130653877 0 0 0 0 -16.173885630838527 -10.131321717388346 0 -10.131321717388346 4.4522781869309256 0 0 0 0 -1.1698509603215825 -7.2191067285020836 0 -7.2191067285020836 1.2538827542011859 0 0 0 0 0.25538553423576443 -1.0797881788752335 0 -1.0797881788752335 6.661441255410864 0 0 0 0 -17.59061332399375 -14.976788654035772 0 -14.976788654035772 6.5382760523352772 0 0 0 0 -2.9511106117480495 -13.194982129469281 0 -13.194982129469281 2.1117956735979533 0 0 0 0 -20.692765370778261 -13.031101489876164 0 -13.031101489876164 5.340225000603823 0 0 0 0 -14.914520637086071 -21.01388517578016 0 -21.01388517578016 1.9144438933290076 0 0 0 0 -4.9591329468120193 -18.085420670882741 0 -18.085420670882741 4.9261196672741789 0 0 0 0 -10.464248230959015 -21.647625222925853 0 -21.647625222925853 9.1790858115709852 0 0 0 0 13.87725170425341 -7.3243839825881878 0 -7.3243839825881878 1.8923021606751718 0 0 0 0 -22.240113548176964 -8.4031113752716919 0 -8.4031113752716919 5.0962476482454804 0 0 0 0 -8.2946082665780523 -12.312726519929129 0 -12.312726519929129 -2.4348434855637606 0 0 0 0 -17.462198194677228 -22.698391572455876 0 -22.698391572455876 -6.8288264680304565 0 0 0 0 -9.5111966522125577 -5.4285813629685435 0 -5.4285813629685435 10.303267103015969 0 0 0 0 -48.651713361851122 -26.278245155370314 0 -26.278245155370314 4.0621689113031607 0 0 0 0 0.25978693341619474 -2.4715833848982243 0 -2.4715833848982243 11.337574933308645 0 0 0 0 -41.304061969405041 -34.490631123597268 0 -34.490631123597268 7.3674925236264244 0 0 0 0 -0.51335262502100998 -3.1495581880998031 0 -3.1495581880998031 1.1923419084988609 0 0 0 0 -4.71212372411253 -21.502296623679285 0 -21.502296623679285 -11.523559242945339 0 0 0 0 6.283096073257127 -4.2715171855779772 0 -4.2715171855779772 38.323290689761052 0 0 0 0 5.9912379270264751 4.1111171452357667 0 4.1111171452357667 12.004221606388455 0 0 0 0 32.664988227896686 -7.2582886998243339 0 -7.2582886998243339 21.87248206177901 0 0 0 0 40.530467702703504 5.0435187415059772 0 5.0435187415059772 14.821283735582256 0 0 0 0 17.396674545860122 15.262203268703161 0 15.262203268703161 82.674817648759927 0 0 0 0 14.782069387798401 -16.395466662244871 0 -16.395466662244871 12.215629770616943 0 0 0 0 33.345337328541007 -7.1261334407972754 0 -7.1261334407972754 -1.9904157619457692 0 0 0 0 9.4318610731978652 -2.5303019332350232 0 -2.5303019332350232 22.67625702238729 0 0 0 0 6.701194048910196 -5.4041441468471021 0 -5.4041441468471021 -1.9990580438752659 0 0 0 0 9.1315349413428351 -8.3544558759349457 0 -8.3544558759349457 -1.9617737646331079 0 0 0 0 12.243545202794564 -10.565266043398879 0 -10.565266043398879 -0.91268166723602917 0 0 0 0 -1.8550293336543291 -14.608945109965134 0 -14.608945109965134 0.9295726535783615 0 0 0 0 -1.1093724342406173 -8.3926134367159193 0 -8.3926134367159193 1.6700400701811304 0 0 0 0 0.81252876236821026 0.74081937613702564 0 0.74081937613702564 0.3774257960521652 0 0 0 0 29.241798369504899 8.0864008808066501 0 8.0864008808066501 -4.27054610439518 0 0 0 0 13.472007942355333 9.9717951033035206 0 9.9717951033035206 -4.4695762062037829 0 0 0 0 111.92849976848895 39.80495899061134 0 39.80495899061134 169.35658039199188 0 0 0 0 97.291551695415109 -17.281640798661101 0 -17.281640798661101 -9.0984400953529985 0 0 0 0 0.78011435637509408 8.4826560604706174 0 8.4826560604706174 55.368546714962577 0 0 0 0 80.630915028855185 -93.381009890414134 0 -93.381009890414134 36.188561407594534 0 0 0 0 15.03186685291368 -75.4787018310235 0 -75.4787018310235 94.086322128307074 0 0 0 0 13.529584375887254 74.693108192372165 0 74.693108192372165 139.91079914366856 0 0 0 0 0.41403200648262628 0.35025959280181951 0 0.35025959280181951 0.42963321781186892 0 0 0 0 169.46144748463436 101.74946664577146 0 101.74946664577146 64.130236636658083 0 0 0 0 137.19140101651939 148.38771057917256 0 148.38771057917256 168.51918638907227 0 0 0 0 112.67613376446923 14.794257604618906 0 14.794257604618906 -64.143609099464811 0 0 0 0 0.87629603833893732 0.18014553830559521 0 0.18014553830559521 0.1502026089547428 0 0 0 0 76.662544154590989 64.309202683449257 0 64.309202683449257 89.667088797097676 0 0 0 0 115.22718849186322 105.04753498745413 0 105.04753498745413 96.266981099855911 0 0 0 0 150.00187099833755 97.284062438095134 0 97.284062438095134 61.872990837000543 0 0 0 0 145.68937115291925 47.020120234843489 0 47.020120234843489 108.13733198467889 0 0 0 0 76.220360517713061 52.152427978711785 0 52.152427978711785 62.38992398643677 0 0 0 0 83.249606387255824 73.913856054661665 0 73.913856054661665 122.89953583733586 0 0 0 0 124.74955861211654 67.961013140553405 0 67.961013140553405 105.25694824599486 0 0 0 0 127.73865641438732 69.625613787000475 0 69.625613787000475 51.827569220540681 0 0 0 0 113.47738704440144 85.35000648926507 0 85.35000648926507 80.456703513424145 0 0 0 0 119.14608780460321 72.487650723182014 0 72.487650723182014 110.05610214365151 0 0 0 0 117.44733406775435 39.585923657912645 0 39.585923657912645 148.15885662782239 0 0 0 0 72.774871516189108 68.052361415776886 0 68.052361415776886 216.00536422642472 0 0 0 0 84.092064317775566 81.78468991038244 0 81.78468991038244 117.98025998883531 0 0 0 0 100.49688279257714 56.758237236354034 0 56.758237236354034 83.448880060575902 0 0 0 0 92.839607079886846 55.697201180179036 0 55.697201180179036 54.200102223447175 0 0 0 0 83.616452264368206 74.56331099588715 0 74.56331099588715 68.387025958603772 0 0 0 0 80.213687593091549 72.951286584386253 0 72.951286584386253 78.532623785005853 0 0 0 0 88.977133938250176 61.852958670591761 0 61.852958670591761 65.786066689557629 0 0 0 0 29.575493249027545 42.476077527953748 0 42.476077527953748 72.84076234659733 0 0 0 0 15.306661955896516 -7.9702793055548682 0 -7.9702793055548682 17.199956736600143 0 0 0 0 49.230902785291278 36.940062979221693 0 36.940062979221693 31.796486775315316 0 0 0 0 -54.004789950485872 -38.2951903227804 0 -38.2951903227804 21.313056508632144 0 0 0 0 -10.933401551290444 11.117104506694886 0 11.117104506694886 18.699432949491893 0 0 0 0 32.655138013758744 3.9582859298739095 0 3.9582859298739095 -2.5579669742583064 0 0 0 0 38.649707451117536 50.310147586809762 0 50.310147586809762 55.269214804258809 0 0 0 0 37.184980904379188 38.875975892540737 0 38.875975892540737 86.315380745712901 0 0 0 0 89.570244697194909 47.069339257755018 0 47.069339257755018 81.257118693582015 0 0 0 0 60.817345586631461 94.732112587589654 0 94.732112587589654 144.48125803993753 0 0 0 0 71.192131541292497 44.373702852011775 0 44.373702852011775 201.35090114281047 0 0 0 0 38.121581560837171 48.215870498985169 0 48.215870498985169 135.49944866912119 0 0 0 0 50.390993369812236 67.750672104004479 0 67.750672104004479 144.8901419435133 0 0 0 0 65.32680665261023 124.8297980594798 0 124.8297980594798 197.80943255810416 0 0 0 0 79.412323416539834 48.427001804371685 0 48.427001804371685 20.314723849121947 0 0 0 0 -38.993685140080515 -10.972402021056041 0 -10.972402021056041 44.337287453028694 0 0 0 0 -25.235538376034981 26.677715178153449 0 26.677715178153449 124.61894095098251 0 0 0 0 42.383207744200263 106.73206432363804 0 106.73206432363804 97.337877116151503 0 0 0 0 -1.623044245898505 -0.64716947369015543 0 -0.64716947369015543 6.2501684732560534 0 0 0 0 -0.0025394139944860819 -2.2705550689970551 0 -2.2705550689970551 7.7218068578076782 0 0 0 0 -0.3114031425973629 -0.8486364589236004 0 -0.8486364589236004 8.0693098669215146 0 0 0 0 -2.6634292371207078 -2.753318906405184 0 -2.753318906405184 7.6529073774945573 0 0 0 0 -2.0073300197114841 -4.8101476271040156 0 -4.8101476271040156 8.3406646527801058 0 0 0 0 -0.0034446170020319862 -3.8390168378282397 0 -3.8390168378282397 7.417941671810695 0 0 0 0 -3.8918110933942267 -4.4792226965109876 0 -4.4792226965109876 8.7464974503964186 0 0 0 0 -0.066753546339705302 -1.7272818616788967 0 -1.7272818616788967 10.075848897031335 0 0 0 0 -6.3076961984814375 -6.7987934483462595 0 -6.7987934483462595 9.7607835748112848 0 0 0 0 0.18114985094208241 -2.2784258873206582 0 -2.2784258873206582 10.969428492953796 0 0 0 0 -5.3536274728683537 -6.1279458039134624 0 -6.1279458039134624 7.8770235299452906 0 0 0 0 16.830167776729766 13.171015969295695 0 13.171015969295695 462.5777526525726 0 0 0 0 -34.546999568241304 -20.760745304676675 0 -20.760745304676675 570.1394465527701 0 0 0 0 -31.176010361958816 67.00546080778804 0 67.00546080778804 593.03252991192858 0 0 0 0 0.89977460092334816 -46.777037209452828 0 -46.777037209452828 606.44704336707218 0 0 0 0 -76.556111243495508 37.372463736013742 0 37.372463736013742 791.50306516477576 0 0 0 0 -0.044373538517435578 0.3354101703124357 0 0.3354101703124357 3.6674488950436057 0 0 0 0 364.13565798443301 402.90242950319225 0 402.90242950319225 355.53692193543247 0 0 0 0 -0.0010212216294057585 -0.99076632920778573 0 -0.99076632920778573 5.9537929973157588 0 0 0 0 83.764933846452607 181.84219793834745 0 181.84219793834745 244.60490277706413 0 0 0 0 124.69901024036582 74.289308633320616 0 74.289308633320616 54.709452653609333 0 0 0 0 27.883940856080159 281.66191109162173 0 281.66191109162173 750.16366844793083 0 0 0 0 -2.4179401083783034 171.67591449585052 0 171.67591449585052 365.50251356497756 0 0 0 0 -35.261824114113267 110.89925515666619 0 110.89925515666619 549.47889366043091 0 0 0 0 -14.683981097740116 67.773066483721777 0 67.773066483721777 386.05351537414163 0 0 0 0 24.564661939174471 111.33191561097919 0 111.33191561097919 333.85885622887145 0 0 0 0 33.100619479799207 79.601959930267185 0 79.601959930267185 262.01770313112502 0 0 0 0 12.526272111709034 136.27720088916067 0 136.27720088916067 385.07180580646673 0 0 0 0 32.748636462588692 92.97038301436919 0 92.97038301436919 286.8508017713757 0 0 0 0 39.905338774167376 28.494836961326655 0 28.494836961326655 342.25598521862412 0 0 0 0 -14.645852280563318 64.378396376850105 0 64.378396376850105 433.01325917628128 0 0 0 0 -45.422321248566547 -7.6356043731120735 0 -7.6356043731120735 531.35999839662691 0 0 0 0 -2.097000871197281 3.0773440893644874 0 3.0773440893644874 466.65540266642347 0 0 0 0 -45.666986262528894 32.234408161668398 0 32.234408161668398 509.60025900974506 0 0 0 0 -51.037751802848561 11.946862820666865 0 11.946862820666865 542.16152890588273 0 0 0 0 -76.741689598097366 4.9952096422930481 0 4.9952096422930481 540.48042358063685 0 0 0 0 -53.56291158798868 26.0406606853212 0 26.0406606853212 483.27402979350882 0 0 0 0 -60.849776300618146 -11.463473507261369 0 -11.463473507261369 530.63443810303579 0 0 0 0 65.129666155060818 -93.0682148844935 0 -93.0682148844935 579.1602534808917 0 0 0 0 125.68890571937595 -14.76493837390808 0 -14.76493837390808 411.40514542567325 0 0 0 0 -1.6882101014999762 1.6754246139826137 0 1.6754246139826137 461.77563999006816 0 0 0 0 37.996435265481381 44.41364340192149 0 44.41364340192149 336.6575289023167 0 0 0 0 85.175063108874497 -22.465544325728843 0 -22.465544325728843 403.34595253525913 0 0 0 0 87.341462751548306 15.594628979990375 0 15.594628979990375 262.60366108424932 0 0 0 0 80.031549220905049 30.481783402294241 0 30.481783402294241 320.123645185653 0 0 0 0 93.932248471296148 28.711163519229558 0 28.711163519229558 320.06739896329236 0 0 0 0 136.95636685010408 -0.96087410690961406 0 -0.96087410690961406 210.48328759676224 0 0 0 0 0.79744020849084718 -0.2301966638713111 0 -0.2301966638713111 0.42245947399976558 0 0 0 0 82.054772306327777 92.379248774046573 0 92.379248774046573 132.78639260705677 0 0 0 0 67.104051832104119 -69.634829529157287 0 -69.634829529157287 295.44626799081016 0 0 0 0 112.88570840083003 -13.966601454783813 0 -13.966601454783813 353.24664839350589 0 0 0 0 59.574329212422072 -69.604806041083066 0 -69.604806041083066 413.9809619395819 0 0 0 0 114.72044091731425 -29.727338799450081 0 -29.727338799450081 405.01589320058702 0 0 0 0 84.676177855102878 -5.9212581503779802 0 -5.9212581503779802 526.32174667249637 0 0 0 0 16.490236016354686 -58.593733431429428 0 -58.593733431429428 497.65157614347117 0 0 0 0 3.5971345889319082 -56.938598897862903 0 -56.938598897862903 560.69682026933879 0 0 0 0 44.941401530600388 -115.00917476535687 0 -115.00917476535687 357.09068548071809 0 0 0 0 -1.8795606677251726 63.164162984212453 0 63.164162984212453 370.10231233927334 0 0 0 0 106.04535496662066 -26.621348610065979 0 -26.621348610065979 289.0615240088955 0 0 0 0 175.50701700487093 -61.947041477353196 0 -61.947041477353196 198.45195280048938 0 0 0 0 99.964117695478308 10.856960038960096 0 10.856960038960096 237.27974892928614 0 0 0 0 -223.79235330704114 -88.552858190530969 0 -88.552858190530969 426.98962376686177 0 0 0 0 -249.95477225217064 -168.73441576714686 0 -168.73441576714686 955.64491638326581 0 0 0 0 0.30920686510299156 1.0006069744796093 0 1.0006069744796093 1.3876793391632702 0 0 0 0 -110.67418954025607 -63.319056912587257 0 -63.319056912587257 364.74424686152634 0 0 0 0 90.150478081525023 -55.435747772475224 0 -55.435747772475224 275.39622548983607 0 0 0 0 42.808741606446688 -20.925608055888006 0 -20.925608055888006 304.10386640563956 0 0 0 0 125.374388943648 -80.754571427230985 0 -80.754571427230985 289.17826554679777 0 0 0 0 -59.545569822819516 175.17684182763333 0 175.17684182763333 197.05790348659139 0 0 0 0 -48.814905958806548 -46.057544579387468 0 -46.057544579387468 532.91813927611656 0 0 0 0 0.061196153096020112 0.43736124251563524 0 0.43736124251563524 0.78836757644697286 0 0 0 0 5.7076213203631596 19.744456931111927 0 19.744456931111927 278.43077633652138 0 0 0 0 -74.310672741778944 18.230771205700876 0 18.230771205700876 380.480821686946 0 0 0 0 -53.796879863249472 140.89628438667592 0 140.89628438667592 341.32338035466091 0 0 0 0 71.670790957355507 -115.70106776131433 0 -115.70106776131433 7.6936367264715955 0 0 0 0 0.51557485442358608 -1.378294539956471 0 -1.378294539956471 2.1787269783051784 0 0 0 0 -7.2405651878307822 130.28871112096749 0 130.28871112096749 748.11075951279781 0 0 0 0 -70.128613394676336 48.667263293245924 0 48.667263293245924 490.05703888789867 0 0 0 0 -18.451490201588882 59.370772027414205 0 59.370772027414205 302.41008794732625 0 0 0 0 -18.259826232026022 34.420434224848577 0 34.420434224848577 321.86785906628938 0 0 0 0 -94.041129919369425 29.796180402112441 0 29.796180402112441 322.21612534689484 0 0 0 0 1.0835690014883148 -2.8606019319593656 0 -2.8606019319593656 3.8250801206746132 0 0 0 0 -37.480052436938422 -49.631638913786446 0 -49.631638913786446 279.23727996147318 0 0 0 0 -48.688870531651247 20.298913040142793 0 20.298913040142793 281.98847054572252 0 0 0 0 15.751402305682461 46.678821876441361 0 46.678821876441361 288.00140773065505 0 0 0 0 -79.969389731965123 21.62519630503084 0 21.62519630503084 469.31910286530911 0 0 0 0 37.444861321068458 94.516111007858854 0 94.516111007858854 369.50852841660162 0 0 0 0 32.454520375669347 42.155799304696075 0 42.155799304696075 769.0224304771109 0 0 0 0 0.51144938787221184 -1.3713898816584447 0 -1.3713898816584447 2.1248063022387385 0 0 0 0 57.829143907359637 -94.616587837390398 0 -94.616587837390398 -1.7490582658647327 0 0 0 0 106.75588755979572 -185.56404416473742 0 -185.56404416473742 508.93397227903915 0 0 0 0 133.49436018941719 -92.250894446008715 0 -92.250894446008715 530.7146268371871 0 0 0 0 0.0015720679341463817 -86.153098386908823 0 -86.153098386908823 542.2789000763114 0 0 0 0 60.180340185786562 -129.18807934204597 0 -129.18807934204597 375.1313357327017 0 0 0 0 -29.785982581793775 30.67137917598302 0 30.67137917598302 460.00628988043445 0 0 0 0 -39.165661339411344 -15.077430803663447 0 -15.077430803663447 450.4279163527608 0 0 0 0 -0.078771092431824397 -42.197379305912541 0 -42.197379305912541 319.72670688889048 0 0 0 0 0.27869767034326953 2.5113347296497039 0 2.5113347296497039 5.526298403244823 0 0 0 0 53.096638234092779 -976.06164329275634 0 -976.06164329275634 1137.606299210951 0 0 0 0 -119.1324014214224 512.12477145590856 0 512.12477145590856 -143.37783226526517 0 0 0 0 -645.18438402184256 -533.95191921925289 0 -533.95191921925289 1373.3684154051589 0 0 0 0 3.1706381817166158 9.1244831246634917 0 9.1244831246634917 25.682669223155585 0 0 0 0 85.326257990431714 439.914622786363 0 439.914622786363 -505.81057832602528 0 0 0 0 148.23251720127223 -383.54320897769503 0 -383.54320897769503 896.0071955282765 0 0 0 0 -301.83877393780722 231.16035179438768 0 231.16035179438768 465.99456753347476 0 0 0 0 -204.99250486391475 -36.665506088887923 0 -36.665506088887923 884.16881426327745 0 0 0 0 -136.39346380978284 31.693844553516101 0 31.693844553516101 388.64828455357929 0 0 0 0 -96.208252557245174 142.03355921174079 0 142.03355921174079 441.93813367941766 0 0 0 0 -76.373061872510334 11.715997329680249 0 11.715997329680249 121.71144972220645 0 0 0 0 -104.89573864113345 197.0810991926046 0 197.0810991926046 93.134590824367478 0 0 0 0 -30.499018009961731 30.06868223870697 0 30.06868223870697 93.367085969308391 0 0 0 0 -18.401315333710571 -15.261218853767787 0 -15.261218853767787 259.60715236858687 0 0 0 0 -118.38586586441602 72.922055260904017 0 72.922055260904017 60.119504737260286 0 0 0 0 -118.47850344156961 21.699794697611651 0 21.699794697611651 -201.1388470242091 0 0 0 0 -280.35903546881337 353.57486407171837 0 353.57486407171837 37.893793681898387 0 0 0 0 -1382.9750741062089 -1663.199203391734 0 -1663.199203391734 2124.1700951897656 0 0 0 0 -248.87362780525063 -70.66688567858364 0 -70.66688567858364 31.293626408252749 0 0 0 0 -41.167335492760913 20.18890553934034 0 20.18890553934034 47.99681524814514 0 0 0 0 1428.8373407062954 1099.4129949439521 0 1099.4129949439521 -1187.8147220047103 0 0 0 0 -180.13787718549906 -678.10228648965858 0 -678.10228648965858 142.09239235913628 0 0 0 0 -297.30803507943176 679.51148150418885 0 679.51148150418885 700.00424458736961 0 0 0 0 -1.4318623109603106 2.1907581073384463 0 2.1907581073384463 37.96306723263757 0 0 0 0 -17.770716482575637 1.958462921964383 0 1.958462921964383 67.88377466975362 0 0 0 0 41.976416937364434 -7.8643950779915031 0 -7.8643950779915031 26.635874284325837 0 0 0 0 73.167729107017692 -4.7360462336582714 0 -4.7360462336582714 30.667300604956836 0 0 0 0 -568.44067097237939 264.73344358059694 0 264.73344358059694 151.23417211098422 0 0 0 0 -1.4959071898715235 13.847693926623537 0 13.847693926623537 33.823889603489704 0 0 0 0 49.823273104050031 235.82381766742037 0 235.82381766742037 61.934565041447058 0 0 0 0 8.4636930721804049 17.83297080729244 0 17.83297080729244 -182.52858606667724 0 0 0 0 212.61919477915217 298.62504804825585 0 298.62504804825585 -69.913704479375156 0 0 0 0 543.81528749098834 124.33329834311007 0 124.33329834311007 -312.26452235972101 0 0 0 0 0.87731030137590027 3.3559416620130982 0 3.3559416620130982 18.094526681625268 0 0 0 0 3.5924832339812358 9.4615982094555946 0 9.4615982094555946 21.997537741165957 0 0 0 0 115.10667766437359 -56.878943626928958 0 -56.878943626928958 -170.49974670792471 0 0 0 0 -205.16440882736697 -7.3634609466826078 0 -7.3634609466826078 202.56385092023993 0 0 0 0 126.51363764723055 -73.771104460007336 0 -73.771104460007336 60.987515304506815 0 0 0 0 -33.019225456815619 20.228700784879948 0 20.228700784879948 58.011293493240373 0 0 0 0 67.616159435280366 -92.495166610453452 0 -92.495166610453452 156.71879401308252 0 0 0 0 416.6831821802657 -106.94726047878794 0 -106.94726047878794 -49.30668258832884 0 0 0 0 155.22328583957295 -213.98673338642766 0 -213.98673338642766 191.84186335581762 0 0 0 0 193.51593070447154 -287.7156830351596 0 -287.7156830351596 318.51976715979981 0 0 0 0 620.71753663133018 -327.6884552520205 0 -327.6884552520205 174.5368773235532 0 0 0 0 -39.200395772393819 -181.28941500224028 0 -181.28941500224028 393.69526307293563 0 0 0 0 472.50919176303699 -495.42474947746814 0 -495.42474947746814 395.34761020525912 0 0 0 0 -57.98419742154806 109.36250994921284 0 109.36250994921284 963.88771112058021 0 0 0 0 49.113632418799284 -406.62325982948823 0 -406.62325982948823 890.3607951184531 0 0 0 0 125.26848759342641 178.55104950623354 0 178.55104950623354 760.33569430321222 0 0 0 0 3.9389856891003925 6.1138338856273862 0 6.1138338856273862 4.8755989896685605 0 0 0 0 0.73087443367941951 -1.7329182402423733 0 -1.7329182402423733 5.8963404822148675 0 0 0 0 1215.7787086196797 -11.793540913349716 0 -11.793540913349716 -53.688348893483635 0 0 0 0 0.08446807756644148 1.0556835960378521 0 1.0556835960378521 825.8549026681867 0 0 0 0 -116.0854954782867 148.34577186136448 0 148.34577186136448 1159.704762871479 0 0 0 0 420.71986101829566 105.95959513933485 0 105.95959513933485 1163.0268344811484 0 0 0 0 -122.88688438465306 1033.146002569305 0 1033.146002569305 332.09802187921014 0 0 0 0 154.37974847384521 -588.75910666030177 0 -588.75910666030177 195.70716443518904 0 0 0 0 -306.47501314274882 392.04691948313848 0 392.04691948313848 18.686918234627228 0 0 0 0 -324.35016573150142 -237.4175381930836 0 -237.4175381930836 -167.54327890937566 0 0 0 0 -1257.4801441739005 698.44882001719998 0 698.44882001719998 648.1995913971914 0 0 0 0 4.2322229288303035 20.223515711322939 0 20.223515711322939 67.237077726860434 0 0 0 0 556.85003941544733 175.0120128609633 0 175.0120128609633 -493.32757454369857 0 0 0 0 32.35996203744071 -12.460020240396261 0 -12.460020240396261 -571.56118080442684 0 0 0 0 276.95606847419606 -336.78311251087871 0 -336.78311251087871 414.86690288240789 0 0 0 0 -5.9008695783045084 -101.72454954835302 0 -101.72454954835302 165.52173331467202 0 0 0 0 13.344616032779115 33.309492334454262 0 33.309492334454262 -59.848285059764748 0 0 0 0 -233.92092006345194 53.998405124220881 0 53.998405124220881 102.10285084133648 0 0 0 0 -87.168311326590072 -2.0620025163079845 0 -2.0620025163079845 -11.687824198917951 0 0 0 0 26.311211303378286 4.3632241360173794 0 4.3632241360173794 44.988517816203967 0 0 0 0 -26.368613290529879 76.629705792256573 0 76.629705792256573 84.746446568198735 0 0 0 0 21.935407151850598 58.207985845634539 0 58.207985845634539 173.78016583857971 0 0 0 0 16.683775423854968 -28.963349113400909 0 -28.963349113400909 218.85676517614775 0 0 0 0 -69.573875930040799 0.63595803147472907 0 0.63595803147472907 302.95451840214082 0 0 0 0 -74.112889571602949 2.3997642107060528 0 2.3997642107060528 363.42413091247727 0 0 0 0 1.3112196040554731 -0.29576584068797729 0 -0.29576584068797729 0.32253988917887 0 0 0 0 60.977287748746448 -8.8244457230175612 0 -8.8244457230175612 95.322105823917809 0 0 0 0 -17.321726594735026 57.438112315503531 0 57.438112315503531 271.34513897613942 0 0 0 0 38.114000329647268 -31.508413831395956 0 -31.508413831395956 437.13128784896981 0 0 0 0 122.84061498928895 -63.638859307517123 0 -63.638859307517123 320.57997545235412 0 0 0 0 9.4385984550189619 32.175509949440311 0 32.175509949440311 372.66359438408108 0 0 0 0 116.40887859399288 -57.501173600459879 0 -57.501173600459879 387.16065006824101 0 0 0 0 146.90945055843565 50.930333629294182 0 50.930333629294182 549.9620734209966 0 0 0 0 170.60008400410732 -129.30237322300673 0 -129.30237322300673 496.1990215691003 0 0 0 0 -36.437338611956648 54.55958023131825 0 54.55958023131825 368.10445923649968 0 0 0 0 -0.28335440502257825 67.911891782205203 0 67.911891782205203 351.68634198048676 0 0 0 0 40.24373489345237 10.3770442778914 0 10.3770442778914 241.0026173450824 0 0 0 0 6.1713983638061904 21.262666348771745 0 21.262666348771745 487.12001487640373 0 0 0 0 19.11387306983238 -9.0171699877028004 0 -9.0171699877028004 310.93646975015145 0 0 0 0 -56.59701180836376 110.87758327569463 0 110.87758327569463 255.42948389693629 0 0 0 0 -18.538548870012406 12.796525130335795 0 12.796525130335795 345.78280040679965 0 0 0 0 -5.4328536445481888 -137.34250343417443 0 -137.34250343417443 491.02306024410063 0 0 0 0 -5.7240032329104835 -180.37555518535737 0 -180.37555518535737 304.73435965045064 0 0 0 0 46.429591026334037 -170.98411818205204 0 -170.98411818205204 453.94829793648023 0 0 0 0 64.090416199040874 -221.65764021011273 0 -221.65764021011273 347.27560497578816 0 0 0 0 -28.07994615458027 -297.7747304090808 0 -297.7747304090808 448.7739229125873 0 0 0 0 -38.064570599770377 -287.73588104351074 0 -287.73588104351074 446.67687357295654 0 0 0 0 -17.131918442066365 -103.2258414337939 0 -103.2258414337939 618.96809128746099 0 0 0 0 -1.1275101297599122 -117.2559240852097 0 -117.2559240852097 832.54110484338889 0 0 0 0 313.55625128396014 -514.97023517724301 0 -514.97023517724301 691.16269522497532 0 0 0 0 -86.856867009151074 279.73826296628249 0 279.73826296628249 -116.33265582965396 0 0 0 0 -0.38720891827671933 1.0884422807260279 0 1.0884422807260279 4.4780942160902555 0 0 0 0 -24.973561101174255 16.86166915915237 0 16.86166915915237 593.39069401637971 0 0 0 0 -81.461142604823294 165.34565131598356 0 165.34565131598356 326.60554863308789 0 0 0 0 -51.734233640213688 -51.486519443904399 0 -51.486519443904399 219.88525409514114 0 0 0 0 95.082325848298524 -13.235750139687298 0 -13.235750139687298 127.97669864924683 0 0 0 0 -71.019917962435784 5.8127263103160658 0 5.8127263103160658 360.38499167391274 0 0 0 0 -141.47031633229108 -136.09198804470361 0 -136.09198804470361 162.4652736936041 0 0 0 0 -2.0940319765753999 0.20968663880992722 0 0.20968663880992722 2.1484338593787697 0 0 0 0 219.42627697856869 420.0504305549548 0 420.0504305549548 440.60552676650696 0 0 0 0 -35.083338399709646 -429.3241234333982 0 -429.3241234333982 606.51183410438534 0 0 0 0 -0.014745475038766109 0.87684884611792313 0 0.87684884611792313 1.2861539514366598 0 0 0 0 478.6533368507362 91.234473044693004 0 91.234473044693004 697.10344484649249 0 0 0 0 -568.16243288898158 -101.04254807985853 0 -101.04254807985853 245.70569983962923 0 0 0 0 73.461018787111357 7.5154559651418822 0 7.5154559651418822 219.87100705377816 0 0 0 0 -109.14979432158867 -176.56972148828936 0 -176.56972148828936 452.15219060031814 0 0 0 0 -13.931514786178457 -205.81814860557643 0 -205.81814860557643 240.40438256408379 0 0 0 0 -210.95007810854969 175.63421828388255 0 175.63421828388255 146.88656595473003 0 0 0 0 -42.983790690870478 -185.95606973073154 0 -185.95606973073154 354.94662868555497 0 0 0 0 -1.3040250639885236 2.9259934827379368 0 2.9259934827379368 9.9839002426444949 0 0 0 0 227.7089457750543 -238.41444918917477 0 -238.41444918917477 43.59807188497507 0 0 0 0 -2.0564787793696122 2.5063596140935971 0 2.5063596140935971 9.6470318381065567 0 0 0 0 -17.685648798275565 -29.612931970717909 0 -29.612931970717909 421.12251574428251 0 0 0 0 -331.4238118356152 156.35191122272226 0 156.35191122272226 146.56471800287545 0 0 0 0 126.87819688485257 -495.36898627737537 0 -495.36898627737537 814.66973315164796 0 0 0 0 -1.8410215509605341 1.0526530731388277 0 1.0526530731388277 3.4751886877275808 0 0 0 0 -296.32600354168801 211.71315949091149 0 211.71315949091149 -35.720043548040849 0 0 0 0 187.74336562526912 -293.02949405822073 0 -293.02949405822073 536.24872543624952 0 0 0 0 240.57436507989323 -403.69012049890807 0 -403.69012049890807 594.24472769092245 0 0 0 0 143.95664978442539 -304.83573127442651 0 -304.83573127442651 608.74309576892301 0 0 0 0 116.62783782313591 -312.94009565076703 0 -312.94009565076703 643.61792228804552 0 0 0 0 -68.887758738334242 -285.05800103440561 0 -285.05800103440561 733.51505296620599 0 0 0 0 143.62037839594166 -290.07250787305384 0 -290.07250787305384 479.52049411932239 0 0 0 0 5.8125877179521126 -304.82827665783407 0 -304.82827665783407 340.96325393744337 0 0 0 0 -25.760367813669006 -292.2978222391248 0 -292.2978222391248 489.64397277781973 0 0 0 0 -18.65064833846111 -105.30042022957423 0 -105.30042022957423 -96.061701970131253 0 0 0 0 12.250831544131415 -129.30940810823813 0 -129.30940810823813 755.56214818220906 0 0 0 0 1.3397286266791948 0.23790529440927344 0 0.23790529440927344 2.3472419825245439 0 0 0 0 109.51839709162618 -310.3474328348384 0 -310.3474328348384 191.58707872536615 0 0 0 0 -272.12055856673965 60.483850430818165 0 60.483850430818165 69.558863340644166 0 0 0 0 -106.28537395038848 -103.38469991477723 0 -103.38469991477723 111.25706183232251 0 0 0 0 -77.725746127500088 -75.570140085008461 0 -75.570140085008461 135.16233175871093 0 0 0 0 -136.15227967770596 23.682094633043562 0 23.682094633043562 1.9714301365747815 0 0 0 0 -173.96829423019688 -0.78080820861941902 0 -0.78080820861941902 84.105685303831706 0 0 0 0 -101.99664785801042 -92.614351390875527 0 -92.614351390875527 28.714166580331948 0 0 0 0 23.922875349074559 -169.8133518721952 0 -169.8133518721952 135.66523342447181 0 0 0 0 -99.733916042977057 -49.620795836686739 0 -49.620795836686739 220.32137616310501 0 0 0 0 -20.376559484365444 -175.02277814022818 0 -175.02277814022818 344.85557817283234 0 0 0 0 -16.795863852082235 20.028915973081894 0 20.028915973081894 62.791779754901654 0 0 0 0 -25.30848551884236 6.9101726140615938 0 6.9101726140615938 60.658872540327138 0 0 0 0 -1.1256942593259016 8.2473477914633548 0 8.2473477914633548 45.758791209048127 0 0 0 0 -4.1636430078226105 4.6138636627392415 0 4.6138636627392415 50.891701611762471 0 0 0 0 0.38410708399680971 10.190092788267066 0 10.190092788267066 23.997356414714886 0 0 0 0 -1.7751221963678949 -4.7759817091725694 0 -4.7759817091725694 3.7968905887305482 0 0 0 0 -7.7094672398350781 1.266816817353174 0 1.266816817353174 12.607985735288821 0 0 0 0 -4.491339449253716 4.1489419974916757 0 4.1489419974916757 27.653275413440667 0 0 0 0 -2.4239290543022256 -0.85652041997164829 0 -0.85652041997164829 13.647461154832115 0 0 0 0 -98.543869146655197 -46.769439513831458 0 -46.769439513831458 45.864006923045963 0 0 0 0 -153.7113847699286 -21.888964149933599 0 -21.888964149933599 219.79798690020107 0 0 0 0 0.47289999112854275 -57.723341035831254 0 -57.723341035831254 179.94598512926314 0 0 0 0 0.23690707784072018 0.61775037397726251 0 0.61775037397726251 0.097882512332546412 0 0 0 0 75.945711194897285 -16.849352087760053 0 -16.849352087760053 230.37141776824137 0 0 0 0 81.483309294794253 -130.87732643107302 0 -130.87732643107302 161.26548948345589 0 0 0 0 -0.91251444269755044 6.3002630503347632 0 6.3002630503347632 12.761962511541029 0 0 0 0 87.145293148568271 -36.171861369453836 0 -36.171861369453836 -12.860956947901286 0 0 0 0 -8.0168164554688701 2.3179986845716485 0 2.3179986845716485 50.191562424515723 0 0 0 0 -12.85412619495786 10.788182672071514 0 10.788182672071514 32.233474491566511 0 0 0 0 -25.368740543912736 14.240536420336866 0 14.240536420336866 -2.3839806832220347 0 0 0 0 1.0609930297449797 6.8439558905688784 0 6.8439558905688784 8.0600831412288585 0 0 0 0 69.121126329174331 -80.439216197970381 0 -80.439216197970381 253.30192130972864 0 0 0 0 -4.334391296535955 12.827734809370909 0 12.827734809370909 73.449174570328353 0 0 0 0 -74.518196366338998 189.14378347611819 0 189.14378347611819 92.406512882676907 0 0 0 0 236.44069066317616 -168.32444919085538 0 -168.32444919085538 156.53933183819754 0 0 0 0 337.25473457791304 -341.30818346765591 0 -341.30818346765591 288.44892519401037 0 0 0 0 -69.43772368616419 -69.961311636201572 0 -69.961311636201572 548.07123846985633 0 0 0 0 51.505571678529122 -270.45185909871361 0 -270.45185909871361 510.61853430893461 0 0 0 0 11.412879308907577 -154.22827706541284 0 -154.22827706541284 383.60902519513911 0 0 0 0 -18.85429180430674 -111.66209436620557 0 -111.66209436620557 423.78979871506453 0 0 0 0 81.572615485179085 -258.4430802937859 0 -258.4430802937859 408.69542606896721 0 0 0 0 90.144147406756474 -280.08083301334409 0 -280.08083301334409 458.12401267158566 0 0 0 0 87.760326782512948 -247.35515058580495 0 -247.35515058580495 515.11113109183498 0 0 0 0 33.881333514932521 -296.55909583046741 0 -296.55909583046741 596.63733353484713 0 0 0 0 125.04550315271922 -278.12574076634337 0 -278.12574076634337 561.54824391478905 0 0 0 0 125.059488366501 -336.92105199267098 0 -336.92105199267098 572.93773888540454 0 0 0 0 25.663935209729516 -300.04925893007749 0 -300.04925893007749 587.08686659009254 0 0 0 0 15.365694179002674 -349.96578346890601 0 -349.96578346890601 670.14038807738689 0 0 0 0 433.06724342745554 -556.7238753185793 0 -556.7238753185793 613.35052070736128 0 0 0 0 86.286788153782254 -237.83265730527637 0 -237.83265730527637 -222.48741319298279 0 0 0 0 0.10054060115144026 0.59518994880282605 0 0.59518994880282605 4.5777021896216752 0 0 0 0 190.27712658873816 -436.91568672523135 0 -436.91568672523135 554.69326126818487 0 0 0 0 235.72735374738613 -404.23046088597039 0 -404.23046088597039 598.74728798010619 0 0 0 0 302.25950563384345 -264.53475559920116 0 -264.53475559920116 836.20368600313668 0 0 0 0 -2873.9699374157717 653.10160202036423 0 653.10160202036423 1983.238059487383 0 0 0 0 100.63237771503782 -84.610749646999466 0 -84.610749646999466 1024.9502492351457 0 0 0 0 0.34854048930214843 13.130425032141517 0 13.130425032141517 64.44508038357074 0 0 0 0 -1237.6673759184746 629.06401436429951 0 629.06401436429951 -40.744188514101552 0 0 0 0 -152.01238212733836 -1173.85822123045 0 -1173.85822123045 1687.1406382468267 0 0 0 0 -2407.4222425394064 -632.25750384002458 0 -632.25750384002458 2916.0352265300025 0 0 0 0 734.8709380123538 672.15955328617019 0 672.15955328617019 1290.7956266395922 0 0 0 0 1298.163166988001 -332.2276054529284 0 -332.2276054529284 -160.40069585120364 0 0 0 0 267.05690119984621 211.10821110316465 0 211.10821110316465 29.807035524307139 0 0 0 0 -708.24149862363197 -314.96333241031243 0 -314.96333241031243 -53.559604941263387 0 0 0 0 -163.03054619257705 -154.07178569250391 0 -154.07178569250391 239.93824593175668 0 0 0 0 -269.84811406676272 -480.67070795746986 0 -480.67070795746986 -672.87033152284857 0 0 0 0 215.79550076580915 -436.25451741404686 0 -436.25451741404686 1058.9861218167789 0 0 0 0 287.00805994927839 417.81234699626657 0 417.81234699626657 1114.8393626520069 0 0 0 0 838.99626373876845 -36.676626870877953 0 -36.676626870877953 107.96314356663788 0 0 0 0 56.795785495858354 73.657493402890395 0 73.657493402890395 275.83011686387181 0 0 0 0 294.00312230321856 167.9879199989191 0 167.9879199989191 313.30674707781873 0 0 0 0 234.95763180523136 40.834836737020851 0 40.834836737020851 -53.402474565365992 0 0 0 0 410.50840619496142 242.43405305383362 0 242.43405305383362 1.8384457393622142 0 0 0 0 -0.16587852858830865 -0.67827248895009973 0 -0.67827248895009973 -1.8597549347840356 0 0 0 0 451.6945670174232 -153.64628170578999 0 -153.64628170578999 -542.15682128680055 0 0 0 0 89.974285201983037 -110.65240414207074 0 -110.65240414207074 183.77739376551472 0 0 0 0 -260.10549024319982 -311.10869921892299 0 -311.10869921892299 -248.01233840272471 0 0 0 0 14.349619182757067 -8.7961388911498943 0 -8.7961388911498943 76.471574443605277 0 0 0 0 -4.3094935047861345 -0.69977220673507645 0 -0.69977220673507645 13.507658895709667 0 0 0 0 125.36339925343719 -518.74047061401507 0 -518.74047061401507 -261.15600820986947 0 0 0 0 32.04818648802911 -38.694673967586368 0 -38.694673967586368 95.507098582129402 0 0 0 0 36.710808781803578 -12.651587033575197 0 -12.651587033575197 55.262308010860579 0 0 0 0 29.953022763284558 -24.387495713646786 0 -24.387495713646786 91.149468116869684 0 0 0 0 58.900967711407546 -46.308240675876732 0 -46.308240675876732 73.158357085114403 0 0 0 0 49.625693439302708 -67.035209614773521 0 -67.035209614773521 130.35896918209619 0 0 0 0 52.145038957865381 -61.103493812153829 0 -61.103493812153829 125.14776108555088 0 0 0 0 50.991740291669657 -23.738079842318257 0 -23.738079842318257 158.83932282124806 0 0 0 0 81.218470675732419 -57.808867499334156 0 -57.808867499334156 90.463026535493555 0 0 0 0 -9.4809547812176334 133.92780423498698 0 133.92780423498698 -7.2371527786453953 0 0 0 0 -4.9763278954801002 59.039985373905679 0 59.039985373905679 138.56078499392322 0 0 0 0 21.291057567522671 36.06019600696527 0 36.06019600696527 98.00234719989021 0 0 0 0 136.41510974213526 13.389685445923533 0 13.389685445923533 92.168845898835571 0 0 0 0 24.348672328878251 65.406363971457722 0 65.406363971457722 152.66402539785304 0 0 0 0 24.790315393925312 23.312339955336938 0 23.312339955336938 217.21227691333479 0 0 0 0 -0.14137797200622515 43.617471307387746 0 43.617471307387746 212.12295035702664 0 0 0 0 -4.4521695120922686 16.072204993570267 0 16.072204993570267 215.90991773572659 0 0 0 0 -9.1667432873544215 114.74755299920434 0 114.74755299920434 270.81262057300773 0 0 0 0 -3.9002392830212465 55.726729498007387 0 55.726729498007387 145.30373491069449 0 0 0 0 -4.9903426218065077 21.44836134218167 0 21.44836134218167 27.231205668515003 0 0 0 0 -253.39870178340851 -132.49721282590326 0 -132.49721282590326 218.03404800905628 0 0 0 0 -137.68806581321769 -221.07494389357453 0 -221.07494389357453 475.23334993343451 0 0 0 0 -256.93019765285692 92.668378397618653 0 92.668378397618653 404.09313963805107 0 0 0 0 -28.584055073980949 -236.43314783010283 0 -236.43314783010283 424.33144943400839 0 0 0 0 -258.39937448958079 -115.26572585078975 0 -115.26572585078975 456.79586174921133 0 0 0 0 16.198147278408655 -62.201377468434657 0 -62.201377468434657 247.90331438806606 0 0 0 0 79.470083026575026 -103.63423348591459 0 -103.63423348591459 130.14448745543615 0 0 0 0 -51.720501816979151 -134.20945531593316 0 -134.20945531593316 351.08853587898193 0 0 0 0 20.689437693431785 -59.323773907446594 0 -59.323773907446594 196.68206037212076 0 0 0 0 -65.146860117781785 -106.96495547738323 0 -106.96495547738323 12.963618197949017 0 0 0 0 110.12520406539295 124.29889774639491 0 124.29889774639491 83.491238307649837 0 0 0 0 0.39860829823731447 -3.0804010984529437 0 -3.0804010984529437 14.687764207010446 0 0 0 0 16.982972340520064 70.439739719097815 0 70.439739719097815 90.336162870371481 0 0 0 0 20.072175056918695 25.890870547970735 0 25.890870547970735 99.1095286918071 0 0 0 0 0.76181971848725427 -5.9386780756913113 0 -5.9386780756913113 20.952447073783169 0 0 0 0 -140.98466161690328 -24.631887766857744 0 -24.631887766857744 139.45001259269156 0 0 0 0 -45.612111613916511 96.442426948472985 0 96.442426948472985 92.35175872882246 0 0 0 0 102.09742284016335 8.5155536718775693 0 8.5155536718775693 139.16338046714736 0 0 0 0 67.756937011800346 220.14312969158527 0 220.14312969158527 541.56689419275244 0 0 0 0 64.175345410516911 60.036050170160706 0 60.036050170160706 201.93177470348292 0 0 0 0 43.822861602517946 4.0257479339929887 0 4.0257479339929887 214.34498612011066 0 0 0 0 23.820096486612652 10.619883296691619 0 10.619883296691619 153.57438805174206 0 0 0 0 37.540998434648429 71.848308624781112 0 71.848308624781112 110.15079476829396 0 0 0 0 130.4097722081637 -184.91931009946256 0 -184.91931009946256 91.745215798917343 0 0 0 0 0.16313993593655818 -0.85715978773801726 0 -0.85715978773801726 5.4250768272128695 0 0 0 0 45.611481620781944 -48.235958833444556 0 -48.235958833444556 -19.025006192239744 0 0 0 0 54.729641669755551 -8.1753852793235637 0 -8.1753852793235637 156.32209973811587 0 0 0 0 -208.97584685876791 62.189774195565406 0 62.189774195565406 169.51024531618168 0 0 0 0 -6.0932302512350018 57.830924104723849 0 57.830924104723849 138.64612842776063 0 0 0 0 -145.0473280121056 -163.05326701142258 0 -163.05326701142258 536.82074810883023 0 0 0 0 233.92822083121223 232.63741054423804 0 232.63741054423804 275.85392258609318 0 0 0 0 -22.07064257309321 -90.166327990724312 0 -90.166327990724312 367.24490103583139 0 0 0 0 51.775069304598219 49.505586907775069 0 49.505586907775069 95.545496670483203 0 0 0 0 -5.7109016877031991 117.06259578410595 0 117.06259578410595 105.38073625656762 0 0 0 0 -36.195336175808961 67.889043586014395 0 67.889043586014395 135.92095140234505 0 0 0 0 31.445215882801904 -103.7087770583239 0 -103.7087770583239 184.57210778295666 0 0 0 0 -31.53549420939089 -52.190530064339328 0 -52.190530064339328 247.32115621009507 0 0 0 0 38.520346648387658 -141.496205746128 0 -141.496205746128 269.46914863573966 0 0 0 0 32.350810717429567 93.677397825311346 0 93.677397825311346 -56.459911707512219 0 0 0 0 -135.51085046189041 379.14108021956781 0 379.14108021956781 -29.034846043563448 0 0 0 0 210.11406318832599 331.65357255179606 0 331.65357255179606 -15.624732544994913 0 0 0 0 -9.0651547181904206 54.937751729618839 0 54.937751729618839 134.81939380153955 0 0 0 0 -123.41148223160053 81.255285369839839 0 81.255285369839839 16.450648104515039 0 0 0 0 40.206703266839796 281.81287338900438 0 281.81287338900438 259.92723249669507 0 0 0 0 -137.70811796588262 -34.706004806918827 0 -34.706004806918827 404.76303908519913 0 0 0 0 284.71673117379981 -298.75677331377301 0 -298.75677331377301 446.6125324035238 0 0 0 0 24.033143843230846 -24.021117679520103 0 -24.021117679520103 222.5579921226099 0 0 0 0 0.41098587246256102 41.105979523876158 0 41.105979523876158 762.98921044295275 0 0 0 0 -261.19530593416903 364.23900136945031 0 364.23900136945031 44.277184564052732 0 0 0 0 -16.284072003443139 47.728407454603627 0 47.728407454603627 127.89009929705655 0 0 0 0 -118.50781313449261 102.00413004192887 0 102.00413004192887 195.07722794996471 0 0 0 0 -181.06791486033489 29.690051255864091 0 29.690051255864091 112.52199258870678 0 0 0 0 -95.858034160295574 86.441893857221658 0 86.441893857221658 114.42879781548982 0 0 0 0 -240.99468350429015 224.87064185437703 0 224.87064185437703 64.05632212596538 0 0 0 0 -25.821743929957506 37.689824386100298 0 37.689824386100298 118.60390198571537 0 0 0 0 -115.37610986193431 -28.156370124030218 0 -28.156370124030218 105.70367235433514 0 0 0 0 -21.193789430726611 27.335693219951281 0 27.335693219951281 120.95572493289365 0 0 0 0 -31.062189824172492 56.401799837036378 0 56.401799837036378 95.935161013009747 0 0 0 0 49.09556373837313 -21.545896495103079 0 -21.545896495103079 116.00706971729596 0 0 0 0 15.134486608850239 -37.705568498029606 0 -37.705568498029606 159.57781546837214 0 0 0 0 11.279306012724192 -40.132879998625867 0 -40.132879998625867 183.19664498411839 0 0 0 0 22.972295220384694 -5.3979935728102646 0 -5.3979935728102646 152.27047475127256 0 0 0 0 17.286533337241053 -17.252471386329489 0 -17.252471386329489 130.92837736380534 0 0 0 0 22.709243783678176 -19.558020458791361 0 -19.558020458791361 221.56523082358717 0 0 0 0 22.418884148783945 -38.113372557093498 0 -38.113372557093498 167.49956981368814 0 0 0 0 53.243441108770639 -104.94606640787924 0 -104.94606640787924 310.56942461614744 0 0 0 0 225.27706029461115 -139.93681178715997 0 -139.93681178715997 117.64651284938373 0 0 0 0 83.823469815858516 -12.698768185183326 0 -12.698768185183326 91.540875667575165 0 0 0 0 71.772589602911466 -8.2596853453123913 0 -8.2596853453123913 101.09676085174215 0 0 0 0 55.726370998996572 7.2321640040991042 0 7.2321640040991042 118.32006286721298 0 0 0 0 38.75563460039757 -27.637996362001104 0 -27.637996362001104 161.64320912458788 0 0 0 0 47.334165044778274 -36.610158536675954 0 -36.610158536675954 167.4353417210682 0 0 0 0 11.223634855868113 -6.8938302301557997 0 -6.8938302301557997 152.20719682498566 0 0 0 0 33.899137553504033 20.865476175854155 0 20.865476175854155 174.6559624623751 0 0 0 0 34.528245456283912 60.265396382944346 0 60.265396382944346 89.401939234510792 0 0 0 0 25.219253857501826 52.935047733274587 0 52.935047733274587 83.677410871417123 0 0 0 0 56.877487590738383 93.576574020548833 0 93.576574020548833 68.205141170084062 0 0 0 0 -23.316614007857424 79.866588390136258 0 79.866588390136258 137.68529126938483 0 0 0 0 35.224534552803561 104.78154940719287 0 104.78154940719287 112.03855280458447 0 0 0 0 -16.496049552983095 58.365641527770094 0 58.365641527770094 201.79097072396326 0 0 0 0 43.585458834595556 150.17946584303172 0 150.17946584303172 101.16269009076586 0 0 0 0 29.248382229818162 170.16638262733522 0 170.16638262733522 240.65842732230158 0 0 0 0 -1.1028348137043471 0.92409016094621421 0 0.92409016094621421 3.1236148170245457 0 0 0 0 -113.07190784959039 -173.83371631147111 0 -173.83371631147111 67.229334552193905 0 0 0 0 74.837887439244241 -20.745929512225302 0 -20.745929512225302 140.74955323758786 0 0 0 0 -6.9550390115200571 -67.05793230199879 0 -67.05793230199879 273.22308975483065 0 0 0 0 -29.337957585533331 82.285602788287179 0 82.285602788287179 351.81405739149341 0 0 0 0 13.362797733969273 -18.235576819190101 0 -18.235576819190101 198.08099330208097 0 0 0 0 -222.72599784685372 16.595348024666237 0 16.595348024666237 21.010812639910455 0 0 0 0 -238.69724650488729 20.390800478738811 0 20.390800478738811 20.111090770116789 0 0 0 0 -379.49987101499573 26.010525157722668 0 26.010525157722668 47.151938935996441 0 0 0 0 17.668230223413047 -12.57884521575761 0 -12.57884521575761 45.762326188088991 0 0 0 0 -5.2526393707121315 -38.62588667820819 0 -38.62588667820819 63.598310591066593 0 0 0 0 -15.345051925525695 -2.5576165582861563 0 -2.5576165582861563 45.495285908936751 0 0 0 0 -4.0916072387261515 -1.8061150319642412 0 -1.8061150319642412 27.623266833104708 0 0 0 0 -19.231092556809926 -6.0688329830832117 0 -6.0688329830832117 43.000735024712867 0 0 0 0 -184.83755564671833 -8.2362477613770579 0 -8.2362477613770579 11.284477088589028 0 0 0 0 -0.57424653797436243 5.8412013954918738 0 5.8412013954918738 44.10864459225423 0 0 0 0 -110.7043533101878 -5.7833841622596083 0 -5.7833841622596083 51.397612540403316 0 0 0 0 -106.4903845775716 5.5236122241067278 0 5.5236122241067278 77.124806606399943 0 0 0 0 -33.667118609015233 -26.967251310274719 0 -26.967251310274719 63.885540821957647 0 0 0 0 -2.7257755651858417 -8.1918382442495385 0 -8.1918382442495385 65.217024139333347 0 0 0 0 -58.876515963593647 -100.14695608842203 0 -100.14695608842203 115.75129413109971 0 0 0 0 -4.9492964634105299 -11.48367551516646 0 -11.48367551516646 13.279607604420491 0 0 0 0 -394.60977065770749 176.96237447638123 0 176.96237447638123 307.29382208632887 0 0 0 0 243.35776427007113 44.764007744679475 0 44.764007744679475 -19.623478287023318 0 0 0 0 116.07668861011371 4.3894770451379372 0 4.3894770451379372 67.405624938157416 0 0 0 0 -152.19142535529045 47.2172611042879 0 47.2172611042879 96.377807906610542 0 0 0 0 -14.932421066163442 152.11898325062612 0 152.11898325062612 19.880663268259923 0 0 0 0 46.46309427723304 61.099135240861415 0 61.099135240861415 43.280391153901292 0 0 0 0 -20.252893399179811 54.956738210341655 0 54.956738210341655 69.69417374238401 0 0 0 0 -17.810576645966648 47.301895263696679 0 47.301895263696679 77.256850692274384 0 0 0 0 36.188711533866808 62.515893684312687 0 62.515893684312687 55.439189368107691 0 0 0 0 43.753658370363155 86.251960563292869 0 86.251960563292869 70.035487192450091 0 0 0 0 69.357664435507104 65.303543581512713 0 65.303543581512713 31.611866631446901 0 0 0 0 -11.585471449492616 39.278558903054545 0 39.278558903054545 57.827439981419957 0 0 0 0 -98.680610081801206 29.990847921899785 0 29.990847921899785 75.381935473338672 0 0 0 0 -68.015236254421325 -0.57590085225820076 0 -0.57590085225820076 59.215847254982691 0 0 0 0 -16.427309678133497 45.213718827458251 0 45.213718827458251 60.386283822750556 0 0 0 0 -73.200425602140967 17.171501264969265 0 17.171501264969265 53.810510359471664 0 0 0 0 -75.055229513558515 28.686404061323628 0 28.686404061323628 73.662588163966575 0 0 0 0 -129.33471408074638 26.338007982292936 0 26.338007982292936 28.60432068986438 0 0 0 0 0.86989044165035523 8.206849544899022 0 8.206849544899022 4.4360434728612086 0 0 0 0 -55.729949531901184 97.228467638733548 0 97.228467638733548 60.041328848620651 0 0 0 0 -58.840155550613417 -3.2404141043360823 0 -3.2404141043360823 103.37920254956634 0 0 0 0 0.73918194576375562 12.633721641868474 0 12.633721641868474 50.861214303619398 0 0 0 0 -46.131711207066473 48.700784388289662 0 48.700784388289662 -4.8263150431660051 0 0 0 0 -195.42091604899997 41.074126468148734 0 41.074126468148734 89.809283031942641 0 0 0 0 -196.51148985752297 55.552007411767704 0 55.552007411767704 -19.308072141587218 0 0 0 0 -185.04246692886773 23.999012111899447 0 23.999012111899447 36.457604488472271 0 0 0 0 -214.29595439234436 -18.895635223013414 0 -18.895635223013414 -12.022475204369584 0 0 0 0 -4.3117815799068921 -225.69955007431304 0 -225.69955007431304 367.42223398104261 0 0 0 0 -252.75621869456472 -105.35911545270051 0 -105.35911545270051 409.06211938022216 0 0 0 0 -90.942986131891303 0.93802278826990459 0 0.93802278826990459 254.9075415121988 0 0 0 0 -36.434934430371868 -6.6412168755693415 0 -6.6412168755693415 96.981485334684294 0 0 0 0 -98.338430579189207 -102.96891986178048 0 -102.96891986178048 572.4876371091068 0 0 0 0 14.07917396011635 -170.39536788542205 0 -170.39536788542205 205.23217630455338 0 0 0 0 0.98047631873634877 2.4862330660428675 0 2.4862330660428675 11.786341549847815 0 0 0 0 407.30023861278096 -571.5952739236559 0 -571.5952739236559 584.74783956843385 0 0 0 0 2.4700075732653257 8.7291975122230241 0 8.7291975122230241 32.200851494932927 0 0 0 0 -55.717753145157985 71.162570031718133 0 71.162570031718133 32.62240519713032 0 0 0 0 -40.188709888763697 35.572755787885853 0 35.572755787885853 83.583468161559722 0 0 0 0 -67.900135435791526 -47.234783272279174 0 -47.234783272279174 143.98504245752747 0 0 0 0 141.80533611392548 130.62951371434974 0 130.62951371434974 49.719553312666903 0 0 0 0 87.42558149886645 -3.6807774406470344 0 -3.6807774406470344 47.904550440251114 0 0 0 0 80.292548019056994 293.87615434737336 0 293.87615434737336 738.19039118571891 0 0 0 0 354.79523389457972 257.56133843625958 0 257.56133843625958 71.24888655635948 0 0 0 0 7.5458839578932384 -309.88880063469787 0 -309.88880063469787 1041.2334835681431 0 0 0 0 663.44142431895671 -574.53097878553672 0 -574.53097878553672 347.17050056608514 0 0 0 0 -28.002012328251112 -91.943392764267628 0 -91.943392764267628 421.06653506292787 0 0 0 0 205.7533148496118 -420.18519249991505 0 -420.18519249991505 253.17770742882021 0 0 0 0 56.474621086694242 -162.77164141745743 0 -162.77164141745743 -7.1216048122023494 0 0 0 0 162.82993875169268 -237.05937240848107 0 -237.05937240848107 -165.52162662794399 0 0 0 0 -201.14962121260396 26.315877538145287 0 26.315877538145287 -211.45074524052643 0 0 0 0 159.61972292303886 -109.50882673604718 0 -109.50882673604718 -418.70209981287553 0 0 0 0 116.23596209122252 -125.27800977089555 0 -125.27800977089555 78.282992870090311 0 0 0 0 443.38483823022398 -161.16978731842482 0 -161.16978731842482 -193.61238316376512 0 0 0 0 -0.64707732562783349 630.50277571096103 0 630.50277571096103 -98.755894247397919 0 0 0 0 3.4157730976499394 0.09745938810450383 0 0.09745938810450383 1.4677486208296244 0 0 0 0 -209.49513253561963 559.64641891244719 0 559.64641891244719 -108.07788608827832 0 0 0 0 -191.05871615604315 -149.11031752365909 0 -149.11031752365909 -977.38392627706344 0 0 0 0 812.32202285277549 509.64884029488064 0 509.64884029488064 -147.72149525367058 0 0 0 0 -354.55966434961192 -328.83994309794116 0 -328.83994309794116 1033.0217647544741 0 0 0 0 -1.0347777044035809 1.3391422208670214 0 1.3391422208670214 3.5122800006682642 0 0 0 0 145.11238311261604 -39.84218150531251 0 -39.84218150531251 0.99352778378943185 0 0 0 0 -393.07669758312113 58.94974552279109 0 58.94974552279109 573.42794945700291 0 0 0 0 42.717028366310842 -4.253208523824469 0 -4.253208523824469 0.15094054300958248 0 0 0 0 39.287694594395816 -0.56634754743481608 0 -0.56634754743481608 -2.7703735723516729 0 0 0 0 -108.77348114187907 87.961631325655617 0 87.961631325655617 83.014510279429487 0 0 0 0 88.015227840512125 34.937985797384499 0 34.937985797384499 -26.252505390601073 0 0 0 0 86.580444192076357 76.207245196739677 0 76.207245196739677 24.641660885724377 0 0 0 0 -185.22362663909462 29.972321048785034 0 29.972321048785034 95.325231520100715 0 0 0 0 -1.4902399305751111 0.81067735991762691 0 0.81067735991762691 5.3593474550600178 0 0 0 0 -159.38121811892324 4.2674809784584795 0 4.2674809784584795 85.740656133979542 0 0 0 0 -36.276030469501165 45.775018707295203 0 45.775018707295203 43.26052225726653 0 0 0 0 -15.893736631652246 153.96776821645472 0 153.96776821645472 136.52962944764295 0 0 0 0 53.057424838547377 135.23741486756353 0 135.23741486756353 107.22290497990411 0 0 0 0 59.516673516900482 158.57534655870677 0 158.57534655870677 140.53548227929787 0 0 0 0 45.980299477425433 135.47771804958847 0 135.47771804958847 147.31258872396597 0 0 0 0 -4.68624924955202 133.56594350291061 0 133.56594350291061 361.54416892485642 0 0 0 0 -44.11484927258789 32.817475254588771 0 32.817475254588771 114.10351402637821 0 0 0 0 -44.7466283505928 56.561304043265409 0 56.561304043265409 20.993473283465391 0 0 0 0 -96.261326342417306 -123.7286548721886 0 -123.7286548721886 263.28372774997297 0 0 0 0 -46.847356376734751 -147.21341787561778 0 -147.21341787561778 270.51651819742665 0 0 0 0 77.228263076111489 -213.85894713309904 0 -213.85894713309904 91.28748452372929 0 0 0 0 -38.775498621787847 -2.7845584693873207 0 -2.7845584693873207 -52.988112902783087 0 0 0 0 -97.249422166399086 -115.8245378657283 0 -115.8245378657283 200.60655604995918 0 0 0 0 -45.684233979649434 -66.786599034084247 0 -66.786599034084247 200.40739103298864 0 0 0 0 -51.642558560160069 -23.591595509974923 0 -23.591595509974923 248.97856400203 0 0 0 0 0.22890539667378107 136.07526467364733 0 136.07526467364733 193.17587314528646 0 0 0 0 -167.5551492655195 -183.6669917792733 0 -183.6669917792733 141.89292339737358 0 0 0 0 -1.1494935554782124 0.8975963700302465 0 0.8975963700302465 3.0393911858687694 0 0 0 0 4.9152533935744032 90.095171430980827 0 90.095171430980827 68.952058622135951 0 0 0 0 -10.167632785855972 -4.1672220278780969 0 -4.1672220278780969 69.958210732257157 0 0 0 0 9.9266507803721247 -9.9795852536861123 0 -9.9795852536861123 3.0688481998982904 0 0 0 0 28.244109935626284 14.003371777491338 0 14.003371777491338 -40.50984895482452 0 0 0 0 75.089707140094788 -119.78297114274073 0 -119.78297114274073 96.04002741000113 0 0 0 0 50.771876584374809 42.125744612841117 0 42.125744612841117 -12.779166385467761 0 0 0 0 3.2101631719326633 38.369507787961993 0 38.369507787961993 48.967186070136449 0 0 0 0 31.471649077494931 -23.183848783040048 0 -23.183848783040048 141.55016801017973 0 0 0 0 6.363384562272131 -77.820477830872733 0 -77.820477830872733 100.32791102861938 0 0 0 0 92.49492714004009 -34.846374702713547 0 -34.846374702713547 -47.554960535246209 0 0 0 0 17.869186194681099 -10.640394267476504 0 -10.640394267476504 -0.0296481602429709 0 0 0 0 106.20030253923505 -32.648220813893204 0 -32.648220813893204 -14.347886862953146 0 0 0 0 106.35757496354927 -55.264399496297756 0 -55.264399496297756 -155.30876000303351 0 0 0 0 35.508996703619005 -10.61091305136506 0 -10.61091305136506 9.2515761629465487 0 0 0 0 22.415241532373834 -8.9750882847800959 0 -8.9750882847800959 -1.065659924328215 0 0 0 0 -28.669806689663119 39.346728266176797 0 39.346728266176797 162.82567737892077 0 0 0 0 10.868103536714216 -119.16205663986148 0 -119.16205663986148 287.30934076610265 0 0 0 0 41.542736619968764 -122.48499976415769 0 -122.48499976415769 305.51923526612791 0 0 0 0 65.720499456845005 -110.74205232939175 0 -110.74205232939175 286.83937039173907 0 0 0 0 86.248127239449104 -93.953504625058258 0 -93.953504625058258 281.00027373021658 0 0 0 0 16.364893671447931 -71.20638968856224 0 -71.20638968856224 279.21986466383896 0 0 0 0 50.253971637290761 -67.919517561650537 0 -67.919517561650537 271.13363988486208 0 0 0 0 80.406776061789145 -81.676796497422174 0 -81.676796497422174 316.37451018765751 0 0 0 0 55.526796470545378 -87.224207561759613 0 -87.224207561759613 330.70595396039062 0 0 0 0 118.87785455895119 -66.831382691061663 0 -66.831382691061663 347.38939713748005 0 0 0 0 94.895519911464135 -24.353857171437085 0 -24.353857171437085 370.80093450944605 0 0 0 0 309.1205194886976 14.60577937998778 0 14.60577937998778 318.4707742844821 0 0 0 0 187.22583520616308 74.328303720825716 0 74.328303720825716 384.6488496828697 0 0 0 0 17.418141845647426 -24.488508291445442 0 -24.488508291445442 406.51048646331765 0 0 0 0 48.954230059032739 -131.80727422728694 0 -131.80727422728694 283.57341909611387 0 0 0 0 36.230133956720692 -43.906341524892923 0 -43.906341524892923 352.71639637054614 0 0 0 0 -18.654569945247204 -63.108477350691828 0 -63.108477350691828 256.82093655130302 0 0 0 0 -56.152538625607576 -42.711128920938791 0 -42.711128920938791 299.31238314283883 0 0 0 0 -42.181629696775872 -0.21174371623692423 0 -0.21174371623692423 241.3630819644186 0 0 0 0 -23.744911435289396 -46.793070033898402 0 -46.793070033898402 296.674780900732 0 0 0 0 -47.220265334593023 -83.34827913395111 0 -83.34827913395111 321.94409152071785 0 0 0 0 -31.061622560859178 -67.003647417818684 0 -67.003647417818684 333.08982332623782 0 0 0 0 7.7952024142956677 -1.4000363648010499 0 -1.4000363648010499 0.57903324928872868 0 0 0 0 166.13247731105525 3.5245794838460824 0 3.5245794838460824 -24.007146241960982 0 0 0 0 105.47502821446233 15.856726694597455 0 15.856726694597455 350.54905539240644 0 0 0 0 -112.42446486511153 -45.37163095865435 0 -45.37163095865435 392.79073755869103 0 0 0 0 96.76910245728854 -109.46132414916849 0 -109.46132414916849 292.46336470903043 0 0 0 0 39.330663745165225 -100.78473549337065 0 -100.78473549337065 296.09223056565315 0 0 0 0 -26.667790969579755 -52.377559733432008 0 -52.377559733432008 315.88771871978679 0 0 0 0 33.205231779218593 -18.211989499623087 0 -18.211989499623087 295.48011768775996 0 0 0 0 56.678455876643511 -115.44808438664586 0 -115.44808438664586 318.37982292522247 0 0 0 0 39.02968330198928 -84.954369235552804 0 -84.954369235552804 268.26768691324196 0 0 0 0 10.967813105623463 -103.91265962145826 0 -103.91265962145826 323.70374379516034 0 0 0 0 39.145704015678348 -129.72620357260348 0 -129.72620357260348 325.39378580120319 0 0 0 0 45.82383389753295 -121.53970323602107 0 -121.53970323602107 328.62506977863632 0 0 0 0 16.092051192234649 -0.71574736957288465 0 -0.71574736957288465 -0.97659357975605365 0 0 0 0 2.3435747618608715 0.88219288480378211 0 0.88219288480378211 -0.11583737137327316 0 0 0 0 -6.1208005185062575 3.0051509976292436 0 3.0051509976292436 3.2203437138714435 0 0 0 0 0.05055011746823368 4.5589001713085651 0 4.5589001713085651 -1.4218400475118396 0 0 0 0 -16.007648238324691 168.50365615690589 0 168.50365615690589 -447.76269155974296 0 0 0 0 -160.31393523950828 100.1672413615961 0 100.1672413615961 -55.804727337774239 0 0 0 0 21.241418779971177 -0.73705080571327741 0 -0.73705080571327741 -3.8891543307721612 0 0 0 0 58.274526601635444 14.418038116065873 0 14.418038116065873 -239.96490729931975 0 0 0 0 80.542122694705995 -131.81833772472146 0 -131.81833772472146 311.90616537249298 0 0 0 0 37.286679629468381 -132.76176670836594 0 -132.76176670836594 374.94768391416164 0 0 0 0 79.032320211677416 -177.03915980327201 0 -177.03915980327201 352.40791146573247 0 0 0 0 3.1711119597515749 -0.89637236585993207 0 -0.89637236585993207 2.3128573225195197 0 0 0 0 51.119427436039587 -78.926777916924948 0 -78.926777916924948 221.17925249950167 0 0 0 0 31.474071045732217 -61.145211907618432 0 -61.145211907618432 319.35366806498769 0 0 0 0 -9.9805280379600845 -29.511436165772011 0 -29.511436165772011 240.35207269002626 0 0 0 0 6.7850268907711779 -17.323800140773528 0 -17.323800140773528 127.10302462571872 0 0 0 0 14.716299132827032 -52.886770323691621 0 -52.886770323691621 209.92004061084481 0 0 0 0 6.05895217781881 -89.574598527630769 0 -89.574598527630769 286.03384337239004 0 0 0 0 21.59373709765714 -81.895067092143108 0 -81.895067092143108 289.53022196939855 0 0 0 0 -6.1894055100337084 -16.635276376386429 0 -16.635276376386429 218.33553702023892 0 0 0 0 -12.16730382215701 -80.940597898893429 0 -80.940597898893429 273.45839220881544 0 0 0 0 -26.532097858597012 11.710869797194391 0 11.710869797194391 118.19118929260912 0 0 0 0 -44.223510458946294 -33.838219182227476 0 -33.838219182227476 231.02288599291205 0 0 0 0 -85.758628863157355 -1.4383846397713569 0 -1.4383846397713569 121.42846869145797 0 0 0 0 -97.554398065851274 76.66650020261477 0 76.66650020261477 46.232273900681321 0 0 0 0 -106.8174103606807 15.998025663511328 0 15.998025663511328 124.32333838697559 0 0 0 0 -48.44114995831751 8.4372325913691384 0 8.4372325913691384 115.32000813554077 0 0 0 0 -70.608831755943811 -33.982182721334084 0 -33.982182721334084 216.27937243336237 0 0 0 0 -131.94123913128328 91.827143965282403 0 91.827143965282403 -57.272409790402889 0 0 0 0 -104.78377738537893 113.31078685740795 0 113.31078685740795 -182.4039425882761 0 0 0 0 -183.85506164081107 147.73471815575067 0 147.73471815575067 -15.331829102633492 0 0 0 0 -140.75549183184285 121.41619395161706 0 121.41619395161706 -14.038699284149516 0 0 0 0 -131.13238187761579 58.707615038253152 0 58.707615038253152 37.153632709718295 0 0 0 0 -110.87910732114005 51.473596285607073 0 51.473596285607073 16.12820684804683 0 0 0 0 -46.054707101254962 18.410418095591012 0 18.410418095591012 55.926490984324118 0 0 0 0 -103.96508238378283 78.574003739516229 0 78.574003739516229 66.417402897688135 0 0 0 0 -88.081149703421033 107.42785584313697 0 107.42785584313697 48.704876124218572 0 0 0 0 -105.20315754565218 71.623794211995573 0 71.623794211995573 -20.751234431681951 0 0 0 0 -26.246990907371583 83.12224607959115 0 83.12224607959115 83.028872808545202 0 0 0 0 -40.676750506249846 60.243430627449925 0 60.243430627449925 46.821480150166082 0 0 0 0 -64.031759984981136 14.209006966116931 0 14.209006966116931 173.16717064484146 0 0 0 0 27.57994702652968 -52.410376039028961 0 -52.410376039028961 203.31343782222029 0 0 0 0 27.193300122674373 11.319409797101798 0 11.319409797101798 158.48623247126443 0 0 0 0 -13.29240839929264 54.500364878002301 0 54.500364878002301 107.14119621475038 0 0 0 0 -35.805177195067927 54.449823034279234 0 54.449823034279234 220.65057745580452 0 0 0 0 -65.878288004015758 158.20439547424121 0 158.20439547424121 125.79817945203195 0 0 0 0 -75.141607488740277 93.629181696693365 0 93.629181696693365 190.13246827285911 0 0 0 0 1.7124665602086679 243.14579512025784 0 243.14579512025784 -195.06640191587121 0 0 0 0 -2.6147516643533919 0.20521076109690206 0 0.20521076109690206 0.50391774284468704 0 0 0 0 -157.31387844571009 -40.414816255199185 0 -40.414816255199185 733.98844143430597 0 0 0 0 -10.654409198178655 80.415263570469961 0 80.415263570469961 44.665002981747421 0 0 0 0 -33.584769913868058 141.85933054873658 0 141.85933054873658 58.982357283193778 0 0 0 0 -34.182313081821121 145.89119856363141 0 145.89119856363141 47.261689787128063 0 0 0 0 -163.90466970728357 270.928712038698 0 270.928712038698 153.10992913081498 0 0 0 0 -124.88473924048049 75.012599543274973 0 75.012599543274973 135.2079115744109 0 0 0 0 -265.82954014292864 229.99633979167265 0 229.99633979167265 13.240089712242479 0 0 0 0 -162.25126371547321 103.07304768068843 0 103.07304768068843 461.33698989760569 0 0 0 0 -5.1594841267015958 1.6424615060548309 0 1.6424615060548309 1.1067802539874596 0 0 0 0 -137.05947230280231 77.023817345879934 0 77.023817345879934 360.51107280461565 0 0 0 0 -73.376895214471006 89.519295812164273 0 89.519295812164273 286.4502537435763 0 0 0 0 -2.3067617909679079 0.21700628770487285 0 0.21700628770487285 0.41889810110052306 0 0 0 0 -29.270889071141937 84.006360250426042 0 84.006360250426042 -20.115674146356014 0 0 0 0 -1.7966226746016645 -0.61265874842902335 0 -0.61265874842902335 -0.65602004759607624 0 0 0 0 50.811065441199389 -143.29925633098719 0 -143.29925633098719 545.56952829708098 0 0 0 0 83.475936592678408 -64.439584460918923 0 -64.439584460918923 386.85947681371181 0 0 0 0 -157.1312803818364 308.75654979476076 0 308.75654979476076 -255.62497701484426 0 0 0 0 169.81466661568629 -132.47521098538527 0 -132.47521098538527 388.58110148332162 0 0 0 0 25.07265833118845 -125.76167755519396 0 -125.76167755519396 355.81640671083369 0 0 0 0 95.353738364859964 28.040256123211293 0 28.040256123211293 430.88356191103412 0 0 0 0 108.54843905077132 188.59207586642151 0 188.59207586642151 401.69296645507325 0 0 0 0 123.54632692303005 31.153660715684509 0 31.153660715684509 414.83336367184711 0 0 0 0 203.32203641368162 -120.30196414169723 0 -120.30196414169723 670.70175632762948 0 0 0 0 79.691582979488814 175.80042015179936 0 175.80042015179936 615.40745773058006 0 0 0 0 256.87472105254182 11.043505361335292 0 11.043505361335292 319.00473068553038 0 0 0 0 577.92863466933375 -81.020761662453879 0 -81.020761662453879 365.62215844152524 0 0 0 0 225.72220402065702 -76.002629147903576 0 -76.002629147903576 383.52372383230249 0 0 0 0 93.604230537378726 -24.49757335434424 0 -24.49757335434424 343.94837958927928 0 0 0 0 97.993653678778173 -3.1981121604421787 0 -3.1981121604421787 444.84144655669479 0 0 0 0 54.411081464334075 -8.2505461002965603 0 -8.2505461002965603 342.9671655040238 0 0 0 0 15.30044521106629 -5.4237816960185228 0 -5.4237816960185228 247.8053518530628 0 0 0 0 46.105997038085775 -34.41423648214186 0 -34.41423648214186 267.4343896210612 0 0 0 0 68.551346133470815 41.439350296271186 0 41.439350296271186 237.51299777984286 0 0 0 0 -17.660483164355355 42.759644999914599 0 42.759644999914599 264.92309621882032 0 0 0 0 2.6591800409676125 52.586880436827414 0 52.586880436827414 144.15105662638416 0 0 0 0 82.436719454814011 68.755624588642604 0 68.755624588642604 349.74265564993436 0 0 0 0 74.97350568683396 27.917919552593958 0 27.917919552593958 263.45590131222889 0 0 0 0 167.31792265089325 83.612840277543 0 83.612840277543 249.2331800733707 0 0 0 0 348.48014369164241 54.820972430059555 0 54.820972430059555 177.06334401044478 0 0 0 0 137.82351734242616 135.71157714442143 0 135.71157714442143 157.48691312658229 0 0 0 0 83.182837152391357 8.181454387381109 0 8.181454387381109 217.8647401540984 0 0 0 0 77.071804113598319 104.71646751696426 0 104.71646751696426 217.71291355441682 0 0 0 0 134.56797942349931 6.0322337152365435 0 6.0322337152365435 382.08997431265016 0 0 0 0 -19.68774941343645 31.431209688354329 0 31.431209688354329 206.86267284955466 0 0 0 0 -49.675520675412372 170.12581330488683 0 170.12581330488683 77.279550369583376 0 0 0 0 -188.42288421263356 293.19676292362237 0 293.19676292362237 125.2853052095038 0 0 0 0 -206.02594125443645 163.0476952050131 0 163.0476952050131 255.5284126253373 0 0 0 0 204.24092952769297 65.877253616691632 0 65.877253616691632 5.7734330573512125 0 0 0 0 -102.17524437993688 164.60587730577663 0 164.60587730577663 -182.86889578439514 0 0 0 0 -0.0043060944910493504 -0.64515987385787543 0 -0.64515987385787543 3.6840624628951666 0 0 0 0 221.38097389273742 306.65438678681642 0 306.65438678681642 280.40625162257675 0 0 0 0 112.3422893716662 -185.69791788064367 0 -185.69791788064367 283.83306195970908 0 0 0 0 57.025246127750563 -24.435226024211715 0 -24.435226024211715 -135.2228632844126 0 0 0 0 8.9156784825163058 -8.9813153628749198 0 -8.9813153628749198 10.936196153487714 0 0 0 0 -16.295214037610265 -102.37386168312287 0 -102.37386168312287 -87.78921776776042 0 0 0 0 21.262766419466061 9.0340795583015279 0 9.0340795583015279 -38.251230700787801 0 0 0 0 -31.692838182181504 -71.836406540668577 0 -71.836406540668577 -6.1971445882136322 0 0 0 0 279.78311059161138 191.18607988054191 0 191.18607988054191 -45.246239610334669 0 0 0 0 54.934979436002379 305.79141126240074 0 305.79141126240074 226.83068241575165 0 0 0 0 -96.633576794959112 -120.02338896817764 0 -120.02338896817764 -10.096926717071256 0 0 0 0 369.9365068896501 -58.659174112000073 0 -58.659174112000073 -42.698585818724496 0 0 0 0 0.29029580099482977 0.84185620200352673 0 0.84185620200352673 1.3655056586949037 0 0 0 0 3.3916410892849944 -3.3528431833633796 0 -3.3528431833633796 3.9321442253074359 0 0 0 0 -164.6753163948095 -79.25406115111582 0 -79.25406115111582 50.90718231788378 0 0 0 0 21.378352537804492 -53.154813482864654 0 -53.154813482864654 27.460642032399399 0 0 0 0 201.51749519191219 -188.08152322429123 0 -188.08152322429123 -376.20569261126548 0 0 0 0 261.55213995688121 136.80885285134627 0 136.80885285134627 -40.159770630707499 0 0 0 0 60.015503418494234 3.651770610082167 0 3.651770610082167 -206.02026631566059 0 0 0 0 -100.8830662933573 -182.59249796543145 0 -182.59249796543145 56.052054527954169 0 0 0 0 45.303366424864407 -246.05353503547576 0 -246.05353503547576 253.48913432023073 0 0 0 0 26.246000679956353 -160.85580247466714 0 -160.85580247466714 50.524183465446185 0 0 0 0 -99.405679145147815 -134.40999655149608 0 -134.40999655149608 274.03647169665237 0 0 0 0 273.12303020495096 -202.18540119929639 0 -202.18540119929639 -10.367629616981503 0 0 0 0 97.278801656241029 -147.21938373653302 0 -147.21938373653302 90.753376166795533 0 0 0 0 441.86486880781615 176.99392793805418 0 176.99392793805418 497.84185141052512 0 0 0 0 42.06647126475508 -11.893027795236776 0 -11.893027795236776 778.66807726650495 0 0 0 0 135.26426597867206 -314.44783302009182 0 -314.44783302009182 474.81110467181134 0 0 0 0 -56.344633962456328 -129.4154787990974 0 -129.4154787990974 397.59849437522644 0 0 0 0 -53.774502552538699 -168.81710979122539 0 -168.81710979122539 293.54093918842409 0 0 0 0 -48.316887163172993 -106.04191104383563 0 -106.04191104383563 347.36186379160063 0 0 0 0 38.574473535891485 -131.58270162481222 0 -131.58270162481222 379.78369904630381 0 0 0 0 -58.080856220108046 -88.604226120798558 0 -88.604226120798558 476.36839048229012 0 0 0 0 138.06150569717943 36.994579785759925 0 36.994579785759925 366.55346771821951 0 0 0 0 19.040578481247294 -28.374384611706091 0 -28.374384611706091 250.17961467952045 0 0 0 0 -28.954431218731088 9.3612827800097875 0 9.3612827800097875 303.29178042036256 0 0 0 0 167.25342183204793 70.753674062143546 0 70.753674062143546 284.37843766131846 0 0 0 0 25.691027802288417 9.6660284366721498 0 9.6660284366721498 371.16867532526521 0 0 0 0 349.34046332189752 86.578512526388295 0 86.578512526388295 326.59726687985221 0 0 0 0 342.14274610547875 -54.518696766001085 0 -54.518696766001085 369.06389067974999 0 0 0 0 140.4919336613907 24.532250971213216 0 24.532250971213216 424.094936670077 0 0 0 0 -102.89635382231359 -177.10325991180434 0 -177.10325991180434 -42.923144221973416 0 0 0 0 -2.6222306636305972 0.52781217341264508 0 0.52781217341264508 4.7559442678770152 0 0 0 0 1.5700829867885777 -0.30871596098480936 0 -0.30871596098480936 4.4678850332160245 0 0 0 0 -44.394308290146455 -6.1289332021151495 0 -6.1289332021151495 52.134614092078664 0 0 0 0 7.4757226358810556 -52.82192625171956 0 -52.82192625171956 53.73749327929545 0 0 0 0 -46.749181611318313 -115.53841464578363 0 -115.53841464578363 1.3396027202543337 0 0 0 0 -113.40257283264202 -72.920979063337654 0 -72.920979063337654 105.10629937854719 0 0 0 0 -115.00879954985061 -81.295868895656895 0 -81.295868895656895 141.2538470071413 0 0 0 0 -180.16105636486864 -126.52610958935111 0 -126.52610958935111 117.08286139514894 0 0 0 0 -160.48010764509996 -83.559067159540518 0 -83.559067159540518 139.09821601984368 0 0 0 0 -169.42499982065146 -85.026708026030974 0 -85.026708026030974 147.70908185199733 0 0 0 0 -98.439031006070138 -43.131891351395097 0 -43.131891351395097 145.55641072233993 0 0 0 0 -178.79724249795839 -27.485985797573449 0 -27.485985797573449 242.92196098699424 0 0 0 0 -99.645977813205263 -41.837074238666901 0 -41.837074238666901 271.82479255424914 0 0 0 0 -27.971262555597036 2.6702964592641365 0 2.6702964592641365 193.89973172119062 0 0 0 0 -114.64389143344908 -151.98666654498993 0 -151.98666654498993 316.47208496695021 0 0 0 0 -38.261122437279766 -2.1844238513058372 0 -2.1844238513058372 276.92142660029276 0 0 0 0 -116.14894807048671 -144.56115388719627 0 -144.56115388719627 330.45578337182087 0 0 0 0 -309.83513646937217 -165.74599043381386 0 -165.74599043381386 113.40020301728237 0 0 0 0 -201.16544919687703 -27.661645545218562 0 -27.661645545218562 40.135889347810007 0 0 0 0 -200.63886635889969 -56.196930652960873 0 -56.196930652960873 209.32748952888505 0 0 0 0 -138.10003826184902 -227.55506564923417 0 -227.55506564923417 -43.571936330798053 0 0 0 0 -138.13073069787276 -233.59311708791938 0 -233.59311708791938 121.76982995297112 0 0 0 0 -495.04773338859468 -405.53473630446751 0 -405.53473630446751 612.86706313488685 0 0 0 0 -121.49555018962087 -69.167777578004461 0 -69.167777578004461 424.64465990628446 0 0 0 0 -282.01271280333867 -159.2091010394106 0 -159.2091010394106 418.32926471119208 0 0 0 0 -111.02178901148324 -83.214733840274675 0 -83.214733840274675 399.2688626117706 0 0 0 0 -123.42362128408831 -5.2901299188379198 0 -5.2901299188379198 564.2974878022651 0 0 0 0 -142.06730736744922 -118.74196860080292 0 -118.74196860080292 359.95293070821572 0 0 0 0 -134.72695638485504 -136.73077866533458 0 -136.73077866533458 374.00526544197146 0 0 0 0 -80.362427857394323 -45.59730217098695 0 -45.59730217098695 368.73492976057241 0 0 0 0 -80.680826557435807 -56.774455030386889 0 -56.774455030386889 279.31484848619039 0 0 0 0 1.5646077301760783 27.716164629391642 0 27.716164629391642 441.24540053058627 0 0 0 0 15.014506356765025 -75.423475576852979 0 -75.423475576852979 179.57356677312418 0 0 0 0 -86.990947943947504 -12.455032579213366 0 -12.455032579213366 660.56017992147099 0 0 0 0 -0.22256092739098676 -40.497858404818544 0 -40.497858404818544 414.59099628433069 0 0 0 0 29.658041365845563 -123.03361118758312 0 -123.03361118758312 -1.8824383830269653 0 0 0 0 25.999162681726837 -53.471076038311686 0 -53.471076038311686 27.708088953411533 0 0 0 0 -56.216694869007313 -88.546202488935705 0 -88.546202488935705 187.22383935927655 0 0 0 0 -34.80981758932171 -42.938066821749089 0 -42.938066821749089 33.560217867045139 0 0 0 0 -85.340431249377048 -164.19802434627672 0 -164.19802434627672 207.04317783229908 0 0 0 0 21.933101209853788 -227.67893492745952 0 -227.67893492745952 -198.42253619575968 0 0 0 0 352.76630717507123 -296.80225797111052 0 -296.80225797111052 -439.85322980895944 0 0 0 0 27.173540132838522 -54.73943855731244 0 -54.73943855731244 27.857906350615966 0 0 0 0 145.63314509294423 -17.759563001483912 0 -17.759563001483912 -265.47205052818754 0 0 0 0 -107.54113001075166 -7.3266913976804062 0 -7.3266913976804062 12.287690753421657 0 0 0 0 -8.9909874509194196 78.307793084648438 0 78.307793084648438 153.99844712752019 0 0 0 0 -60.188789426160838 23.118590493049851 0 23.118590493049851 167.62644220862785 0 0 0 0 -5.0975949496109934 68.502162176617276 0 68.502162176617276 93.993096155209059 0 0 0 0 20.256169418570042 -51.274639243572523 0 -51.274639243572523 27.383973773974837 0 0 0 0 -9.1363720460885816 -58.019885718669684 0 -58.019885718669684 -21.48233429535685 0 0 0 0 3.838257172226534 -78.872291854261675 0 -78.872291854261675 130.0942474953481 0 0 0 0 -9.8953320349618252 -14.568104772029983 0 -14.568104772029983 224.2961302073727 0 0 0 0 -38.458323352748607 -72.209043360310943 0 -72.209043360310943 333.16597184041893 0 0 0 0 -44.962695576078659 -10.259201049968397 0 -10.259201049968397 240.46048211653397 0 0 0 0 -66.071770730165554 50.865731480844261 0 50.865731480844261 278.16812259098151 0 0 0 0 -42.58830862294235 -33.689450768353709 0 -33.689450768353709 163.98576242561467 0 0 0 0 -18.203846829207578 -14.450871811730849 0 -14.450871811730849 135.11380339302559 0 0 0 0 30.245138689254418 -164.09729470925959 0 -164.09729470925959 121.70994248056377 0 0 0 0 52.57730586306343 -105.15074851388817 0 -105.15074851388817 -74.074867468974844 0 0 0 0 12.574708485256945 -48.805161654213713 0 -48.805161654213713 25.758949046075809 0 0 0 0 12.274159753364756 -10.679445069914436 0 -10.679445069914436 172.80483537303098 0 0 0 0 19.560664876436817 -3.5897313619188935 0 -3.5897313619188935 164.09344042577413 0 0 0 0 -1.0779084938870653 -18.198130970146394 0 -18.198130970146394 228.66957458679281 0 0 0 0 3.6571014183317461 9.0550338802626342 0 9.0550338802626342 -2.832066657016818 0 0 0 0 9.1563828377442178 10.355602804653245 0 10.355602804653245 86.252621577440095 0 0 0 0 8.0160932333733594 14.913087071003318 0 14.913087071003318 10.436067153003854 0 0 0 0 8.8692814843806786 12.784958115539666 0 12.784958115539666 91.082978171287323 0 0 0 0 12.812769666877275 -56.076854026576427 0 -56.076854026576427 248.36598514915386 0 0 0 0 23.125506223283139 6.2948000572123419 0 6.2948000572123419 208.34685443307899 0 0 0 0 -2.9519409876077392 -7.6021710315391786 0 -7.6021710315391786 17.928414218692076 0 0 0 0 4.1816887961356315 12.956177552460758 0 12.956177552460758 85.548909280907537 0 0 0 0 4.1328040739076641 19.779163874558435 0 19.779163874558435 98.443455377651844 0 0 0 0 -5.3739229743687469 -10.658173095342324 0 -10.658173095342324 9.0513729450897635 0 0 0 0 -75.033386340077072 43.393159580691645 0 43.393159580691645 163.89382997553366 0 0 0 0 3.6751280007731175 9.8294798086427235 0 9.8294798086427235 2.136610194020244 0 0 0 0 -41.825111873856429 -19.591859826128712 0 -19.591859826128712 352.21408817318843 0 0 0 0 -26.707099419128326 35.445473185138326 0 35.445473185138326 122.21080957931554 0 0 0 0 -64.334820700306977 55.66181549783596 0 55.66181549783596 68.543096091631014 0 0 0 0 -105.10007565263783 -22.582181018915435 0 -22.582181018915435 94.682838549830194 0 0 0 0 -138.35081522473843 -13.284659560231376 0 -13.284659560231376 118.86957177973045 0 0 0 0 -160.43567061121712 -79.157121046329848 0 -79.157121046329848 70.436597934049132 0 0 0 0 -225.98658699160964 -43.396353782194069 0 -43.396353782194069 94.449545816012687 0 0 0 0 -206.92595879882558 112.2350472111475 0 112.2350472111475 47.984417651772674 0 0 0 0 -5.2109712206478447 6.1005155642482478 0 6.1005155642482478 17.160348114240982 0 0 0 0 -22.221601626627489 78.963033657062624 0 78.963033657062624 -44.560250623319007 0 0 0 0 -1.936663156455904 4.6009500418159774 0 4.6009500418159774 6.0603240553872055 0 0 0 0 20.378588288239825 20.183255789313989 0 20.183255789313989 46.541248133318732 0 0 0 0 -33.533696073305691 0.71471347414444608 0 0.71471347414444608 128.94715299387917 0 0 0 0 32.583284711398932 43.807879185101683 0 43.807879185101683 92.036562275365213 0 0 0 0 21.76000116958312 28.887653694629989 0 28.887653694629989 66.819990221614717 0 0 0 0 21.938710727365695 30.523580072124393 0 30.523580072124393 18.124868190781925 0 0 0 0 29.373179833552967 26.721493179145909 0 26.721493179145909 67.417304884544137 0 0 0 0 -14.643815179239716 -2.5970915539031569 0 -2.5970915539031569 58.574146242930539 0 0 0 0 -55.861565378637863 8.2449739032167599 0 8.2449739032167599 84.025762350191144 0 0 0 0 19.535387528323554 19.996411636138873 0 19.996411636138873 58.947108551279598 0 0 0 0 -0.048668081291147303 1.1654831036016162 0 1.1654831036016162 11.864924706562199 0 0 0 0 5.7501719996237171 30.065793721239061 0 30.065793721239061 75.041081678315095 0 0 0 0 11.397837976727715 21.397215553610295 0 21.397215553610295 70.724803091072317 0 0 0 0 15.649005261749153 25.587227724379773 0 25.587227724379773 71.394856323478052 0 0 0 0 21.02820476877514 19.836380410040874 0 19.836380410040874 76.724990059617994 0 0 0 0 13.065018662491184 26.474956802569068 0 26.474956802569068 76.076326987101766 0 0 0 0 13.688655180853516 25.221632864970161 0 25.221632864970161 75.868455654483114 0 0 0 0 22.606639096229401 28.725038241853326 0 28.725038241853326 64.039299179648879 0 0 0 0 6.2057251492428804 17.832089668594563 0 17.832089668594563 97.890496261011322 0 0 0 0 -201.79113681692968 324.68599752828231 0 324.68599752828231 -148.58856103059952 0 0 0 0 7.2283634292093666 35.898953608122611 0 35.898953608122611 101.18613321563316 0 0 0 0 0.067569992952860147 35.396233047644998 0 35.396233047644998 92.294781919535126 0 0 0 0 8.776713480023318 16.023631691421542 0 16.023631691421542 87.649225806933828 0 0 0 0 13.313052576498251 24.741550188670772 0 24.741550188670772 81.28072520115893 0 0 0 0 13.634270901115087 7.0832840627244877 0 7.0832840627244877 197.0007592500142 0 0 0 0 -5.2317340189106005 4.9355045810241478 0 4.9355045810241478 112.35960081763659 0 0 0 0 -15.317520783599548 19.365815457045755 0 19.365815457045755 86.820248567426461 0 0 0 0 -5.2808627153570047 30.475538942450697 0 30.475538942450697 78.399386918021392 0 0 0 0 6.3528704919156098 16.962615378171904 0 16.962615378171904 100.8602286284513 0 0 0 0 -8.1262049819837117 5.7152567196433068 0 5.7152567196433068 59.871880967003676 0 0 0 0 -0.073903089393882349 -0.75768542333143785 0 -0.75768542333143785 11.696616149252112 0 0 0 0 -239.9303775413909 69.610064880998834 0 69.610064880998834 237.70434052610653 0 0 0 0 -280.63945606271375 175.03266510140384 0 175.03266510140384 96.266379267541197 0 0 0 0 -515.18731180959242 367.6288864750386 0 367.6288864750386 -80.060915058929822 0 0 0 0 -69.465439240513376 0.23804202631799853 0 0.23804202631799853 346.08824567473494 0 0 0 0 -158.7420121003621 100.07109674230014 0 100.07109674230014 -18.774522419116693 0 0 0 0 -191.66371358637321 222.22130407781515 0 222.22130407781515 372.70422243187932 0 0 0 0 -410.49565176911801 307.2784417894436 0 307.2784417894436 -65.20984400936868 0 0 0 0 -201.40296026597332 416.20139905145334 0 416.20139905145334 -30.339264052920043 0 0 0 0 -1.0332836743859843 19.9309150227391 0 19.9309150227391 73.843644349992246 0 0 0 0 -85.644069287067168 17.455469897910803 0 17.455469897910803 81.703780544066831 0 0 0 0 -12.203208361467082 -6.9157107731005283 0 -6.9157107731005283 65.919543857329842 0 0 0 0 -2.2146903054323275 23.302568800002518 0 23.302568800002518 250.53222973965421 0 0 0 0 8.5722818490511159 4.3728234261471606 0 4.3728234261471606 20.185886943304531 0 0 0 0 -3.240704125885884 20.541182027957802 0 20.541182027957802 92.215408993501114 0 0 0 0 5.2219740112467221 1.5835319211460792 0 1.5835319211460792 -0.77083537342135289 0 0 0 0 -41.958431276742431 59.125986279891549 0 59.125986279891549 37.393933766637929 0 0 0 0 8.6927357582214029 44.140676124126003 0 44.140676124126003 357.09264596635694 0 0 0 0 -42.71088114310308 66.278927620877766 0 66.278927620877766 73.097485620990483 0 0 0 0 -49.59894205802857 80.920916855518954 0 80.920916855518954 78.082587119555683 0 0 0 0 63.134933451221869 162.99261953682753 0 162.99261953682753 159.59252323270994 0 0 0 0 7.5607464903096542 94.477196026826277 0 94.477196026826277 78.532518104029805 0 0 0 0 -24.057661133370765 122.89899257345223 0 122.89899257345223 144.8647236767938 0 0 0 0 113.9172019460384 166.70235909469557 0 166.70235909469557 20.951290845839139 0 0 0 0 140.79405597859147 217.06528247927963 0 217.06528247927963 62.224920196347739 0 0 0 0 1.7108394350592409 0.75257218786248359 0 0.75257218786248359 0.44393854120716902 0 0 0 0 81.80049960269389 95.826292207601 0 95.826292207601 -172.66010165491025 0 0 0 0 -16.727838935881664 115.58061234364322 0 115.58061234364322 298.74873846670744 0 0 0 0 -19.345936045926464 68.257342195694946 0 68.257342195694946 -67.614389256996219 0 0 0 0 -47.514721351813705 27.090507959131173 0 27.090507959131173 96.034954473412654 0 0 0 0 81.381612093426384 190.30743176323449 0 190.30743176323449 71.207724749174531 0 0 0 0 31.278993114823066 172.81781393469691 0 172.81781393469691 100.37801205195501 0 0 0 0 114.84107634240132 267.48181116386786 0 267.48181116386786 177.37009625256178 0 0 0 0 72.052441756278881 208.7907001931635 0 208.7907001931635 98.97148946633024 0 0 0 0 -0.20067245178562887 -1.8880172149430301 0 -1.8880172149430301 4.4021079135911911 0 0 0 0 84.139049467340328 52.573638435889734 0 52.573638435889734 96.939954403162517 0 0 0 0 1.2911230820774544 -1.8794816381039183 0 -1.8794816381039183 4.7039374368918345 0 0 0 0 -29.083646884428845 -1.9137355729299088 0 -1.9137355729299088 2.1417498307655478 0 0 0 0 135.80423900465553 122.41182814420654 0 122.41182814420654 90.593416091534891 0 0 0 0 116.88205889899905 122.7511072842226 0 122.7511072842226 100.48639962635389 0 0 0 0 260.46403068611085 171.38775951642674 0 171.38775951642674 112.20157269214633 0 0 0 0 109.97802327633201 208.79075770496729 0 208.79075770496729 106.55054648259465 0 0 0 0 115.39807460948029 206.34080018766622 0 206.34080018766622 97.669978562076722 0 0 0 0 150.12645659914608 156.30137224240752 0 156.30137224240752 102.61271436358538 0 0 0 0 73.024824661993989 148.79953463125457 0 148.79953463125457 145.93869714149332 0 0 0 0 108.98297687287163 177.03111143480055 0 177.03111143480055 166.97359585361846 0 0 0 0 38.135388751391645 132.53325664636031 0 132.53325664636031 260.49232789719645 0 0 0 0 109.40380395434758 188.38139003055176 0 188.38139003055176 298.8046629094606 0 0 0 0 147.62681553871425 77.44123580773703 0 77.44123580773703 272.47974015419777 0 0 0 0 112.52852986079131 126.00077699067515 0 126.00077699067515 233.33107944218773 0 0 0 0 340.28675842648209 298.66047776257028 0 298.66047776257028 310.41077260002567 0 0 0 0 156.7391131458312 126.25182585570383 0 126.25182585570383 458.3065134357721 0 0 0 0 -0.33133278228294127 0.39196792141918113 0 0.39196792141918113 2.6946631542366575 0 0 0 0 297.8269617316821 0.96091424305359396 0 0.96091424305359396 329.95265573599499 0 0 0 0 190.86538547619728 17.942428721009492 0 17.942428721009492 311.926394220578 0 0 0 0 167.3027570524838 73.210140045977823 0 73.210140045977823 305.70532896707664 0 0 0 0 37.616968263806143 69.011359054833974 0 69.011359054833974 299.3238387235906 0 0 0 0 164.19684780119599 59.255426020128652 0 59.255426020128652 255.9549348269793 0 0 0 0 53.148747871853288 45.946997846041995 0 45.946997846041995 293.44999242619815 0 0 0 0 52.944308602107526 50.898853946280724 0 50.898853946280724 241.19473201875371 0 0 0 0 -23.440839191717942 15.067328337441722 0 15.067328337441722 240.34001831014029 0 0 0 0 -75.658294061556347 33.436814634185794 0 33.436814634185794 263.94337399329015 0 0 0 0 -33.609070272829911 40.378998654095085 0 40.378998654095085 185.54410792154886 0 0 0 0 23.73514979377272 101.9161395170031 0 101.9161395170031 234.68524882426573 0 0 0 0 -68.611807043099702 57.770177744640023 0 57.770177744640023 206.21201819446196 0 0 0 0 -124.27011346465918 -22.012080839289411 0 -22.012080839289411 191.30398283224349 0 0 0 0 -76.878823307130773 3.9503630439638187 0 3.9503630439638187 192.63422727400757 0 0 0 0 -137.14832310021708 -67.670151865389926 0 -67.670151865389926 133.32903131232888 0 0 0 0 -124.94123897931263 -25.131141712548924 0 -25.131141712548924 202.4861764696343 0 0 0 0 -110.78418928830365 -32.066718498103 0 -32.066718498103 167.90627686049629 0 0 0 0 -123.91102890034676 -65.104131190842963 0 -65.104131190842963 113.72046124257577 0 0 0 0 -115.71227178255407 -53.205089317380043 0 -53.205089317380043 82.739024341677577 0 0 0 0 -113.27031996221757 -30.931384072500805 0 -30.931384072500805 23.720576298130254 0 0 0 0 -98.241880986463684 6.5193699127958098 0 6.5193699127958098 107.1546005404407 0 0 0 0 -91.830530081519811 8.5722053544113805 0 8.5722053544113805 128.89484816947152 0 0 0 0 -95.38623245780272 7.4981261951761553 0 7.4981261951761553 129.715981509431 0 0 0 0 -95.200527685957127 11.27448576293682 0 11.27448576293682 132.11248697090195 0 0 0 0 -101.52200574577421 7.9751425308913895 0 7.9751425308913895 131.63935486435003 0 0 0 0 -79.073204857639539 82.307367432068077 0 82.307367432068077 152.67062746008378 0 0 0 0 -73.572304326447608 67.628004178618312 0 67.628004178618312 126.30665328798932 0 0 0 0 -144.67899266663451 68.747450939591431 0 68.747450939591431 87.170495673461119 0 0 0 0 -100.44858568930903 38.427178668374836 0 38.427178668374836 107.94215428871757 0 0 0 0 -51.907529403134156 67.630218603680987 0 67.630218603680987 135.06876559679677 0 0 0 0 33.098513842472997 106.66198987100506 0 106.66198987100506 157.51567992709897 0 0 0 0 -20.865371609398409 118.70977376179962 0 118.70977376179962 209.54584299460475 0 0 0 0 
</DataArray>
<DataArray type="Float64" Name="cross_section_updated" format="ascii">
1 1 1 1 1 1 0.010073882186420885 1 1 1 1 1 0.0098931367430655712 1 1 1 0.010653655628923514 1 1 1 0.010579393576110352 1 1 1 1 1 0.010270353002085297 0.011181141347283407 1 1 1 1 0.0098715623446527824 1 1 1 0.0098561299619555308 1 1 1 1 1 1 1 1 1 1 1 1 1 1 1 1 1 1 1 1 1 1 1 1 1 0.018832297575602543 1 1 1 1 1 1 1 1 0.02106798384141291 1 1 1 1 1 0.016087610693048662 1 1 1 1 1 1 1 1 1 1 1 1 1 1 1 1 1 1 1 1 1 1 1 1 1 1 1 1 1 1 0.011723619292481204 0.0096376322069723734 1 1 0.010346953267793278 1 1 1 1 1 1 1 0.010206376116215372 1 1 1 1 1 1 1 1 1 1 1 1 1 1 0.0099952443926305083 1 1 0.0099913547081173296 1 1 1 1 1 1 1 1 1 1 1 1 1 1 1 1 1 0.0099960895119566226 1 0.010144564488731914 1 1 1 1 1 1 1 1 1 1 1 1 1 1 1 1 1 0.010284999922524032 1 1 1 1 1 1 1 1 1 1 1 1 1 1 1 1 1 0.013562194420049458 1 1 0.011688466536239174 1 1 1 0.011884704847285555 1 1 1 1 1 1 1 1 1 1 1 1 0.011499312167127072 1 1 0.0097530270627684094 1 0.010615914435045032 1 0.011669315565806655 1 1 1 1 1 1 1 1 0.0099490784549930659 0.0069210784558735652 1 1 0.013542238953015073 1 1 1 0.0070946217695953195 1 0.010879316038272259 0.009059267665258091 0.010256891315725073 1 1 1 1 1 1 1 1 1 1 1 1 1 1 1 0.010738202765453956 1 1 1 1 0.010337813354219041 1 1 1 1 1 1 1 1 1 1 1 1 1 1 0.010364998576747067 1 1 1 1 1 1 1 1 0.010403843853819716 1 1 1 1 0.013302844762625244 1 0.0097382109795900521 1 0.010407628350391515 1 1 1 1 1 1 1 1 1 1 1 1 1 1 1 1 1 1 1 1 1 1 1 1 1 1 0.0091472009784416882 1 1 1 1 1 0.014082821909785253 1 1 1 1 1 1 1 1 1 0.016152351915499095 1 1 1 0.011125153084533443 0.01000844663062259 0.0050503394067325843 1 1 1 -3.4694469519536142e-18 0.018303383127954251 0.0085309369314511604 1 1 1 1 1 1 1 1 1 1 1 1 0.012405445947284105 1 1 1 1 1 1 1 1 1 1 1 1 1 1 1 1 1 1 1 1 1 1 1 1 1 1 1 1 1 1 1 1 1 1 1 1 1 1 0.013380734076689754 1 1 0.00916131816477702 1 1 1 0.0098810267081520815 1 1 0.010963473164817189 1 1 1 0.014505195689792538 1 1 0.011880271005309112 1 0.015630981609319937 1 1 1 1 1 1 0.010634888341329439 1 1 1 1 0.013765699834466488 1 1 0.0099546882499253562 1 1 1 1 1 1 1 0.012504438969547621 1 1 1 1 1 1 0.0097875075967622793 1 1 1 1 1 0.012778557234355441 1 1 1 1 1 1 1 1 1 1 1 1 1 1 1 0.012857946682725148 1 0.0094653675144253848 1 1 1 1 1 1 1 1 1 1 1 1 1 1 0.010779577178474109 1 1 1 1 1 1 1 1 1 1 1 1 1 1 1 1 1 1 0.01097717093842453 1 1 1 1 1 1 1 1 1 1 1 1 1 1 1 1 1 1 1 1 1 1 1 0.010007946980281249 1 1 1 1 0.0099423019006096066 1 1 1 1 1 1 1 1 1 0.0098064843396980343 1 1 1 1 0.010889710891241279 1 1 1 1 1 1 1 1 1 1 1 1 1 1 1 1 1 1 1 1 1 1 1 1 1 0.010603628832363772 1 1 1 1 1 1 1 1 1 1 1 1 1 1 1 1 1 1 0.011004293244498253 1 1 0.010400664412134476 1 1 1 1 1 1 0.010871548416725284 1 1 1 1 1 1 1 1 1 1 1 1 1 0.015207740613176458 1 1 0.014232940833382599 1 1 1 1 0.012714258853399191 1 1 1 1 1 1 1 1 1 1 1 1 1 0.0077968017095953919 0.015952359424353552 1 1 1 1 1 1 1 1 0.0099978779410088599 1 1 1 0.01052565505038163 1 1 1 1 1 1 0.015127948158043025 1 1 1 1 0.014504456938505828 0.010024584519188539 1 1 1 1 1 1 1 1 1 1 1 1 1 1 1 1 1 1 1 1 0.014414552948226828 1 1 1 1 1 1 0.015072135452055376 1 0.0098473527059384225 1 1 1 1 1 1 0.010599950203482072 1 1 1 1 1 1 1 1 1 1 1 1 1 1 0.0098999621616231506 1 1 1 0.010276248796280366 1 1 1 1 1 1 0.010818954755206689 1 1 1 1 1 1 0.0095517667934805067 1 1 1 0.009207168607735074 0.0090125227698132013 1 1 0.0099136130882990017 1 1 1 1 1 1 0.009738121399796627 1 1 1 0.011436774522902558 1 1 0.012157707381395915 1 1 1 0.010037880543229127 1 1 1 0.010048265325010131 1 1 1 1 0.010930921600154929 1 1 1 0.010010384781781002 1 1 1 1 1 0.0098420501164077322 1 1 1 1 1 1 1 1 1 0.010329778163928292 1 1 1 1 1 1 1 1 1 1 1 0.013702232157998326 0.009995029209386606 1 1 1 1 1 1 1 1 1 1 1 1 1 1 1 0.012204494018049175 1 0.021740582988976555 1 0.014069644150898458 1 1 1 1 1 1 1 1 0.010605473857299118 1 1 1 1 1 1 1 1 1 1 0.01120661729352576 1 1 1 1 0.010755740774496985 1 1 1 1 1 1 1 1 1 1 1 1 0.0096074846537658291 1 1 1 1 1 1 1 1 1 1 1 1 1 1 1 0.01055898933445496 1 1 1 1 1 1 1 1 1 1 1 1 1 1 1 1 1 1 1 1 0.011158939537937042 0.010220584538043085 1 1 1 0.010002417152581424 1 1 1 1 1 1 1 1 1 1 1 1 1 1 1 1 1 1 1 1 1 1 1 1 1 1 1 1 1 1 1 1 1 1 1 1 1 1 1 1 1 1 1 1 0.010041411384035132 1 1 1 1 1 1 1 1 1 0.0095612316727116137 1 1 1 1 1 1 1 1 1 0.01031505596060741 1 1 1 1 1 1 1 0.0097740797165531447 0.009923965340144076 1 1 1 0.018541799648311326 0.0078008302237057396 1 1 0.022628601244677096 1 1 1 0.0079235868286453553 1 1 1 1 1 1 1 1 1 0.0088207209564569837 1 1 1 1 1 1 1 0.00954052294716521 1 1 1 0.0098732747895319481 1 1 1 1 1 1 1 1 1 1 1 1 1 1 1 1 1 1 1 1 1 1 1 0.0099829838209213734 1 0.010280910065912259 1 1 1 1 1 0.010475689073057064 1 1 1 1 1 0.01037057226820845 1 1 1 1 1 0.012021748123153639 0.0081609843847370127 1 0.0090087300402693152 1 1 1 1 1 1 1 1 1 1 1 1 1 1 1 1 0.0099203668381179985 1 1 1 1 1 0.01137598237873895 1 1 0.010508076766361181 1 1 1 1 1 1 1 1 1 1 1 1 1 0.0096222638763092672 1 1 1 0.0088605958828992804 1 0.010626700210362057 1 1 1 1 1 1 1 1 1 1 1 1 1 1 1 1 1 1 0.010276663577778851 1 1 1 1 1 1 1 1 1 1 0.01140003143205625 1 1 1 1 1 1 1 1 1 1 1 1 1 1 1 1 1 1 1 0.0099068877898428331 1 1 1 1 1 1 1 1 1 1 1 1 0.013412193722143719 1 1 1 1 1 1 1 1 1 1 1 0.01012802683229333 1 1 1 1 0.010598623965034529 1 1 0.010331455566535613 1 0.0099225197599146463 1 0.010238442126423074 1 1 1 1 1 1 1 1 1 0.010290281356409582 0.010422580817114151 1 1 1 0.010707622776189476 1 1 1 1 1 0.014370382952471531 1 1 1 1 0.01057744492988707 1 1 1 1 1 1 1 1 1 1 1 1 1 1 1 1 1 0.0099327687161843078 1 1 0.020826207246938892 1 1 1 1 1 0.0098391326258828512 1 1 0.020596426736139282 1 1 1 1 1 1 1 1 1 1 0.020924123853251111 1 1 1 1 1 1 1 0.023239559488603508 1 0.010047550610131959 1 0.010001383294376718 1 0.0099575676970881377 1 1 0.0093266561772492231 1 1 1 0.018212849366036163 1 1 1 1 1 1 0.010104477356369747 1 1 1 1 1 1 1 1 0.010409073887248769 1 1 1 0.01035620404820318 1 1 1 0.011333325117532976 1 1 0.007606044596158529 1 1 0.018865182282940138 1 1 0.010647190238941532 0.017169072816105312 1 1 1 0.010546884577766008 1 1 1 1 1 1 0.010201069822574911 0.0098916761411012803 1 1 0.012737616128983557 1 1 1 1 0.0087431334810572307 1 1 1 1 0.010527935916182844 1 0.013094083911998592 0.013888765998643721 1 1 1 1 1 1 0.011382348595589578 1 1 0.011743548118855003 1 1 1 1 1 0.013140136764189046 1 1 1 1 0.0099960306198267623 0.010074243544855012 1 1 1 1 1 1 1 0.016939793110903614 1 1 1 1 1 1 1 1 1 1 1 1 0.010845330092905555 1 1 1 1 1 1 0.010017312254361562 1 1 1 1 1 1 1 0.010384892192776048 1 1 1 1 0.012883799485555729 1 1 1 0.012783262968801437 1 1 1 1 1 1 0.01724541577195976 1 1 0.010460437900129502 1 1 1 0.01003541621310354 1 0.010696945195065732 1 0.010769530143239484 1 1 1 0.012708463106966375 1 1 1 1 1 0.015550190672597206 1 1 1 1 1 1 0.017263024568546913 1 1 1 1 1 1 1 1 0.010738203165722143 1 1 1 0.0093300133441561028 1 1 1 1 1 1 1 1 1 1 0.014145558440581171 1 0.014906966972204561 1 1 1 1 0.015465289012199433 1 1 1 1 1 1 1 1 1 1 1 1 1 0.01020836141120385 1 1 0.010305628483372124 1 1 0.0098823911036451488 1 1 1 1 1 1 1 1 1 1 1 1 1 1 1 1 1 1 1 1 1 1 1 1 1 1 1 1 1 1 0.0099770904169884413 1 1 1 1 1 1 1 1 1 1 1 1 1 1 1 1 1 1 1 1 0.010854016243695811 1 1 1 1 1 1 1 1 1 1 1 0.010850295053612154 1 1 1 1 1 1 1 1 1 1 1 1 1 1 1 1 1 1 1 1 1 1 1 1 0.0096111425203853542 1 1 1 0.012299943778651345 1 1 0.01228607705174347 1 1 1 1 1 1 0.0091754953641002973 1 0.014632634271027185 1 1 1 0.010685853510089782 1 1 1 1 1 0.011675408773619089 0.016773078945846582 1 1 0.018743321941459841 1 1 1 1 1 1 1 1 1 1 1 1 1 1 0.010294995899612669 1 0.014851269159823911 1 1 0.016865238350811121 0.012639743603457933 1 1 0.011954688710200573 1 1 1 0.011684166456100341 1 1 1 1 0.010273123511299612 1 0.010176096123005372 1 0.011581988751964645 1 1 1 1 1 1 1 1 1 1 1 1 1 1 0.011294461966762587 0.0099579945886599953 1 1 1 1 1 1 1 1 1 1 1 1 0.013329423180444616 1 0.013919630450306216 1 1 1 1 1 1 1 0.010509889819071853 0.012955739634913902 1 1 1 1 1 1 1 1 1 1 1 1 1 1 0.010073258854754057 1 1 1 1 1 1 1 1 1 1 1 0.017895754818811931 1 1 1 1 1 1 1 1 0.010102213574573546 1 1 1 1 1 0.010028954719819495 1 1 1 1 0.012401248877340636 1 1 1 1 1 1 0.011492885285331036 1 1 1 1 1 1 1 1 1 1 1 1 1 1 1 0.01005899292213131 1 0.014142214743608498 1 1 1 1 1 1 1 1 1 0.01161857584675096 1 1 1 1 0.011138111026241333 1 1 1 1 1 1 0.014953115353363994 1 1 0.0099968310262763711 1 0.01344826563960164 1 1 0.013252252533737352 1 1 1 1 1 1 0.012446937305484441 1 1 0.012597278193663568 1 1 1 0.012031390103739261 1 1 1 1 0.016425008037483931 0.010004824758266313 1 1 0.013878660718277072 1 1 1 1 1 1 1 1 1 1 1 1 1 1 1 1 1 0.010632993392639385 1 1 1 1 1 1 1 1 1 1 1 0.010394483241501058 1 1 1 0.010202978708028197 1 1 1 1 1 1 1 1 0.011599784528701069 1 1 1 1 1 1 1 1 1 1 1 1 1 1 1 1 1 1 1 1 1 1 1 1 1 1 1 1 1 1 1 1 1 1 1 1 1 1 1 1 1 1 1 1 1 1 1 1 1 1 1 1 1 1 1 1 1 1 1 1 1 1 1 1 1 1 1 1 1 1 1 1 1 1 1 1 1 1 1 1 1 1 1 1 1 1 1 1 1 0.010482373362159644 1 1 1 1 0.0099790023787143245 1 1 0.018526714917996248 1 1 1 1 1 1 1 1 1 1 0.019130700782064282 1 1 1 1 1 1 1 1 1 1 1 1 1 1 1 1 1 0.010909374290138404 1 1 0.011219583879462293 1 1 0.010553210154232351 1 0.011493820093662416 1 1 1 1 1 1 1 0.010960380081228344 1 0.011158582205200903 1 1 1 1 1 1 1 1 1 1 1 1 1 1 1 1 1 0.0099516324454750893 1 1 1 0.013947073551164443 1 1 0.015957401708543588 1 1 1 0.011966043158602106 1 1 1 1 1 1 0.0093966932533092427 1 1 1 0.015520563780514805 1 0.013859454827750275 1 0.014076388027084882 1 1 1 0.013643546627741344 1 1 0.01590733486943063 1 1 0.01330616240371426 1 0.016311106175450493 1 1 1 1 0.013715418475339495 1 1 1 1 1 1 1 1 1 0.010115892586604594 1 1 1 1 1 1 0.0099564918858561328 1 1 0.0099959862281805249 1 1 1 1 1 1 1 1 1 1 1 1 1 1 1 1 1 1 1 0.010331539393642925 1 1 1 1 1 1 1 1 1 1 1 1 0.010123928125231626 1 1 0.0099639215102545649 1 1 0.010561947801305552 1 0.011142972204027272 1 0.01041862551506652 1 1 1 1 1 1 1 1 1 1 1 1 1 1 1 1 1 1 1 1 1 1 1 1 1 1 1 1 0.010316089260590307 1 1 1 1 0.011029515719151046 1 1 1 1 1 1 1 1 1 1 1 1 1 1 1 1 1 1 1 0.010095292130884037 1 1 1 1 0.011700780793632209 1 1 1 1 1 0.010720189239399052 1 1 1 1 1 1 1 1 1 1 1 0.011285920155663626 1 1 1 0.013191560211253766 1 0.011406798320067217 1 1 1 1 1 0.013785472369131507 0.013264917153628418 1 1 1 1 0.011756835475033103 1 1 0.013914487795422191 1 0.010325577571843166 1 1 0.014499840238936764 1 0.010147281876840848 1 1 1 1 0.0095738112650542197 1 1 1 1 1 1 1 1 1 1 1 1 1 1 1 1 1 1 0.011514766474429299 1 1 1 1 1 1 1 1 1 1 0.01050038387045675 1 1 1 1 1 0.011294961105486999 1 1 1 1 1 1 0.0099981354763829678 1 1 1 1 0.0097870824477352524 1 0.013278328645588318 1 1 1 1 1 1 1 0.013918032200566357 1 1 1 0.0099535947058857887 1 1 1 1 1 1 1 0.0088552229677796267 1 0.0099455031683792425 1 1 1 1 0.012634312028308951 1 1 1 1 1 0.010124919182711755 1 1 1 1 1 1 1 1 1 1 1 1 1 1 1 1 1 1 1 1 1 1 1 1 1 1 0.011575227536431884 1 1 1 1 1 0.010112383127470974 1 1 1 1 1 1 1 1 1 1 1 1 0.011250051737842612 1 1 1 1 1 1 1 1 1 1 1 1 1 1 1 1 1 1 1 1 1 1 1 1 1 1 1 1 1 1 0.0095926865650770993 1 0.012289938797978331 1 0.0088305133171528421 1 1 1 1 0.013735514905671561 1 1 1 1 1 1 0.010465833733786071 1 1 0.014366125429619122 1 1 0.010008323585046903 0.01027627947039288 1 1 1 1 0.011489144920524344 0.0098990230709700682 1 1 1 1 0.0098646601513021522 0.018065437903027608 1 1 1 1 1 1 1 0.011625079368195401 1 0.010151669684654857 1 1 1 1 1 1 1 1 1 0.0094990882900913703 1 1 0.0090660351309707152 1 1 0.010094816336854384 1 0.0095048750344276199 1 0.0119780263129157 0.012438664117870295 1 0.015017396486121281 1 1 1 1 1 1 1 0.012857377563378769 0.013194828936071715 0.01675114989270703 1 1 1 1 1 1 1 1 0.013415814985856624 1 1 0.0094762969729877029 0.010000270339661671 0.011612385999211128 1 0.014128695930119509 1 1 1 1 1 1 1 0.010046459481408861 1 1 1 0.010144661247097703 1 1 0.01714719967343831 1 1 1 1 1 1 0.010551627976879818 1 1 1 1 1 0.015165344155349408 1 1 1 1 0.008558009961794677 1 0.017386903944501257 1 1 1 0.0087026979593743947 0.016782814067544199 1 1 1 0.009807433363770348 1 1 1 1 1 1 1 1 1 1 0.0089616051968042267 1 1 1 1 1 1 1 0.011489885142398458 1 1 1 0.0097718823050834732 1 1 1 1 1 1 0.0079535734575589927 1 1 1 1 1 1 1 1 1 1 1 1 0.010158123284712266 1 1 1 1 0.01137871816806115 1 1 1 1 1 1 1 1 1 1 1 1 1 1 1 1 1 1 0.01027120675446249 1 1 1 0.010211802567316299 1 0.010305936872254579 1 1 1 1 0.0086219010675256478 1 1 1 1 0.0099804185092906214 0.005645799553938474 1 1 0.012957067540284384 1 1 0.0085749419591846215 1 1 1 0.0092254579729632632 1 1 0.010051551669566495 1 1 1 1 1 1 1 1 0.011049058229903349 1 0.010304934417932884 1 1 0.010555473957482023 1 1 1 1 1 1 0.010265176166847637 0.0099250165772025774 1 1 1 1 1 1 1 1 1 1 1 1 1 1 0.0096117131650972406 1 1 1 1 1 1 1 1 1 1 1 1 1 1 1 1 1 1 1 1 1 1 1 1 1 1 1 1 1 1 1 1 1 1 1 1 1 1 1 1 1 1 1 1 1 1 1 1 1 1 1 1 1 1 1 1 1 1 1 1 1 1 1 1 1 1 1 1 1 1 1 1 1 1 1 1 1 1 1 1 1 1 1 1 1 1 1 1 1 1 1 1 1 1 1 1 1 1 1 0.010892453410599589 0.0095147058827996095 1 1 1 1 1 1 1 1 1 1 1 1 1 1 1 1 1 1 1 1 1 1 1 1 1 1 1 1 1 1 1 1 1 1 1 1 1 1 1 1 1 1 1 1 1 1 1 1 1 1 1 1 1 1 1 1 1 1 1 1 1 1 1 1 1 1 1 1 1 1 1 1 1 1 1 1 1 1 1 1 1 1 1 1 1 1 1 0.023042092076209848 1 1 1 1 1 1 0.0099227392876378023 1 1 0.015626574108145597 1 1 0.015435110723673129 1 1 1 1 0.014830546007512083 0.014856119312203415 1 1 0.010729763983561163 1 1 1 0.010214381051350047 1 0.010381434430293476 1 1 1 1 1 1 0.011165134832804452 1 1 1 0.012592138656157433 0.011228193978204395 1 1 1 1 1 0.012547565928037206 1 0.011886855590620814 1 0.013806172478657206 1 1 1 0.011264468401325257 1 1 1 1 0.010561042579499857 1 0.010493093850857189 1 0.010620692733258379 1 1 1 1 1 1 1 0.0096474894613613298 1 1 1 1 1 1 1 1 1 1 1 1 1 1 1 1 1 1 1 1 1 1 1 1 1 1 1 1 1 1 1 1 1 1 1 1 1 1 1 1 1 0.0098659681932862509 1 1 1 1 1 1 1 1 0.014251742999650431 1 0.0094428377237245759 1 1 1 1 0.011062030790226492 0.010280656749346525 1 1 1 1 1 1 1 1 1 1 1 1 1 1 1 1 1 1 0.010014241603416036 1 0.010234659338081748 1 1 1 1 1 1 1 1 0.014528247951721932 1 1 1 1 1 0.015194140328153211 1 0.0077468246994885394 1 0.0090448400081049041 1 0.012393828244291692 1 1 1 1 1 0.014927196569831281 1 1 1 1 1 1 1 1 1 1 1 1 1 0.015454296621692057 1 0.011736421794402138 1 1 0.014968251398921923 1 0.013430552041712448 1 1 1 1 1 1 1 1 1 1 1 1 1 1 1 1 1 1 1 1 0.012918224702017304 1 1 0.014972939755726607 1 1 1 0.016112037333776683 0.013137572282206786 0.013877339235318947 0.014730019257075185 1 1 1 0.011032345119018494 1 1 1 0.017437622698790362 0.0098722205428228346 1 0.015838832260691074 1 1 0.013162975848009476 1 1 1 0.010335706711841745 0.01298568961083486 1 1 0.019663719924409184 1 1 1 0.012082985963988289 1 1 1 0.013977451443941651 1 1 1 0.02415597867787856 1 1 1 1 0.01782064894729013 1 1 0.024160942847074908 1 1 1 0.016636815293671253 0.010411945471456269 1 1 1 1 1 1 1 1 1 1 1 1 0.011680856671335074 1 1 0.010561949357293453 1 1 1 1 1 0.016118156147309277 1 1 0.018643055167062501 1 1 1 1 1 1 1 1 1 1 1 1 1 1 1 1 0.010010890635224198 1 1 1 0.010056178004446336 1 0.014965816313393679 1 1 1 1 1 1 1 0.0097585998995926571 1 1 1 1 1 0.017111713867897976 1 0.01521592959955702 1 1 1 1 1 1 1 1 1 1 1 0.010122196596089629 1 0.0099819096250761269 0.020005070088202421 1 1 0.022066240973759959 1 1 1 1 0.018298039723853007 1 1 1 1 0.019870827170742313 1 1 1 0.013331972276527219 1 1 0.013017223951697566 1 1 0.0099973887609429348 1 0.012221205738968781 1 1 0.010554282393411843 1 1 1 1 0.010910322853521646 1 1 1 1 1 1 0.018389183705410303 1 1 1 1 0.010014447733753179 1 1 1 1 1 0.016968507537767779 1 1 1 1 1 1 1 1 1 1 1 1 1 1 1 1 1 1 1 1 1 1 1 1 0.010451241051444496 1 1 1 0.013227384107278077 1 1 0.010054775455592038 1 1 1 1 1 1 0.010329044455354867 1 1 1 1 1 1 1 1 1 0.010463521819392089 1 1 1 1 1 0.010859698434297915 1 1 1 1 1 1 1 1 1 1 0.010431016679262325 1 1 1 1 1 1 1 1 0.013075652027679848 1 1 1 1 1 1 1 1 1 0.013261815643123556 0.011499575060739396 1 1 1 1 1 1 1 1 1 0.011045047877502569 1 1 0.013390195154509923 1 1 1 1 1 1 0.010617016403113865 1 1 1 1 1 1 1 1 0.0099756498529691533 1 1 1 1 1 1 1 0.01032479841119073 1 0.011358086886812483 1 1 1 1 1 1 1 1 1 1 1 1 1 1 1 1 1 1 1 1 1 1 1 1 1 1 1 1 1 1 1 1 1 1 1 1 1 1 1 1 1 1 1 1 1 1 0.012486507995263869 1 1 0.011215778926475515 1 1 1 0.012104153323546052 1 1 0.011966640445475817 1 1 1 1 1 1 1 1 1 1 1 1 1 1 1 1 0.0099541300697221276 1 1 0.011580911985926735 1 1 1 0.011946333853646622 1 1 0.013120383554234803 0.0092206087887404357 1 1 0.0098378581614042074 1 1 1 1 1 1 1 1 1 1 1 1 1 1 1 1 1 1 1 1 1 1 1 0.011920046017370407 1 1 1 1 1 1 1 1 1 1 1 1 1 1 1 1 1 1 1 1 1 1 1 1 1 1 0.0097912337159903658 1 1 1 1 1 1 0.0097580868948082024 1 1 1 1 1 1 0.0095107799749650519 0.015243641301892222 1 1 1 1 1 0.010269646526984103 1 0.011695845225849055 1 1 1 1 1 1 0.012414587904763295 1 1 1 1 0.012217003667078695 1 1 1 1 1 1 1 0.0083343932371196389 1 1 1 0.009905339660316901 1 1 1 0.0094602804669406768 1 1 1 1 1 1 1 1 1 1 0.007258387600351285 1 1 0.010175515516085809 0.010073589384525961 1 1 1 1 0.010784501310315168 1 1 1 0.010496867524738863 1 1 1 0.011053046363850124 1 1 1 1 1 1 1 1 1 1 1 1 1 1 1 1 0.012243776585434185 1 1 1 1 1 1 1 1 0.013804215187906383 1 0.011127413187609641 1 1 0.015566612729515766 1 1 0.012313338875885007 1 1 1 1 1 1 1 1 1 0.011047159931230765 1 1 1 1 1 1 1 1 1 1 1 1 1 1 1 1 0.01532284339706335 1 1 0.013755985783151597 0.017817150926174904 1 1 1 0.010371639418608454 1 1 1 1 0.009663305174328736 1 1 0.011334792305311731 1 1 1 1 1 1 1 0.0099404057268787979 1 1 1 1 1 1 1 1 0.010007921436182721 0.010015172579245413 1 1 1 0.010118479556550217 1 1 1 1 1 1 0.010657705980595789 1 1 1 1 1 1 1 1 1 0.010720859764417867 1 1 1 1 1 0.010342589539788734 1 1 1 1 1 1 1 1 1 1 1 1 1 0.010389276325738009 1 1 1 1 1 1 1 1 0.010937284028355787 1 1 1 1 1 1 0.011143438729884514 1 0.010002705628552013 1 0.0090156199558714262 1 1 1 1 1 1 1 1 1 0.0099761185867981109 1 1 1 1 1 1 1 1 1 1 1 0.0093051777566681166 1 1 1 1 1 1 0.0097595445717703483 1 1 1 1 1 1 1 1 1 1 1 1 1 1 1 0.010494946262779171 1 1 1 1 1 1 1 1 1 1 1 1 1 1 1 0.0098957994156509479 1 1 1 1 1 1 1 1 1 1 0.0098139910889342343 1 1 1 1 1 0.013059219551963534 1 1 1 1 1 1 1 1 1 1 1 1 1 1 1 1 1 1 0.014381053524879532 1 1 1 1 1 1 1 0.011367804332393422 1 1 1 1 1 1 0.011863862822939842 1 1 1 1 1 1 1 1 1 1 1 1 1 1 1 1 1 1 1 1 1 1 1 0.010543510910555512 1 1 1 1 1 1 1 1 1 1 1 1 1 1 1 1 1 1 1 1 1 1 1 1 1 1 1 1 1 1 0.0099320222668345948 1 1 1 1 0.0099327334990779725 1 1 1 0.010333792165529744 1 1 0.0099596542633065624 1 0.012341753099252742 1 0.0097395194021862117 1 1 0.012220140738707988 1 0.01112017599922331 1 1 1 1 0.013639860243447778 0.013786364441893018 1 1 1 0.012073721184019826 0.010538806774873379 1 1 1 1 1 1 1 1 1 1 1 1 1 1 1 1 0.015099362555500311 1 1 1 1 0.010196804405400169 1 0.011828020393021731 1 1 1 1 1 1 1 1 1 1 1 1 1 1 0.0124737367995235 1 1 1 0.01265502642997561 1 1 1 1 1 1 1 1 1 1 1 1 1 1 1 1 1 1 1 1 1 1 1 1 1 1 1 1 1 1 1 1 1 0.012309399524076406 1 1 1 1 1 1 1 1 1 1 0.010793684905928538 1 1 1 1 1 1 1 1 1 1 1 1 1 1 1 1 1 1 1 1 1 1 1 1 1 1 1 1 1 1 1 1 1 1 1 1 1 1 1 1 0.010030015889330271 1 1 1 0.011156980319478782 1 1 0.0099342703094492217 1 1 1 1 0.010676168311810317 0.01054467004956987 0.0098424030047730374 1 1 1 1 1 0.0100438838659964 1 1 1 0.010107240531160373 0.010031512108220182 1 0.010104278819545294 1 1 1 1 1 1 1 1 1 0.010296993119215687 1 1 1 1 1 1 1 1 1 1 0.0099305055324462876 1 1 1 1 1 1 1 1 1 1 1 1 1 0.0098931985138354817 1 1 1 0.010003234742284197 1 0.0099062012565207212 1 1 0.010007243145189915 1 1 1 1 1 1 1 1 1 0.009970354042486064 1 1 1 1 1 1 1 1 1 1 1 1 1 1 1 1 1 1 1 1 1 1 1 0.0095849429505745071 1 0.010031545996007248 1 1 1 0.0099943397349152169 0.0099918038817540383 1 1 1 1 1 1 0.013611973670510799 1 1 1 1 0.0098869015149172512 1 1 1 1 0.014545942782173665 1 1 1 1 1 1 1 1 1 1 1 1 0.010000751348952369 1 0.0096035363933999127 1 0.0099797150831420281 1 1 1 1 1 1 0.010162313098381519 1 1 1 1 1 1 1 0.010313047619933135 1 1 1 0.0097343962691217555 1 0.010108521744617816 1 1 1 0.0097185496026803951 1 1 1 1 1 1 1 1 1 1 1 1 0.014216156361074705 1 0.0094130625544015765 1 1 1 1 1 1 1 0.0099910029522898361 1 1 1 1 1 1 1 1 1 1 1 1 1 0.010156191732076526 1 1 1 1 0.010301952201032846 1 1 1 1 1 0.010234422663542547 1 0.010079236745527992 1 1 0.010031281882756232 1 1 1 1 0.013785100306279094 0.012628560428953155 1 1 1 0.011288659819445018 1 1 1 1 0.011947040364988691 1 0.011990939467842368 1 1 1 0.010033815893498298 1 1 0.010145760468956329 1 1 1 1 0.0099318221566436615 1 0.009669046030984646 1 1 1 1 1 1 1 1 1 1 1 1 1 1 1 1 1 1 1 1 1 1 1 1 0.010055140010696781 1 0.01046889974896071 1 1 1 1 1 1 0.011309028657059792 1 1 1 1 0.0098970796558701755 0.011244635281905377 1 1 1 1 1 1 1 1 1 1 1 1 1 1 1 1 1 1 1 1 1 1 1 1 1 1 1 1 1 1 1 1 1 1 1 1 1 0.0098795297839353521 0.011093416955215908 1 1 1 1 1 1 1 1 1 1 1 1 1 1 0.0096422575816207789 1 1 0.010155048648000733 1 1 1 1 1 1 1 1 1 1 1 1 1 1 1 1 1 1 1 1 1 1 1 0.010376421542352191 1 1 1 1 1 1 1 1 1 1 1 1 1 1 1 1 1 1 1 1 1 0.017865748320839394 1 1 1 1 0.017202627975322279 1 1 1 1 1 1 1 1 1 1 0.016118357292999808 1 1 1 1 1 1 1 1 1 1 1 1 1 1 1 1 1 1 1 1 1 0.011826420396806902 1 0.014571418838736997 1 1 1 1 1 1 1 1 1 1 0.0095312036801964012 1 1 1 1 1 1 1 1 1 1 1 1 1 1 1 1 1 1 1 1 1 1 1 1 1 1 1 1 1 1 0.0099834260959301927 1 1 1 1 1 0.011871063527272928 1 1 1 1 0.014178385739239074 0.0099120828893629661 0.010176643295122034 1 1 1 1 1 1 1 1 1 0.0095837681985890197 1 0.010674894748592021 1 1 0.010278581621545588 1 1 1 1 0.0096895767131895492 1 1 1 1 1 1 1 1 1 1 0.011584692959405687 0.0096994724831573828 0.011277492256961504 1 1 1 1 1 1 0.010626492281639985 1 1 1 1 1 1 1 1 1 1 1 0.0084089162627052835 0.010381774534101877 1 1 1 1 1 0.014375872145701688 1 1 1 1 1 1 1 1 1 1 1 1 1 1 1 0.01170189469525356 1 1 1 1 0.011353198896854572 1 1 1 1 1 1 1 1 1 1 1 1 1 1 1 1 0.010689542220102717 1 1 1 1 1 1 1 1 1 1 1 1 1 1 1 1 1 0.010307985792677582 1 1 1 1 1 1 1 0.0099871658966356521 1 1 1 1 0.013128616727533508 1 1 1 1 0.0097396270376926171 1 0.0099974426304399577 1 1 1 1 0.01369892738003807 0.010798553837943935 1 0.010350448080164982 1 1 0.010103031712082752 1 1 1 1 1 1 1 1 1 1 1 1 1 1 1 1 1 1 1 1 1 1 1 0.0098602860154331923 1 1 1 1 0.0095657325664914739 1 1 0.0092805263089488967 1 1 1 1 1 1 1 0.0095774989502366535 1 1 1 1 0.0087934360977812466 0.010024321772413955 1 1 1 0.0041590370654644125 0.018905082651218066 0.016154716156862481 0.024983819710939208 0.010051099761711634 1 1 1 1 1 1 1 1 1 1 0.0074877967116146653 1 1 0.0067984941213378811 1 1 1 0.018151889743171997 1 1 1 1 1 1 1 1 1 0.018285242058218524 0.021764837261433561 1 1 1 1 1 1 0.011402539132006489 0.021775203672868657 1 1 0.021607248082951745 1 0.010038357572773913 1 0.010674534267708338 1 1 1 1 1 0.027696909294252194 1 0.013284033924559751 1 0.014253619815485691 1 1 1 1 1 1 1 1 0.011367455299035408 1 1 1 1 0.01069292103132707 1 0.010378860561785424 1 1 1 1 1 1 1 1 1 0.010396176614905819 1 1 1 1 1 0.016931075300230258 1 1 1 0.013128197724026926 1 1 0.024455243751626984 0.011168062512911112 1 1 1 1 0.010171724078480302 1 0.010557905734153442 1 1 1 1 1 1 1 1 1 1 1 1 1 1 1 0.011979711436265212 1 0.012421661616459726 1 1 0.0094286101036495859 0.010002257322588033 1 0.012082004540582805 0.011958357538169677 1 1 0.0097618965497291189 1 1 1 1 0.010823529227096073 1 1 0.016453854637408644 1 0.010011860575366547 1 0.0092712269406049607 1 0.0088543243868143585 1 1 1 0.014069586433850884 1 0.01465500432257978 1 0.010063386187912903 1 1 1 0.012200976022109053 1 1 0.012560240012290315 1 1 1 1 1 1 1 1 1 1 1 1 1 1 1 0.010204946615880662 0.013893574003881703 1 1 1 1 1 1 1 1 0.010420230227955667 1 1 1 1 1 1 1 1 1 1 1 1 1 1 1 0.0099319014171115692 1 1 1 1 0.014980794776951509 1 1 1 1 1 1 0.012296166554528542 1 1 1 1 0.012576996320365795 1 1 0.014940685064802556 1 1 1 1 1 0.0097868371099492993 1 1 1 1 1 1 1 0.018187491811186687 1 1 1 1 0.018428996328349628 1 1 1 1 1 1 1 1 0.010084532283793909 1 0.013062980761130305 1 1 1 0.014551438985452645 1 1 1 1 1 0.010886966704231062 1 0.012060384794059678 1 0.009994828863389385 1 1 1 1 1 1 1 1 1 1 1 1 1 1 1 1 1 1 1 1 1 1 1 1 1 1 1 1 1 0.013796335097755442 1 0.012945840351276206 1 1 1 1 1 0.011949873882191859 1 1 1 1 1 1 1 1 1 1 1 1 1 1 1 1 1 1 1 1 1 1 1 1 1 1 1 1 1 1 1 1 1 1 1 1 0.010323203363071952 1 1 1 1 1 1 1 1 1 1 1 1 1 1 1 1 1 1 1 1 1 1 1 1 1 1 1 1 1 1 1 1 1 1 1 1 1 1 1 1 1 1 1 1 1 1 1 1 1 1 1 1 1 1 1 1 1 1 1 1 1 1 1 0.0087315488085004701 0.0098964704161670185 1 1 1 1 1 1 1 1 1 1 1 1 1 1 1 1 1 1 1 1 1 1 0.0095566739118035302 1 1 1 1 1 1 1 0.0016090364340133351 1 1 1 0.028389918214444112 1 1 1 1 1 0.010981676425945133 0.023584559711268261 0.010238884963380476 1 1 1 1 1 1 1 1 0.023313246833604327 1 1 0.0090977985260008651 0.010912990918246893 1 1 1 0.010350553422155608 1 1 0.011364363383144119 1 1 1 1 1 1 1 0.01071841428055445 1 0.011839812740255654 1 1 1 0.022451618379527152 1 1 1 1 1 1 1 1 1 1 1 1 1 1 1 0.010301673872244505 1 0.010488573782848377 1 1 1 1 1 1 1 1 1 1 1 1 1 1 1 1 1 1 1 0.018830305276761532 1 1 1 0.020860479893132569 1 1 1 1 1 1 1 1 1 1 1 1 1 1 1 1 1 1 1 1 1 1 1 1 1 1 1 1 1 1 1 1 1 1 0.010327146893655749 1 1 1 1 1 1 1 1 1 1 1 0.010700522517762477 1 1 1 1 1 1 1 1 1 1 1 1 1 1 1 1 0.010654066341128671 1 0.01028069071702194 1 1 1 1 1 1 1 1 1 1 1 1 1 0.011762005716934275 1 1 1 1 1 1 0.0092538587346196483 1 1 1 1 1 1 1 0.0097812675851352213 1 1 1 1 0.016677094600285804 1 0.010231519921226381 1 1 1 1 1 1 1 0.010636622297536643 1 1 0.010748551696126927 1 0.011981772215400945 1 1 1 0.0097093730238339421 1 1 1 1 1 1 1 1 1 1 0.01546225660582223 0.020346224087018111 0.0098371816028567718 1 1 0.019576383049527888 1 1 0.0099240925821751751 1 1 1 1 1 0.010309460700266474 1 1 1 0.023052142674694263 1 1 0.009925647093865805 1 0.010153649377304834 1 1 1 1 1 1 1 1 1 1 1 1 1 1 1 1 1 1 1 1 0.0099941919877085117 1 0.02055581546722636 1 0.018623657401297407 0.0094127092018968066 1 1 1 1 1 1 1 1 1 1 1 1 1 1 1 1 1 1 1 1 1 1 1 1 1 1 1 1 1 0.032084364625687319 1 1 1 1 1 1 1 1 1 1 1 1 1 1 0.030685740650960251 1 1 1 1 1 0.0077898218332259871 1 1 1 1 1 1 1 1 1 0.0093099688388856797 1 1 1 1 0.0108996781681265 1 1 1 1 1 1 0.011814685758181445 0.012296270398487357 1 1 0.010064692973744406 1 1 1 1 1 1 1 1 1 1 1 1 1 1 1 1 1 1 1 1 1 0.0057492339320654555 1 1 1 1 0.010698400217103728 1 1 1 1 1 1 0.010432603773508431 1 1 1 1 1 1 1 1 1 1 1 1 1 1 1 1 1 1 1 1 1 1 1 1 1 1 1 1 1 1 1 1 1 1 1 1 1 1 1 1 1 1 1 1 1 1 1 1 1 1 1 1 1 1 1 1 1 1 1 0.011675231865472506 1 1 1 1 1 1 1 1 0.012050460091968366 1 0.010340317342154421 1 1 1 1 1 1 1 0.0099982843964396117 1 1 1 1 1 1 1 1 1 1 0.010113533002322614 1 1 1 1 1 1 1 1 1 1 1 1 1 1 1 1 1 1 1 1 0.011006895317082039 1 1 1 1 0.012559345174002635 1 1 1 1 0.011385338276959476 1 1 1 1 1 1 1 1 0.014977626980753922 1 1 1 1 1 1 1 1 1 1 1 1 0.015671297966683373 1 1 1 0.011938103175340591 1 1 1 1 1 0.01569002019947224 1 1 1 1 0.013843365750680235 1 1 1 0.010158517927107365 1 1 1 1 1 1 1 1 0.014323054500500263 1 1 1 1 1 0.016445876214728206 1 1 1 0.011227803486507822 1 1 0.0097848889508551657 1 1 0.0099688015997860171 1 1 1 1 1 0.010265446157609378 1 1 1 1 1 1 1 1 1 1 1 1 1 1 1 1 0.010112955909170475 1 0.0099355817891722611 1 1 1 1 1 0.011518185303115222 1 1 1 1 1 1 0.011714860049159361 1 1 1 1 1 1 1 1 0.013455745552699737 0.014485280510228253 1 1 1 0.015555779996561157 1 1 1 1 0.010011437336606118 1 1 0.011292118756564022 1 0.013292401916807832 1 1 1 0.0099995568855501087 1 0.011198765335695899 0.012341078373977373 1 1 0.014149793516113243 1 1 0.010177035722860805 1 1 1 1 0.0081004086111638902 1 1 0.011160361103293125 1 0.0099829248453699032 0.0085976379137262145 1 1 1 1 1 1 1 1 1 1 1 1 1 1 1 1 1 0.012129904559401335 1 0.012942744097275572 1 1 1 0.013665957580104459 1 1 0.01272633973846375 1 0.012272816802675602 0.014896293309030754 1 1 0.0147122129753783 1 1 0.011457193550021262 0.017092317838123101 1 0.010747313104815762 0.016696450364053227 1 1 1 1 1 1 1 1 1 1 0.0098812399528484356 1 1 1 1 1 1 1 1 1 0.0099964385723392505 1 1 1 1 1 1 1 1 1 1 1 1 1 1 1 1 1 1 1 1 1 1 1 1 1 1 1 1 1 1 1 1 1 1 1 1 1 1 1 1 1 1 1 1 1 1 0.011498684701741169 1 1 1 1 0.012885570155537047 1 1 1 1 1 1 0.010817729851114089 1 1 1 1 0.010877007724899647 1 1 1 0.01449942684614316 0.010006066674031883 1 1 1 1 1 1 1 1 1 0.01531874830192206 1 0.010101998120231177 1 1 1 1 1 1 1 1 1 1 1 1 1 1 1 1 1 1 1 1 1 1 1 1 1 1 1 1 1 1 1 1 1 1 1 1 1 0.013384658716315166 1 1 0.01518314582795551 1 1 1 1 1 1 1 1 1 1 1 1 1 0.0093025477281655049 0.012218951828910881 0.0099275121512046125 1 1 1 0.0098981126542385337 0.011458704137370469 0.0098873489871991217 1 1 1 1 1 1 1 1 1 1 1 1 1 1 1 1 0.012688416693068867 1 1 0.010131141476633476 1 1 1 1 1 1 1 0.013609753802247541 1 1 1 1 1 1 1 1 1 1 1 1 1 1 1 1 1 1 1 1 1 1 1 1 1 1 1 1 1 1 1 1 0.010155709635909126 1 1 1 1 1 1 1 1 1 1 0.014364799775575553 1 1 1 0.013724969708130081 1 1 1 1 1 1 0.01003077226450729 0.010515814025773135 1 1 1 1 0.010190976675289645 1 0.011265301876947218 1 1 1 1 1 1 1 1 1 1 1 1 0.01650111798371609 1 1 1 1 1 1 1 1 1 1 1 1 0.014466315075856634 1 1 1 1 1 1 1 1 1 1 1 1 1 1 0.0099870571795977123 1 1 1 0.0097997115768833892 0.010012536959383624 1 1 1 1 1 1 0.010507656905512485 1 1 1 1 1 1 1 1 1 1 1 1 1 1 1 1 1 1 1 0.010120431343005859 1 1 1 1 1 1 1 1 1 1 1 1 1 1 1 1 1 1 1 1 1 1 0.010208947984037403 1 1 1 1 1 1 1 1 0.010088630209011372 1 1 1 1 1 1 1 1 1 1 1 1 1 1 1 1 1 1 1 1 1 0.0099850950207876678 1 1 0.0098636951331896056 1 1 1 1 1 1 1 1 1 1 1 1 1 1 1 1 1 1 1 1 1 1 1 1 1 1 1 1 1 0.0098455260120045105 1 1 1 1 1 1 1 1 0.011474173180467305 1 1 1 0.008815448721814563 1 1 1 0.010054771904430757 1 1 1 1 1 0.013648504263672111 1 1 1 1 1 1 0.0083386316729453756 0.012083213702860742 1 0.012380225267790444 0.0095539272306977598 1 1 0.013585925386466068 1 1 1 1 1 1 1 1 1 1 1 1 1 1 1 1 1 1 1 1 1 1 1 1 1 1 1 1 1 1 1 1 1 1 1 1 1 1 1 1 1 1 1 1 1 1 1 1 1 1 1 1 1 1 1 1 1 1 1 1 1 1 1 1 1 1 1 1 1 1 1 1 1 1 1 1 1 1 1 1 1 1 1 1 1 1 1 1 1 1 1 1 1 1 0.011139879985326581 1 1 1 1 1 1 1 1 1 1 1 1 1 1 1 1 1 1 1 1 1 1 1 1 1 1 1 1 1 1 1 1 1 1 1 1 1 1 0.0096386011737585441 1 1 1 1 1 1 1 1 1 1 1 1 1 1 1 1 0.011132753965829811 1 1 1 1 1 1 0.010026419758523969 0.012901483343614902 1 1 0.0098219485926819543 1 1 0.01031533427719125 1 1 1 1 0.010161757394823988 1 1 1 1 1 1 1 1 1 1 1 1 1 1 1 1 1 1 1 1 1 1 1 1 1 1 1 1 1 1 1 1 1 0.011378509571641569 1 1 1 1 0.010092737871231848 1 1 1 0.010497850823266888 1 1 1 1 1 1 0.0092951632520937664 1 1 1 1 1 1 1 1 1 0.010820664891829078 1 1 1 1 1 1 1 1 1 1 0.012227268334508934 1 1 1 0.010489346539536468 1 0.010279795128669486 1 1 0.0092031998862121302 0.010337669025802151 0.009553663062199038 1 1 1 1 0.0098617910002215536 1 1 1 1 1 1 1 1 1 1 1 1 1 1 0.010940114927331043 1 1 1 1 1 0.009897430260997684 1 0.012365917691821861 1 1 0.011295722738756302 1 1 1 1 1 1 0.012616861443933187 1 1 1 1 0.012294991461858983 1 1 1 1 1 0.011725114034930782 0.010054129593393364 1 1 0.011991296441833645 1 1 1 1 1 1 1 0.0099861143783007856 0.010598550639017712 1 0.011813658586237515 1 1 1 0.012587034857991057 1 1 1 0.010110001236113464 1 1 1 0.010351588332492856 1 1 1 1 1 1 0.012135248074963641 0.0127157024145372 1 1 1 1 1 0.011953187341219057 1 0.010001675486584075 1 1 0.011294651749809544 0.010200719025467273 1 1 0.0099456901294643803 1 0.01159784642478754 0.010041846616790437 1 1 0.012439229083393415 1 0.011139673352116571 1 1 0.010140255439465517 0.010570403193968091 1 1 1 1 1 1 1 0.010218569310131228 1 0.010919610168429458 1 0.011293054814045769 1 1 1 1 0.010275187988539368 1 1 1 1 1 1 1 1 1 0.010031864852823277 1 1 1 1 1 1 1 0.013747784891211201 1 1 1 0.010067433375380058 1 0.01004706199664656 1 1 1 1 0.010834994705078024 1 0.011804744163631304 1 0.012523158568712176 1 0.0099994414108891053 1 1 1 0.0084007115663886876 1 1 1 1 0.010346066079315265 1 1 1 1 1 1 0.0099654052518314048 1 0.011872725280082624 1 1 0.011068584815418066 1 1 1 1 1 1 0.014819612793284743 1 1 1 1 1 1 1 1 1 1 1 0.015673684656530136 1 0.010035683535223444 1 1 0.0097438043200839368 0.011556804926799964 1 1 1 1 0.013297590611903609 1 0.010652108949490018 0.0095102275234940289 1 0.010018730982888809 1 1 0.011849671668733805 1 1 1 1 0.014943283120711769 1 1 1 1 1 1 0.015949358469983736 1 1 1 1 1 1 1 1 1 0.010516049660793383 1 1 1 0.016226274782717071 1 1 1 1 1 1 1 1 1 1 1 1 1 1 1 1 1 1 0.011038100715285286 1 1 1 1 1 0.01092954995889454 0.01307639067941082 1 1 1 0.010335106845436535 1 1 1 0.010690069133439166 1 1 1 1 1 1 1 1 1 1 1 1 1 1 1 1 1 1 1 1 1 1 1 1 1 1 1 1 1 1 1 0.011368124501472471 1 1 1 1 1 0.010130958219597768 1 1 1 1 1 1 1 1 1 1 1 1 1 1 1 0.011821992428357991 1 1 1 0.011606150510072166 1 1 1 1 1 1 1 1 1 1 1 1 1 1 1 1 1 1 1 1 1 1 1 1 1 1 1 0.010173427393054685 1 1 1 1 1 1 0.01073230772344376 1 1 0.013556950750275253 1 1 1 1 0.010275963878476579 1 1 0.009819871757402527 0.010501608830849701 1 1 1 0.010153685733629118 1 1 1 0.009949494824759578 1 1 1 1 1 1 1 1 1 1 1 1 1 0.009994071501763558 1 1 1 1 1 1 1 1 1 1 1 1 1 1 1 1 1 1 1 1 0.010015347500795128 1 1 1 1 1 1 1 1 0.0099507789184078363 1 1 1 0.009866795848132992 1 1 1 1 1 1 1 1 1 1 0.0099668855056536491 1 1 1 1 1 1 1 1 1 0.010091704586244787 1 1 0.0098986083133080077 1 0.010262970710349878 1 1 1 1 1 1 1 1 1 0.010620956850892725 0.010018655367802595 1 1 1 1 1 0.011674061098608647 1 1 0.010233090482723597 0.010348786187791309 0.0099735379697337822 1 1 1 1 1 1 0.01066127917395575 1 0.0099943591429293571 1 1 0.010079685412143526 0.010008960863465304 1 1 0.0095278321855003806 1 1 1 1 1 0.0098162576738265901 1 1 1 1 1 1 1 1 1 1 1 0.011038847982431828 1 1 1 0.01138203881456773 0.012763320791428015 1 1 1 1 1 1 1 1 1 1 0.010259559488427562 1 1 0.010901458492245643 1 0.010616742192750654 0.012671493781582969 1 0.010341351852018309 1 0.010216177011173111 1 0.013037078472614583 1 1 1 1 1 1 0.011473179291731743 0.010466485810612082 1 1 1 1 1 1 1 0.0099085291730512965 1 0.011418488617176906 1 1 1 1 1 1 1 0.0098052204872489876 1 1 1 1 1 1 0.011694459896115398 1 1 1 1 1 1 1 1 1 0.011182997986103935 1 1 1 1 0.010233079821523799 1 1 1 1 1 1 1 1 1 1 1 1 1 1 1 1 1 1 1 1 1 1 1 1 1 1 1 1 1 1 1 1 0.017234115241516836 1 1 1 1 1 1 1 1 1 1 0.017071139408155127 1 0.010517427456097652 1 1 0.0099802103106426728 1 1 1 1 1 1 1 1 1 1 1 1 0.0095224271637072994 1 0.011490801309842091 1 1 1 1 1 1 1 1 1 1 1 1 1 1 1 0.0099257710327404942 1 1 1 1 1 0.011429746350882751 0.011080554694432788 1 1 0.013195151422405583 1 1 1 1 1 1 1 1 1 1 1 0.010116670791843405 1 1 1 1 0.0088147128077620922 1 1 1 1 1 1 0.0092464303084420427 0.0096693609784136089 0.015509594344068747 1 0.014213373881607448 1 0.013474038956802076 0.011349869121702879 1 0.0086584673020278814 0.010366995767705476 0.0090440498358185222 1 1 1 0.010007423225353836 1 0.0092528652467826749 1 1 0.010064061660766465 1 1 1 1 1 1 0.015336987525503644 1 0.014316097851877312 1 1 1 1 1 1 0.01122372405618861 1 1 1 0.01068032826142354 1 1 1 0.011813905180010872 1 0.010383461541218685 1 1 1 0.010187255032065787 1 1 1 1 1 0.0094133313211017498 1 1 1 1 1 1 1 1 1 1 1 1 0.010062946743639669 0.016696805435732251 1 1 1 1 1 1 0.016546485853842888 1 0.016151240087017148 1 1 0.010046530647785141 1 1 1 1 1 1 1 1 1 1 1 1 0.0094119229811649181 1 1 1 1 1 1 1 1 0.0103283556032068 1 0.0092951841235363632 1 0.013331042499276143 1 1 0.010900787987977383 1 1 1 1 1 1 1 1 1 1 1 1 0.010096825303934137 1 1 1 1 1 0.010299497607450008 1 1 1 1 1 1 0.010081860515711099 1 1 1 1 1 1 1 1 1 1 1 1 1 0.012143335703212807 1 0.0089838342229313917 1 1 1 0.013473828987748293 1 1 1 1 1 0.010088289968996779 1 1 1 1 0.010201888317396124 1 0.016151590479883019 1 1 1 1 0.013523289492298031 1 1 1 1 0.011973398711426138 1 1 1 1 1 1 0.014785551263555045 1 0.013146483946768435 0.010174865548964398 0.016482413336322249 1 1 0.010069743356147911 0.012144695789710797 1 1 1 1 0.014136962213664023 1 0.010582046924070998 1 1 1 0.011613955921211404 1 1 1 1 1 1 1 1 1 1 1 1 1 1 1 1 1 1 1 1 1 1 1 1 1 1 1 1 1 0.011719460949240687 1 1 0.0095060370566515048 0.0088365137040093897 1 1 1 1 0.0099779275930936828 0.011477681120022509 0.010952018815720888 1 1 1 1 0.016053378123385531 1 0.010039942860328539 1 1 0.011900431109147697 0.010276863811256535 1 1 1 1 0.016744734995786256 1 0.015480436142498841 0.016976334268544668 1 1 1 1 1 1 1 1 1 1 0.009907489819998486 1 1 0.010899331887905064 1 1 1 1 1 0.0096839814075459843 1 1 1 1 1 1 1 0.010281022638426486 1 0.010300693696678657 1 1 0.010420874947919975 1 1 1 1 1 1 1 1 1 1 0.011145738051038946 1 1 1 1 1 1 1 1 1 0.011430270529344248 1 0.010705407426225277 1 1 1 1 1 1 1 1 1 1 1 1 1 1 1 0.010359864320378435 1 1 1 1 1 1 1 1 1 1 1 1 1 1 0.010247049564366634 1 1 1 0.010763566392396832 1 1 1 1 1 1 1 0.012367435430060914 1 1 1 1 1 1 1 1 1 1 0.010872184421931859 1 1 1 1 1 1 1 1 1 1 1 1 1 1 0.012124674471228721 1 1 1 0.011251003237297368 1 1 1 1 1 0.012120170129381677 1 1 1 1 1 1 1 1 1 1 1 1 1 1 1 1 1 1 0.010867680080084815 1 1 1 1 1 1 1 1 1 1 1 1 1 1 1 0.011232428587655064 1 1 1 1 1 1 1 1 0.010642710228651152 1 1 1 0.010134761906834072 1 1 1 1 0.010279647677312329 1 1 1 1 1 1 1 1 1 1 0.010501136629072342 0.0095919439257549782 1 1 1 0.010067287148402248 1 1 1 0.010345282056663027 1 1 1 1 1 0.010163144007176203 1 1 1 1 1 1 1 1 1 0.010412065854549202 1 1 0.0083103513813163193 1 1 1 1 1 1 1 0.014401731619809734 1 0.013677612259546074 1 1 0.015502329108290809 1 0.01057283744108585 1 0.0098907116106116463 1 1 1 1 1 1 0.0094569701165767139 1 1 1 1 1 1 0.0097829745035978577 1 1 0.016202692046635568 1 1 1 0.018216747261055981 1 0.010118998500663419 1 0.01717994935217617 1 0.0097129270530727629 1 1 0.019651836789117253 1 0.014886725474864439 1 1 0.0089653648049319804 0.0098255239338782187 0.016902145260780682 1 1 1 1 1 1 0.01006201496100792 1 1 0.010878671540888892 1 1 0.0095925706679034703 1 0.010048605408271759 1 1 1 1 1 1 1 1 0.019276353284104222 1 1 0.010046473358019441 1 0.019155630617408263 1 1 1 1 1 1 1 1 1 1 1 1 1 1 1 1 0.010213261274518414 1 0.014591469972226954 1 1 1 1 0.014474842288326299 1 0.013789727437323245 1 1 1 1 1 0.013644212364380426 1 0.010131083447904312 1 1 1 1 1 1 1 0.0098553799980183911 1 1 1 1 1 1 0.018141367012157086 1 0.010653600913273853 1 0.018774635516999972 1 1 1 1 0.010186494317809594 1 1 1 1 1 1 1 0.010689247389685172 1 0.00935230143000341 1 0.01904910361785167 1 1 1 0.0098859250249817496 1 1 1 1 1 1 1 1 1 1 1 1 1 0.0081861608679410676 1 1 1 1 1 1 1 1 1 0.010085841052506817 1 1 0.015487409145049983 1 1 1 0.010455280366208134 1 1 0.017888047195133414 1 1 0.011079657710077432 1 0.016950674740552202 1 1 1 1 1 1 1 1 1 1 1 1 1 0.013240889999250195 1 0.010334750110696185 1 1 1 1 1 0.01482875739058548 1 1 0.0099320285437700124 1 1 1 1 0.010290577495251403 1 1 1 1 1 0.012349740535941784 1 1 0.013073676171323902 1 0.010002920868070218 1 0.014319254389662753 0.010180949017957821 1 1 1 0.011700408597051704 1 1 1 1 0.0099823738415348202 1 0.01123795484805395 1 1 1 1 1 1 1 1 1 1 1 1 1 1 1 1 1 1 1 1 0.010724935401549014 1 1 1 0.010726873243945613 1 1 1 1 1 1 1 1 1 1 1 1 1 1 0.0095005806713380509 1 1 1 1 1 1 1 1 1 1 1 1 1 1 1 1 1 1 1 1 1 1 1 1 1 0.0095000899349994648 1 1 1 1 1 1 1 1 1 1 1 1 1 1 1 1 1 1 1 1 1 1 0.020877761727835481 0.0099767398261045425 1 1 1 1 0.0103014354498466 1 1 1 1 1 1 1 1 1 1 1 1 1 1 1 1 0.011151428772153374 0.010201978201932808 1 1 0.01001426714446863 0.0123873951463822 1 0.016778560829095221 1 1 1 0.01117011765620018 1 1 0.010983410542023645 1 1 1 0.010363477262421542 1 1 1 0.010675610023338502 1 1 1 1 0.012174053345074088 1 0.0088951687087131005 1 1 1 1 0.009879736494872747 0.012440717280145997 1 1 1 1 1 1 0.010591057660260191 1 1 1 0.010253377114217751 1 1 1 1 1 1 1 1 0.0098683431880453622 1 1 1 0.0099641745908972262 0.010160996880059611 1 1 0.01041215694254901 1 1 1 0.01387783758891294 1 1 1 1 1 1 1 0.0094646766790506057 1 1 1 1 0.012464914104276555 1 1 1 0.013367375792622132 0.012957246266928105 1 1 0.013701725476876765 0.0099500182366005219 1 1 1 1 1 1 1 1 1 1 1 1 1 1 1 1 1 1 1 1 0.0095569907647313317 1 1 0.014979291284441698 1 1 1 0.010742194364511367 1 1 1 1 0.010969277257538936 1 0.010401758073038104 1 0.013193484330263971 0.012294599377690545 1 1 0.010165246288723213 1 1 0.013670017708827371 0.011290856532705649 1 1 1 1 1 1 1 1 1 1 1 0.016412026993360522 1 1 0.0099876081881127201 1 0.010088760432353967 1 1 0.011435972412289976 1 1 0.0095294959249109142 1 1 1 1 0.010160820926279176 1 1 1 0.0096954415112552178 1 1 1 0.011718026990006862 1 1 1 1 1 1 1 1 0.011432158417243722 1 1 1 1 1 1 1 1 1 1 0.010969063311921119 1 1 1 1 1 1 1 1 0.010757057448301639 1 1 1 1 1 1 0.011901119207085996 1 1 1 1 1 1 1 0.010932055895164881 1 1 1 1 1 1 1 1 1 1 1 1 1 0.0099186349316361319 1 1 1 1 1 0.009718340396890247 1 1 1 1 1 1 1 1 1 1 1 1 1 1 1 1 1 1 1 1 1 1 1 1 1 0.01009614901388701 1 1 1 1 1 1 1 1 1 0.0088349765254343675 1 1 1 1 1 1 0.010375737358479891 1 1 1 1 1 1 1 1 1 1 1 1 1 1 1 1 1 1 1 1 1 1 1 1 0.011087994965003855 0.010061013016268071 1 1 1 0.0086409534009180659 1 1 1 0.014092786868093787 1 1 1 1 1 1 1 1 1 1 1 1 1 1 1 1 1 1 0.010062871888872747 1 1 1 1 1 1 1 1 1 1 1 1 1 1 1 1 0.019358148291502088 1 1 1 1 1 1 1 1 1 1 1 1 1 0.010245603630533869 0.016810489962236969 1 1 1 1 1 1 1 1 1 0.0091328008831226513 1 1 1 1 1 1 0.0096775890267682234 1 1 1 1 0.010531864122950006 1 1 1 1 1 1 0.010286260492416143 1 1 1 1 1 1 1 1 1 1 1 1 1 1 1 1 1 0.01005515111829727 1 1 0.013581463957758021 1 1 1 1 0.01518359821369232 0.0098349700676530517 1 1 1 1 1 1 0.010316182486055522 0.012759989036933927 1 1 1 0.012029528615557108 1 0.011017201055013824 1 1 1 0.011245626788002391 1 1 1 1 1 1 1 1 1 1 0.015170848297602292 1 0.0094760613703958243 1 1 1 0.009809552513446354 1 1 1 1 1 1 1 1 1 1 1 1 1 1 1 1 1 1 1 1 1 1 1 1 1 1 1 1 1 1 1 1 1 0.0098946341162797352 0.0098884964791987259 1 1 0.018621923126987058 1 1 1 1 1 1 0.018821929689132974 0.010444852679340946 1 1 1 1 1 1 1 1 1 1 1 1 1 0.012176215415570259 1 1 1 1 1 1 1 1 1 1 1 1 1 1 1 1 1 1 1 1 1 1 1 1 1 1 1 1 1 1 1 1 1 1 1 1 1 1 1 1 1 1 1 1 1 1 1 1 1 1 1 1 1 1 1 1 1 1 1 1 1 1 1 1 1 1 1 1 1 1 0.010828489176838612 1 1 1 0.01019680530637882 1 1 1 1 1 1 1 1 1 1 1 1 1 1 1 1 0.010349064930430068 1 1 1 1 1 1 1 1 1 1 1 1 1 1 1 1 1 1 1 1 0.0096665221533121515 1 1 1 1 1 1 1 0.011935399854108146 1 1 0.013107255558004724 1 1 1 1 1 1 0.010346127530791165 1 1 1 1 1 1 1 1 1 1 1 0.011894661878026543 1 1 1 1 1 1 1 0.011063994856890306 1 1 1 1 0.010935389610439184 1 1 0.0098878789009830201 1 1 1 1 1 1 1 1 1 1 1 1 0.011387554499799918 1 1 1 0.012092703013778803 1 1 1 1 1 1 1 1 1 1 0.012108443141094686 1 1 1 1 1 1 1 1 1 0.010628653275022945 1 1 1 1 1 1 1 1 1 1 1 1 1 1 1 0.015830154104249497 1 1 0.010271955367233019 0.0102963065310595 1 1 1 1 0.0047283206426555107 1 1 1 1 1 0.0068636414529799333 1 1 0.0089666092599815055 1 1 1 1 1 1 1 1 1 1 1 1 1 1 1 1 1 1 1 1 0.011440512712274328 1 1 1 1 1 1 1 1 1 1 0.01701027486714711 1 1 0.010911102642619451 1 1 1 0.012724716589476659 1 1 0.010218001599585882 1 1 1 1 1 0.010526522933996647 1 1 1 0.015116787934836314 1 1 1 0.013035483052717746 1 0.01169802320115706 1 1 1 1 1 1 1 0.010913648855162588 1 1 1 1 0.012474037453015303 1 1 0.011587807938404603 1 1 1 1 1 0.010610997601077027 1 1 1 0.0096901355331395211 0.0097736526031402989 1 1 1 1 1 0.0094270757689802181 1 1 1 1 1 1 0.011232794470296121 1 1 1 1 1 1 1 1 1 1 1 1 0.01051869085764727 1 0.0093678519171667488 1 1 1 1 0.010382561811364311 1 1 1 1 0.010521748313755545 1 1 0.010139279196869449 1 1 1 0.010246539180737913 1 1 1 1 1 1 1 1 0.010245668649172179 1 1 1 1 1 1 1 1 1 1 1 1 1 1 1 1 1 1 1 0.010387945088767831 1 1 1 1 1 1 0.013912763095545557 1 1 1 1 1 1 1 1 1 1 1 0.010193066751729814 1 1 1 1 1 1 1 1 1 1 1 0.0099566882853064902 1 1 1 1 1 0.010143891696459012 1 1 1 1 0.0097917372120356495 0.01042578302721356 1 1 0.010354243418453049 1 0.010293699370060194 1 0.010924763348948121 0.011351143463942752 0.010012610413775767 0.018189894325240485 1 1 1 1 1 1 0.019505528587242256 0.020947938988588648 1 1 1 1 0.010194456963843711 1 1 1 1 1 0.0096914628920554188 1 1 1 1 1 0.010570175945938849 1 1 1 1 0.013863496122972704 1 1 0.0075384040837012598 1 1 1 0.010916360917973565 1 0.0099743592491387256 1 1 0.011572785024189101 1 1 1 1 1 1 1 1 1 1 1 1 1 1 1 1 1 1 1 1 1 0.0104051258969744 1 1 1 1 1 1 1 0.0099753940446523047 1 1 1 0.011122103640128118 1 1 1 1 0.010448617480083688 1 1 1 1 1 0.010158586716236498 1 1 1 1 1 1 1 1 1 1 1 1 1 1 1 1 1 1 1 1 1 1 0.017437724751782541 1 1 1 1 1 0.016692625190913669 1 1 1 0.010116764317529413 1 0.010340202439552207 1 1 1 0.010001794813484899 1 0.021950032032423787 1 1 1 1 1 1 1 1 1 1 1 1 1 1 1 1 1 1 0.0099352401458097251 1 1 1 1 0.0179404893316353 1 1 0.0098076010122763874 1 1 1 1 1 1 1 1 1 1 1 1 1 0.015944020034190473 1 1 1 1 1 0.01609544838402523 1 1 1 1 1 0.016506255546270766 1 1 1 0.0078508815836724408 1 0.0099519540165191097 0.0084483077815198683 1 1 1 1 1 1 1 1 1 1 1 1 1 1 1 1 0.013178489440663514 1 1 0.010451864672719356 1 0.010125510898122827 1 1 1 1 1 1 1 1 1 1 1 1 1 1 0.015500690830501712 1 1 1 0.014062293531434664 1 1 0.016435758383220117 1 1 0.015109142374077922 1 0.010524804397396982 1 1 1 1 1 1 1 1 1 1 1 1 1 1 0.0099841619803932285 1 1 0.010391502463738635 1 1 1 1 0.010205564968480093 1 1 1 1 1 1 1 1 1 1 1 1 1 1 1 1 1 1 1 1 1 1 1 0.010731961884539752 1 0.009954505546863451 1 1 0.010395128586355301 1 1 1 1 1 0.010176226359082961 1 1 1 1 1 1 1 1 1 1 1 1 1 1 0.011269198239774228 1 1 1 1 1 0.01038275292819129 1 1 1 1 1 1 1 1 1 1 1 1 1 1 1 1 1 1 1 1 1 1 1 1 0.0095960869066197378 0.010187454890939524 0.010864946624026582 1 0.011209228201768969 1 1 1 1 1 1 0.010093434381239772 1 1 0.011593843295976462 0.01119554141355472 1 1 1 1 1 1 1 1 1 1 1 0.011238262280929728 1 1 1 1 0.014874026868185043 0.0098830473353399076 1 1 1 1 1 1 0.010170212727574918 1 1 1 1 1 0.015427630147097119 1 1 0.012857762652509609 0.0096905591591325956 0.010024423771435356 1 1 0.013582010527563809 1 1 1 1 1 0.011961223220069451 0.011668789594077047 1 0.013772201757396916 1 1 1 1 1 1 1 0.012372540955069225 1 1 1 1 1 1 1 1 1 1 1 1 1 1 1 1 1 1 1 1 1 1 1 1 1 1 1 1 0.017561942835798611 1 1 1 1 1 1 0.018679875472514686 0.019855844919679112 1 1 1 1 1 1 1 1 1 0.020870367620107463 1 1 1 1 1 1 1 1 0.010380334335697947 1 1 1 0.011199253838483332 1 1 1 0.010263983459211288 1 1 0.010238458688895571 1 1 1 1 1 0.01039067508518717 1 1 1 1 0.011848328617535079 0.010806433203620031 1 1 1 1 1 0.010872264519292532 1 1 1 1 1 1 1 1 1 1 1 1 1 0.010511898507894179 1 1 1 1 1 1 1 1 1 1 1 1 1 1 1 1 1 1 1 1 1 1 1 1 1 1 1 1 1 1 1 1 1 1 1 1 1 1 1 1 1 1 1 1 1 1 1 1 1 1 1 1 1 1 1 0.0096089613314839402 0.010460922678452946 1 1 1 1 1 1 1 1 1 1 1 1 0.010611417268489664 1 1 1 1 1 1 1 1 1 0.01139993141814262 1 1 1 1 1 1 1 1 1 1 1 1 1 1 0.012886195809457103 1 1 1 0.012727218343646863 1 1 1 0.0099953432725717016 0.0091864197474456014 0.0094889105186572557 1 1 0.017398095851107867 1 1 0.014472974879995317 1 1 0.009671213515795446 1 1 0.010338816108150461 0.010719645785814582 1 1 1 0.012589813716958595 1 1 1 1 0.0099941459834398012 1 0.012668568369359126 1 0.013729310884394139 1 0.0092019594317034534 1 1 1 1 1 0.019921952331129967 1 1 1 1 1 1 1 1 1 1 1 1 1 1 1 1 1 1 1 1 1 1 1 1 1 1 1 1 1 1 1 1 1 1 0.021851385992970568 1 0.01111081061124209 1 1 1 0.021597542313671638 1 1 1 1 1 1 1 1 1 1 1 1 1 1 0.013526907099387211 1 1 0.010153712490140875 1 0.020813650511535879 1 1 1 1 1 1 1 1 1 1 0.010155730771608106 1 1 1 1 1 1 1 0.010048131960914109 1 1 1 0.0193596462694514 1 1 1 1 1 1 1 1 1 1 1 1 1 1 1 1 1 1 1 1 0.0099315810803914766 1 1 1 1 1 1 0.014254583668118877 1 0.016102097838779344 1 1 1 1 0.015430616969688274 1 1 1 1 0.015421979159804873 1 1 0.010112965656919512 1 1 1 1 0.020212757362565184 1 1 1 1 1 1 1 1 1 1 1 1 1 1 1 1 1 1 1 1 0.010483120174434445 1 1 1 1 1 1 1 0.010664298742651464 1 1 1 1 1 1 1 1 1 1 1 1 0.011167951706564046 1 0.0099970833413986424 1 1 1 1 1 1 1 1 1 1 1 1 1 1 0.010134835657680821 1 1 1 1 1 1 1 1 0.010077084704102573 1 1 1 0.010072880027524822 1 1 1 1 1 1 1 1 1 1 1 1 1 1 1 1 1 1 1 1 1 1 1 1 1 1 1 1 1 1 1 1 1 1 1 1 1 1 0.010769627209558451 1 1 1 1 0.011005756281786787 1 0.011122290227057435 1 1 1 1 1 1 0.010306222701744826 1 1 1 1 1 1 1 1 1 1 1 1 1 1 1 1 1 1 1 1 1 1 1 1 1 1 1 1 1 1 0.010090254294712792 1 1 1 1 1 1 1 1 1 1 1 1 1 1 1 0.010097427301586678 1 1 1 1 1 1 0.01003746094841282 1 1 1 1 0.010226257092405827 1 1 1 1 1 0.010450004374600967 1 1 1 1 1 1 0.010223747282195115 1 1 1 1 1 1 1 1 0.010635363870751958 1 1 1 0.012889103169032565 1 1 1 1 1 1 1 1 1 1 1 1 1 1 1 1 1 1 1 0.013587211407314684 1 1 1 1 0.012955408231302673 1 1 1 1 0.011690697204495094 0.012569971287643171 1 1 1 1 1 1 1 1 1 1 1 1 1 1 0.010818722237563597 0.010626151451637965 1 1 1 1 1 1 1 1 1 0.017312069510328008 1 1 1 1 1 1 1 1 1 1 1 1 1 0.010138386255626901 1 1 1 1 1 1 1 1 1 1 1 1 1 1 1 1 1 1 1 1 1 1 1 1 1 0.010370804067061805 1 1 1 1 1 1 0.0099373830171966271 1 1 0.010059966353173841 1 1 1 1 1 1 1 0.010858527116530195 1 0.010768633115380649 1 1 1 0.010105116804848597 1 1 1 1 1 1 1 1 1 1 1 0.010129051259048921 1 1 1 1 1 1 1 1 1 1 1 1 0.014639783879314259 0.014870516463550077 1 0.0098110036689161018 1 0.012281093276784255 0.011358939520633472 1 1 1 0.0099937663610531954 1 1 0.0097455447041758896 1 1 0.008489894324596698 1 0.011224610471363194 1 0.017403527186380947 1 1 1 1 1 1 1 1 1 1 1 1 1 1 1 1 1 0.010391852817040213 1 1 1 1 1 0.016634754935993527 1 1 1 1 1 1 1 1 1 1 1 1 1 1 1 1 0.010000422034849304 1 1 1 1 0.0096360409838583006 1 1 1 1 1 1 1 1 1 1 0.023435467864040421 1 1 1 1 1 1 1 0.023533183851822886 0.010035653416517952 1 1 1 1 1 1 1 1 1 1 1 0.011494224649162242 1 1 0.012235956496722749 1 1 1 1 1 1 1 1 1 0.01053357166715899 1 1 1 0.023271463067197986 1 1 1 1 1 1 1 1 1 1 1 1 0.022639138094766274 1 1 1 1 1 1 1 0.02121828138937102 1 1 1 1 0.019282706143394814 1 1 1 1 1 1 1 1 1 1 1 1 1 1 1 1 1 1 1 1 1 1 1 1 1 1 1 0.010208241374233283 1 1 1 1 1 1 1 1 1 1 1 0.012377156648863024 1 1 0.013834820566743143 1 1 1 0.016485404079147347 1 0.0098486286822845239 1 1 1 1 1 1 1 1 1 1 1 1 1 1 1 1 1 1 0.010016979185080656 1 1 0.015359490883067111 1 1 1 1 1 1 1 1 1 1 1 0.011224044739977847 1 0.013452591174416977 1 1 1 1 1 1 1 1 1 1 1 1 1 1 1 1 1 1 0.010245592374406278 1 1 1 1 0.010276663265299454 1 1 1 1 1 1 1 1 0.010410128375746605 1 1 1 1 1 1 1 1 1 1 1 1 1 1 1 1 1 1 0.01020188700151332 1 1 0.011016456135635748 1 1 1 1 1 1 1 0.011812133338342166 1 1 1 0.01226267245211652 1 1 1 1 1 1 1 1 1 1 1 1 1 1 1 1 1 1 1 1 1 1 0.010788888196895408 1 1 1 1 1 1 1 1 1 1 1 1 0.011612161521094918 0.010232210428136173 1 0.0099711297868628253 1 1 0.010687175537137328 1 1 1 1 0.010181232564105577 1 1 1 1 1 1 1 1 1 1 1 1 1 1 1 1 1 1 1 1 1 1 1 1 1 1 1 1 1 1 1 1 1 1 1 1 0.009745356275101329 1 1 1 1 1 1 1 1 0.0095213729225113487 1 1 0.0097760166474100234 1 0.0097946498326990997 1 1 1 1 1 1 1 1 1 1 1 1 1 1 1 1 1 1 1 1 1 1 1 1 1 1 1 1 1 1 1 1 1 1 1 0.010280471912861007 1 1 1 0.011888584049467413 1 1 1 1 1 1 1 0.0099982550735454815 0.010700882716820835 1 0.014958224183705345 1 1 1 1 1 1 1 1 1 1 1 1 1 1 1 1 1 1 1 1 1 1 1 1 1 1 0.0097348978189791477 0.010204408583833424 1 1 1 1 1 1 1 1 1 1 1 1 1 1 1 1 1 1 1 1 1 1 1 1 1 1 1 1 1 1 1 1 1 1 0.015404639636735273 1 1 1 1 1 0.015580769712135876 1 1 1 1 1 0.014755520191890319 1 1 1 1 1 1 1 1 1 1 0.013902987644038436 1 1 1 0.010298368294927654 1 0.011577791717372509 1 1 1 0.010368625819337635 1 1 0.010245191105903466 1 0.010295154046771424 1 1 1 1 1 1 1 1 0.0099453718470572869 1 0.010001942038114258 1 1 1 1 0.013721458078071807 1 0.014221593600971917 1 1 0.010044101978076916 1 1 1 1 1 1 1 1 1 1 0.018707335159640286 1 1 1 0.017815626237160428 1 0.01720343315181776 1 0.0092981189889072523 0.0099877806921433079 1 1 1 1 1 1 1 1 1 1 0.015207527730458824 1 0.010922801256482362 1 0.010541109420743357 1 1 1 1 1 1 1 1 1 0.010180821328866109 1 1 1 1 1 1 1 1 0.0099845182738970053 1 0.010552012864947989 1 1 1 1 1 1 1 1 1 1 1 1 1 1 1 0.010205883323091303 1 1 1 1 1 1 1 1 1 1 1 1 1 1 1 1 1 1 1 1 1 1 1 1 1 1 1 1 1 1 1 1 
</DataArray>
</CellData>
</Piece>
</UnstructuredGrid>
</VTKFile>
